 running   42 mpi-ranks, on    1 nodes
 distrk:  each k-point on   42 cores,    1 groups
 distr:  one band on    7 cores,    6 groups
 vasp.6.5.0 16Dec24 (build Jan 08 2025 16:17:04) complex                        
  
 POSCAR found type information on POSCAR BeH 
 POSCAR found :  2 types and      75 ions
 Reading from existing POTCAR
 scaLAPACK will be used
 Reading from existing POTCAR
 -----------------------------------------------------------------------------
|                                                                             |
|               ----> ADVICE to this user running VASP <----                  |
|                                                                             |
|     You have a (more or less) 'large supercell' and for larger cells it     |
|     might be more efficient to use real-space projection operators.         |
|     Therefore, try LREAL= Auto in the INCAR file.                           |
|     Mind: For very accurate calculation, you might also keep the            |
|     reciprocal projection scheme (i.e. LREAL=.FALSE.).                      |
|                                                                             |
 -----------------------------------------------------------------------------

 LDA part: xc-table for (Slater+PW92), standard interpolation
 POSCAR, INCAR and KPOINTS ok, starting setup
 FFT: planning ... GRIDC
 FFT: planning ... GRID_SOFT
 FFT: planning ... GRID
 WAVECAR not read
 entering main loop
       N       E                     dE             d eps       ncg     rms          rms(c)
DAV:   1     0.842872819473E+03    0.84287E+03   -0.34011E+04  5136   0.858E+02
DAV:   2    -0.154622452366E+03   -0.99750E+03   -0.96224E+03  7956   0.180E+02
DAV:   3    -0.265088222608E+03   -0.11047E+03   -0.10862E+03  6360   0.663E+01
DAV:   4    -0.268502905026E+03   -0.34147E+01   -0.33962E+01  6684   0.131E+01
DAV:   5    -0.268592620011E+03   -0.89715E-01   -0.89566E-01  7200   0.185E+00    0.150E+01
DAV:   6    -0.258652595759E+03    0.99400E+01   -0.73859E+00  5592   0.552E+00    0.883E+00
DAV:   7    -0.253491522856E+03    0.51611E+01   -0.85119E+00  5616   0.595E+00    0.170E+00
DAV:   8    -0.253214716047E+03    0.27681E+00   -0.88419E-01  6696   0.197E+00    0.115E+00
DAV:   9    -0.253005329722E+03    0.20939E+00   -0.82376E-02  6120   0.783E-01    0.392E-01
DAV:  10    -0.252948536466E+03    0.56793E-01   -0.50749E-02  6078   0.491E-01    0.322E-01
DAV:  11    -0.252914361099E+03    0.34175E-01   -0.74835E-02  6072   0.493E-01    0.209E-01
DAV:  12    -0.252941992050E+03   -0.27631E-01   -0.31795E-02  5916   0.381E-01    0.204E-01
DAV:  13    -0.252942928724E+03   -0.93667E-03   -0.81482E-03  5964   0.238E-01    0.105E-01
DAV:  14    -0.252951689344E+03   -0.87606E-02   -0.19801E-03  6378   0.946E-02    0.372E-02
DAV:  15    -0.252959703895E+03   -0.80146E-02   -0.10765E-03  5460   0.588E-02    0.450E-02
DAV:  16    -0.252961589248E+03   -0.18854E-02   -0.15317E-04  6282   0.246E-02    0.236E-02
DAV:  17    -0.252962817123E+03   -0.12279E-02   -0.13188E-04  5880   0.273E-02    0.974E-03
DAV:  18    -0.252963568113E+03   -0.75099E-03   -0.71426E-05  5958   0.152E-02    0.785E-03
DAV:  19    -0.252963695439E+03   -0.12733E-03   -0.78798E-06  5886   0.685E-03    0.177E-03
DAV:  20    -0.252963818365E+03   -0.12293E-03   -0.27520E-06  5430   0.349E-03    0.670E-04
DAV:  21    -0.252963860692E+03   -0.42327E-04   -0.50244E-07  5526   0.910E-04    0.102E-03
DAV:  22    -0.252963887283E+03   -0.26591E-04   -0.15432E-07  5466   0.560E-04    0.323E-04
DAV:  23    -0.252963890701E+03   -0.34181E-05   -0.59334E-10  3864   0.163E-04    0.224E-04
DAV:  24    -0.252963895025E+03   -0.43233E-05   -0.21891E-08  4422   0.237E-04    0.708E-05
DAV:  25    -0.252963895885E+03   -0.86067E-06    0.22418E-09  3894   0.102E-04    0.245E-05
DAV:  26    -0.252963896275E+03   -0.38956E-06    0.29175E-09  3504   0.688E-05    0.337E-05
DAV:  27    -0.252963896379E+03   -0.10444E-06    0.41376E-09  3864   0.385E-05    0.961E-06
DAV:  28    -0.252963896409E+03   -0.29744E-07    0.43200E-09  3558   0.206E-05    0.615E-06
DAV:  29    -0.252963896431E+03   -0.22407E-07    0.43139E-09  3558   0.155E-05    0.547E-06
DAV:  30    -0.252963896436E+03   -0.46584E-08    0.43527E-09  4242   0.786E-06
   1 F= -.26431396E+03 E0= -.26429166E+03  d E =-.445991E-01
