       N       E                     dE             d eps       ncg     rms          ort
DAV:   1     0.966429188549E+00    0.96643E+00   -0.18078E+03 11592   0.856E+01
DAV:   2    -0.684635260190E+01   -0.78128E+01   -0.70441E+01 11592   0.976E+00
DAV:   3    -0.686958439122E+01   -0.23232E-01   -0.23232E-01 11592   0.620E-01
DAV:   4    -0.686963902935E+01   -0.54638E-04   -0.54638E-04 11592   0.318E-02
DAV:   5    -0.686963903302E+01   -0.36705E-08   -0.40164E-08 11592   0.228E-04
SDA:   6    -0.491568546122E+01    0.19540E+01   -0.40164E-08 11592   0.161E+01 0.000E+00
CGA:   7    -0.582817588443E+01   -0.91249E+00   -0.94291E+00 11592   0.218E+00-0.210E+00
CGA:   8    -0.589681842734E+01   -0.68643E-01   -0.68650E-01 11592   0.250E-01-0.196E-02
CGA:   9    -0.590599207593E+01   -0.91736E-02   -0.91006E-02 11592   0.312E-02 0.455E-03
CGA:  10    -0.590723700546E+01   -0.12449E-02   -0.12423E-02 11592   0.451E-03 0.181E-04
CGA:  11    -0.590744828917E+01   -0.21128E-03   -0.21084E-03 11592   0.101E-03 0.180E-05
CGA:  12    -0.590749895318E+01   -0.50664E-04   -0.50475E-04 11592   0.233E-04 0.707E-06
CGA:  13    -0.590751070126E+01   -0.11748E-04   -0.11713E-04 11592   0.465E-05 0.142E-06
CGA:  14    -0.590751280529E+01   -0.21040E-05   -0.21078E-05 11592   0.623E-06-0.222E-07
CGA:  15    -0.590751306514E+01   -0.25985E-06   -0.25692E-06 11592   0.729E-07 0.250E-07
   1 F= -.59075131E+01 E0= -.59073353E+01  d E =-.355516E-03
