       N       E                     dE             d eps       ncg     rms          rms(c)
DAV:   1     0.502094146056E+01    0.50209E+01   -0.19456E+03  1064   0.270E+02
DAV:   2    -0.113216364216E+02   -0.16343E+02   -0.15222E+02  1428   0.359E+01
DAV:   3    -0.116374859495E+02   -0.31585E+00   -0.31469E+00  1624   0.714E+00
DAV:   4    -0.116382628437E+02   -0.77689E-03   -0.77689E-03  1652   0.316E-01
DAV:   5    -0.116382630994E+02   -0.25575E-06   -0.25545E-06  1596   0.639E-03
DAV:   6    -0.116382631002E+02   -0.80649E-09   -0.11608E-08  1652   0.346E-04
   1 F= -.11638263E+02 E0= -.11638115E+02  d E =-.296927E-03  mag=     0.0000    -0.0000     0.0000
