 running   42 mpi-ranks, on    1 nodes
 distrk:  each k-point on   42 cores,    1 groups
 distr:  one band on    1 cores,   42 groups
 vasp.6.5.0 16Dec24 (build Jan 08 2025 16:17:04) complex                        
  
 POSCAR found type information on POSCAR Be
 POSCAR found :  1 types and       1 ions
 Reading from existing POTCAR
 scaLAPACK will be used
 -----------------------------------------------------------------------------
|                                                                             |
|           W    W    AA    RRRRR   N    N  II  N    N   GGGG   !!!           |
|           W    W   A  A   R    R  NN   N  II  NN   N  G    G  !!!           |
|           W    W  A    A  R    R  N N  N  II  N N  N  G       !!!           |
|           W WW W  AAAAAA  RRRRR   N  N N  II  N  N N  G  GGG   !            |
|           WW  WW  A    A  R   R   N   NN  II  N   NN  G    G                |
|           W    W  A    A  R    R  N    N  II  N    N   GGGG   !!!           |
|                                                                             |
|     For optimal performance we recommend to set                             |
|       NCORE = 2 up to number-of-cores-per-socket                            |
|     NCORE specifies how many cores store one orbital (NPAR=cpu/NCORE).      |
|     This setting can greatly improve the performance of VASP for DFT.       |
|     The default, NCORE=1 might be grossly inefficient on modern             |
|     multi-core architectures or massively parallel machines. Do your        |
|     own testing! More info at https://www.vasp.at/wiki/index.php/NCORE      |
|     Unfortunately you need to use the default for GW and RPA                |
|     calculations (for HF NCORE is supported but not extensively tested      |
|     yet).                                                                   |
|                                                                             |
 -----------------------------------------------------------------------------

 Reading from existing POTCAR
 LDA part: xc-table for (Slater+PW92), standard interpolation
 POSCAR, INCAR and KPOINTS ok, starting setup
 FFT: planning ... GRIDC
 FFT: planning ... GRID_SOFT
 FFT: planning ... GRID
 WAVECAR not read
 entering main loop
       N       E                     dE             d eps       ncg     rms          rms(c)
DAV:   1     0.167615864102E+00    0.16762E+00   -0.74625E+02 15960   0.336E+01
DAV:   2    -0.189504236015E+01   -0.20627E+01   -0.18519E+01 23058   0.328E+00
DAV:   3    -0.189906915712E+01   -0.40268E-02   -0.40246E-02 17430   0.168E-01
DAV:   4    -0.189907513658E+01   -0.59795E-05   -0.59796E-05 29904   0.657E-03
DAV:   5    -0.189907513700E+01   -0.41188E-09   -0.85386E-10 17388   0.235E-05    0.110E+00
DAV:   6    -0.187020211437E+01    0.28873E-01   -0.12883E-02 23646   0.473E-02    0.678E-01
DAV:   7    -0.185164631085E+01    0.18556E-01   -0.37858E-02 23730   0.865E-02    0.757E-02
DAV:   8    -0.185186191843E+01   -0.21561E-03   -0.33897E-04 24234   0.140E-02    0.319E-02
DAV:   9    -0.185160981239E+01    0.25211E-03   -0.20575E-04 26292   0.677E-03    0.141E-02
DAV:  10    -0.185164577274E+01   -0.35960E-04   -0.22498E-04 22512   0.663E-03    0.637E-03
DAV:  11    -0.185180844111E+01   -0.16267E-03   -0.15935E-05 20748   0.321E-03    0.380E-03
DAV:  12    -0.185190983212E+01   -0.10139E-03   -0.15534E-05 21042   0.209E-03    0.164E-03
DAV:  13    -0.185197449921E+01   -0.64667E-04   -0.58692E-06 21462   0.964E-04    0.648E-04
DAV:  14    -0.185199523706E+01   -0.20738E-04   -0.24996E-06 19992   0.381E-04    0.356E-04
DAV:  15    -0.185200212531E+01   -0.68883E-05   -0.44450E-07 21756   0.179E-04    0.169E-04
DAV:  16    -0.185200594631E+01   -0.38210E-05   -0.16912E-07 21000   0.112E-04    0.102E-04
DAV:  17    -0.185200721726E+01   -0.12710E-05   -0.13429E-07 21378   0.830E-05    0.505E-05
DAV:  18    -0.185200783787E+01   -0.62061E-06   -0.18407E-08 21042   0.347E-05
   1 F= -.18520078E+01 E0= -.18516409E+01  d E =-.733902E-03
