       N       E                     dE             d eps       ncg     rms          ort
DAV:   1     0.398682185861E+01    0.39868E+01   -0.15725E+03  8400   0.812E+01
DAV:   2    -0.326565067254E+01   -0.72525E+01   -0.68676E+01  8400   0.657E+00
DAV:   3    -0.332796307819E+01   -0.62312E-01   -0.62108E-01  8400   0.838E-01
DAV:   4    -0.332820722067E+01   -0.24414E-03   -0.24414E-03  8400   0.563E-02
DAV:   5    -0.332820724363E+01   -0.22956E-07   -0.22344E-07  8400   0.468E-04
SDA:   6    -0.305016340351E+01    0.27804E+00   -0.22344E-07  8400   0.120E+00 0.000E+00
CGA:   7    -0.293171681786E+01    0.11845E+00   -0.71005E-01  8400   0.654E+00-0.255E+00
CGA:   8    -0.312887748532E+01   -0.19716E+00   -0.19732E+00  8400   0.475E-01-0.790E-03
CGA:   9    -0.314634425970E+01   -0.17467E-01   -0.17467E-01  8400   0.700E-02-0.101E-03
CGA:  10    -0.314935208294E+01   -0.30078E-02   -0.30046E-02  8400   0.120E-02 0.364E-04
CGA:  11    -0.314989891509E+01   -0.54683E-03   -0.54619E-03  8400   0.199E-03 0.609E-05
CGA:  12    -0.314999120817E+01   -0.92293E-04   -0.92062E-04  8400   0.331E-04 0.246E-05
CGA:  13    -0.315000845551E+01   -0.17247E-04   -0.17158E-04  8400   0.722E-05 0.657E-06
CGA:  14    -0.315001243249E+01   -0.39770E-05   -0.39793E-05  8400   0.124E-05-0.175E-07
CGA:  15    -0.315001297436E+01   -0.54187E-06   -0.53768E-06  8400   0.122E-06 0.874E-07
   1 F= -.31500130E+01 E0= -.31490899E+01  d E =-.184621E-02
