alpha-beryllene third hollow-hollow_2
   1.00000000000000
     3.2046185347234233    1.8501879250899558    0.0000000000000000
    -3.2046185347234233    1.8501879250899558    0.0000000000000000
     0.0000000000000000    0.0000000000000000   40.0000000000000000
   Be    H
   3     2
Direct
     0.9999995793486036    0.9988699735161798    0.1000000748820729
     0.6677957167762839    0.3344623834429555    0.1000000000000014
     0.3322033068495158    0.6666662460152680    0.0999999251179299
     0.3333333134854430    0.3333347502068248    0.1225510435011779
     0.6666680835401533    0.9999999801521073    0.0774489564988249
