   2   2   0   0
  0.2748765E+03  0.3983717E-09  0.3983717E-09  0.4000000E-08  0.5000000E-15
  1.000000000000000E-004
  CAR 
 Convergence                             
     13.72883141     -9.81628541  301     -3.82618747      1.00000000
     -9.816  0.0000E+00  0.0000E+00
     -9.738  0.0000E+00  0.0000E+00
     -9.659  0.0000E+00  0.0000E+00
     -9.581  0.0000E+00  0.0000E+00
     -9.502  0.0000E+00  0.0000E+00
     -9.424  0.0000E+00  0.0000E+00
     -9.345  0.0000E+00  0.0000E+00
     -9.267  0.0000E+00  0.0000E+00
     -9.188  0.0000E+00  0.0000E+00
     -9.110  0.0000E+00  0.0000E+00
     -9.031  0.5022E-16  0.3942E-17
     -8.953  0.3655E-09  0.2868E-10
     -8.874  0.2123E-04  0.1666E-05
     -8.796  0.1293E-01  0.1017E-02
     -8.718  0.2918E+00  0.2392E-01
     -8.639  0.7058E+00  0.7931E-01
     -8.561  0.7181E+00  0.1357E+00
     -8.482  0.9787E+00  0.2125E+00
     -8.404  0.2407E+00  0.2314E+00
     -8.325  0.1195E+01  0.3252E+00
     -8.247  0.8150E+00  0.3891E+00
     -8.168  0.5859E+00  0.4351E+00
     -8.090  0.2276E+00  0.4530E+00
     -8.011  0.1376E+01  0.5610E+00
     -7.933  0.1106E+01  0.6478E+00
     -7.854  0.2970E+00  0.6711E+00
     -7.776  0.6045E+00  0.7185E+00
     -7.697  0.3874E+00  0.7489E+00
     -7.619  0.1368E+01  0.8563E+00
     -7.540  0.1298E+01  0.9582E+00
     -7.462  0.6011E+00  0.1005E+01
     -7.383  0.8904E-01  0.1012E+01
     -7.305  0.6635E+00  0.1064E+01
     -7.226  0.7201E+00  0.1121E+01
     -7.148  0.1701E+01  0.1254E+01
     -7.069  0.5699E+00  0.1299E+01
     -6.991  0.1264E+01  0.1398E+01
     -6.912  0.4250E+00  0.1432E+01
     -6.834  0.5274E-01  0.1436E+01
     -6.755  0.7116E+00  0.1492E+01
     -6.677  0.1562E+01  0.1614E+01
     -6.598  0.1917E+01  0.1765E+01
     -6.520  0.1123E+01  0.1853E+01
     -6.441  0.6439E-01  0.1858E+01
     -6.363  0.1840E-02  0.1858E+01
     -6.285  0.2269E+00  0.1876E+01
     -6.206  0.7875E+00  0.1938E+01
     -6.128  0.7120E+00  0.1994E+01
     -6.049  0.3800E+00  0.2023E+01
     -5.971  0.5771E+00  0.2069E+01
     -5.892  0.3702E+00  0.2098E+01
     -5.814  0.9327E+00  0.2171E+01
     -5.735  0.1700E+01  0.2304E+01
     -5.657  0.9347E+00  0.2378E+01
     -5.578  0.6064E+00  0.2425E+01
     -5.500  0.9321E+00  0.2499E+01
     -5.421  0.8677E+00  0.2567E+01
     -5.343  0.5026E+00  0.2606E+01
     -5.264  0.1226E+01  0.2702E+01
     -5.186  0.1845E+00  0.2717E+01
     -5.107  0.7056E+00  0.2772E+01
     -5.029  0.1240E+01  0.2869E+01
     -4.950  0.6725E+00  0.2922E+01
     -4.872  0.1146E-01  0.2923E+01
     -4.793  0.2321E+00  0.2941E+01
     -4.715  0.1791E+01  0.3082E+01
     -4.636  0.1524E+01  0.3202E+01
     -4.558  0.7035E-01  0.3207E+01
     -4.479  0.1233E-01  0.3208E+01
     -4.401  0.4508E+00  0.3243E+01
     -4.322  0.1259E+01  0.3342E+01
     -4.244  0.3081E+01  0.3584E+01
     -4.165  0.6245E+00  0.3633E+01
     -4.087  0.1266E+00  0.3643E+01
     -4.008  0.7658E+00  0.3703E+01
     -3.930  0.1088E+01  0.3789E+01
     -3.852  0.1782E+01  0.3928E+01
     -3.773  0.2603E+01  0.4133E+01
     -3.695  0.1185E+01  0.4226E+01
     -3.616  0.2475E+01  0.4420E+01
     -3.538  0.1805E+01  0.4562E+01
     -3.459  0.9336E+00  0.4635E+01
     -3.381  0.1478E+01  0.4751E+01
     -3.302  0.1894E+01  0.4899E+01
     -3.224  0.2733E+01  0.5114E+01
     -3.145  0.1977E+01  0.5269E+01
     -3.067  0.8732E+00  0.5338E+01
     -2.988  0.3831E+01  0.5638E+01
     -2.910  0.2123E+01  0.5805E+01
     -2.831  0.2014E+01  0.5963E+01
     -2.753  0.2048E+01  0.6124E+01
     -2.674  0.2468E+01  0.6317E+01
     -2.596  0.4582E+00  0.6353E+01
     -2.517  0.1112E+01  0.6441E+01
     -2.439  0.8820E+00  0.6510E+01
     -2.360  0.2988E+01  0.6744E+01
     -2.282  0.2710E+01  0.6957E+01
     -2.203  0.1097E+01  0.7043E+01
     -2.125  0.1011E+01  0.7123E+01
     -2.046  0.7988E+00  0.7185E+01
     -1.968  0.1741E+01  0.7322E+01
     -1.889  0.9955E+00  0.7400E+01
     -1.811  0.3256E+01  0.7656E+01
     -1.732  0.1941E+01  0.7808E+01
     -1.654  0.3804E+00  0.7838E+01
     -1.575  0.2250E+00  0.7855E+01
     -1.497  0.1635E+00  0.7868E+01
     -1.419  0.6628E+00  0.7920E+01
     -1.340  0.1640E+00  0.7933E+01
     -1.262  0.6182E+00  0.7982E+01
     -1.183  0.2327E+00  0.8000E+01
     -1.105  0.1885E-02  0.8000E+01
     -1.026  0.1662E-06  0.8000E+01
     -0.948  0.1255E-12  0.8000E+01
     -0.869  0.3259E-09  0.8000E+01
     -0.791  0.3660E-04  0.8000E+01
     -0.712  0.3846E-01  0.8003E+01
     -0.634  0.5918E+00  0.8049E+01
     -0.555  0.6176E+00  0.8098E+01
     -0.477  0.5696E+00  0.8143E+01
     -0.398  0.6055E+00  0.8190E+01
     -0.320  0.1187E+01  0.8283E+01
     -0.241  0.1703E+01  0.8417E+01
     -0.163  0.6025E+00  0.8464E+01
     -0.084  0.1726E+01  0.8600E+01
     -0.006  0.1195E+01  0.8693E+01
      0.073  0.1696E+01  0.8827E+01
      0.151  0.1010E+01  0.8906E+01
      0.230  0.3852E+00  0.8936E+01
      0.308  0.5593E+00  0.8980E+01
      0.387  0.3652E+01  0.9267E+01
      0.465  0.2536E+01  0.9466E+01
      0.544  0.2537E+01  0.9665E+01
      0.622  0.2186E+01  0.9836E+01
      0.701  0.1992E+01  0.9993E+01
      0.779  0.3172E+01  0.1024E+02
      0.858  0.5037E+01  0.1064E+02
      0.936  0.3874E+01  0.1094E+02
      1.014  0.1971E+01  0.1110E+02
      1.093  0.2164E+01  0.1127E+02
      1.171  0.3929E+01  0.1157E+02
      1.250  0.6397E+01  0.1208E+02
      1.328  0.5117E+01  0.1248E+02
      1.407  0.4103E+01  0.1280E+02
      1.485  0.2658E+01  0.1301E+02
      1.564  0.4145E+01  0.1333E+02
      1.642  0.4396E+01  0.1368E+02
      1.721  0.4320E+01  0.1402E+02
      1.799  0.6744E+01  0.1455E+02
      1.878  0.6055E+01  0.1502E+02
      1.956  0.5447E+01  0.1545E+02
      2.035  0.6472E+01  0.1596E+02
      2.113  0.8126E+01  0.1660E+02
      2.192  0.7560E+01  0.1719E+02
      2.270  0.5656E+01  0.1763E+02
      2.349  0.6200E+01  0.1812E+02
      2.427  0.4410E+01  0.1847E+02
      2.506  0.7814E+01  0.1908E+02
      2.584  0.8933E+01  0.1978E+02
      2.663  0.8666E+01  0.2046E+02
      2.741  0.1024E+02  0.2126E+02
      2.820  0.7567E+01  0.2186E+02
      2.898  0.5128E+01  0.2226E+02
      2.977  0.8763E+01  0.2295E+02
      3.055  0.7202E+01  0.2351E+02
      3.134  0.4964E+01  0.2390E+02
      3.212  0.6586E+01  0.2442E+02
      3.290  0.8117E+01  0.2506E+02
      3.369  0.8509E+01  0.2572E+02
      3.447  0.9440E+01  0.2646E+02
      3.526  0.7179E+01  0.2703E+02
      3.604  0.9468E+01  0.2777E+02
      3.683  0.9205E+01  0.2849E+02
      3.761  0.5082E+01  0.2889E+02
      3.840  0.3434E+01  0.2916E+02
      3.918  0.9461E+01  0.2990E+02
      3.997  0.1145E+02  0.3080E+02
      4.075  0.1071E+02  0.3164E+02
      4.154  0.8235E+01  0.3229E+02
      4.232  0.9194E+01  0.3301E+02
      4.311  0.9647E+01  0.3377E+02
      4.389  0.1017E+02  0.3457E+02
      4.468  0.8117E+01  0.3520E+02
      4.546  0.6008E+01  0.3568E+02
      4.625  0.5061E+01  0.3607E+02
      4.703  0.8819E+01  0.3677E+02
      4.782  0.8872E+01  0.3746E+02
      4.860  0.1006E+02  0.3825E+02
      4.939  0.9515E+01  0.3900E+02
      5.017  0.8051E+01  0.3963E+02
      5.096  0.1085E+02  0.4048E+02
      5.174  0.6360E+01  0.4098E+02
      5.253  0.6825E+01  0.4152E+02
      5.331  0.5854E+01  0.4198E+02
      5.410  0.8756E+01  0.4266E+02
      5.488  0.1050E+02  0.4349E+02
      5.567  0.1245E+02  0.4446E+02
      5.645  0.1147E+02  0.4536E+02
      5.723  0.8947E+01  0.4607E+02
      5.802  0.1178E+02  0.4699E+02
      5.880  0.8195E+01  0.4763E+02
      5.959  0.7537E+01  0.4823E+02
      6.037  0.9222E+01  0.4895E+02
      6.116  0.1150E+02  0.4985E+02
      6.194  0.8720E+01  0.5054E+02
      6.273  0.7562E+01  0.5113E+02
      6.351  0.1095E+02  0.5199E+02
      6.430  0.7786E+01  0.5260E+02
      6.508  0.7837E+01  0.5322E+02
      6.587  0.1147E+02  0.5412E+02
      6.665  0.1098E+02  0.5498E+02
      6.744  0.1041E+02  0.5579E+02
      6.822  0.1270E+02  0.5679E+02
      6.901  0.1358E+02  0.5786E+02
      6.979  0.7939E+01  0.5848E+02
      7.058  0.8488E+01  0.5915E+02
      7.136  0.9775E+01  0.5991E+02
      7.215  0.1031E+02  0.6072E+02
      7.293  0.8511E+01  0.6139E+02
      7.372  0.1276E+02  0.6239E+02
      7.450  0.1114E+02  0.6327E+02
      7.529  0.9205E+01  0.6399E+02
      7.607  0.1236E+02  0.6496E+02
      7.686  0.1489E+02  0.6613E+02
      7.764  0.1192E+02  0.6706E+02
      7.843  0.1085E+02  0.6792E+02
      7.921  0.1165E+02  0.6883E+02
      8.000  0.7361E+01  0.6941E+02
      8.078  0.1086E+02  0.7026E+02
      8.156  0.1159E+02  0.7117E+02
      8.235  0.1034E+02  0.7198E+02
      8.313  0.3815E+01  0.7228E+02
      8.392  0.7244E+01  0.7285E+02
      8.470  0.8308E+01  0.7350E+02
      8.549  0.1046E+02  0.7432E+02
      8.627  0.5790E+01  0.7478E+02
      8.706  0.8647E+01  0.7545E+02
      8.784  0.1126E+02  0.7634E+02
      8.863  0.6712E+01  0.7687E+02
      8.941  0.5639E+01  0.7731E+02
      9.020  0.5624E+01  0.7775E+02
      9.098  0.6842E+01  0.7829E+02
      9.177  0.5332E+01  0.7870E+02
      9.255  0.2922E+01  0.7893E+02
      9.334  0.3399E+01  0.7920E+02
      9.412  0.6380E+01  0.7970E+02
      9.491  0.4277E+01  0.8004E+02
      9.569  0.4843E+01  0.8042E+02
      9.648  0.5219E+01  0.8083E+02
      9.726  0.3497E+01  0.8110E+02
      9.805  0.9350E+00  0.8117E+02
      9.883  0.2906E+01  0.8140E+02
      9.962  0.3825E+01  0.8170E+02
     10.040  0.1312E+01  0.8181E+02
     10.119  0.8149E+00  0.8187E+02
     10.197  0.9368E+00  0.8194E+02
     10.276  0.1461E+01  0.8206E+02
     10.354  0.3543E+01  0.8234E+02
     10.433  0.1363E+01  0.8244E+02
     10.511  0.6733E+00  0.8250E+02
     10.589  0.3597E+01  0.8278E+02
     10.668  0.2348E+01  0.8296E+02
     10.746  0.4323E+00  0.8300E+02
     10.825  0.1585E+01  0.8312E+02
     10.903  0.1089E+01  0.8321E+02
     10.982  0.8933E+00  0.8328E+02
     11.060  0.1113E+01  0.8336E+02
     11.139  0.1828E+01  0.8351E+02
     11.217  0.6944E+00  0.8356E+02
     11.296  0.3734E+00  0.8359E+02
     11.374  0.9331E+00  0.8366E+02
     11.453  0.1271E+01  0.8376E+02
     11.531  0.1387E+00  0.8378E+02
     11.610  0.5000E-01  0.8378E+02
     11.688  0.6133E+00  0.8383E+02
     11.767  0.2398E+00  0.8385E+02
     11.845  0.9516E-01  0.8385E+02
     11.924  0.6581E+00  0.8391E+02
     12.002  0.1813E+00  0.8392E+02
     12.081  0.2189E+00  0.8394E+02
     12.159  0.5434E-01  0.8394E+02
     12.238  0.7576E-03  0.8394E+02
     12.316  0.7060E-01  0.8395E+02
     12.395  0.2104E+00  0.8396E+02
     12.473  0.4289E-01  0.8397E+02
     12.552  0.1722E+00  0.8398E+02
     12.630  0.1348E+00  0.8399E+02
     12.709  0.1107E+00  0.8400E+02
     12.787  0.1187E-01  0.8400E+02
     12.866  0.2116E-04  0.8400E+02
     12.944  0.3654E-09  0.8400E+02
     13.022  0.5022E-16  0.8400E+02
     13.101  0.0000E+00  0.8400E+02
     13.179  0.0000E+00  0.8400E+02
     13.258  0.0000E+00  0.8400E+02
     13.336  0.0000E+00  0.8400E+02
     13.415  0.0000E+00  0.8400E+02
     13.493  0.0000E+00  0.8400E+02
     13.572  0.0000E+00  0.8400E+02
     13.650  0.0000E+00  0.8400E+02
     13.729  0.0000E+00  0.8400E+02
