       N       E                     dE             d eps       ncg     rms          rms(c)
DAV:   1     0.852795026774E+01    0.85280E+01   -0.18922E+03 17336   0.178E+02
DAV:   2    -0.149323910209E+02   -0.23460E+02   -0.20359E+02 22184   0.386E+01
DAV:   3    -0.159099551322E+02   -0.97756E+00   -0.97226E+00 23496   0.801E+00
DAV:   4    -0.159172068113E+02   -0.72517E-02   -0.72510E-02 20336   0.797E-01
DAV:   5    -0.159172933558E+02   -0.86545E-04   -0.86544E-04 23024   0.796E-02
DAV:   6    -0.159172951477E+02   -0.17919E-05   -0.17921E-05 21704   0.102E-02
DAV:   7    -0.159172952018E+02   -0.54118E-07   -0.53788E-07 22904   0.148E-03
   1 F= -.16410975E+02 E0= -.16410275E+02  d E =-.139934E-02
