  75  75   0   0
  0.6225983E+02  0.1161016E-08  0.1161016E-08  0.4000000E-08  0.5000000E-15
  1.000000000000000E-004
  CAR 
 Phonopy                                 
      2.92289834    -15.97692277  301     -5.45503798      1.00000000
    -15.977  0.0000E+00  0.0000E+00
    -15.914  0.0000E+00  0.0000E+00
    -15.851  0.0000E+00  0.0000E+00
    -15.788  0.0000E+00  0.0000E+00
    -15.725  0.0000E+00  0.0000E+00
    -15.662  0.0000E+00  0.0000E+00
    -15.599  0.0000E+00  0.0000E+00
    -15.536  0.1295E-14  0.8157E-16
    -15.473  0.1202E-11  0.7579E-13
    -15.410  0.5344E-09  0.3374E-10
    -15.347  0.1116E-06  0.7066E-08
    -15.284  0.1103E-04  0.7020E-06
    -15.221  0.5207E-03  0.3350E-04
    -15.158  0.1191E-01  0.7841E-03
    -15.095  0.1352E+00  0.9302E-02
    -15.032  0.7881E+00  0.5895E-01
    -14.969  0.2495E+01  0.2161E+00
    -14.906  0.4712E+01  0.5130E+00
    -14.843  0.6152E+01  0.9005E+00
    -14.780  0.6602E+01  0.1316E+01
    -14.717  0.6712E+01  0.1739E+01
    -14.654  0.6703E+01  0.2162E+01
    -14.591  0.6647E+01  0.2580E+01
    -14.528  0.6879E+01  0.3014E+01
    -14.465  0.6637E+01  0.3432E+01
    -14.402  0.6570E+01  0.3846E+01
    -14.339  0.7128E+01  0.4295E+01
    -14.276  0.6734E+01  0.4719E+01
    -14.213  0.6239E+01  0.5112E+01
    -14.150  0.7108E+01  0.5560E+01
    -14.087  0.7383E+01  0.6025E+01
    -14.024  0.6318E+01  0.6423E+01
    -13.961  0.6114E+01  0.6808E+01
    -13.898  0.7436E+01  0.7277E+01
    -13.835  0.7736E+01  0.7764E+01
    -13.772  0.6317E+01  0.8162E+01
    -13.709  0.5807E+01  0.8528E+01
    -13.646  0.7018E+01  0.8970E+01
    -13.583  0.8193E+01  0.9486E+01
    -13.520  0.7403E+01  0.9953E+01
    -13.457  0.5698E+01  0.1031E+02
    -13.394  0.5810E+01  0.1068E+02
    -13.331  0.7607E+01  0.1116E+02
    -13.268  0.8422E+01  0.1169E+02
    -13.205  0.7514E+01  0.1216E+02
    -13.142  0.5955E+01  0.1254E+02
    -13.079  0.5322E+01  0.1287E+02
    -13.016  0.7107E+01  0.1332E+02
    -12.953  0.8958E+01  0.1388E+02
    -12.890  0.8169E+01  0.1440E+02
    -12.827  0.6599E+01  0.1481E+02
    -12.764  0.5674E+01  0.1517E+02
    -12.701  0.5685E+01  0.1553E+02
    -12.638  0.7623E+01  0.1601E+02
    -12.575  0.9542E+01  0.1661E+02
    -12.512  0.8407E+01  0.1714E+02
    -12.449  0.6336E+01  0.1754E+02
    -12.386  0.5566E+01  0.1789E+02
    -12.323  0.5966E+01  0.1827E+02
    -12.260  0.7445E+01  0.1873E+02
    -12.197  0.9358E+01  0.1932E+02
    -12.134  0.9468E+01  0.1992E+02
    -12.071  0.7345E+01  0.2038E+02
    -12.008  0.5592E+01  0.2074E+02
    -11.945  0.5488E+01  0.2108E+02
    -11.882  0.6935E+01  0.2152E+02
    -11.819  0.8934E+01  0.2208E+02
    -11.756  0.9847E+01  0.2270E+02
    -11.693  0.9213E+01  0.2328E+02
    -11.630  0.7255E+01  0.2374E+02
    -11.567  0.5566E+01  0.2409E+02
    -11.504  0.5551E+01  0.2444E+02
    -11.441  0.7432E+01  0.2491E+02
    -11.378  0.9878E+01  0.2553E+02
    -11.315  0.1048E+02  0.2619E+02
    -11.252  0.9571E+01  0.2679E+02
    -11.189  0.7845E+01  0.2729E+02
    -11.126  0.6046E+01  0.2767E+02
    -11.063  0.5707E+01  0.2803E+02
    -11.000  0.7298E+01  0.2849E+02
    -10.937  0.1018E+02  0.2913E+02
    -10.874  0.1180E+02  0.2987E+02
    -10.811  0.1112E+02  0.3057E+02
    -10.748  0.9059E+01  0.3114E+02
    -10.685  0.7130E+01  0.3159E+02
    -10.622  0.6497E+01  0.3200E+02
    -10.559  0.7344E+01  0.3247E+02
    -10.496  0.1121E+02  0.3317E+02
    -10.433  0.1706E+02  0.3425E+02
    -10.370  0.1941E+02  0.3547E+02
    -10.307  0.1786E+02  0.3660E+02
    -10.244  0.1582E+02  0.3759E+02
    -10.181  0.1438E+02  0.3850E+02
    -10.118  0.1497E+02  0.3944E+02
    -10.055  0.1970E+02  0.4068E+02
     -9.992  0.2631E+02  0.4234E+02
     -9.929  0.2500E+02  0.4391E+02
     -9.866  0.1593E+02  0.4492E+02
     -9.803  0.1033E+02  0.4557E+02
     -9.740  0.1067E+02  0.4624E+02
     -9.677  0.1238E+02  0.4702E+02
     -9.614  0.1367E+02  0.4788E+02
     -9.551  0.1519E+02  0.4884E+02
     -9.488  0.1605E+02  0.4985E+02
     -9.425  0.1416E+02  0.5074E+02
     -9.362  0.1049E+02  0.5140E+02
     -9.299  0.7955E+01  0.5190E+02
     -9.236  0.8257E+01  0.5242E+02
     -9.173  0.1097E+02  0.5312E+02
     -9.110  0.1326E+02  0.5395E+02
     -9.047  0.1270E+02  0.5475E+02
     -8.984  0.1022E+02  0.5539E+02
     -8.921  0.8622E+01  0.5594E+02
     -8.858  0.9301E+01  0.5652E+02
     -8.795  0.1001E+02  0.5715E+02
     -8.732  0.8937E+01  0.5772E+02
     -8.669  0.7908E+01  0.5822E+02
     -8.606  0.8117E+01  0.5873E+02
     -8.543  0.9939E+01  0.5935E+02
     -8.480  0.1116E+02  0.6006E+02
     -8.417  0.9583E+01  0.6066E+02
     -8.354  0.7279E+01  0.6112E+02
     -8.291  0.6186E+01  0.6151E+02
     -8.228  0.6351E+01  0.6191E+02
     -8.165  0.7715E+01  0.6239E+02
     -8.102  0.9944E+01  0.6302E+02
     -8.039  0.1021E+02  0.6366E+02
     -7.976  0.7830E+01  0.6416E+02
     -7.913  0.5891E+01  0.6453E+02
     -7.850  0.5490E+01  0.6487E+02
     -7.787  0.6001E+01  0.6525E+02
     -7.724  0.7274E+01  0.6571E+02
     -7.661  0.9067E+01  0.6628E+02
     -7.598  0.8967E+01  0.6685E+02
     -7.535  0.6723E+01  0.6727E+02
     -7.472  0.5135E+01  0.6759E+02
     -7.409  0.5054E+01  0.6791E+02
     -7.346  0.6402E+01  0.6832E+02
     -7.283  0.8654E+01  0.6886E+02
     -7.220  0.1017E+02  0.6950E+02
     -7.157  0.9635E+01  0.7011E+02
     -7.094  0.7583E+01  0.7059E+02
     -7.031  0.6361E+01  0.7099E+02
     -6.968  0.7508E+01  0.7146E+02
     -6.905  0.1068E+02  0.7213E+02
     -6.842  0.1292E+02  0.7295E+02
     -6.779  0.1175E+02  0.7369E+02
     -6.716  0.1025E+02  0.7433E+02
     -6.653  0.1041E+02  0.7499E+02
     -6.590  0.1176E+02  0.7573E+02
     -6.527  0.1428E+02  0.7663E+02
     -6.464  0.1665E+02  0.7768E+02
     -6.401  0.1672E+02  0.7873E+02
     -6.338  0.1641E+02  0.7977E+02
     -6.275  0.1919E+02  0.8097E+02
     -6.212  0.2419E+02  0.8250E+02
     -6.149  0.3006E+02  0.8439E+02
     -6.086  0.4094E+02  0.8697E+02
     -6.023  0.5974E+02  0.9073E+02
     -5.960  0.6938E+02  0.9511E+02
     -5.897  0.5100E+02  0.9832E+02
     -5.834  0.2132E+02  0.9966E+02
     -5.771  0.4786E+01  0.9996E+02
     -5.708  0.5575E+00  0.1000E+03
     -5.645  0.3287E-01  0.1000E+03
     -5.582  0.9612E-03  0.1000E+03
     -5.519  0.1370E-04  0.1000E+03
     -5.456  0.9374E-07  0.1000E+03
     -5.393  0.3037E-09  0.1000E+03
     -5.330  0.4608E-12  0.1000E+03
     -5.267  0.0000E+00  0.1000E+03
     -5.204  0.0000E+00  0.1000E+03
     -5.141  0.0000E+00  0.1000E+03
     -5.078  0.0000E+00  0.1000E+03
     -5.015  0.0000E+00  0.1000E+03
     -4.952  0.0000E+00  0.1000E+03
     -4.889  0.0000E+00  0.1000E+03
     -4.826  0.0000E+00  0.1000E+03
     -4.763  0.0000E+00  0.1000E+03
     -4.700  0.0000E+00  0.1000E+03
     -4.637  0.0000E+00  0.1000E+03
     -4.574  0.0000E+00  0.1000E+03
     -4.511  0.0000E+00  0.1000E+03
     -4.448  0.0000E+00  0.1000E+03
     -4.385  0.0000E+00  0.1000E+03
     -4.322  0.0000E+00  0.1000E+03
     -4.259  0.0000E+00  0.1000E+03
     -4.196  0.0000E+00  0.1000E+03
     -4.133  0.0000E+00  0.1000E+03
     -4.070  0.0000E+00  0.1000E+03
     -4.007  0.0000E+00  0.1000E+03
     -3.944  0.0000E+00  0.1000E+03
     -3.881  0.0000E+00  0.1000E+03
     -3.818  0.0000E+00  0.1000E+03
     -3.755  0.0000E+00  0.1000E+03
     -3.692  0.0000E+00  0.1000E+03
     -3.629  0.0000E+00  0.1000E+03
     -3.566  0.0000E+00  0.1000E+03
     -3.503  0.0000E+00  0.1000E+03
     -3.440  0.0000E+00  0.1000E+03
     -3.377  0.0000E+00  0.1000E+03
     -3.314  0.0000E+00  0.1000E+03
     -3.251  0.0000E+00  0.1000E+03
     -3.188  0.0000E+00  0.1000E+03
     -3.125  0.0000E+00  0.1000E+03
     -3.062  0.0000E+00  0.1000E+03
     -2.999  0.0000E+00  0.1000E+03
     -2.936  0.0000E+00  0.1000E+03
     -2.873  0.0000E+00  0.1000E+03
     -2.810  0.0000E+00  0.1000E+03
     -2.747  0.0000E+00  0.1000E+03
     -2.684  0.0000E+00  0.1000E+03
     -2.621  0.0000E+00  0.1000E+03
     -2.558  0.0000E+00  0.1000E+03
     -2.495  0.0000E+00  0.1000E+03
     -2.432  0.0000E+00  0.1000E+03
     -2.369  0.0000E+00  0.1000E+03
     -2.306  0.0000E+00  0.1000E+03
     -2.243  0.0000E+00  0.1000E+03
     -2.180  0.0000E+00  0.1000E+03
     -2.117  0.0000E+00  0.1000E+03
     -2.054  0.0000E+00  0.1000E+03
     -1.991  0.0000E+00  0.1000E+03
     -1.928  0.0000E+00  0.1000E+03
     -1.865  0.0000E+00  0.1000E+03
     -1.802  0.0000E+00  0.1000E+03
     -1.739  0.0000E+00  0.1000E+03
     -1.676  0.0000E+00  0.1000E+03
     -1.613  0.8049E-13  0.1000E+03
     -1.550  0.5204E-10  0.1000E+03
     -1.487  0.1557E-07  0.1000E+03
     -1.424  0.2185E-05  0.1000E+03
     -1.361  0.1463E-03  0.1000E+03
     -1.298  0.4791E-02  0.1000E+03
     -1.235  0.7921E-01  0.1000E+03
     -1.172  0.6823E+00  0.1000E+03
     -1.109  0.3143E+01  0.1002E+03
     -1.046  0.8020E+01  0.1008E+03
     -0.983  0.1259E+02  0.1015E+03
     -0.920  0.1527E+02  0.1025E+03
     -0.857  0.1678E+02  0.1036E+03
     -0.794  0.1661E+02  0.1046E+03
     -0.731  0.1693E+02  0.1057E+03
     -0.668  0.1909E+02  0.1069E+03
     -0.605  0.2211E+02  0.1083E+03
     -0.542  0.2527E+02  0.1099E+03
     -0.479  0.2641E+02  0.1115E+03
     -0.416  0.2545E+02  0.1131E+03
     -0.353  0.2528E+02  0.1147E+03
     -0.290  0.2670E+02  0.1164E+03
     -0.227  0.2898E+02  0.1182E+03
     -0.164  0.2986E+02  0.1201E+03
     -0.101  0.2623E+02  0.1218E+03
     -0.038  0.1937E+02  0.1230E+03
      0.025  0.1396E+02  0.1239E+03
      0.088  0.1222E+02  0.1246E+03
      0.151  0.1462E+02  0.1256E+03
      0.214  0.2076E+02  0.1269E+03
      0.277  0.2578E+02  0.1285E+03
      0.340  0.2342E+02  0.1300E+03
      0.403  0.1813E+02  0.1311E+03
      0.466  0.1825E+02  0.1323E+03
      0.529  0.2098E+02  0.1336E+03
      0.592  0.2206E+02  0.1350E+03
      0.655  0.2272E+02  0.1364E+03
      0.718  0.2389E+02  0.1379E+03
      0.781  0.2705E+02  0.1396E+03
      0.844  0.3162E+02  0.1416E+03
      0.907  0.3505E+02  0.1438E+03
      0.970  0.3815E+02  0.1462E+03
      1.033  0.3908E+02  0.1487E+03
      1.096  0.3604E+02  0.1509E+03
      1.159  0.3337E+02  0.1530E+03
      1.222  0.3543E+02  0.1553E+03
      1.285  0.4126E+02  0.1579E+03
      1.348  0.4546E+02  0.1607E+03
      1.411  0.4586E+02  0.1636E+03
      1.474  0.4700E+02  0.1666E+03
      1.537  0.4907E+02  0.1697E+03
      1.600  0.4730E+02  0.1727E+03
      1.663  0.4210E+02  0.1753E+03
      1.726  0.3305E+02  0.1774E+03
      1.789  0.2062E+02  0.1787E+03
      1.852  0.1102E+02  0.1794E+03
      1.915  0.5818E+01  0.1798E+03
      1.978  0.2754E+01  0.1799E+03
      2.041  0.8999E+00  0.1800E+03
      2.104  0.1688E+00  0.1800E+03
      2.167  0.1664E-01  0.1800E+03
      2.230  0.8228E-03  0.1800E+03
      2.293  0.1979E-04  0.1800E+03
      2.356  0.2267E-06  0.1800E+03
      2.419  0.1218E-08  0.1800E+03
      2.482  0.3036E-11  0.1800E+03
      2.545  0.3453E-14  0.1800E+03
      2.608  0.0000E+00  0.1800E+03
      2.671  0.0000E+00  0.1800E+03
      2.734  0.0000E+00  0.1800E+03
      2.797  0.0000E+00  0.1800E+03
      2.860  0.0000E+00  0.1800E+03
      2.923  0.0000E+00  0.1800E+03
