    1    1    1    1
  0.2512496E+03  0.2506240E-09  0.2506240E-09  0.4000000E-08  0.5000000E-15
  1.000000000000000E-004
  CAR 
 Convergence                             
      2     45     42
 
  0.1276756E-14  0.1276756E-14  0.1276756E-14  0.3906250E-02
      1         -9.353756   1.000000
      2         -4.480753   1.000000
      3         -0.260401   0.000000
      4          0.272926   0.000000
      5          0.408380   0.000000
      6          0.613843   0.000000
      7          0.675654   0.000000
      8          1.106289   0.000000
      9          1.263215   0.000000
     10          1.861351   0.000000
     11          1.982519   0.000000
     12          2.774603   0.000000
     13          2.956363   0.000000
     14          3.913222   0.000000
     15          4.122765   0.000000
     16          5.256424   0.000000
     17          5.478632   0.000000
     18          6.779514   0.000000
     19          6.990624   0.000000
     20          6.990624   0.000000
     21          7.035965   0.000000
     22          8.493940   0.000000
     23          8.787074   0.000000
     24         10.390330   0.000000
     25         10.727425   0.000000
     26         12.455642   0.000000
     27         12.841795   0.000000
     28         12.885746   0.000000
     29         14.658780   0.000000
     30         15.088649   0.000000
     31         16.756354   0.000000
     32         16.852036   0.000000
     33         17.980981   0.000000
     34         18.669541   0.000000
     35         20.159593   0.000000
     36         20.159593   0.000000
     37         20.522212   0.000000
     38         20.577874   0.000000
     39         20.788150   0.000000
     40         23.043787   0.000000
     41         23.043787   0.000000
     42         23.057006   0.000000
 
  0.6250000E-01  0.1276756E-14  0.1276756E-14  0.1562500E-01
      1         -9.279464   1.000000
      2         -4.392547   1.000000
      3         -0.170197   0.000000
      4          0.365782   0.000000
      5          0.501848   0.000000
      6          0.707087   0.000000
      7          0.768753   0.000000
      8          1.199476   0.000000
      9          1.355633   0.000000
     10          1.954265   0.000000
     11          2.074205   0.000000
     12          2.867195   0.000000
     13          3.047204   0.000000
     14          4.005437   0.000000
     15          4.211374   0.000000
     16          5.348044   0.000000
     17          5.556089   0.000000
     18          6.307327   0.000000
     19          6.870127   0.000000
     20          7.053361   0.000000
     21          7.146159   0.000000
     22          8.582798   0.000000
     23          8.887332   0.000000
     24         10.475417   0.000000
     25         10.826015   0.000000
     26         12.529920   0.000000
     27         12.935441   0.000000
     28         13.531661   0.000000
     29         14.685695   0.000000
     30         15.200744   0.000000
     31         16.521580   0.000000
     32         16.787158   0.000000
     33         17.780370   0.000000
     34         18.014458   0.000000
     35         19.386131   0.000000
     36         20.251294   0.000000
     37         20.517743   0.000000
     38         20.703915   0.000000
     39         20.839552   0.000000
     40         21.386024   0.000000
     41         21.454000   0.000000
     42         21.692511   0.000000
 
  0.1250000E+00  0.1276756E-14  0.1276756E-14  0.1562500E-01
      1         -9.056994   1.000000
      2         -4.128778   1.000000
      3          0.098878   0.000000
      4          0.644171   0.000000
      5          0.782211   0.000000
      6          0.986746   0.000000
      7          1.047757   0.000000
      8          1.478944   0.000000
      9          1.631873   0.000000
     10          2.232820   0.000000
     11          2.346824   0.000000
     12          3.144659   0.000000
     13          3.312724   0.000000
     14          4.281572   0.000000
     15          4.419583   0.000000
     16          4.867204   0.000000
     17          5.621997   0.000000
     18          5.884765   0.000000
     19          7.140155   0.000000
     20          7.237827   0.000000
     21          7.424679   0.000000
     22          8.845193   0.000000
     23          9.171362   0.000000
     24         10.717828   0.000000
     25         11.109609   0.000000
     26         12.684066   0.000000
     27         13.214425   0.000000
     28         14.179315   0.000000
     29         14.722741   0.000000
     30         15.447271   0.000000
     31         15.594782   0.000000
     32         16.550357   0.000000
     33         17.551901   0.000000
     34         18.085447   0.000000
     35         18.616883   0.000000
     36         18.650963   0.000000
     37         18.768346   0.000000
     38         18.951846   0.000000
     39         19.085473   0.000000
     40         19.378170   0.000000
     41         19.690560   0.000000
     42         19.694648   0.000000
 
  0.1875000E+00  0.1276756E-14  0.1276756E-14  0.1562500E-01
      1         -8.687691   1.000000
      2         -3.692386   0.106200
      3          0.536286   0.000000
      4          1.107406   0.000000
      5          1.249106   0.000000
      6          1.452552   0.000000
      7          1.509845   0.000000
      8          1.944334   0.000000
      9          2.078073   0.000000
     10          2.696280   0.000000
     11          2.726024   0.000000
     12          3.144574   0.000000
     13          3.605707   0.000000
     14          3.847837   0.000000
     15          4.739403   0.000000
     16          4.986466   0.000000
     17          6.073949   0.000000
     18          6.334089   0.000000
     19          7.531882   0.000000
     20          7.579563   0.000000
     21          7.887296   0.000000
     22          9.250278   0.000000
     23          9.636392   0.000000
     24         10.940806   0.000000
     25         11.575158   0.000000
     26         12.006713   0.000000
     27         13.520982   0.000000
     28         13.678155   0.000000
     29         14.817934   0.000000
     30         15.586371   0.000000
     31         15.654124   0.000000
     32         16.164879   0.000000
     33         16.201092   0.000000
     34         16.263356   0.000000
     35         16.451621   0.000000
     36         16.452641   0.000000
     37         16.928521   0.000000
     38         16.934362   0.000000
     39         17.568798   0.000000
     40         17.620761   0.000000
     41         18.063197   0.000000
     42         18.420129   0.000000
 
  0.2500000E+00  0.1276756E-14  0.1276756E-14  0.1562500E-01
      1         -8.174359   1.000000
      2         -3.089961   0.000000
      3          0.917151   0.000000
      4          1.576296   0.000000
      5          1.753540   0.000000
      6          1.908911   0.000000
      7          2.103759   0.000000
      8          2.186193   0.000000
      9          2.594599   0.000000
     10          2.776565   0.000000
     11          3.342342   0.000000
     12          3.493329   0.000000
     13          4.245939   0.000000
     14          4.462110   0.000000
     15          5.370113   0.000000
     16          5.625324   0.000000
     17          6.681626   0.000000
     18          6.978743   0.000000
     19          7.912084   0.000000
     20          8.104343   0.000000
     21          8.534212   0.000000
     22          9.297319   0.000000
     23         10.284143   0.000000
     24         10.304178   0.000000
     25         12.001685   0.000000
     26         12.223531   0.000000
     27         12.808655   0.000000
     28         13.693126   0.000000
     29         13.870991   0.000000
     30         13.996321   0.000000
     31         14.099435   0.000000
     32         14.203035   0.000000
     33         14.330246   0.000000
     34         14.610281   0.000000
     35         14.617526   0.000000
     36         15.257837   0.000000
     37         15.349191   0.000000
     38         16.032236   0.000000
     39         16.111949   0.000000
     40         16.483859   0.000000
     41         16.491290   0.000000
     42         16.922810   0.000000
 
  0.3125000E+00  0.1276756E-14  0.1276756E-14  0.1562500E-01
      1         -7.522895   1.000000
      2         -2.336290   0.000000
      3         -0.330063   0.000000
      4          2.097068   0.000000
      5          2.575584   0.000000
      6          2.747081   0.000000
      7          2.937815   0.000000
      8          3.014851   0.000000
      9          3.425717   0.000000
     10          3.601897   0.000000
     11          4.160513   0.000000
     12          4.319546   0.000000
     13          5.040196   0.000000
     14          5.291385   0.000000
     15          6.095483   0.000000
     16          6.455495   0.000000
     17          7.076012   0.000000
     18          7.809031   0.000000
     19          7.912687   0.000000
     20          8.338512   0.000000
     21          9.241083   0.000000
     22          9.364108   0.000000
     23         10.781939   0.000000
     24         10.860743   0.000000
     25         11.119245   0.000000
     26         11.637438   0.000000
     27         11.722016   0.000000
     28         11.943684   0.000000
     29         11.964487   0.000000
     30         12.410988   0.000000
     31         12.506371   0.000000
     32         12.796951   0.000000
     33         13.054443   0.000000
     34         13.192843   0.000000
     35         13.250263   0.000000
     36         14.107854   0.000000
     37         14.135194   0.000000
     38         14.845254   0.000000
     39         15.160064   0.000000
     40         15.239655   0.000000
     41         15.358350   0.000000
     42         16.399996   0.000000
 
  0.3750000E+00  0.1276756E-14  0.1276756E-14  0.1562500E-01
      1         -6.748382   1.000000
      2         -1.757786   0.000000
      3         -1.469237   0.000000
      4          3.080283   0.000000
      5          3.520718   0.000000
      6          3.775275   0.000000
      7          3.937305   0.000000
      8          4.039636   0.000000
      9          4.396748   0.000000
     10          4.622127   0.000000
     11          4.971250   0.000000
     12          5.337106   0.000000
     13          5.538199   0.000000
     14          6.305830   0.000000
     15          6.308261   0.000000
     16          7.367087   0.000000
     17          7.470342   0.000000
     18          8.655062   0.000000
     19          8.748373   0.000000
     20          8.798478   0.000000
     21          8.924259   0.000000
     22          9.634778   0.000000
     23          9.758947   0.000000
     24          9.945466   0.000000
     25         10.008048   0.000000
     26         10.213360   0.000000
     27         10.378454   0.000000
     28         10.511254   0.000000
     29         10.567776   0.000000
     30         11.228134   0.000000
     31         11.262236   0.000000
     32         11.855078   0.000000
     33         12.123546   0.000000
     34         12.226707   0.000000
     35         12.243920   0.000000
     36         13.263926   0.000000
     37         13.359814   0.000000
     38         13.858041   0.000000
     39         14.066271   0.000000
     40         14.673576   0.000000
     41         14.683779   0.000000
     42         15.812364   0.000000
 
  0.4375000E+00  0.1276756E-14  0.1276756E-14  0.1562500E-01
      1         -5.908252   1.000000
      2         -3.003146   0.000000
      3         -0.609020   0.000000
      4          3.611685   0.000000
      5          4.259625   0.000000
      6          4.952156   0.000000
      7          4.990638   0.000000
      8          5.243330   0.000000
      9          5.251717   0.000000
     10          5.723623   0.000000
     11          5.828698   0.000000
     12          6.473572   0.000000
     13          6.538254   0.000000
     14          7.171909   0.000000
     15          7.352179   0.000000
     16          7.518022   0.000000
     17          7.883729   0.000000
     18          7.982651   0.000000
     19          8.186358   0.000000
     20          8.236775   0.000000
     21          8.513574   0.000000
     22          8.669692   0.000000
     23          8.739193   0.000000
     24          8.807495   0.000000
     25          9.055241   0.000000
     26          9.436932   0.000000
     27          9.506012   0.000000
     28          9.878011   0.000000
     29         10.024091   0.000000
     30         10.406900   0.000000
     31         10.473192   0.000000
     32         11.297725   0.000000
     33         11.561229   0.000000
     34         11.639423   0.000000
     35         11.650775   0.000000
     36         12.784579   0.000000
     37         12.957731   0.000000
     38         13.235583   0.000000
     39         13.323425   0.000000
     40         14.374932   0.000000
     41         14.490069   0.000000
     42         15.092130   0.000000
 
  0.5000000E+00  0.1276756E-14  0.1276756E-14  0.7812500E-02
      1         -5.376616   1.000000
      2         -3.671187   0.032403
      3         -0.166213   0.000000
      4          3.127327   0.000000
      5          5.544614   0.000000
      6          5.704822   0.000000
      7          6.144849   0.000000
      8          6.372706   0.000000
      9          6.392324   0.000000
     10          6.394028   0.000000
     11          6.565326   0.000000
     12          6.643755   0.000000
     13          6.659057   0.000000
     14          6.675801   0.000000
     15          7.049931   0.000000
     16          7.170563   0.000000
     17          7.204662   0.000000
     18          7.243062   0.000000
     19          7.775511   0.000000
     20          7.906520   0.000000
     21          7.958860   0.000000
     22          7.961162   0.000000
     23          8.666928   0.000000
     24          8.872526   0.000000
     25          8.913798   0.000000
     26          8.929589   0.000000
     27          9.170833   0.000000
     28          9.789746   0.000000
     29         10.026388   0.000000
     30         10.082658   0.000000
     31         10.091041   0.000000
     32         11.117590   0.000000
     33         11.370655   0.000000
     34         11.438852   0.000000
     35         11.458225   0.000000
     36         12.624692   0.000000
     37         12.916526   0.000000
     38         12.985743   0.000000
     39         13.022517   0.000000
     40         14.330378   0.000000
     41         14.646988   0.000000
     42         14.718087   0.000000
 
  0.6250000E-01  0.6250000E-01  0.1276756E-14  0.1562500E-01
      1         -9.205153   1.000000
      2         -4.304379   1.000000
      3         -0.079906   0.000000
      4          0.458630   0.000000
      5          0.595319   0.000000
      6          0.800328   0.000000
      7          0.861870   0.000000
      8          1.292660   0.000000
      9          1.448105   0.000000
     10          2.047171   0.000000
     11          2.166016   0.000000
     12          2.959776   0.000000
     13          3.138324   0.000000
     14          4.097634   0.000000
     15          4.300935   0.000000
     16          5.439635   0.000000
     17          5.642646   0.000000
     18          6.025142   0.000000
     19          6.726381   0.000000
     20          6.960687   0.000000
     21          7.282359   0.000000
     22          8.671552   0.000000
     23          8.991863   0.000000
     24         10.560246   0.000000
     25         10.928356   0.000000
     26         12.603322   0.000000
     27         13.045002   0.000000
     28         14.130318   0.000000
     29         14.709663   0.000000
     30         15.303203   0.000000
     31         16.393137   0.000000
     32         16.802601   0.000000
     33         17.663464   0.000000
     34         17.929325   0.000000
     35         18.062356   0.000000
     36         20.153936   0.000000
     37         20.571880   0.000000
     38         20.613527   0.000000
     39         21.132317   0.000000
     40         21.404488   0.000000
     41         21.490659   0.000000
     42         21.549376   0.000000
 
  0.1250000E+00  0.6250000E-01  0.1276756E-14  0.3125000E-01
      1         -8.982632   1.000000
      2         -4.040728   1.000000
      3          0.189483   0.000000
      4          0.736992   0.000000
      5          0.875692   0.000000
      6          1.079981   0.000000
      7          1.140941   0.000000
      8          1.572118   0.000000
      9          1.724559   0.000000
     10          2.325703   0.000000
     11          2.439145   0.000000
     12          3.237203   0.000000
     13          3.405095   0.000000
     14          4.373711   0.000000
     15          4.500225   0.000000
     16          4.813140   0.000000
     17          5.713489   0.000000
     18          5.930530   0.000000
     19          6.796948   0.000000
     20          7.230529   0.000000
     21          7.559436   0.000000
     22          8.933550   0.000000
     23          9.279626   0.000000
     24         10.801571   0.000000
     25         11.216097   0.000000
     26         12.753682   0.000000
     27         13.331952   0.000000
     28         14.246575   0.000000
     29         15.262502   0.000000
     30         15.527877   0.000000
     31         15.707011   0.000000
     32         16.566779   0.000000
     33         17.173206   0.000000
     34         18.161847   0.000000
     35         18.178058   0.000000
     36         18.641944   0.000000
     37         18.760678   0.000000
     38         18.850908   0.000000
     39         19.066748   0.000000
     40         19.153516   0.000000
     41         19.550090   0.000000
     42         19.746753   0.000000
 
  0.1875000E+00  0.6250000E-01  0.1276756E-14  0.3125000E-01
      1         -8.613257   1.000000
      2         -3.604555   0.000095
      3          0.627663   0.000000
      4          1.200173   0.000000
      5          1.342610   0.000000
      6          1.545772   0.000000
      7          1.603174   0.000000
      8          2.037486   0.000000
      9          2.170879   0.000000
     10          2.789117   0.000000
     11          2.806604   0.000000
     12          3.166175   0.000000
     13          3.698173   0.000000
     14          3.923421   0.000000
     15          4.831416   0.000000
     16          5.064260   0.000000
     17          6.165209   0.000000
     18          6.386267   0.000000
     19          7.093783   0.000000
     20          7.669459   0.000000
     21          8.013709   0.000000
     22          9.337418   0.000000
     23          9.744514   0.000000
     24         11.021496   0.000000
     25         11.682342   0.000000
     26         12.096667   0.000000
     27         13.606900   0.000000
     28         13.797704   0.000000
     29         14.967810   0.000000
     30         15.629181   0.000000
     31         15.927566   0.000000
     32         16.258301   0.000000
     33         16.294913   0.000000
     34         16.399338   0.000000
     35         16.544726   0.000000
     36         16.570822   0.000000
     37         17.011165   0.000000
     38         17.035432   0.000000
     39         17.519349   0.000000
     40         17.656904   0.000000
     41         17.907848   0.000000
     42         18.487354   0.000000
 
  0.2500000E+00  0.6250000E-01  0.1276756E-14  0.3125000E-01
      1         -8.099829   1.000000
      2         -3.002494   0.000000
      3          0.992862   0.000000
      4          1.625752   0.000000
      5          1.846201   0.000000
      6          2.001514   0.000000
      7          2.196952   0.000000
      8          2.276523   0.000000
      9          2.687708   0.000000
     10          2.865413   0.000000
     11          3.435082   0.000000
     12          3.580918   0.000000
     13          4.338237   0.000000
     14          4.548342   0.000000
     15          5.461821   0.000000
     16          5.706195   0.000000
     17          6.772228   0.000000
     18          7.018010   0.000000
     19          7.506386   0.000000
     20          8.192521   0.000000
     21          8.651089   0.000000
     22          9.385009   0.000000
     23         10.389704   0.000000
     24         10.397232   0.000000
     25         12.089941   0.000000
     26         12.327651   0.000000
     27         12.926680   0.000000
     28         13.778357   0.000000
     29         13.964920   0.000000
     30         14.083965   0.000000
     31         14.195875   0.000000
     32         14.293881   0.000000
     33         14.446292   0.000000
     34         14.708935   0.000000
     35         14.710842   0.000000
     36         15.361629   0.000000
     37         15.438694   0.000000
     38         16.169912   0.000000
     39         16.171488   0.000000
     40         16.571891   0.000000
     41         16.632843   0.000000
     42         16.969840   0.000000
 
  0.3125000E+00  0.6250000E-01  0.1276756E-14  0.3125000E-01
      1         -7.448185   1.000000
      2         -2.249425   0.000000
      3         -0.282909   0.000000
      4          2.181103   0.000000
      5          2.667993   0.000000
      6          2.840428   0.000000
      7          3.030953   0.000000
      8          3.107258   0.000000
      9          3.518726   0.000000
     10          3.692682   0.000000
     11          4.252990   0.000000
     12          4.408649   0.000000
     13          5.131958   0.000000
     14          5.378379   0.000000
     15          6.185949   0.000000
     16          6.535459   0.000000
     17          7.165514   0.000000
     18          7.761124   0.000000
     19          8.005809   0.000000
     20          8.043914   0.000000
     21          9.333219   0.000000
     22          9.471274   0.000000
     23         10.897035   0.000000
     24         10.949925   0.000000
     25         11.227824   0.000000
     26         11.730313   0.000000
     27         11.815944   0.000000
     28         12.036522   0.000000
     29         12.060159   0.000000
     30         12.502663   0.000000
     31         12.604394   0.000000
     32         12.884950   0.000000
     33         13.155378   0.000000
     34         13.295260   0.000000
     35         13.343597   0.000000
     36         14.198034   0.000000
     37         14.233895   0.000000
     38         14.924526   0.000000
     39         15.275656   0.000000
     40         15.326089   0.000000
     41         15.451575   0.000000
     42         16.429203   0.000000
 
  0.3750000E+00  0.6250000E-01  0.1276756E-14  0.3125000E-01
      1         -6.673108   1.000000
      2         -1.706432   0.000000
      3         -1.383405   0.000000
      4          3.166039   0.000000
      5          3.612058   0.000000
      6          3.868652   0.000000
      7          4.030281   0.000000
      8          4.132166   0.000000
      9          4.489257   0.000000
     10          4.713009   0.000000
     11          5.062372   0.000000
     12          5.426135   0.000000
     13          5.630566   0.000000
     14          6.394508   0.000000
     15          6.399180   0.000000
     16          7.459944   0.000000
     17          7.544356   0.000000
     18          8.271798   0.000000
     19          8.746788   0.000000
     20          8.889338   0.000000
     21          9.121564   0.000000
     22          9.727061   0.000000
     23          9.853151   0.000000
     24         10.037971   0.000000
     25         10.104602   0.000000
     26         10.305300   0.000000
     27         10.480048   0.000000
     28         10.604686   0.000000
     29         10.671550   0.000000
     30         11.320503   0.000000
     31         11.363317   0.000000
     32         11.944259   0.000000
     33         12.217768   0.000000
     34         12.333540   0.000000
     35         12.337265   0.000000
     36         13.353818   0.000000
     37         13.457250   0.000000
     38         13.946060   0.000000
     39         14.165322   0.000000
     40         14.763310   0.000000
     41         14.774910   0.000000
     42         15.888196   0.000000
 
  0.4375000E+00  0.6250000E-01  0.1276756E-14  0.3125000E-01
      1         -5.830727   1.000000
      2         -2.950586   0.000000
      3         -0.524989   0.000000
      4          3.702050   0.000000
      5          4.344644   0.000000
      6          5.045574   0.000000
      7          5.084000   0.000000
      8          5.336726   0.000000
      9          5.344129   0.000000
     10          5.816945   0.000000
     11          5.919153   0.000000
     12          6.566578   0.000000
     13          6.626824   0.000000
     14          7.234687   0.000000
     15          7.444453   0.000000
     16          7.594184   0.000000
     17          7.976689   0.000000
     18          8.074878   0.000000
     19          8.279345   0.000000
     20          8.318002   0.000000
     21          8.605864   0.000000
     22          8.606021   0.000000
     23          8.806776   0.000000
     24          8.832639   0.000000
     25          8.982958   0.000000
     26          9.529376   0.000000
     27          9.617692   0.000000
     28          9.969930   0.000000
     29         10.131479   0.000000
     30         10.499729   0.000000
     31         10.579701   0.000000
     32         11.387603   0.000000
     33         11.650774   0.000000
     34         11.744108   0.000000
     35         11.751975   0.000000
     36         12.873530   0.000000
     37         13.052260   0.000000
     38         13.327459   0.000000
     39         13.422627   0.000000
     40         14.463191   0.000000
     41         14.572775   0.000000
     42         15.179932   0.000000
 
  0.5000000E+00  0.6250000E-01  0.1276756E-14  0.1562500E-01
      1         -5.293974   1.000000
      2         -3.622587   0.000638
      3         -0.083806   0.000000
      4          3.220237   0.000000
      5          5.635213   0.000000
      6          5.776007   0.000000
      7          6.236749   0.000000
      8          6.466196   0.000000
      9          6.485811   0.000000
     10          6.486999   0.000000
     11          6.658477   0.000000
     12          6.736950   0.000000
     13          6.748769   0.000000
     14          6.769286   0.000000
     15          7.142901   0.000000
     16          7.264046   0.000000
     17          7.297250   0.000000
     18          7.323823   0.000000
     19          7.867915   0.000000
     20          7.998578   0.000000
     21          8.018246   0.000000
     22          8.054622   0.000000
     23          8.758078   0.000000
     24          8.758787   0.000000
     25          8.963954   0.000000
     26          9.007220   0.000000
     27          9.142749   0.000000
     28          9.880932   0.000000
     29         10.116508   0.000000
     30         10.176040   0.000000
     31         10.218084   0.000000
     32         11.207692   0.000000
     33         11.458115   0.000000
     34         11.551553   0.000000
     35         11.554669   0.000000
     36         12.713004   0.000000
     37         12.997091   0.000000
     38         13.098110   0.000000
     39         13.115756   0.000000
     40         14.415534   0.000000
     41         14.696918   0.000000
     42         14.831308   0.000000
 
  0.1250000E+00  0.1250000E+00  0.1276756E-14  0.1562500E-01
      1         -8.759979   1.000000
      2         -3.777451   0.876770
      3          0.460018   0.000000
      4          1.015266   0.000000
      5          1.156102   0.000000
      6          1.359609   0.000000
      7          1.420267   0.000000
      8          1.851540   0.000000
      9          2.001891   0.000000
     10          2.604161   0.000000
     11          2.714592   0.000000
     12          3.514507   0.000000
     13          3.679624   0.000000
     14          4.237868   0.000000
     15          4.649592   0.000000
     16          4.817588   0.000000
     17          5.931325   0.000000
     18          5.987000   0.000000
     19          6.480531   0.000000
     20          7.499707   0.000000
     21          7.843200   0.000000
     22          9.194054   0.000000
     23          9.572144   0.000000
     24         11.038461   0.000000
     25         11.509903   0.000000
     26         12.893809   0.000000
     27         13.634049   0.000000
     28         14.291210   0.000000
     29         15.246521   0.000000
     30         15.907755   0.000000
     31         15.913169   0.000000
     32         16.462108   0.000000
     33         16.504425   0.000000
     34         18.109061   0.000000
     35         18.413317   0.000000
     36         18.457898   0.000000
     37         18.963499   0.000000
     38         19.007185   0.000000
     39         19.061082   0.000000
     40         19.114718   0.000000
     41         19.140750   0.000000
     42         19.322424   0.000000
 
  0.1875000E+00  0.1250000E+00  0.1276756E-14  0.3125000E-01
      1         -8.390427   1.000000
      2         -3.341972   0.000000
      3          0.901157   0.000000
      4          1.478269   0.000000
      5          1.623115   0.000000
      6          1.825354   0.000000
      7          1.883132   0.000000
      8          2.316837   0.000000
      9          2.448535   0.000000
     10          2.942254   0.000000
     11          3.067420   0.000000
     12          3.230669   0.000000
     13          3.975219   0.000000
     14          4.150631   0.000000
     15          5.106867   0.000000
     16          5.258033   0.000000
     17          6.082816   0.000000
     18          6.437920   0.000000
     19          6.822296   0.000000
     20          7.936937   0.000000
     21          8.301078   0.000000
     22          9.593458   0.000000
     23         10.037748   0.000000
     24         11.249073   0.000000
     25         11.977316   0.000000
     26         12.362701   0.000000
     27         13.832454   0.000000
     28         14.103505   0.000000
     29         15.116714   0.000000
     30         15.241571   0.000000
     31         16.283079   0.000000
     32         16.393448   0.000000
     33         16.538595   0.000000
     34         16.553368   0.000000
     35         16.639733   0.000000
     36         16.830029   0.000000
     37         16.874010   0.000000
     38         17.313483   0.000000
     39         17.341585   0.000000
     40         17.935123   0.000000
     41         18.049080   0.000000
     42         18.575446   0.000000
 
  0.2500000E+00  0.1250000E+00  0.1276756E-14  0.3125000E-01
      1         -7.876807   1.000000
      2         -2.741065   0.000000
      3          1.191865   0.000000
      4          1.764895   0.000000
      5          2.123947   0.000000
      6          2.279980   0.000000
      7          2.476448   0.000000
      8          2.548343   0.000000
      9          2.966922   0.000000
     10          3.130825   0.000000
     11          3.713066   0.000000
     12          3.839952   0.000000
     13          4.614719   0.000000
     14          4.795934   0.000000
     15          5.736245   0.000000
     16          5.877915   0.000000
     17          6.487139   0.000000
     18          7.042691   0.000000
     19          7.424590   0.000000
     20          8.454170   0.000000
     21          8.939316   0.000000
     22          9.645224   0.000000
     23         10.676102   0.000000
     24         10.679667   0.000000
     25         12.346307   0.000000
     26         12.613311   0.000000
     27         13.232068   0.000000
     28         14.001792   0.000000
     29         14.245566   0.000000
     30         14.329187   0.000000
     31         14.475728   0.000000
     32         14.559311   0.000000
     33         14.745811   0.000000
     34         14.989919   0.000000
     35         14.990225   0.000000
     36         15.604623   0.000000
     37         15.617600   0.000000
     38         15.885812   0.000000
     39         16.291296   0.000000
     40         16.682655   0.000000
     41         16.883365   0.000000
     42         16.991602   0.000000
 
  0.3125000E+00  0.1250000E+00  0.1276756E-14  0.3125000E-01
      1         -7.224818   1.000000
      2         -1.989899   0.000000
      3         -0.155047   0.000000
      4          2.430409   0.000000
      5          2.944914   0.000000
      6          3.120404   0.000000
      7          3.310272   0.000000
      8          3.383964   0.000000
      9          3.797612   0.000000
     10          3.963084   0.000000
     11          4.530102   0.000000
     12          4.671180   0.000000
     13          5.406666   0.000000
     14          5.624060   0.000000
     15          6.456291   0.000000
     16          6.618378   0.000000
     17          7.065466   0.000000
     18          7.432883   0.000000
     19          8.225250   0.000000
     20          8.285112   0.000000
     21          9.608730   0.000000
     22          9.755404   0.000000
     23         11.192677   0.000000
     24         11.213535   0.000000
     25         11.526920   0.000000
     26         12.008401   0.000000
     27         12.097044   0.000000
     28         12.314315   0.000000
     29         12.343085   0.000000
     30         12.774946   0.000000
     31         12.887441   0.000000
     32         13.141070   0.000000
     33         13.426498   0.000000
     34         13.592232   0.000000
     35         13.623508   0.000000
     36         14.459607   0.000000
     37         14.497863   0.000000
     38         15.112282   0.000000
     39         15.362085   0.000000
     40         15.627653   0.000000
     41         15.731096   0.000000
     42         16.048632   0.000000
 
  0.3750000E+00  0.1250000E+00  0.1276756E-14  0.3125000E-01
      1         -6.448427   1.000000
      2         -1.558601   0.000000
      3         -1.127150   0.000000
      4          3.419735   0.000000
      5          3.885473   0.000000
      6          4.148688   0.000000
      7          4.309083   0.000000
      8          4.409064   0.000000
      9          4.766523   0.000000
     10          4.982984   0.000000
     11          5.335215   0.000000
     12          5.686082   0.000000
     13          5.907494   0.000000
     14          6.621304   0.000000
     15          6.679182   0.000000
     16          7.280806   0.000000
     17          7.738238   0.000000
     18          7.906088   0.000000
     19          9.021059   0.000000
     20          9.159142   0.000000
     21          9.426625   0.000000
     22         10.003216   0.000000
     23         10.134240   0.000000
     24         10.314881   0.000000
     25         10.387168   0.000000
     26         10.580208   0.000000
     27         10.758490   0.000000
     28         10.884949   0.000000
     29         10.965269   0.000000
     30         11.596771   0.000000
     31         11.651256   0.000000
     32         12.208053   0.000000
     33         12.475144   0.000000
     34         12.617236   0.000000
     35         12.637260   0.000000
     36         13.618825   0.000000
     37         13.710017   0.000000
     38         14.201719   0.000000
     39         14.363290   0.000000
     40         14.805759   0.000000
     41         15.044219   0.000000
     42         15.341464   0.000000
 
  0.4375000E+00  0.1250000E+00  0.1276756E-14  0.3125000E-01
      1         -5.599933   1.000000
      2         -2.795707   0.000000
      3         -0.274420   0.000000
      4          3.972557   0.000000
      5          4.593660   0.000000
      6          5.325800   0.000000
      7          5.363910   0.000000
      8          5.616877   0.000000
      9          5.620027   0.000000
     10          6.096849   0.000000
     11          6.184652   0.000000
     12          6.845421   0.000000
     13          6.869153   0.000000
     14          7.248279   0.000000
     15          7.720808   0.000000
     16          7.771181   0.000000
     17          8.148620   0.000000
     18          8.255368   0.000000
     19          8.363097   0.000000
     20          8.558098   0.000000
     21          8.628895   0.000000
     22          8.882938   0.000000
     23          9.058376   0.000000
     24          9.112952   0.000000
     25          9.233589   0.000000
     26          9.806191   0.000000
     27          9.903956   0.000000
     28         10.244882   0.000000
     29         10.414070   0.000000
     30         10.777897   0.000000
     31         10.872694   0.000000
     32         11.654913   0.000000
     33         11.898439   0.000000
     34         12.024026   0.000000
     35         12.061591   0.000000
     36         13.136349   0.000000
     37         13.262349   0.000000
     38         13.601594   0.000000
     39         13.658161   0.000000
     40         14.228621   0.000000
     41         14.721051   0.000000
     42         15.029164   0.000000
 
  0.5000000E+00  0.1250000E+00  0.1276756E-14  0.1562500E-01
      1         -5.047808   1.000000
      2         -3.478833   0.000000
      3          0.161676   0.000000
      4          3.498861   0.000000
      5          5.905214   0.000000
      6          5.955252   0.000000
      7          6.511948   0.000000
      8          6.746653   0.000000
      9          6.764523   0.000000
     10          6.766233   0.000000
     11          6.937826   0.000000
     12          7.005767   0.000000
     13          7.016279   0.000000
     14          7.049731   0.000000
     15          7.421635   0.000000
     16          7.490497   0.000000
     17          7.544482   0.000000
     18          7.574215   0.000000
     19          7.955006   0.000000
     20          8.144728   0.000000
     21          8.273315   0.000000
     22          8.334978   0.000000
     23          8.511372   0.000000
     24          9.033707   0.000000
     25          9.235607   0.000000
     26          9.287449   0.000000
     27          9.391531   0.000000
     28         10.153407   0.000000
     29         10.380782   0.000000
     30         10.456133   0.000000
     31         10.528073   0.000000
     32         11.476030   0.000000
     33         11.701697   0.000000
     34         11.831449   0.000000
     35         11.867046   0.000000
     36         12.973970   0.000000
     37         13.125194   0.000000
     38         13.395318   0.000000
     39         13.410931   0.000000
     40         13.984073   0.000000
     41         14.661577   0.000000
     42         15.148687   0.000000
 
  0.1875000E+00  0.1875000E+00  0.1276756E-14  0.1562500E-01
      1         -8.020718   1.000000
      2         -2.907783   0.000000
      3          1.351632   0.000000
      4          1.940912   0.000000
      5          2.090529   0.000000
      6          2.291008   0.000000
      7          2.349372   0.000000
      8          2.480934   0.000000
      9          2.781993   0.000000
     10          2.918847   0.000000
     11          3.530361   0.000000
     12          3.613605   0.000000
     13          4.435386   0.000000
     14          4.526350   0.000000
     15          5.302183   0.000000
     16          5.563204   0.000000
     17          5.985109   0.000000
     18          6.886996   0.000000
     19          7.230385   0.000000
     20          8.369923   0.000000
     21          8.760119   0.000000
     22          9.981041   0.000000
     23         10.502023   0.000000
     24         11.488316   0.000000
     25         12.441265   0.000000
     26         12.717509   0.000000
     27         13.196032   0.000000
     28         14.452824   0.000000
     29         14.556238   0.000000
     30         15.283809   0.000000
     31         15.904616   0.000000
     32         16.478101   0.000000
     33         16.869909   0.000000
     34         16.985214   0.000000
     35         17.003866   0.000000
     36         17.006975   0.000000
     37         17.050967   0.000000
     38         17.100796   0.000000
     39         17.277060   0.000000
     40         17.281008   0.000000
     41         17.310724   0.000000
     42         17.427356   0.000000
 
  0.2500000E+00  0.1875000E+00  0.1276756E-14  0.3125000E-01
      1         -7.507086   1.000000
      2         -2.309022   0.000000
      3          1.328379   0.000000
      4          2.029521   0.000000
      5          2.585877   0.000000
      6          2.745183   0.000000
      7          2.941935   0.000000
      8          3.002568   0.000000
      9          3.431798   0.000000
     10          3.564880   0.000000
     11          4.175347   0.000000
     12          4.239775   0.000000
     13          5.026264   0.000000
     14          5.073701   0.000000
     15          5.567382   0.000000
     16          6.190356   0.000000
     17          6.541210   0.000000
     18          7.486715   0.000000
     19          7.856788   0.000000
     20          8.874490   0.000000
     21          9.396871   0.000000
     22         10.062224   0.000000
     23         11.136946   0.000000
     24         11.138690   0.000000
     25         12.628558   0.000000
     26         13.046659   0.000000
     27         13.495463   0.000000
     28         13.657750   0.000000
     29         14.620701   0.000000
     30         14.705160   0.000000
     31         14.850278   0.000000
     32         14.912924   0.000000
     33         15.047159   0.000000
     34         15.096329   0.000000
     35         15.354164   0.000000
     36         15.458760   0.000000
     37         15.599633   0.000000
     38         16.200247   0.000000
     39         16.218583   0.000000
     40         16.912701   0.000000
     41         16.991419   0.000000
     42         17.297353   0.000000
 
  0.3125000E+00  0.1875000E+00  0.1276756E-14  0.3125000E-01
      1         -6.855187   1.000000
      2         -1.561403   0.000000
      3          0.001060   0.000000
      4          2.830064   0.000000
      5          3.405164   0.000000
      6          3.586542   0.000000
      7          3.775412   0.000000
      8          3.841232   0.000000
      9          4.261826   0.000000
     10          4.395165   0.000000
     11          4.990587   0.000000
     12          5.038538   0.000000
     13          5.619924   0.000000
     14          5.861977   0.000000
     15          6.244385   0.000000
     16          6.902103   0.000000
     17          7.337900   0.000000
     18          7.873474   0.000000
     19          8.668424   0.000000
     20          8.750384   0.000000
     21         10.062530   0.000000
     22         10.203871   0.000000
     23         11.622206   0.000000
     24         11.628155   0.000000
     25         11.985293   0.000000
     26         12.466691   0.000000
     27         12.564377   0.000000
     28         12.768470   0.000000
     29         12.805802   0.000000
     30         13.177440   0.000000
     31         13.305096   0.000000
     32         13.468432   0.000000
     33         13.662557   0.000000
     34         14.059667   0.000000
     35         14.088647   0.000000
     36         14.327982   0.000000
     37         14.329006   0.000000
     38         15.010304   0.000000
     39         15.094209   0.000000
     40         15.853492   0.000000
     41         16.106320   0.000000
     42         16.196649   0.000000
 
  0.3750000E+00  0.1875000E+00  0.1276756E-14  0.3125000E-01
      1         -6.077947   1.000000
      2         -1.336932   0.000000
      3         -0.704748   0.000000
      4          3.819681   0.000000
      5          4.338663   0.000000
      6          4.614610   0.000000
      7          4.773255   0.000000
      8          4.863883   0.000000
      9          5.227571   0.000000
     10          5.394409   0.000000
     11          5.787878   0.000000
     12          5.919342   0.000000
     13          6.354490   0.000000
     14          6.368380   0.000000
     15          7.145662   0.000000
     16          7.193987   0.000000
     17          8.200745   0.000000
     18          8.322109   0.000000
     19          9.473482   0.000000
     20          9.594027   0.000000
     21          9.886395   0.000000
     22         10.459550   0.000000
     23         10.601621   0.000000
     24         10.772923   0.000000
     25         10.850850   0.000000
     26         11.033274   0.000000
     27         11.170979   0.000000
     28         11.351929   0.000000
     29         11.436156   0.000000
     30         12.051306   0.000000
     31         12.085693   0.000000
     32         12.566260   0.000000
     33         12.619606   0.000000
     34         13.083559   0.000000
     35         13.114780   0.000000
     36         13.285604   0.000000
     37         13.995057   0.000000
     38         14.296187   0.000000
     39         14.508246   0.000000
     40         15.004081   0.000000
     41         15.272124   0.000000
     42         15.618007   0.000000
 
  0.4375000E+00  0.1875000E+00  0.1276756E-14  0.3125000E-01
      1         -5.221660   1.000000
      2         -2.548296   0.000000
      3          0.137463   0.000000
      4          4.421118   0.000000
      5          4.961920   0.000000
      6          5.792718   0.000000
      7          5.827809   0.000000
      8          6.052043   0.000000
      9          6.083637   0.000000
     10          6.373748   0.000000
     11          6.563087   0.000000
     12          6.752104   0.000000
     13          7.309388   0.000000
     14          7.395204   0.000000
     15          8.116992   0.000000
     16          8.179273   0.000000
     17          8.435707   0.000000
     18          8.718917   0.000000
     19          8.826859   0.000000
     20          9.021725   0.000000
     21          9.087039   0.000000
     22          9.342470   0.000000
     23          9.490367   0.000000
     24          9.580038   0.000000
     25          9.690970   0.000000
     26         10.264931   0.000000
     27         10.352400   0.000000
     28         10.699005   0.000000
     29         10.806593   0.000000
     30         11.239875   0.000000
     31         11.311712   0.000000
     32         11.781505   0.000000
     33         12.086826   0.000000
     34         12.490163   0.000000
     35         12.542045   0.000000
     36         12.616419   0.000000
     37         13.544156   0.000000
     38         13.887005   0.000000
     39         14.046953   0.000000
     40         14.254210   0.000000
     41         15.063553   0.000000
     42         15.427165   0.000000
 
  0.5000000E+00  0.1875000E+00  0.1276756E-14  0.1562500E-01
      1         -4.644152   1.000000
      2         -3.246603   0.000000
      3          0.564288   0.000000
      4          3.962822   0.000000
      5          5.962308   0.000000
      6          6.345300   0.000000
      7          6.968449   0.000000
      8          7.110680   0.000000
      9          7.214036   0.000000
     10          7.233371   0.000000
     11          7.259214   0.000000
     12          7.402961   0.000000
     13          7.480220   0.000000
     14          7.517086   0.000000
     15          7.566900   0.000000
     16          7.885422   0.000000
     17          8.011818   0.000000
     18          8.030335   0.000000
     19          8.168307   0.000000
     20          8.604297   0.000000
     21          8.720092   0.000000
     22          8.802150   0.000000
     23          8.887741   0.000000
     24          9.488854   0.000000
     25          9.661482   0.000000
     26          9.754348   0.000000
     27          9.844344   0.000000
     28         10.602185   0.000000
     29         10.708503   0.000000
     30         10.922714   0.000000
     31         11.000909   0.000000
     32         11.477210   0.000000
     33         11.912539   0.000000
     34         12.297528   0.000000
     35         12.348047   0.000000
     36         12.391435   0.000000
     37         13.383487   0.000000
     38         13.859245   0.000000
     39         13.860415   0.000000
     40         13.896801   0.000000
     41         14.989517   0.000000
     42         15.585077   0.000000
 
  0.2500000E+00  0.2500000E+00  0.1276756E-14  0.1562500E-01
      1         -6.994050   1.000000
      2         -1.713843   0.000000
      3          0.968685   0.000000
      4          2.552593   0.000000
      5          3.229430   0.000000
      6          3.396867   0.000000
      7          3.592551   0.000000
      8          3.634170   0.000000
      9          4.081056   0.000000
     10          4.107304   0.000000
     11          4.565987   0.000000
     12          4.818967   0.000000
     13          5.127608   0.000000
     14          5.709462   0.000000
     15          6.011328   0.000000
     16          6.812358   0.000000
     17          7.146990   0.000000
     18          8.073893   0.000000
     19          8.484629   0.000000
     20          9.361881   0.000000
     21         10.024280   0.000000
     22         10.502107   0.000000
     23         11.516952   0.000000
     24         11.737822   0.000000
     25         11.835978   0.000000
     26         13.223307   0.000000
     27         13.567796   0.000000
     28         13.943087   0.000000
     29         14.306285   0.000000
     30         14.907979   0.000000
     31         15.109121   0.000000
     32         15.320445   0.000000
     33         15.368867   0.000000
     34         15.377465   0.000000
     35         15.498254   0.000000
     36         15.604226   0.000000
     37         15.626863   0.000000
     38         15.652409   0.000000
     39         15.744229   0.000000
     40         15.943778   0.000000
     41         16.102017   0.000000
     42         16.122043   0.000000
 
  0.3125000E+00  0.2500000E+00  0.1276756E-14  0.3125000E-01
      1         -6.343709   1.000000
      2         -0.972148   0.000000
      3          0.052461   0.000000
      4          3.297097   0.000000
      5          4.045375   0.000000
      6          4.229372   0.000000
      7          4.385482   0.000000
      8          4.425396   0.000000
      9          4.641498   0.000000
     10          4.909786   0.000000
     11          5.170815   0.000000
     12          5.630524   0.000000
     13          5.860601   0.000000
     14          6.490161   0.000000
     15          6.806855   0.000000
     16          7.507967   0.000000
     17          7.952925   0.000000
     18          8.471081   0.000000
     19          9.282113   0.000000
     20          9.401147   0.000000
     21         10.645463   0.000000
     22         10.766818   0.000000
     23         11.650731   0.000000
     24         11.861294   0.000000
     25         12.509385   0.000000
     26         12.635950   0.000000
     27         12.874624   0.000000
     28         13.143935   0.000000
     29         13.221811   0.000000
     30         13.449952   0.000000
     31         13.478178   0.000000
     32         13.927134   0.000000
     33         14.039525   0.000000
     34         14.367025   0.000000
     35         14.653472   0.000000
     36         14.726936   0.000000
     37         14.742493   0.000000
     38         15.343175   0.000000
     39         15.589526   0.000000
     40         15.742107   0.000000
     41         16.060014   0.000000
     42         16.213308   0.000000
 
  0.3750000E+00  0.2500000E+00  0.1276756E-14  0.3125000E-01
      1         -5.568358   1.000000
      2         -1.095770   0.000000
      3         -0.125662   0.000000
      4          4.165229   0.000000
      5          4.965214   0.000000
      6          5.061514   0.000000
      7          5.280644   0.000000
      8          5.421616   0.000000
      9          5.561923   0.000000
     10          5.869748   0.000000
     11          6.142433   0.000000
     12          6.415506   0.000000
     13          6.843283   0.000000
     14          7.011801   0.000000
     15          7.792000   0.000000
     16          7.798089   0.000000
     17          8.842441   0.000000
     18          8.910348   0.000000
     19         10.031347   0.000000
     20         10.080543   0.000000
     21         10.516347   0.000000
     22         10.950996   0.000000
     23         11.066830   0.000000
     24         11.259579   0.000000
     25         11.385099   0.000000
     26         11.523984   0.000000
     27         11.631645   0.000000
     28         12.005266   0.000000
     29         12.029416   0.000000
     30         12.099154   0.000000
     31         12.515074   0.000000
     32         12.803209   0.000000
     33         12.861551   0.000000
     34         13.637531   0.000000
     35         13.710900   0.000000
     36         13.736051   0.000000
     37         13.770882   0.000000
     38         14.793331   0.000000
     39         14.914186   0.000000
     40         15.423228   0.000000
     41         15.641852   0.000000
     42         16.154930   0.000000
 
  0.4375000E+00  0.2500000E+00  0.1276756E-14  0.3125000E-01
      1         -4.707227   1.000000
      2         -2.230554   0.000000
      3          0.699193   0.000000
      4          4.952043   0.000000
      5          5.042755   0.000000
      6          5.950597   0.000000
      7          6.446014   0.000000
      8          6.488578   0.000000
      9          6.736592   0.000000
     10          6.751520   0.000000
     11          7.214916   0.000000
     12          7.314376   0.000000
     13          7.956131   0.000000
     14          7.980664   0.000000
     15          8.651243   0.000000
     16          8.812789   0.000000
     17          9.009374   0.000000
     18          9.364293   0.000000
     19          9.476047   0.000000
     20          9.589541   0.000000
     21          9.666788   0.000000
     22          9.778371   0.000000
     23          9.977407   0.000000
     24         10.233625   0.000000
     25         10.330097   0.000000
     26         10.373865   0.000000
     27         10.893177   0.000000
     28         11.056702   0.000000
     29         11.312509   0.000000
     30         11.620126   0.000000
     31         11.877252   0.000000
     32         12.018841   0.000000
     33         12.582495   0.000000
     34         13.130519   0.000000
     35         13.140708   0.000000
     36         13.192850   0.000000
     37         13.685902   0.000000
     38         14.494048   0.000000
     39         14.516023   0.000000
     40         14.868062   0.000000
     41         14.891746   0.000000
     42         15.892559   0.000000
 
  0.5000000E+00  0.2500000E+00  0.1276756E-14  0.1562500E-01
      1         -4.096161   1.000000
      2         -2.939145   0.000000
      3          1.111121   0.000000
      4          4.611254   0.000000
      5          5.285823   0.000000
      6          6.896881   0.000000
      7          7.448917   0.000000
      8          7.600185   0.000000
      9          7.868230   0.000000
     10          7.884996   0.000000
     11          7.895733   0.000000
     12          8.052688   0.000000
     13          8.110762   0.000000
     14          8.171228   0.000000
     15          8.181077   0.000000
     16          8.532025   0.000000
     17          8.572472   0.000000
     18          8.665912   0.000000
     19          8.786722   0.000000
     20          9.067278   0.000000
     21          9.240939   0.000000
     22          9.455900   0.000000
     23          9.513998   0.000000
     24          9.621182   0.000000
     25         10.113527   0.000000
     26         10.407489   0.000000
     27         10.475870   0.000000
     28         10.482982   0.000000
     29         11.204898   0.000000
     30         11.575013   0.000000
     31         11.599013   0.000000
     32         11.646458   0.000000
     33         12.457023   0.000000
     34         12.932299   0.000000
     35         12.948143   0.000000
     36         12.998093   0.000000
     37         13.725396   0.000000
     38         14.475982   0.000000
     39         14.506012   0.000000
     40         14.550168   0.000000
     41         14.792810   0.000000
     42         16.116649   0.000000
 
  0.3125000E+00  0.3125000E+00  0.1276756E-14  0.1562500E-01
      1         -5.697802   1.000000
      2         -0.240266   0.000000
      3         -0.234895   0.000000
      4          3.504823   0.000000
      5          4.620768   0.000000
      6          4.853442   0.000000
      7          5.087688   0.000000
      8          5.256996   0.000000
      9          5.360910   0.000000
     10          5.735484   0.000000
     11          5.944733   0.000000
     12          6.432618   0.000000
     13          6.650019   0.000000
     14          7.252187   0.000000
     15          7.601962   0.000000
     16          8.186132   0.000000
     17          8.721782   0.000000
     18          9.121332   0.000000
     19          9.884524   0.000000
     20         10.210478   0.000000
     21         10.240023   0.000000
     22         10.655149   0.000000
     23         11.641899   0.000000
     24         11.851108   0.000000
     25         13.023707   0.000000
     26         13.212631   0.000000
     27         13.435095   0.000000
     28         13.538818   0.000000
     29         13.915582   0.000000
     30         14.011122   0.000000
     31         14.059715   0.000000
     32         14.065649   0.000000
     33         14.246004   0.000000
     34         14.297335   0.000000
     35         14.317487   0.000000
     36         14.335101   0.000000
     37         14.702078   0.000000
     38         14.812666   0.000000
     39         14.834033   0.000000
     40         14.924218   0.000000
     41         15.163962   0.000000
     42         15.463065   0.000000
 
  0.3750000E+00  0.3125000E+00  0.1276756E-14  0.3125000E-01
      1         -4.930822   1.000000
      2         -0.954365   0.000000
      3          0.589441   0.000000
      4          3.716768   0.000000
      5          5.439658   0.000000
      6          5.743578   0.000000
      7          6.113003   0.000000
      8          6.250678   0.000000
      9          6.371040   0.000000
     10          6.684414   0.000000
     11          6.929828   0.000000
     12          7.203944   0.000000
     13          7.598130   0.000000
     14          7.833892   0.000000
     15          8.418050   0.000000
     16          8.633837   0.000000
     17          9.068508   0.000000
     18          9.609740   0.000000
     19          9.974187   0.000000
     20         10.418614   0.000000
     21         11.253647   0.000000
     22         11.254074   0.000000
     23         11.328090   0.000000
     24         12.007213   0.000000
     25         12.098715   0.000000
     26         12.312533   0.000000
     27         12.354023   0.000000
     28         12.625565   0.000000
     29         12.786794   0.000000
     30         12.843922   0.000000
     31         12.920427   0.000000
     32         13.556764   0.000000
     33         13.610802   0.000000
     34         14.187398   0.000000
     35         14.230360   0.000000
     36         14.522481   0.000000
     37         14.568547   0.000000
     38         14.636157   0.000000
     39         14.970368   0.000000
     40         15.091272   0.000000
     41         15.273628   0.000000
     42         15.340648   0.000000
 
  0.4375000E+00  0.3125000E+00  0.1276756E-14  0.3125000E-01
      1         -4.076745   1.000000
      2         -1.891172   0.000000
      3          1.386226   0.000000
      4          4.138305   0.000000
      5          5.824846   0.000000
      6          6.411716   0.000000
      7          7.284590   0.000000
      8          7.314668   0.000000
      9          7.467754   0.000000
     10          7.574214   0.000000
     11          7.742966   0.000000
     12          8.049238   0.000000
     13          8.284476   0.000000
     14          8.773693   0.000000
     15          8.979053   0.000000
     16          9.577511   0.000000
     17          9.626168   0.000000
     18          9.924564   0.000000
     19         10.170015   0.000000
     20         10.322897   0.000000
     21         10.463695   0.000000
     22         10.585405   0.000000
     23         10.733122   0.000000
     24         11.069426   0.000000
     25         11.072721   0.000000
     26         11.167389   0.000000
     27         11.451968   0.000000
     28         11.872837   0.000000
     29         11.906498   0.000000
     30         12.417203   0.000000
     31         12.443244   0.000000
     32         12.767786   0.000000
     33         12.840625   0.000000
     34         13.739881   0.000000
     35         13.946286   0.000000
     36         13.972719   0.000000
     37         14.011609   0.000000
     38         14.886902   0.000000
     39         15.250046   0.000000
     40         15.526234   0.000000
     41         15.529525   0.000000
     42         15.604345   0.000000
 
  0.5000000E+00  0.3125000E+00  0.1276756E-14  0.1562500E-01
      1         -3.431569   0.000000
      2         -2.580779   0.000000
      3          1.775042   0.000000
      4          4.393246   0.000000
      5          5.442112   0.000000
      6          6.735030   0.000000
      7          8.175286   0.000000
      8          8.195657   0.000000
      9          8.382488   0.000000
     10          8.708894   0.000000
     11          8.735067   0.000000
     12          8.735076   0.000000
     13          8.882505   0.000000
     14          9.004086   0.000000
     15          9.011218   0.000000
     16          9.011768   0.000000
     17          9.351302   0.000000
     18          9.506294   0.000000
     19          9.584499   0.000000
     20          9.609340   0.000000
     21         10.023402   0.000000
     22         10.291270   0.000000
     23         10.295354   0.000000
     24         10.333447   0.000000
     25         10.834859   0.000000
     26         11.244974   0.000000
     27         11.253539   0.000000
     28         11.304750   0.000000
     29         11.753876   0.000000
     30         12.407051   0.000000
     31         12.408187   0.000000
     32         12.468758   0.000000
     33         12.632334   0.000000
     34         13.719890   0.000000
     35         13.751105   0.000000
     36         13.758180   0.000000
     37         13.819354   0.000000
     38         14.526491   0.000000
     39         15.117887   0.000000
     40         15.294467   0.000000
     41         15.364994   0.000000
     42         15.393921   0.000000
 
  0.3750000E+00  0.3750000E+00  0.1276756E-14  0.1562500E-01
      1         -4.184193   1.000000
      2         -1.104961   0.000000
      3          1.390806   0.000000
      4          3.332559   0.000000
      5          6.133563   0.000000
      6          6.557019   0.000000
      7          7.117434   0.000000
      8          7.239403   0.000000
      9          7.244618   0.000000
     10          7.525347   0.000000
     11          7.625589   0.000000
     12          8.092077   0.000000
     13          8.092295   0.000000
     14          8.794378   0.000000
     15          8.804915   0.000000
     16          9.277075   0.000000
     17          9.691277   0.000000
     18          9.740430   0.000000
     19         10.781790   0.000000
     20         10.890645   0.000000
     21         12.038826   0.000000
     22         12.101051   0.000000
     23         12.231136   0.000000
     24         12.519581   0.000000
     25         12.824910   0.000000
     26         13.075871   0.000000
     27         13.124500   0.000000
     28         13.130764   0.000000
     29         13.261988   0.000000
     30         13.363144   0.000000
     31         13.382203   0.000000
     32         13.402761   0.000000
     33         13.603571   0.000000
     34         13.782482   0.000000
     35         13.843219   0.000000
     36         13.877385   0.000000
     37         13.901896   0.000000
     38         13.999997   0.000000
     39         14.378426   0.000000
     40         14.593723   0.000000
     41         14.658754   0.000000
     42         14.722560   0.000000
 
  0.4375000E+00  0.3750000E+00  0.1276756E-14  0.3125000E-01
      1         -3.365776   0.000000
      2         -1.634059   0.000000
      3          2.141970   0.000000
      4          3.410938   0.000000
      5          5.799849   0.000000
      6          6.725759   0.000000
      7          7.809912   0.000000
      8          8.299883   0.000000
      9          8.361139   0.000000
     10          8.582426   0.000000
     11          8.635046   0.000000
     12          9.021173   0.000000
     13          9.226688   0.000000
     14          9.487241   0.000000
     15          9.942973   0.000000
     16         10.029819   0.000000
     17         10.587648   0.000000
     18         10.873919   0.000000
     19         10.913605   0.000000
     20         11.257414   0.000000
     21         11.350712   0.000000
     22         11.563268   0.000000
     23         11.607639   0.000000
     24         11.942997   0.000000
     25         12.068439   0.000000
     26         12.088581   0.000000
     27         12.177419   0.000000
     28         12.708057   0.000000
     29         12.867570   0.000000
     30         13.177282   0.000000
     31         13.391257   0.000000
     32         13.414831   0.000000
     33         13.502960   0.000000
     34         13.893446   0.000000
     35         13.898829   0.000000
     36         14.312573   0.000000
     37         14.343410   0.000000
     38         14.586915   0.000000
     39         14.594653   0.000000
     40         14.776654   0.000000
     41         14.952260   0.000000
     42         15.009719   0.000000
 
  0.5000000E+00  0.3750000E+00  0.1276756E-14  0.1562500E-01
      1         -2.712066   0.000000
      2         -2.216052   0.000000
      3          2.495649   0.000000
      4          3.594911   0.000000
      5          5.367169   0.000000
      6          6.449511   0.000000
      7          9.033173   0.000000
      8          9.110073   0.000000
      9          9.124832   0.000000
     10          9.734286   0.000000
     11          9.761538   0.000000
     12          9.762398   0.000000
     13          9.856928   0.000000
     14         10.021166   0.000000
     15         10.031415   0.000000
     16         10.036604   0.000000
     17         10.219491   0.000000
     18         10.529943   0.000000
     19         10.593790   0.000000
     20         10.620237   0.000000
     21         10.650813   0.000000
     22         11.300007   0.000000
     23         11.311878   0.000000
     24         11.336269   0.000000
     25         11.337757   0.000000
     26         12.189812   0.000000
     27         12.208078   0.000000
     28         12.264640   0.000000
     29         12.306276   0.000000
     30         12.611959   0.000000
     31         13.266546   0.000000
     32         13.414543   0.000000
     33         13.460870   0.000000
     34         13.478263   0.000000
     35         14.538800   0.000000
     36         14.679125   0.000000
     37         14.697461   0.000000
     38         14.832160   0.000000
     39         14.978212   0.000000
     40         15.044479   0.000000
     41         15.537318   0.000000
     42         15.729766   0.000000
 
  0.4375000E+00  0.4375000E+00  0.1276756E-14  0.1562500E-01
      1         -2.639352   0.000000
      2         -1.630328   0.000000
      3          2.825264   0.000000
      4          3.053450   0.000000
      5          4.738300   0.000000
      6          7.514703   0.000000
      7          8.716964   0.000000
      8          8.900505   0.000000
      9          9.550644   0.000000
     10          9.575015   0.000000
     11          9.839962   0.000000
     12          9.845537   0.000000
     13         10.327972   0.000000
     14         10.421600   0.000000
     15         11.075523   0.000000
     16         11.133354   0.000000
     17         11.426194   0.000000
     18         11.545988   0.000000
     19         11.973978   0.000000
     20         12.014559   0.000000
     21         12.105148   0.000000
     22         12.514714   0.000000
     23         12.557809   0.000000
     24         12.563347   0.000000
     25         12.570112   0.000000
     26         12.802478   0.000000
     27         12.818422   0.000000
     28         12.821027   0.000000
     29         12.845111   0.000000
     30         13.123151   0.000000
     31         13.251772   0.000000
     32         13.316211   0.000000
     33         13.342188   0.000000
     34         13.353566   0.000000
     35         13.446206   0.000000
     36         14.014899   0.000000
     37         14.034553   0.000000
     38         14.097613   0.000000
     39         14.172523   0.000000
     40         14.488677   0.000000
     41         14.510301   0.000000
     42         14.829092   0.000000
 
  0.5000000E+00  0.4375000E+00  0.1276756E-14  0.1562500E-01
      1         -2.080046   0.000000
      2         -1.922824   0.000000
      3          3.029199   0.000000
      4          3.131972   0.000000
      5          4.246984   0.000000
      6          7.606986   0.000000
      7          8.855416   0.000000
      8         10.195764   0.000000
      9         10.257415   0.000000
     10         10.691093   0.000000
     11         10.872611   0.000000
     12         10.976706   0.000000
     13         10.976759   0.000000
     14         11.008561   0.000000
     15         11.189550   0.000000
     16         11.232023   0.000000
     17         11.237468   0.000000
     18         11.291958   0.000000
     19         11.671813   0.000000
     20         11.769644   0.000000
     21         11.796143   0.000000
     22         11.810783   0.000000
     23         12.400769   0.000000
     24         12.487914   0.000000
     25         12.504133   0.000000
     26         12.553370   0.000000
     27         13.113247   0.000000
     28         13.162078   0.000000
     29         13.248898   0.000000
     30         13.497772   0.000000
     31         13.523118   0.000000
     32         13.543119   0.000000
     33         13.803476   0.000000
     34         13.954679   0.000000
     35         13.968603   0.000000
     36         13.970534   0.000000
     37         14.139097   0.000000
     38         14.218857   0.000000
     39         14.225459   0.000000
     40         14.253792   0.000000
     41         14.435309   0.000000
     42         14.620791   0.000000
 
  0.5000000E+00  0.5000000E+00  0.1276756E-14  0.3906250E-02
      1         -1.805940   0.000000
      2         -1.805940   0.000000
      3          2.819914   0.000000
      4          3.409772   0.000000
      5          3.804526   0.000000
      6          8.530250   0.000000
      7          8.530250   0.000000
      8          9.677353   0.000000
      9         11.360783   0.000000
     10         11.360783   0.000000
     11         11.794630   0.000000
     12         11.807236   0.000000
     13         11.990581   0.000000
     14         12.327661   0.000000
     15         12.327661   0.000000
     16         12.376295   0.000000
     17         12.376295   0.000000
     18         12.382354   0.000000
     19         12.384140   0.000000
     20         12.389450   0.000000
     21         12.527209   0.000000
     22         12.615577   0.000000
     23         12.615577   0.000000
     24         12.633968   0.000000
     25         12.633968   0.000000
     26         12.659383   0.000000
     27         12.659612   0.000000
     28         12.699208   0.000000
     29         12.999732   0.000000
     30         13.129156   0.000000
     31         13.129156   0.000000
     32         13.155568   0.000000
     33         13.155568   0.000000
     34         13.194347   0.000000
     35         13.259062   0.000000
     36         13.262823   0.000000
     37         13.694596   0.000000
     38         13.848096   0.000000
     39         13.848096   0.000000
     40         13.910570   0.000000
     41         13.910570   0.000000
     42         13.993944   0.000000
