       N       E                     dE             d eps       ncg     rms          rms(c)
DAV:   1     0.680621572694E+00    0.68062E+00   -0.11215E+03******   0.263E+01
DAV:   2    -0.366320848106E+01   -0.43438E+01   -0.41378E+01******   0.730E+00
DAV:   3    -0.369715889150E+01   -0.33950E-01   -0.33867E-01******   0.637E-01
DAV:   4    -0.369716029922E+01   -0.14077E-05   -0.14087E-05******   0.373E-03
DAV:   5    -0.369716029892E+01    0.29919E-09   -0.16264E-11******   0.438E-06    0.786E-01
DAV:   6    -0.367540207268E+01    0.21758E-01   -0.15619E-03******   0.498E-02    0.484E-01
DAV:   7    -0.366687382674E+01    0.85282E-02   -0.14499E-03******   0.521E-02    0.182E-02
DAV:   8    -0.366685113318E+01    0.22694E-04   -0.55105E-06******   0.232E-03    0.678E-03
DAV:   9    -0.366685147433E+01   -0.34115E-06   -0.86579E-07******   0.745E-04
   1 F= -.36668515E+01 E0= -.36668483E+01  d E =-.628102E-05
 imaginary and real dielectric function
