   3   3   0   0
  0.8374985E+02  0.2506240E-09  0.2506240E-09  0.4000000E-08  0.5000000E-15
  1.000000000000000E-004
  CAR 
 Convergence                             
     21.17756341    -14.08582397  301     -2.23341465      1.00000000
    -14.086  0.0000E+00  0.0000E+00
    -13.968  0.0000E+00  0.0000E+00
    -13.851  0.0000E+00  0.0000E+00
    -13.733  0.0000E+00  0.0000E+00
    -13.616  0.0000E+00  0.0000E+00
    -13.498  0.0000E+00  0.0000E+00
    -13.381  0.0000E+00  0.0000E+00
    -13.263  0.0000E+00  0.0000E+00
    -13.145  0.0000E+00  0.0000E+00
    -13.028  0.0000E+00  0.0000E+00
    -12.910  0.0000E+00  0.0000E+00
    -12.793  0.0000E+00  0.0000E+00
    -12.675  0.5222E-09  0.6138E-10
    -12.558  0.6684E-03  0.7856E-04
    -12.440  0.1360E+00  0.1607E-01
    -12.323  0.3553E+00  0.5783E-01
    -12.205  0.3650E+00  0.1007E+00
    -12.088  0.3637E+00  0.1435E+00
    -11.970  0.3361E+00  0.1830E+00
    -11.852  0.3718E+00  0.2267E+00
    -11.735  0.3806E+00  0.2714E+00
    -11.617  0.3036E+00  0.3071E+00
    -11.500  0.4120E+00  0.3555E+00
    -11.382  0.3210E+00  0.3933E+00
    -11.265  0.3939E+00  0.4396E+00
    -11.147  0.3279E+00  0.4781E+00
    -11.030  0.3806E+00  0.5228E+00
    -10.912  0.3652E+00  0.5658E+00
    -10.795  0.3228E+00  0.6037E+00
    -10.677  0.3960E+00  0.6503E+00
    -10.559  0.3586E+00  0.6924E+00
    -10.442  0.2578E+00  0.7227E+00
    -10.324  0.5239E+00  0.7843E+00
    -10.207  0.2679E+00  0.8158E+00
    -10.089  0.3289E+00  0.8544E+00
     -9.972  0.4337E+00  0.9054E+00
     -9.854  0.3784E+00  0.9499E+00
     -9.737  0.2484E+00  0.9791E+00
     -9.619  0.4517E+00  0.1032E+01
     -9.502  0.4268E+00  0.1082E+01
     -9.384  0.2037E+00  0.1106E+01
     -9.266  0.4823E+00  0.1163E+01
     -9.149  0.4222E+00  0.1213E+01
     -9.031  0.2622E+00  0.1243E+01
     -8.914  0.4037E+00  0.1291E+01
     -8.796  0.4659E+00  0.1346E+01
     -8.679  0.7374E+00  0.1432E+01
     -8.561  0.7298E+00  0.1518E+01
     -8.444  0.7798E+00  0.1610E+01
     -8.326  0.8435E+00  0.1709E+01
     -8.209  0.6427E+00  0.1784E+01
     -8.091  0.6165E+00  0.1857E+01
     -7.974  0.7081E+00  0.1940E+01
     -7.856  0.5974E+00  0.2010E+01
     -7.738  0.5273E+00  0.2072E+01
     -7.621  0.6687E+00  0.2151E+01
     -7.503  0.8082E+00  0.2246E+01
     -7.386  0.6302E+00  0.2320E+01
     -7.268  0.7921E+00  0.2413E+01
     -7.151  0.6808E+00  0.2493E+01
     -7.033  0.8753E+00  0.2596E+01
     -6.916  0.7312E+00  0.2682E+01
     -6.798  0.7205E+00  0.2767E+01
     -6.681  0.7257E+00  0.2852E+01
     -6.563  0.9330E+00  0.2962E+01
     -6.445  0.7273E+00  0.3047E+01
     -6.328  0.7947E+00  0.3141E+01
     -6.210  0.7055E+00  0.3224E+01
     -6.093  0.9761E+00  0.3338E+01
     -5.975  0.8312E+00  0.3436E+01
     -5.858  0.9186E+00  0.3544E+01
     -5.740  0.8415E+00  0.3643E+01
     -5.623  0.9709E+00  0.3757E+01
     -5.505  0.1307E+01  0.3911E+01
     -5.388  0.9170E+00  0.4018E+01
     -5.270  0.1029E+01  0.4139E+01
     -5.152  0.8860E+00  0.4243E+01
     -5.035  0.1098E+01  0.4373E+01
     -4.917  0.1142E+01  0.4507E+01
     -4.800  0.1068E+01  0.4632E+01
     -4.682  0.8430E+00  0.4731E+01
     -4.565  0.1183E+01  0.4870E+01
     -4.447  0.9922E+00  0.4987E+01
     -4.330  0.9885E+00  0.5103E+01
     -4.212  0.1349E+01  0.5262E+01
     -4.095  0.8429E+00  0.5361E+01
     -3.977  0.8448E+00  0.5460E+01
     -3.859  0.7465E+00  0.5548E+01
     -3.742  0.4000E+00  0.5595E+01
     -3.624  0.4712E+00  0.5650E+01
     -3.507  0.5902E+00  0.5720E+01
     -3.389  0.3361E+00  0.5759E+01
     -3.272  0.1670E+00  0.5779E+01
     -3.154  0.3535E+00  0.5820E+01
     -3.037  0.3253E+00  0.5859E+01
     -2.919  0.9146E-01  0.5869E+01
     -2.802  0.1213E+00  0.5884E+01
     -2.684  0.1576E+00  0.5902E+01
     -2.566  0.1348E+00  0.5918E+01
     -2.449  0.8554E-01  0.5928E+01
     -2.331  0.2919E+00  0.5962E+01
     -2.214  0.4269E+00  0.6013E+01
     -2.096  0.1307E+01  0.6166E+01
     -1.979  0.2086E+01  0.6411E+01
     -1.861  0.1064E+01  0.6537E+01
     -1.744  0.1702E+01  0.6737E+01
     -1.626  0.1762E+01  0.6944E+01
     -1.509  0.1101E+01  0.7073E+01
     -1.391  0.1304E+01  0.7226E+01
     -1.273  0.1628E+01  0.7418E+01
     -1.156  0.1977E+01  0.7650E+01
     -1.038  0.1443E+01  0.7820E+01
     -0.921  0.1786E+01  0.8030E+01
     -0.803  0.2080E+01  0.8274E+01
     -0.686  0.1737E+01  0.8478E+01
     -0.568  0.2040E+01  0.8718E+01
     -0.451  0.1884E+01  0.8940E+01
     -0.333  0.1454E+01  0.9110E+01
     -0.216  0.9486E+00  0.9222E+01
     -0.098  0.9453E+00  0.9333E+01
      0.020  0.9513E+00  0.9445E+01
      0.137  0.9705E+00  0.9559E+01
      0.255  0.6232E+00  0.9632E+01
      0.372  0.6306E+00  0.9706E+01
      0.490  0.1939E+00  0.9729E+01
      0.607  0.1715E+00  0.9749E+01
      0.725  0.3627E+00  0.9792E+01
      0.842  0.7179E+00  0.9876E+01
      0.960  0.4748E+00  0.9932E+01
      1.077  0.5689E+00  0.9999E+01
      1.195  0.7882E+00  0.1009E+02
      1.313  0.7855E+00  0.1018E+02
      1.430  0.1173E+01  0.1032E+02
      1.548  0.1624E+01  0.1051E+02
      1.665  0.2502E+01  0.1081E+02
      1.783  0.3246E+01  0.1119E+02
      1.900  0.3037E+01  0.1155E+02
      2.018  0.3219E+01  0.1192E+02
      2.135  0.2721E+01  0.1224E+02
      2.253  0.3111E+01  0.1261E+02
      2.370  0.3090E+01  0.1297E+02
      2.488  0.3475E+01  0.1338E+02
      2.606  0.3011E+01  0.1374E+02
      2.723  0.3730E+01  0.1417E+02
      2.841  0.3472E+01  0.1458E+02
      2.958  0.3811E+01  0.1503E+02
      3.076  0.3586E+01  0.1545E+02
      3.193  0.4554E+01  0.1599E+02
      3.311  0.3559E+01  0.1640E+02
      3.428  0.3523E+01  0.1682E+02
      3.546  0.3754E+01  0.1726E+02
      3.663  0.3731E+01  0.1770E+02
      3.781  0.3994E+01  0.1817E+02
      3.899  0.3911E+01  0.1863E+02
      4.016  0.3923E+01  0.1909E+02
      4.134  0.3549E+01  0.1951E+02
      4.251  0.3764E+01  0.1995E+02
      4.369  0.3954E+01  0.2041E+02
      4.486  0.3972E+01  0.2088E+02
      4.604  0.3831E+01  0.2133E+02
      4.721  0.3807E+01  0.2178E+02
      4.839  0.4078E+01  0.2226E+02
      4.956  0.3955E+01  0.2272E+02
      5.074  0.4160E+01  0.2321E+02
      5.191  0.4327E+01  0.2372E+02
      5.309  0.4727E+01  0.2428E+02
      5.427  0.4548E+01  0.2481E+02
      5.544  0.4905E+01  0.2539E+02
      5.662  0.3881E+01  0.2584E+02
      5.779  0.4410E+01  0.2636E+02
      5.897  0.4777E+01  0.2692E+02
      6.014  0.4601E+01  0.2746E+02
      6.132  0.4593E+01  0.2800E+02
      6.249  0.4109E+01  0.2849E+02
      6.367  0.4254E+01  0.2899E+02
      6.484  0.4586E+01  0.2953E+02
      6.602  0.4677E+01  0.3008E+02
      6.720  0.4583E+01  0.3061E+02
      6.837  0.5030E+01  0.3121E+02
      6.955  0.4388E+01  0.3172E+02
      7.072  0.6064E+01  0.3243E+02
      7.190  0.5880E+01  0.3313E+02
      7.307  0.4943E+01  0.3371E+02
      7.425  0.4801E+01  0.3427E+02
      7.542  0.5681E+01  0.3494E+02
      7.660  0.4811E+01  0.3550E+02
      7.777  0.6105E+01  0.3622E+02
      7.895  0.5962E+01  0.3692E+02
      8.013  0.5203E+01  0.3753E+02
      8.130  0.5314E+01  0.3816E+02
      8.248  0.5212E+01  0.3877E+02
      8.365  0.5795E+01  0.3945E+02
      8.483  0.6172E+01  0.4018E+02
      8.600  0.6087E+01  0.4089E+02
      8.718  0.5698E+01  0.4156E+02
      8.835  0.5508E+01  0.4221E+02
      8.953  0.5673E+01  0.4288E+02
      9.070  0.5731E+01  0.4355E+02
      9.188  0.5457E+01  0.4419E+02
      9.306  0.6136E+01  0.4491E+02
      9.423  0.6477E+01  0.4568E+02
      9.541  0.5073E+01  0.4627E+02
      9.658  0.5200E+01  0.4688E+02
      9.776  0.6072E+01  0.4760E+02
      9.893  0.6118E+01  0.4832E+02
     10.011  0.5841E+01  0.4900E+02
     10.128  0.5751E+01  0.4968E+02
     10.246  0.6050E+01  0.5039E+02
     10.363  0.5131E+01  0.5099E+02
     10.481  0.5247E+01  0.5161E+02
     10.599  0.5926E+01  0.5231E+02
     10.716  0.6263E+01  0.5304E+02
     10.834  0.6189E+01  0.5377E+02
     10.951  0.6334E+01  0.5451E+02
     11.069  0.5982E+01  0.5522E+02
     11.186  0.5293E+01  0.5584E+02
     11.304  0.5654E+01  0.5650E+02
     11.421  0.6375E+01  0.5725E+02
     11.539  0.6062E+01  0.5797E+02
     11.656  0.6707E+01  0.5875E+02
     11.774  0.5312E+01  0.5938E+02
     11.892  0.6151E+01  0.6010E+02
     12.009  0.5297E+01  0.6072E+02
     12.127  0.5790E+01  0.6141E+02
     12.244  0.6364E+01  0.6215E+02
     12.362  0.5988E+01  0.6286E+02
     12.479  0.6591E+01  0.6363E+02
     12.597  0.7036E+01  0.6446E+02
     12.714  0.6896E+01  0.6527E+02
     12.832  0.6636E+01  0.6605E+02
     12.949  0.5851E+01  0.6674E+02
     13.067  0.6583E+01  0.6751E+02
     13.185  0.6110E+01  0.6823E+02
     13.302  0.6304E+01  0.6897E+02
     13.420  0.7688E+01  0.6987E+02
     13.537  0.7133E+01  0.7071E+02
     13.655  0.5571E+01  0.7137E+02
     13.772  0.6257E+01  0.7210E+02
     13.890  0.5449E+01  0.7274E+02
     14.007  0.6933E+01  0.7356E+02
     14.125  0.5991E+01  0.7426E+02
     14.242  0.5867E+01  0.7495E+02
     14.360  0.6118E+01  0.7567E+02
     14.478  0.4472E+01  0.7620E+02
     14.595  0.5003E+01  0.7678E+02
     14.713  0.5380E+01  0.7742E+02
     14.830  0.4353E+01  0.7793E+02
     14.948  0.4710E+01  0.7848E+02
     15.065  0.3085E+01  0.7884E+02
     15.183  0.3072E+01  0.7921E+02
     15.300  0.3326E+01  0.7960E+02
     15.418  0.2680E+01  0.7991E+02
     15.535  0.2795E+01  0.8024E+02
     15.653  0.2509E+01  0.8054E+02
     15.771  0.2097E+01  0.8078E+02
     15.888  0.2306E+01  0.8105E+02
     16.006  0.2717E+01  0.8137E+02
     16.123  0.1621E+01  0.8156E+02
     16.241  0.1769E+01  0.8177E+02
     16.358  0.1189E+01  0.8191E+02
     16.476  0.1514E+01  0.8209E+02
     16.593  0.2453E+01  0.8238E+02
     16.711  0.2030E+01  0.8262E+02
     16.828  0.9854E+00  0.8273E+02
     16.946  0.6506E+00  0.8281E+02
     17.064  0.7895E+00  0.8290E+02
     17.181  0.1052E+01  0.8302E+02
     17.299  0.7182E+00  0.8311E+02
     17.416  0.8676E+00  0.8321E+02
     17.534  0.5330E+00  0.8327E+02
     17.651  0.6111E+00  0.8334E+02
     17.769  0.9438E+00  0.8346E+02
     17.886  0.6481E+00  0.8353E+02
     18.004  0.5136E+00  0.8359E+02
     18.121  0.3129E+00  0.8363E+02
     18.239  0.4659E+00  0.8368E+02
     18.356  0.7161E+00  0.8377E+02
     18.474  0.2869E+00  0.8380E+02
     18.592  0.1796E+00  0.8382E+02
     18.709  0.3834E+00  0.8387E+02
     18.827  0.5207E-01  0.8387E+02
     18.944  0.1059E+00  0.8389E+02
     19.062  0.2385E-01  0.8389E+02
     19.179  0.2776E+00  0.8392E+02
     19.297  0.4046E-01  0.8393E+02
     19.414  0.7881E-01  0.8394E+02
     19.532  0.4197E+00  0.8399E+02
     19.649  0.1237E+00  0.8400E+02
     19.767  0.9918E-03  0.8400E+02
     19.885  0.1478E-08  0.8400E+02
     20.002  0.0000E+00  0.8400E+02
     20.120  0.0000E+00  0.8400E+02
     20.237  0.0000E+00  0.8400E+02
     20.355  0.0000E+00  0.8400E+02
     20.472  0.0000E+00  0.8400E+02
     20.590  0.0000E+00  0.8400E+02
     20.707  0.0000E+00  0.8400E+02
     20.825  0.0000E+00  0.8400E+02
     20.942  0.0000E+00  0.8400E+02
     21.060  0.0000E+00  0.8400E+02
     21.178  0.0000E+00  0.8400E+02
