       N       E                     dE             d eps       ncg     rms          rms(c)
DAV:   1    -0.803539588114E+01   -0.80354E+01   -0.14260E+03  1288   0.198E+02
DAV:   2    -0.175604660374E+02   -0.95251E+01   -0.86745E+01  1680   0.276E+01
DAV:   3    -0.177834824858E+02   -0.22302E+00   -0.22280E+00  1904   0.545E+00
DAV:   4    -0.177839310291E+02   -0.44854E-03   -0.44854E-03  1960   0.238E-01
DAV:   5    -0.177839313367E+02   -0.30760E-06   -0.30709E-06  1904   0.703E-03
DAV:   6    -0.177839313375E+02   -0.84560E-09   -0.12395E-08  1876   0.378E-04
   1 F= -.17783931E+02 E0= -.17783809E+02  d E =-.245230E-03  mag=     0.0000    -0.0000     0.0000
