 running   42 mpi-ranks, on    1 nodes
 distrk:  each k-point on   42 cores,    1 groups
 distr:  one band on    1 cores,   42 groups
 vasp.6.5.0 16Dec24 (build Jan 08 2025 16:17:04) complex                        
  
 POSCAR found type information on POSCAR Be
 POSCAR found :  1 types and       3 ions
 Reading from existing POTCAR
 scaLAPACK will be used
 -----------------------------------------------------------------------------
|                                                                             |
|           W    W    AA    RRRRR   N    N  II  N    N   GGGG   !!!           |
|           W    W   A  A   R    R  NN   N  II  NN   N  G    G  !!!           |
|           W    W  A    A  R    R  N N  N  II  N N  N  G       !!!           |
|           W WW W  AAAAAA  RRRRR   N  N N  II  N  N N  G  GGG   !            |
|           WW  WW  A    A  R   R   N   NN  II  N   NN  G    G                |
|           W    W  A    A  R    R  N    N  II  N    N   GGGG   !!!           |
|                                                                             |
|     The value NCORE = 16 specified in the INCAR file was overwritten,       |
|     because it was not compatible with the 42 processes available:          |
|     NCORE = 1                                                               |
|     was used instead, please check that this makes sense for your           |
|     machine.                                                                |
|                                                                             |
 -----------------------------------------------------------------------------

 -----------------------------------------------------------------------------
|                                                                             |
|           W    W    AA    RRRRR   N    N  II  N    N   GGGG   !!!           |
|           W    W   A  A   R    R  NN   N  II  NN   N  G    G  !!!           |
|           W    W  A    A  R    R  N N  N  II  N N  N  G       !!!           |
|           W WW W  AAAAAA  RRRRR   N  N N  II  N  N N  G  GGG   !            |
|           WW  WW  A    A  R   R   N   NN  II  N   NN  G    G                |
|           W    W  A    A  R    R  N    N  II  N    N   GGGG   !!!           |
|                                                                             |
|     For optimal performance we recommend to set                             |
|       NCORE = 2 up to number-of-cores-per-socket                            |
|     NCORE specifies how many cores store one orbital (NPAR=cpu/NCORE).      |
|     This setting can greatly improve the performance of VASP for DFT.       |
|     The default, NCORE=1 might be grossly inefficient on modern             |
|     multi-core architectures or massively parallel machines. Do your        |
|     own testing! More info at https://www.vasp.at/wiki/index.php/NCORE      |
|     Unfortunately you need to use the default for GW and RPA                |
|     calculations (for HF NCORE is supported but not extensively tested      |
|     yet).                                                                   |
|                                                                             |
 -----------------------------------------------------------------------------

 Reading from existing POTCAR
 LDA part: xc-table for (Slater+PW92), standard interpolation
 -----------------------------------------------------------------------------
|                                                                             |
|           W    W    AA    RRRRR   N    N  II  N    N   GGGG   !!!           |
|           W    W   A  A   R    R  NN   N  II  NN   N  G    G  !!!           |
|           W    W  A    A  R    R  N N  N  II  N N  N  G       !!!           |
|           W WW W  AAAAAA  RRRRR   N  N N  II  N  N N  G  GGG   !            |
|           WW  WW  A    A  R   R   N   NN  II  N   NN  G    G                |
|           W    W  A    A  R    R  N    N  II  N    N   GGGG   !!!           |
|                                                                             |
|     The number of bands has been changed from the values supplied in        |
|     the INCAR file. This is a result of running the parallel version.       |
|     The orbitals not found in the WAVECAR file will be initialized with     |
|     random numbers, which is usually adequate. For correlated               |
|     calculations, however, you should redo the groundstate calculation.     |
|     I found NBANDS = 96. Now, NBANDS = 126.                                 |
|                                                                             |
 -----------------------------------------------------------------------------

 POSCAR, INCAR and KPOINTS ok, starting setup
 FFT: planning ... GRIDC
 FFT: planning ... GRID_SOFT
 FFT: planning ... GRID
 WAVECAR not read
 entering main loop
       N       E                     dE             d eps       ncg     rms          rms(c)
DAV:   1     0.129167497628E+02    0.12917E+02   -0.22223E+03 22932   0.369E+01
DAV:   2    -0.111972833695E+02   -0.24114E+02   -0.23583E+02 29148   0.141E+01
DAV:   3    -0.114903350644E+02   -0.29305E+00   -0.29255E+00 30198   0.107E+00
DAV:   4    -0.114907307021E+02   -0.39564E-03   -0.39563E-03 25872   0.453E-02
DAV:   5    -0.114907315720E+02   -0.86986E-06   -0.86970E-06 30114   0.199E-03    0.303E+00
DAV:   6    -0.102282096092E+02    0.12625E+01   -0.47525E+00 29274   0.480E-01    0.121E+00
DAV:   7    -0.100665851281E+02    0.16162E+00   -0.29916E-01 30534   0.120E-01    0.592E-01
DAV:   8    -0.100131602368E+02    0.53425E-01   -0.84109E-02 30324   0.759E-02    0.174E-01
DAV:   9    -0.100075280528E+02    0.56322E-02   -0.81617E-03 30072   0.267E-02    0.867E-02
DAV:  10    -0.100053178146E+02    0.22102E-02   -0.10771E-02 29862   0.238E-02    0.473E-02
DAV:  11    -0.100062410307E+02   -0.92322E-03   -0.58800E-04 28728   0.690E-03    0.253E-02
DAV:  12    -0.100068753865E+02   -0.63436E-03   -0.69749E-04 28854   0.712E-03    0.144E-02
DAV:  13    -0.100074234873E+02   -0.54810E-03   -0.85379E-05 27552   0.309E-03    0.482E-03
DAV:  14    -0.100075514525E+02   -0.12797E-03   -0.14751E-05 27846   0.101E-03    0.373E-03
DAV:  15    -0.100076933218E+02   -0.14187E-03   -0.20908E-05 27216   0.105E-03    0.127E-03
DAV:  16    -0.100077286940E+02   -0.35372E-04   -0.25398E-06 26040   0.252E-04    0.664E-04
DAV:  17    -0.100077457386E+02   -0.17045E-04   -0.10981E-06 26964   0.172E-04    0.318E-04
DAV:  18    -0.100077536330E+02   -0.78944E-05   -0.33309E-07 27048   0.720E-05    0.129E-04
DAV:  19    -0.100077552119E+02   -0.15789E-05   -0.79648E-09 28602   0.214E-05    0.699E-05
DAV:  20    -0.100077557925E+02   -0.58060E-06   -0.85627E-09 27552   0.138E-05
   1 F= -.10007756E+02 E0= -.10007703E+02  d E =-.105020E-03
 writing wavefunctions
 optical routines
 imaginary and real dielectric function
 recalculating local potential from charge density
 direction            1
 direction            2
 direction            3
