       N       E                     dE             d eps       ncg     rms          rms(c)
DAV:   1    -0.359300194939E+00   -0.35930E+00   -0.96765E+02 32004   0.369E+01
DAV:   2    -0.342596890501E+01   -0.30667E+01   -0.26056E+01 47880   0.504E+00
DAV:   3    -0.342863668561E+01   -0.26678E-02   -0.26671E-02 33012   0.171E-01
DAV:   4    -0.342864032246E+01   -0.36368E-05   -0.36366E-05 61992   0.625E-03
DAV:   5    -0.342864032298E+01   -0.51698E-09   -0.99871E-11 33138   0.182E-05    0.231E+00
DAV:   6    -0.313111533763E+01    0.29752E+00   -0.14914E-01 47922   0.214E-01    0.125E+00
DAV:   7    -0.297731152619E+01    0.15380E+00   -0.23058E-01 43890   0.237E-01    0.174E-01
DAV:   8    -0.297341156178E+01    0.39000E-02   -0.23475E-03 51954   0.301E-02    0.682E-02
DAV:   9    -0.297090957027E+01    0.25020E-02   -0.21042E-03 52206   0.210E-02    0.427E-02
DAV:  10    -0.297170765453E+01   -0.79808E-03   -0.12028E-03 53550   0.168E-02    0.172E-02
DAV:  11    -0.297200913720E+01   -0.30148E-03   -0.18762E-04 53466   0.667E-03    0.108E-02
DAV:  12    -0.297235633538E+01   -0.34720E-03   -0.41724E-05 49476   0.297E-03    0.543E-03
DAV:  13    -0.297267125033E+01   -0.31491E-03   -0.51457E-05 46704   0.203E-03    0.202E-03
DAV:  14    -0.297275273120E+01   -0.81481E-04   -0.13609E-05 45780   0.125E-03    0.167E-03
DAV:  15    -0.297279319177E+01   -0.40461E-04   -0.63504E-06 46242   0.710E-04    0.545E-04
DAV:  16    -0.297280531460E+01   -0.12123E-04   -0.13530E-06 48090   0.455E-04    0.840E-04
DAV:  17    -0.297280763452E+01   -0.23199E-05   -0.41697E-07 46704   0.288E-04    0.150E-04
DAV:  18    -0.297280929741E+01   -0.16629E-05   -0.15379E-08 45402   0.457E-05    0.995E-05
DAV:  19    -0.297280957534E+01   -0.27794E-06   -0.27779E-09 46494   0.245E-05
   1 F= -.29728096E+01 E0= -.29726689E+01  d E =-.281335E-03
