<?xml version="1.0" encoding="ISO-8859-1"?>
<modeling>
 <generator>
  <i name="program" type="string">vasp </i>
  <i name="version" type="string">6.5.0  </i>
  <i name="subversion" type="string">16Dec24 (build Jan 08 2025 16:17:04) complex                          parallel </i>
  <i name="platform" type="string">LinuxIFC </i>
  <i name="date" type="string">2025 07 25 </i>
  <i name="time" type="string">21:37:01 </i>
 </generator>
 <incar>
  <i type="string" name="SYSTEM">Convergence</i>
  <i type="int" name="ISTART">     0</i>
  <i type="string" name="PREC">Accurate</i>
  <i type="string" name="ALGO">Normal</i>
  <i type="int" name="ISPIN">     1</i>
  <i type="int" name="ICHARG">     2</i>
  <i type="int" name="NELM">   100</i>
  <i type="int" name="IBRION">    -1</i>
  <i name="EDIFF">      0.00000100</i>
  <i name="EDIFFG">     -0.00100000</i>
  <i type="int" name="NSW">     0</i>
  <i type="int" name="ISIF">     2</i>
  <i name="ENCUT">    600.00000000</i>
  <i name="POTIM">      0.50000000</i>
  <i type="int" name="ISMEAR">     0</i>
  <i name="SIGMA">      0.05000000</i>
  <i type="logical" name="LWAVE"> F  </i>
  <i type="logical" name="LCHARG"> F  </i>
  <i type="string" name="GGA">PE</i>
  <i type="logical" name="LDIPOL"> T  </i>
  <i type="int" name="IDIPOL">     3</i>
  <v name="DIPOL">      0.50000000      0.50000000      0.10000000</v>
 </incar>
 <primitive_cell>
  <structure name="primitive_cell" >
   <crystal>
    <varray name="basis" >
     <v>       2.50624000       0.00000000       0.00000000 </v>
     <v>       0.00000000       2.50624000       0.00000000 </v>
     <v>       0.00000000       0.00000000      40.00000000 </v>
    </varray>
    <i name="volume">    251.24955750 </i>
    <varray name="rec_basis" >
     <v>       0.39900409       0.00000000       0.00000000 </v>
     <v>       0.00000000       0.39900409       0.00000000 </v>
     <v>       0.00000000       0.00000000       0.02500000 </v>
    </varray>
   </crystal>
   <varray name="positions" >
    <v>       0.00000000       0.00000000       0.10000000 </v>
   </varray>
  </structure>
  <varray name="primitive_index" >
   <v type="int" >        1 </v>
  </varray>
 </primitive_cell>
 <kpoints>
  <generation param="Gamma">
   <v type="int" name="divisions">      13       13        1 </v>
   <v name="usershift">      0.00000000       0.00000000       0.00000000 </v>
   <v name="genvec1">      0.07692308       0.00000000       0.00000000 </v>
   <v name="genvec2">      0.00000000       0.07692308       0.00000000 </v>
   <v name="genvec3">      0.00000000       0.00000000       1.00000000 </v>
   <v name="shift">      0.00000000       0.00000000       0.00000000 </v>
  </generation>
  <varray name="kpointlist" >
   <v>       0.00000000       0.00000000       0.00000000 </v>
   <v>       0.07692308       0.00000000       0.00000000 </v>
   <v>       0.15384615       0.00000000       0.00000000 </v>
   <v>       0.23076923       0.00000000       0.00000000 </v>
   <v>       0.30769231       0.00000000       0.00000000 </v>
   <v>       0.38461538       0.00000000       0.00000000 </v>
   <v>       0.46153846       0.00000000       0.00000000 </v>
   <v>       0.07692308       0.07692308       0.00000000 </v>
   <v>       0.15384615       0.07692308       0.00000000 </v>
   <v>       0.23076923       0.07692308       0.00000000 </v>
   <v>       0.30769231       0.07692308       0.00000000 </v>
   <v>       0.38461538       0.07692308       0.00000000 </v>
   <v>       0.46153846       0.07692308       0.00000000 </v>
   <v>       0.15384615       0.15384615       0.00000000 </v>
   <v>       0.23076923       0.15384615       0.00000000 </v>
   <v>       0.30769231       0.15384615       0.00000000 </v>
   <v>       0.38461538       0.15384615       0.00000000 </v>
   <v>       0.46153846       0.15384615       0.00000000 </v>
   <v>       0.23076923       0.23076923       0.00000000 </v>
   <v>       0.30769231       0.23076923       0.00000000 </v>
   <v>       0.38461538       0.23076923       0.00000000 </v>
   <v>       0.46153846       0.23076923       0.00000000 </v>
   <v>       0.30769231       0.30769231       0.00000000 </v>
   <v>       0.38461538       0.30769231       0.00000000 </v>
   <v>       0.46153846       0.30769231       0.00000000 </v>
   <v>       0.38461538       0.38461538       0.00000000 </v>
   <v>       0.46153846       0.38461538       0.00000000 </v>
   <v>       0.46153846       0.46153846       0.00000000 </v>
  </varray>
  <varray name="weights" >
   <v>       0.00591716 </v>
   <v>       0.02366864 </v>
   <v>       0.02366864 </v>
   <v>       0.02366864 </v>
   <v>       0.02366864 </v>
   <v>       0.02366864 </v>
   <v>       0.02366864 </v>
   <v>       0.02366864 </v>
   <v>       0.04733728 </v>
   <v>       0.04733728 </v>
   <v>       0.04733728 </v>
   <v>       0.04733728 </v>
   <v>       0.04733728 </v>
   <v>       0.02366864 </v>
   <v>       0.04733728 </v>
   <v>       0.04733728 </v>
   <v>       0.04733728 </v>
   <v>       0.04733728 </v>
   <v>       0.02366864 </v>
   <v>       0.04733728 </v>
   <v>       0.04733728 </v>
   <v>       0.04733728 </v>
   <v>       0.02366864 </v>
   <v>       0.04733728 </v>
   <v>       0.04733728 </v>
   <v>       0.02366864 </v>
   <v>       0.04733728 </v>
   <v>       0.02366864 </v>
  </varray>
 </kpoints>
 <parameters>
  <separator name="general" >
   <i type="string" name="SYSTEM">Convergence</i>
   <i type="logical" name="LCOMPAT"> F  </i>
  </separator>
  <separator name="electronic" >
   <i type="string" name="PREC">accura</i>
   <i name="ENMAX">    600.00000000</i>
   <i name="ENAUG">    318.78100000</i>
   <i name="EDIFF">      0.00000100</i>
   <i type="int" name="IALGO">    38</i>
   <i type="int" name="IWAVPR">    10</i>
   <i type="int" name="NBANDS">    42</i>
   <i type="int" name="NBANDSLOW">    -1</i>
   <i type="int" name="NBANDSHIGH">    -1</i>
   <i name="NELECT">      2.00000000</i>
   <i type="int" name="TURBO">     0</i>
   <i type="int" name="IRESTART">     0</i>
   <i type="int" name="NREBOOT">     0</i>
   <i type="int" name="NMIN">     0</i>
   <i name="EREF">      0.00000000</i>
   <separator name="electronic smearing" >
    <i type="int" name="ISMEAR">     0</i>
    <i name="SIGMA">      0.05000000</i>
    <i name="KSPACING">      0.50000000</i>
    <i type="logical" name="KGAMMA"> T  </i>
    <i type="logical" name="KBLOWUP"> T  </i>
   </separator>
   <separator name="electronic projectors" >
    <i type="logical" name="LREAL"> F  </i>
    <v name="ROPT">      0.00000000</v>
    <i type="int" name="LMAXPAW">  -100</i>
    <i type="int" name="LMAXMIX">     2</i>
    <i type="logical" name="NLSPLINE"> F  </i>
   </separator>
   <separator name="electronic startup" >
    <i type="int" name="ISTART">     0</i>
    <i type="int" name="ICHARG">     2</i>
    <i type="int" name="INIWAV">     1</i>
   </separator>
   <separator name="electronic spin" >
    <i type="int" name="ISPIN">     1</i>
    <i type="logical" name="LNONCOLLINEAR"> F  </i>
    <v name="MAGMOM">      1.00000000</v>
    <i name="NUPDOWN">     -1.00000000</i>
    <i type="logical" name="LSORBIT"> F  </i>
    <v name="SAXIS">      0.00000000      0.00000000      1.00000000</v>
    <i type="logical" name="LSPIRAL"> F  </i>
    <v name="QSPIRAL">      0.00000000      0.00000000      0.00000000</v>
    <i type="logical" name="LZEROZ"> F  </i>
   </separator>
   <separator name="electronic exchange-correlation" >
    <i type="logical" name="LASPH"> F  </i>
   </separator>
   <separator name="electronic convergence" >
    <i type="int" name="NELM">   100</i>
    <i type="int" name="NELMDL">    -5</i>
    <i type="int" name="NELMIN">     2</i>
    <i name="ENINI">    600.00000000</i>
    <separator name="electronic convergence detail" >
     <i type="logical" name="LDIAG"> T  </i>
     <i type="logical" name="LSUBROT"> F  </i>
     <i name="WEIMIN">      0.00000000</i>
     <i name="EBREAK">      0.00000001</i>
     <i name="DEPER">      0.30000000</i>
     <i type="int" name="NRMM">     4</i>
     <i name="TIME">      0.40000000</i>
    </separator>
   </separator>
   <separator name="electronic mixer" >
    <i name="AMIX">      0.40000000</i>
    <i name="BMIX">      1.00000000</i>
    <i name="AMIN">      0.10000000</i>
    <i name="AMIX_MAG">      1.60000000</i>
    <i name="BMIX_MAG">      1.00000000</i>
    <separator name="electronic mixer details" >
     <i type="int" name="IMIX">     4</i>
     <i type="logical" name="MIXFIRST"> F  </i>
     <i type="int" name="MAXMIX">   -45</i>
     <i name="WC">    100.00000000</i>
     <i type="int" name="INIMIX">     1</i>
     <i type="int" name="MIXPRE">     1</i>
     <i type="int" name="MREMOVE">     5</i>
    </separator>
   </separator>
   <separator name="electronic dipolcorrection" >
    <i type="logical" name="LDIPOL"> T  </i>
    <i type="logical" name="LMONO"> F  </i>
    <i type="int" name="IDIPOL">     3</i>
    <i name="EPSILON">      1.00000000</i>
    <v name="DIPOL">      0.50000000      0.50000000      0.10000000</v>
    <i name="EFIELD">      0.00000000</i>
    <i type="logical" name="LVACPOTAV"> F  </i>
   </separator>
  </separator>
  <separator name="grids" >
   <i type="int" name="NGX">    20</i>
   <i type="int" name="NGY">    20</i>
   <i type="int" name="NGZ">   320</i>
   <i type="int" name="NGXF">    40</i>
   <i type="int" name="NGYF">    40</i>
   <i type="int" name="NGZF">   640</i>
   <i type="logical" name="ADDGRID"> F  </i>
  </separator>
  <separator name="ionic" >
   <i type="int" name="NSW">     0</i>
   <i type="int" name="IBRION">    -1</i>
   <i type="int" name="MDALGO">     0</i>
   <i type="int" name="ISIF">     2</i>
   <i name="PSTRESS">      0.00000000</i>
   <i name="EDIFFG">     -0.00100000</i>
   <i type="int" name="NFREE">     0</i>
   <i name="POTIM">      0.50000000</i>
   <i name="SMASS">     -3.00000000</i>
   <i name="SCALEE">      1.00000000</i>
  </separator>
  <separator name="ionic md" >
   <i name="TEBEG">      0.00010000</i>
   <i name="TEEND">      0.00010000</i>
   <i type="int" name="NBLOCK">     1</i>
   <i type="int" name="KBLOCK">     1</i>
   <i type="int" name="NPACO">   256</i>
   <i name="APACO">     10.00000000</i>
  </separator>
  <separator name="symmetry" >
   <i type="int" name="ISYM">     2</i>
   <i name="SYMPREC">      0.00001000</i>
  </separator>
  <separator name="dos" >
   <i type="int" name="LORBIT">     0</i>
   <v name="RWIGS">     -1.00000000</v>
   <i type="int" name="NEDOS">   301</i>
   <i name="EMIN">     10.00000000</i>
   <i name="EMAX">    -10.00000000</i>
   <i name="EFERMI">      0.00000000</i>
  </separator>
  <separator name="writing" >
   <i type="int" name="NWRITE">     2</i>
   <i type="logical" name="LWAVE"> F  </i>
   <i type="logical" name="LDOWNSAMPLE"> F  </i>
   <i type="logical" name="LCHARG"> F  </i>
   <i type="logical" name="LPARD"> F  </i>
   <i type="logical" name="LVTOT"> F  </i>
   <i type="logical" name="LVHAR"> F  </i>
   <i type="logical" name="LELF"> F  </i>
   <i type="logical" name="LOPTICS"> F  </i>
   <v name="STM">      0.00000000      0.00000000      0.00000000      0.00000000      0.00000000      0.00000000      0.00000000</v>
  </separator>
  <separator name="performance" >
   <i type="int" name="NPAR">    42</i>
   <i type="int" name="NSIM">     4</i>
   <i type="int" name="NBLK">    -1</i>
   <i type="logical" name="LPLANE"> T  </i>
   <i type="logical" name="LSCALAPACK"> T  </i>
   <i type="logical" name="LSCAAWARE"> F  </i>
   <i type="logical" name="LSCALU"> F  </i>
   <i type="logical" name="LASYNC"> F  </i>
   <i type="logical" name="LORBITALREAL"> F  </i>
  </separator>
  <separator name="miscellaneous" >
   <i type="int" name="IDIOT">     3</i>
   <i type="int" name="PHON_NSTRUCT">    -1</i>
   <i type="logical" name="LMUSIC"> F  </i>
   <v name="POMASS">      9.01300000</v>
   <v name="DARWINR">      0.00000000</v>
   <v name="DARWINV">      1.00000000</v>
   <i type="logical" name="LCORR"> T  </i>
  </separator>
  <i type="logical" name="GGA_COMPAT"> T  </i>
  <i type="logical" name="LBERRY"> F  </i>
  <i type="int" name="ICORELEVEL">     0</i>
  <i type="logical" name="LDAU"> F  </i>
  <i type="int" name="I_CONSTRAINED_M">     0</i>
  <separator name="electronic exchange-correlation" >
   <i type="string" name="GGA    ">PE</i>
   <i type="string" name="XC_C">1</i>
   <i type="int" name="VOSKOWN">     0</i>
   <i type="logical" name="LHFCALC"> F  </i>
   <i type="string" name="PRECFOCK"></i>
   <i type="logical" name="LSYMGRAD"> F  </i>
   <i type="logical" name="LHFONE"> F  </i>
   <i type="logical" name="LRHFCALC"> F  </i>
   <i type="logical" name="LTHOMAS"> F  </i>
   <i type="logical" name="LMODELHF"> F  </i>
   <i type="logical" name="LFOCKACE"> F  </i>
   <i name="ENCUT4O">     -1.00000000</i>
   <i type="int" name="EXXOEP">     0</i>
   <i type="int" name="FOURORBIT">     0</i>
   <i name="AEXX">      0.00000000</i>
   <i name="HFALPHA">      0.00000000</i>
   <i name="MCALPHA">      0.00000000</i>
   <i name="ALDAX">      1.00000000</i>
   <i name="AGGAX">      1.00000000</i>
   <i name="AMGGAX">      1.00000000</i>
   <i name="ALDAC">      1.00000000</i>
   <i name="AGGAC">      1.00000000</i>
   <i name="AMGGAC">      1.00000000</i>
   <i type="int" name="NKREDX">     1</i>
   <i type="int" name="NKREDY">     1</i>
   <i type="int" name="NKREDZ">     1</i>
   <i type="logical" name="SHIFTRED"> F  </i>
   <i type="logical" name="ODDONLY"> F  </i>
   <i type="logical" name="EVENONLY"> F  </i>
   <i type="int" name="LMAXFOCK">     0</i>
   <i type="int" name="NMAXFOCKAE">     0</i>
   <i type="logical" name="LFOCKAEDFT"> F  </i>
   <i name="HFSCREEN">      0.00000000</i>
   <i name="HFSCREENC">      0.00000000</i>
   <i type="int" name="NBANDSGWLOW">     0</i>
  </separator>
  <separator name="vdW DFT" >
   <i type="logical" name="LUSE_VDW"> F  </i>
   <i type="int" name="IVDW_NL">    -1</i>
   <i type="logical" name="LSPIN_VDW"> F  </i>
   <i name="ZAB_VDW">     -0.84910000</i>
   <i name="GAMMA_VDW">      1.39626340</i>
   <i name="ALPHA_VDW">      0.00000000</i>
   <i name="PARAM1">      0.12340000</i>
   <i name="PARAM2">      1.00000000</i>
   <i name="BPARAM">      6.30000000</i>
   <i name="CPARAM">      0.00930000</i>
  </separator>
  <separator name="model GW" >
   <i type="int" name="MODEL_GW">     0</i>
   <i name="MODEL_EPS0">    150.74973450</i>
   <i name="MODEL_ALPHA">      1.00000000</i>
  </separator>
  <separator name="linear response parameters" >
   <i type="logical" name="LEPSILON"> F  </i>
   <i type="logical" name="LRPA"> F  </i>
   <i type="logical" name="LNABLA"> F  </i>
   <i type="logical" name="LVEL"> F  </i>
   <i name="CSHIFT">      0.10000000</i>
   <i name="OMEGAMAX">     -1.00000000</i>
   <i name="DEG_THRESHOLD">      0.00200000</i>
   <i name="RTIME">     -0.10000000</i>
   <i name="WPLASMAI">      0.00000000</i>
   <v name="DFIELD">      0.00000000      0.00000000      0.00000000</v>
   <v name="WPLASMA">      0.00000000      0.00000000      0.00000000      0.00000000      0.00000000      0.00000000      0.00000000      0.00000000      0.00000000</v>
  </separator>
  <separator name="orbital magnetization" >
   <i type="logical" name="NUCIND"> F  </i>
   <v name="MAGPOS">      0.00000000      0.00000000      0.00000000</v>
   <i type="logical" name="LNICSALL"> T  </i>
   <i type="logical" name="ORBITALMAG"> F  </i>
   <i type="logical" name="LMAGBLOCH"> F  </i>
   <i type="logical" name="LCHIMAG"> F  </i>
   <i type="logical" name="LGAUGE"> T  </i>
   <i type="int" name="MAGATOM">     0</i>
   <v name="MAGDIPOL">      0.00000000      0.00000000      0.00000000</v>
   <v name="AVECCONST">      0.00000000      0.00000000      0.00000000</v>
  </separator>
  <separator name="response functions" >
   <i type="logical" name="LALL_IN_ONE"> F  </i>
   <i type="int" name="IALL_IN_ONE">    -1</i>
   <i type="int" name="NBANDS_WAVE">    -1</i>
   <i type="logical" name="LFINITE_TEMPERATURE"> F  </i>
   <i type="logical" name="LADDER"> F  </i>
   <i type="logical" name="LRPAFORCE"> F  </i>
   <i type="logical" name="LFXC"> F  </i>
   <i type="logical" name="LHARTREE"> T  </i>
   <i type="int" name="IBSE">     2</i>
   <v type="int" name="KPOINT">    -1     0     0     0</v>
   <i type="logical" name="LTCTC"> F  </i>
   <i type="logical" name="LTCTE"> F  </i>
   <i type="logical" name="LTETE"> F  </i>
   <i type="logical" name="LTRIPLET"> F  </i>
   <i type="logical" name="LFXCEPS"> F  </i>
   <i type="logical" name="LFXHEG"> F  </i>
   <i type="int" name="NATURALO">     2</i>
   <i type="logical" name="LHOLEGF"> F  </i>
   <i type="logical" name="L2ORDER"> F  </i>
   <i type="logical" name="LDMP1"> F  </i>
   <i type="logical" name="LMP2LT"> F  </i>
   <i type="logical" name="LSMP2LT"> F  </i>
   <i type="logical" name="LGWLF"> F  </i>
   <i name="ENCUTGW">     -1.60000002</i>
   <i name="ENCUTGWSOFT">     -1.60000002</i>
   <i name="ENCUTLF">     -1.00000000</i>
   <i type="logical" name="ESF_SPLINES"> F  </i>
   <i name="ESF_CONV">      0.01000000</i>
   <i type="int" name="ESF_NINTER">    15</i>
   <i type="int" name="LMAXMP2">    -1</i>
   <i name="SCISSOR">      0.00000000</i>
   <i type="int" name="NOMEGA">     0</i>
   <i type="int" name="NOMEGAR">     0</i>
   <i type="int" name="NBANDSGW">    -1</i>
   <i type="int" name="NBANDSO">    -1</i>
   <i type="int" name="NBANDSV">    -1</i>
   <i type="int" name="NELMGW">     1</i>
   <i type="int" name="NELMHF">     1</i>
   <i type="int" name="DIM">     3</i>
   <i type="int" name="IESPILON">     4</i>
   <i type="int" name="ANTIRES">     0</i>
   <i name="OMEGAMAX">    -30.00000000</i>
   <i name="OMEGAMIN">    -30.00000000</i>
   <i name="OMEGATL">   -200.00000000</i>
   <i type="int" name="OMEGAGRID">     0</i>
   <i name="CSHIFT">     -0.10000000</i>
   <i type="logical" name="LSELFENERGY"> F  </i>
   <i type="logical" name="LSPECTRAL"> F  </i>
   <i type="logical" name="LSPECTRALGW"> F  </i>
   <i type="logical" name="LSINGLES"> F  </i>
   <i type="logical" name="LFERMIGW"> F  </i>
   <i type="logical" name="ODDONLYGW"> F  </i>
   <i type="logical" name="EVENONLYGW"> F  </i>
   <i type="int" name="NKREDLFX">     1</i>
   <i type="int" name="NKREDLFY">     1</i>
   <i type="int" name="NKREDLFZ">     1</i>
   <i type="int" name="MAXMEM">  2800</i>
   <i type="int" name="TELESCOPE">     0</i>
   <i type="int" name="NTAUPAR">    -1</i>
   <i type="int" name="NOMEGAPAR">    -1</i>
   <i name="DAMP_NEWTON">      0.80000001</i>
   <i name="LAMBDA">      1.00000000</i>
  </separator>
  <separator name="External order field" >
   <i name="OFIELD_KAPPA">      0.00000000</i>
   <v name="OFIELD_K">      0.00000000      0.00000000      0.00000000</v>
   <i name="OFIELD_Q6_NEAR">      0.00000000</i>
   <i name="OFIELD_Q6_FAR">      0.00000000</i>
   <i name="OFIELD_A">      0.00000000</i>
  </separator>
  <separator name="optional k-points parameters" >
   <i type="int" name="KPOINTS_OPT_MODE">     1</i>
   <i type="logical" name="LKPOINTS_OPT"> F  </i>
  </separator>
 </parameters>
 <atominfo>
  <atoms>       1 </atoms>
  <types>       1 </types>
  <array name="atoms" >
   <dimension dim="1">ion</dimension>
   <field type="string">element</field>
   <field type="int">atomtype</field>
   <set>
    <rc><c>Be</c><c>   1</c></rc>
   </set>
  </array>
  <array name="atomtypes" >
   <dimension dim="1">type</dimension>
   <field type="int">atomspertype</field>
   <field type="string">element</field>
   <field>mass</field>
   <field>valence</field>
   <field type="string">pseudopotential</field>
   <set>
    <rc><c>   1</c><c>Be</c><c>      9.01300000</c><c>      2.00000000</c><c>  PAW_PBE Be 06Sep2000                  </c></rc>
   </set>
  </array>
 </atominfo>
 <structure name="initialpos" >
  <crystal>
   <varray name="basis" >
    <v>       2.50624000       0.00000000       0.00000000 </v>
    <v>       0.00000000       2.50624000       0.00000000 </v>
    <v>       0.00000000       0.00000000      40.00000000 </v>
   </varray>
   <i name="volume">    251.24955750 </i>
   <varray name="rec_basis" >
    <v>       0.39900409       0.00000000       0.00000000 </v>
    <v>       0.00000000       0.39900409       0.00000000 </v>
    <v>       0.00000000       0.00000000       0.02500000 </v>
   </varray>
  </crystal>
  <varray name="positions" >
   <v>       0.00000000       0.00000000       0.10000000 </v>
  </varray>
 </structure>
 <calculation>
  <scstep>
   <time name="dav">    0.96    0.96</time>
   <time name="total">    0.98    0.99</time>
   <dipole>
    <v name="dipole">      0.00000000       0.00000000      -0.00000000 </v>
    <i name="Tr[quadrupol]">      1.23859631 </i>
    <i name="Echarged">      0.00000000 </i>
    <i name="Edipol_quadrupol">      0.00000000 </i>
    <i name="Eion">      0.00000000 </i>
   </dipole>
   <energy>
    <i name="alphaZ">      0.06952890 </i>
    <i name="ewald">    147.23813530 </i>
    <i name="hartreedc">   -165.08081261 </i>
    <i name="XCdc">      2.62999715 </i>
    <i name="pawpsdc">     15.25623133 </i>
    <i name="pawaedc">    -14.62257617 </i>
    <i name="eentropy">     -0.00126927 </i>
    <i name="bandstr">    -12.85321253 </i>
    <i name="atom">     27.47925360 </i>
    <i name="e_fr_energy">      0.11527569 </i>
    <i name="e_wo_entrp">      0.11654496 </i>
    <i name="e_0_energy">      0.11591033 </i>
   </energy>
  </scstep>
  <scstep>
   <time name="dav">    1.44    1.45</time>
   <time name="total">    1.44    1.45</time>
   <dipole>
    <v name="dipole">      0.00000000       0.00000000      -0.00000000 </v>
    <i name="Tr[quadrupol]">      1.23859631 </i>
    <i name="Echarged">      0.00000000 </i>
    <i name="Edipol_quadrupol">      0.00000000 </i>
    <i name="Eion">      0.00000000 </i>
   </dipole>
   <energy>
    <i name="e_fr_energy">     -1.89552542 </i>
    <i name="e_wo_entrp">     -1.89497886 </i>
    <i name="e_0_energy">     -1.89525214 </i>
   </energy>
  </scstep>
  <scstep>
   <time name="dav">    1.07    1.08</time>
   <time name="total">    1.07    1.08</time>
   <dipole>
    <v name="dipole">      0.00000000       0.00000000      -0.00000000 </v>
    <i name="Tr[quadrupol]">      1.23859631 </i>
    <i name="Echarged">      0.00000000 </i>
    <i name="Edipol_quadrupol">      0.00000000 </i>
    <i name="Eion">      0.00000000 </i>
   </dipole>
   <energy>
    <i name="e_fr_energy">     -1.90006224 </i>
    <i name="e_wo_entrp">     -1.89951572 </i>
    <i name="e_0_energy">     -1.89978898 </i>
   </energy>
  </scstep>
  <scstep>
   <time name="dav">    1.92    1.93</time>
   <time name="total">    1.92    1.93</time>
   <dipole>
    <v name="dipole">      0.00000000       0.00000000      -0.00000000 </v>
    <i name="Tr[quadrupol]">      1.23859631 </i>
    <i name="Echarged">      0.00000000 </i>
    <i name="Edipol_quadrupol">      0.00000000 </i>
    <i name="Eion">      0.00000000 </i>
   </dipole>
   <energy>
    <i name="e_fr_energy">     -1.90007004 </i>
    <i name="e_wo_entrp">     -1.89952352 </i>
    <i name="e_0_energy">     -1.89979678 </i>
   </energy>
  </scstep>
  <scstep>
   <time name="dav">    0.83    0.83</time>
   <time name="total">    0.87    0.88</time>
   <dipole>
    <v name="dipole">      0.00000000       0.00000000      -0.00000000 </v>
    <i name="Tr[quadrupol]">      1.23859631 </i>
    <i name="Echarged">      0.00000000 </i>
    <i name="Edipol_quadrupol">      0.00000000 </i>
    <i name="Eion">      0.00000000 </i>
   </dipole>
   <energy>
    <i name="e_fr_energy">     -1.90007004 </i>
    <i name="e_wo_entrp">     -1.89952352 </i>
    <i name="e_0_energy">     -1.89979678 </i>
   </energy>
  </scstep>
  <scstep>
   <time name="dav">    1.30    1.30</time>
   <time name="total">    1.37    1.37</time>
   <dipole>
    <v name="dipole">      0.00000000       0.00000000      -0.00000000 </v>
    <i name="Tr[quadrupol]">      1.20139364 </i>
    <i name="Echarged">      0.00000000 </i>
    <i name="Edipol_quadrupol">      0.00000000 </i>
    <i name="Eion">      0.00000000 </i>
   </dipole>
   <energy>
    <i name="e_fr_energy">     -1.86669437 </i>
    <i name="e_wo_entrp">     -1.86612196 </i>
    <i name="e_0_energy">     -1.86640817 </i>
   </energy>
  </scstep>
  <scstep>
   <time name="dav">    1.54    1.55</time>
   <time name="total">    1.61    1.61</time>
   <dipole>
    <v name="dipole">      0.00000000       0.00000000      -0.00000000 </v>
    <i name="Tr[quadrupol]">      1.12001888 </i>
    <i name="Echarged">      0.00000000 </i>
    <i name="Edipol_quadrupol">      0.00000000 </i>
    <i name="Eion">      0.00000000 </i>
   </dipole>
   <energy>
    <i name="e_fr_energy">     -1.84403368 </i>
    <i name="e_wo_entrp">     -1.84140682 </i>
    <i name="e_0_energy">     -1.84272025 </i>
   </energy>
  </scstep>
  <scstep>
   <time name="dav">    1.40    1.41</time>
   <time name="total">    1.47    1.48</time>
   <dipole>
    <v name="dipole">      0.00000000       0.00000000      -0.00000000 </v>
    <i name="Tr[quadrupol]">      1.12034750 </i>
    <i name="Echarged">      0.00000000 </i>
    <i name="Edipol_quadrupol">      0.00000000 </i>
    <i name="Eion">      0.00000000 </i>
   </dipole>
   <energy>
    <i name="e_fr_energy">     -1.84460682 </i>
    <i name="e_wo_entrp">     -1.84200552 </i>
    <i name="e_0_energy">     -1.84330617 </i>
   </energy>
  </scstep>
  <scstep>
   <time name="dav">    1.53    1.54</time>
   <time name="total">    1.60    1.62</time>
   <dipole>
    <v name="dipole">      0.00000000       0.00000000      -0.00000000 </v>
    <i name="Tr[quadrupol]">      1.08792602 </i>
    <i name="Echarged">      0.00000000 </i>
    <i name="Edipol_quadrupol">      0.00000000 </i>
    <i name="Eion">      0.00000000 </i>
   </dipole>
   <energy>
    <i name="e_fr_energy">     -1.84463659 </i>
    <i name="e_wo_entrp">     -1.84200643 </i>
    <i name="e_0_energy">     -1.84332151 </i>
   </energy>
  </scstep>
  <scstep>
   <time name="dav">    1.45    1.45</time>
   <time name="total">    1.52    1.53</time>
   <dipole>
    <v name="dipole">      0.00000000       0.00000000      -0.00000000 </v>
    <i name="Tr[quadrupol]">      1.07191548 </i>
    <i name="Echarged">      0.00000000 </i>
    <i name="Edipol_quadrupol">      0.00000000 </i>
    <i name="Eion">      0.00000000 </i>
   </dipole>
   <energy>
    <i name="e_fr_energy">     -1.84469360 </i>
    <i name="e_wo_entrp">     -1.84205445 </i>
    <i name="e_0_energy">     -1.84337402 </i>
   </energy>
  </scstep>
  <scstep>
   <time name="dav">    1.42    1.43</time>
   <time name="total">    1.48    1.49</time>
   <dipole>
    <v name="dipole">      0.00000000       0.00000000      -0.00000000 </v>
    <i name="Tr[quadrupol]">      1.05263797 </i>
    <i name="Echarged">      0.00000000 </i>
    <i name="Edipol_quadrupol">      0.00000000 </i>
    <i name="Eion">      0.00000000 </i>
   </dipole>
   <energy>
    <i name="e_fr_energy">     -1.84484207 </i>
    <i name="e_wo_entrp">     -1.84221467 </i>
    <i name="e_0_energy">     -1.84352837 </i>
   </energy>
  </scstep>
  <scstep>
   <time name="dav">    1.29    1.30</time>
   <time name="total">    1.36    1.37</time>
   <dipole>
    <v name="dipole">      0.00000000       0.00000000      -0.00000000 </v>
    <i name="Tr[quadrupol]">      1.04601428 </i>
    <i name="Echarged">      0.00000000 </i>
    <i name="Edipol_quadrupol">      0.00000000 </i>
    <i name="Eion">      0.00000000 </i>
   </dipole>
   <energy>
    <i name="e_fr_energy">     -1.84501057 </i>
    <i name="e_wo_entrp">     -1.84237578 </i>
    <i name="e_0_energy">     -1.84369318 </i>
   </energy>
  </scstep>
  <scstep>
   <time name="dav">    1.26    1.27</time>
   <time name="total">    1.33    1.34</time>
   <dipole>
    <v name="dipole">      0.00000000       0.00000000      -0.00000000 </v>
    <i name="Tr[quadrupol]">      1.04220066 </i>
    <i name="Echarged">      0.00000000 </i>
    <i name="Edipol_quadrupol">      0.00000000 </i>
    <i name="Eion">      0.00000000 </i>
   </dipole>
   <energy>
    <i name="e_fr_energy">     -1.84506938 </i>
    <i name="e_wo_entrp">     -1.84243636 </i>
    <i name="e_0_energy">     -1.84375287 </i>
   </energy>
  </scstep>
  <scstep>
   <time name="dav">    1.18    1.19</time>
   <time name="total">    1.25    1.26</time>
   <dipole>
    <v name="dipole">      0.00000000       0.00000000      -0.00000000 </v>
    <i name="Tr[quadrupol]">      1.04019419 </i>
    <i name="Echarged">      0.00000000 </i>
    <i name="Edipol_quadrupol">      0.00000000 </i>
    <i name="Eion">      0.00000000 </i>
   </dipole>
   <energy>
    <i name="e_fr_energy">     -1.84509066 </i>
    <i name="e_wo_entrp">     -1.84245982 </i>
    <i name="e_0_energy">     -1.84377524 </i>
   </energy>
  </scstep>
  <scstep>
   <time name="dav">    1.38    1.38</time>
   <time name="total">    1.44    1.45</time>
   <dipole>
    <v name="dipole">      0.00000000       0.00000000      -0.00000000 </v>
    <i name="Tr[quadrupol]">      1.03898532 </i>
    <i name="Echarged">      0.00000000 </i>
    <i name="Edipol_quadrupol">      0.00000000 </i>
    <i name="Eion">      0.00000000 </i>
   </dipole>
   <energy>
    <i name="e_fr_energy">     -1.84510582 </i>
    <i name="e_wo_entrp">     -1.84247451 </i>
    <i name="e_0_energy">     -1.84379017 </i>
   </energy>
  </scstep>
  <scstep>
   <time name="dav">    1.37    1.38</time>
   <time name="total">    1.45    1.46</time>
   <dipole>
    <v name="dipole">      0.00000000       0.00000000      -0.00000000 </v>
    <i name="Tr[quadrupol]">      1.03862006 </i>
    <i name="Echarged">      0.00000000 </i>
    <i name="Edipol_quadrupol">      0.00000000 </i>
    <i name="Eion">      0.00000000 </i>
   </dipole>
   <energy>
    <i name="e_fr_energy">     -1.84511061 </i>
    <i name="e_wo_entrp">     -1.84247934 </i>
    <i name="e_0_energy">     -1.84379498 </i>
   </energy>
  </scstep>
  <scstep>
   <time name="dav">    1.38    1.39</time>
   <time name="total">    1.45    1.46</time>
   <dipole>
    <v name="dipole">      0.00000000       0.00000000      -0.00000000 </v>
    <i name="Tr[quadrupol]">      1.03827496 </i>
    <i name="Echarged">      0.00000000 </i>
    <i name="Edipol_quadrupol">      0.00000000 </i>
    <i name="Eion">      0.00000000 </i>
   </dipole>
   <energy>
    <i name="e_fr_energy">     -1.84511276 </i>
    <i name="e_wo_entrp">     -1.84248146 </i>
    <i name="e_0_energy">     -1.84379711 </i>
   </energy>
  </scstep>
  <scstep>
   <time name="dav">    1.28    1.28</time>
   <time name="total">    1.30    1.30</time>
   <dipole>
    <v name="dipole">      0.00000000       0.00000000      -0.00000000 </v>
    <i name="Tr[quadrupol]">      1.03797850 </i>
    <i name="Echarged">      0.00000000 </i>
    <i name="Edipol_quadrupol">      0.00000000 </i>
    <i name="Eion">      0.00000000 </i>
   </dipole>
   <energy>
    <i name="alphaZ">      0.06952890 </i>
    <i name="ewald">    147.23813530 </i>
    <i name="hartreedc">   -167.00501278 </i>
    <i name="XCdc">      2.68705795 </i>
    <i name="pawpsdc">     21.14077342 </i>
    <i name="pawaedc">    -20.51648688 </i>
    <i name="eentropy">     -0.00263135 </i>
    <i name="bandstr">    -12.93573174 </i>
    <i name="atom">     27.47925360 </i>
    <i name="e_fr_energy">     -1.84511358 </i>
    <i name="e_wo_entrp">     -1.84248223 </i>
    <i name="e_0_energy">     -1.84379791 </i>
   </energy>
  </scstep>
  <structure>
   <crystal>
    <varray name="basis" >
     <v>       2.50624000       0.00000000       0.00000000 </v>
     <v>       0.00000000       2.50624000       0.00000000 </v>
     <v>       0.00000000       0.00000000      40.00000000 </v>
    </varray>
    <i name="volume">    251.24955750 </i>
    <varray name="rec_basis" >
     <v>       0.39900409       0.00000000       0.00000000 </v>
     <v>       0.00000000       0.39900409       0.00000000 </v>
     <v>       0.00000000       0.00000000       0.02500000 </v>
    </varray>
   </crystal>
   <varray name="positions" >
    <v>       0.00000000       0.00000000       0.10000000 </v>
   </varray>
  </structure>
  <varray name="forces" >
   <v>       0.00000000      -0.00000000       0.00000000 </v>
  </varray>
  <varray name="stress" >
   <v>     -17.82906376       0.00000000       0.00000000 </v>
   <v>       0.00000000     -17.82906376      -0.00000000 </v>
   <v>       0.00000000       0.00000000       0.00040023 </v>
  </varray>
  <energy>
   <i name="e_fr_energy">     -1.84511358 </i>
   <i name="e_wo_entrp">     -1.84248223 </i>
   <i name="e_0_energy">     -1.84379791 </i>
  </energy>
  <time name="totalsc">   25.41   25.57</time>
  <eigenvalues>
   <array>
    <dimension dim="1">band</dimension>
    <dimension dim="2">kpoint</dimension>
    <dimension dim="3">spin</dimension>
    <field>eigene</field>
    <field>occ</field>
    <set>
     <set comment="spin 1">
      <set comment="kpoint 1">
       <r>   -9.3730    1.0000 </r>
       <r>   -4.4949    1.0000 </r>
       <r>   -0.2646    0.0000 </r>
       <r>    0.2734    0.0000 </r>
       <r>    0.4263    0.0000 </r>
       <r>    0.6209    0.0000 </r>
       <r>    0.7069    0.0000 </r>
       <r>    1.1383    0.0000 </r>
       <r>    1.2556    0.0000 </r>
       <r>    1.8580    0.0000 </r>
       <r>    1.9974    0.0000 </r>
       <r>    2.7889    0.0000 </r>
       <r>    2.9695    0.0000 </r>
       <r>    3.9283    0.0000 </r>
       <r>    4.1298    0.0000 </r>
       <r>    5.2612    0.0000 </r>
       <r>    5.4901    0.0000 </r>
       <r>    6.7871    0.0000 </r>
       <r>    6.9709    0.0000 </r>
       <r>    6.9709    0.0000 </r>
       <r>    7.0500    0.0000 </r>
       <r>    8.5023    0.0000 </r>
       <r>    8.7985    0.0000 </r>
       <r>   10.4012    0.0000 </r>
       <r>   10.7334    0.0000 </r>
       <r>   12.4661    0.0000 </r>
       <r>   12.8505    0.0000 </r>
       <r>   12.8656    0.0000 </r>
       <r>   14.6668    0.0000 </r>
       <r>   15.0956    0.0000 </r>
       <r>   16.7450    0.0000 </r>
       <r>   16.8624    0.0000 </r>
       <r>   17.9831    0.0000 </r>
       <r>   18.6693    0.0000 </r>
       <r>   20.1472    0.0000 </r>
       <r>   20.1472    0.0000 </r>
       <r>   20.5328    0.0000 </r>
       <r>   20.5819    0.0000 </r>
       <r>   20.7771    0.0000 </r>
       <r>   23.0386    0.0000 </r>
       <r>   23.0386    0.0000 </r>
       <r>   23.0675    0.0000 </r>
      </set>
      <set comment="kpoint 2">
       <r>   -9.2605    1.0000 </r>
       <r>   -4.3613    1.0000 </r>
       <r>   -0.1281    0.0000 </r>
       <r>    0.4140    0.0000 </r>
       <r>    0.5679    0.0000 </r>
       <r>    0.7622    0.0000 </r>
       <r>    0.8479    0.0000 </r>
       <r>    1.2794    0.0000 </r>
       <r>    1.3954    0.0000 </r>
       <r>    1.9986    0.0000 </r>
       <r>    2.1363    0.0000 </r>
       <r>    2.9292    0.0000 </r>
       <r>    3.1067    0.0000 </r>
       <r>    4.0679    0.0000 </r>
       <r>    4.2628    0.0000 </r>
       <r>    5.3998    0.0000 </r>
       <r>    5.5891    0.0000 </r>
       <r>    6.0178    0.0000 </r>
       <r>    6.9242    0.0000 </r>
       <r>    7.0657    0.0000 </r>
       <r>    7.2079    0.0000 </r>
       <r>    8.6367    0.0000 </r>
       <r>    8.9484    0.0000 </r>
       <r>   10.5293    0.0000 </r>
       <r>   10.8814    0.0000 </r>
       <r>   12.5758    0.0000 </r>
       <r>   12.9916    0.0000 </r>
       <r>   13.7850    0.0000 </r>
       <r>   14.6846    0.0000 </r>
       <r>   15.2683    0.0000 </r>
       <r>   16.2387    0.0000 </r>
       <r>   16.7768    0.0000 </r>
       <r>   17.6270    0.0000 </r>
       <r>   18.0320    0.0000 </r>
       <r>   19.3669    0.0000 </r>
       <r>   20.1598    0.0000 </r>
       <r>   20.2860    0.0000 </r>
       <r>   20.6844    0.0000 </r>
       <r>   20.7456    0.0000 </r>
       <r>   20.7712    0.0000 </r>
       <r>   20.8330    0.0000 </r>
       <r>   21.0607    0.0000 </r>
      </set>
      <set comment="kpoint 3">
       <r>   -8.9239    1.0000 </r>
       <r>   -3.9627    0.9999 </r>
       <r>    0.2772    0.0000 </r>
       <r>    0.8353    0.0000 </r>
       <r>    0.9925    0.0000 </r>
       <r>    1.1860    0.0000 </r>
       <r>    1.2698    0.0000 </r>
       <r>    1.7025    0.0000 </r>
       <r>    1.8114    0.0000 </r>
       <r>    2.4202    0.0000 </r>
       <r>    2.5444    0.0000 </r>
       <r>    3.3493    0.0000 </r>
       <r>    3.4714    0.0000 </r>
       <r>    4.0204    0.0000 </r>
       <r>    4.4856    0.0000 </r>
       <r>    4.7479    0.0000 </r>
       <r>    5.8135    0.0000 </r>
       <r>    6.0767    0.0000 </r>
       <r>    7.3309    0.0000 </r>
       <r>    7.3414    0.0000 </r>
       <r>    7.6293    0.0000 </r>
       <r>    9.0275    0.0000 </r>
       <r>    9.3748    0.0000 </r>
       <r>   10.8692    0.0000 </r>
       <r>   11.3077    0.0000 </r>
       <r>   12.5818    0.0000 </r>
       <r>   13.4140    0.0000 </r>
       <r>   13.6204    0.0000 </r>
       <r>   15.0889    0.0000 </r>
       <r>   15.4666    0.0000 </r>
       <r>   15.9064    0.0000 </r>
       <r>   16.0204    0.0000 </r>
       <r>   17.3473    0.0000 </r>
       <r>   17.5463    0.0000 </r>
       <r>   17.6882    0.0000 </r>
       <r>   17.6979    0.0000 </r>
       <r>   17.9141    0.0000 </r>
       <r>   18.0487    0.0000 </r>
       <r>   18.3221    0.0000 </r>
       <r>   18.3421    0.0000 </r>
       <r>   18.7090    0.0000 </r>
       <r>   19.0260    0.0000 </r>
      </set>
      <set comment="kpoint 4">
       <r>   -8.3667    1.0000 </r>
       <r>   -3.3067    0.0000 </r>
       <r>    0.8770    0.0000 </r>
       <r>    1.5354    0.0000 </r>
       <r>    1.6902    0.0000 </r>
       <r>    1.8213    0.0000 </r>
       <r>    1.8916    0.0000 </r>
       <r>    2.0441    0.0000 </r>
       <r>    2.4065    0.0000 </r>
       <r>    2.5696    0.0000 </r>
       <r>    3.1204    0.0000 </r>
       <r>    3.2949    0.0000 </r>
       <r>    4.0455    0.0000 </r>
       <r>    4.2596    0.0000 </r>
       <r>    5.1738    0.0000 </r>
       <r>    5.4149    0.0000 </r>
       <r>    6.4858    0.0000 </r>
       <r>    6.7718    0.0000 </r>
       <r>    7.7683    0.0000 </r>
       <r>    7.9612    0.0000 </r>
       <r>    8.3296    0.0000 </r>
       <r>    9.4457    0.0000 </r>
       <r>   10.0769    0.0000 </r>
       <r>   10.4170    0.0000 </r>
       <r>   11.8619    0.0000 </r>
       <r>   12.0107    0.0000 </r>
       <r>   13.4391    0.0000 </r>
       <r>   13.7976    0.0000 </r>
       <r>   14.1209    0.0000 </r>
       <r>   14.5087    0.0000 </r>
       <r>   14.5870    0.0000 </r>
       <r>   14.8083    0.0000 </r>
       <r>   14.8144    0.0000 </r>
       <r>   15.2572    0.0000 </r>
       <r>   15.3127    0.0000 </r>
       <r>   15.8377    0.0000 </r>
       <r>   15.9141    0.0000 </r>
       <r>   16.2197    0.0000 </r>
       <r>   16.2465    0.0000 </r>
       <r>   16.6706    0.0000 </r>
       <r>   17.0155    0.0000 </r>
       <r>   17.1281    0.0000 </r>
      </set>
      <set comment="kpoint 5">
       <r>   -7.5971    1.0000 </r>
       <r>   -2.4137    0.0000 </r>
       <r>   -0.2362    0.0000 </r>
       <r>    2.0266    0.0000 </r>
       <r>    2.5056    0.0000 </r>
       <r>    2.6936    0.0000 </r>
       <r>    2.8763    0.0000 </r>
       <r>    2.9751    0.0000 </r>
       <r>    3.3863    0.0000 </r>
       <r>    3.5237    0.0000 </r>
       <r>    4.0871    0.0000 </r>
       <r>    4.2639    0.0000 </r>
       <r>    4.9923    0.0000 </r>
       <r>    5.2340    0.0000 </r>
       <r>    6.0582    0.0000 </r>
       <r>    6.3920    0.0000 </r>
       <r>    7.0922    0.0000 </r>
       <r>    7.7502    0.0000 </r>
       <r>    7.9154    0.0000 </r>
       <r>    8.2858    0.0000 </r>
       <r>    9.1928    0.0000 </r>
       <r>    9.3079    0.0000 </r>
       <r>   10.8141    0.0000 </r>
       <r>   10.9224    0.0000 </r>
       <r>   11.0662    0.0000 </r>
       <r>   11.7842    0.0000 </r>
       <r>   11.8987    0.0000 </r>
       <r>   12.1006    0.0000 </r>
       <r>   12.1511    0.0000 </r>
       <r>   12.5596    0.0000 </r>
       <r>   12.6522    0.0000 </r>
       <r>   12.8078    0.0000 </r>
       <r>   12.9908    0.0000 </r>
       <r>   13.3696    0.0000 </r>
       <r>   13.3895    0.0000 </r>
       <r>   14.2595    0.0000 </r>
       <r>   14.2952    0.0000 </r>
       <r>   14.8374    0.0000 </r>
       <r>   15.1017    0.0000 </r>
       <r>   15.3859    0.0000 </r>
       <r>   15.4969    0.0000 </r>
       <r>   16.5131    0.0000 </r>
      </set>
      <set comment="kpoint 6">
       <r>   -6.6402    1.0000 </r>
       <r>   -1.9845    0.0000 </r>
       <r>   -1.3464    0.0000 </r>
       <r>    3.2454    0.0000 </r>
       <r>    3.6494    0.0000 </r>
       <r>    3.9680    0.0000 </r>
       <r>    4.1128    0.0000 </r>
       <r>    4.2450    0.0000 </r>
       <r>    4.5475    0.0000 </r>
       <r>    4.7875    0.0000 </r>
       <r>    5.0088    0.0000 </r>
       <r>    5.5261    0.0000 </r>
       <r>    5.6039    0.0000 </r>
       <r>    6.4412    0.0000 </r>
       <r>    6.4937    0.0000 </r>
       <r>    7.5337    0.0000 </r>
       <r>    7.6489    0.0000 </r>
       <r>    8.6136    0.0000 </r>
       <r>    8.7851    0.0000 </r>
       <r>    8.8019    0.0000 </r>
       <r>    9.0146    0.0000 </r>
       <r>    9.3924    0.0000 </r>
       <r>    9.4915    0.0000 </r>
       <r>    9.6973    0.0000 </r>
       <r>    9.7537    0.0000 </r>
       <r>   10.1692    0.0000 </r>
       <r>   10.2708    0.0000 </r>
       <r>   10.4198    0.0000 </r>
       <r>   10.5675    0.0000 </r>
       <r>   10.9722    0.0000 </r>
       <r>   11.0014    0.0000 </r>
       <r>   11.8080    0.0000 </r>
       <r>   11.9491    0.0000 </r>
       <r>   12.1767    0.0000 </r>
       <r>   12.3137    0.0000 </r>
       <r>   13.0400    0.0000 </r>
       <r>   13.0884    0.0000 </r>
       <r>   13.9507    0.0000 </r>
       <r>   14.2419    0.0000 </r>
       <r>   14.4166    0.0000 </r>
       <r>   14.4707    0.0000 </r>
       <r>   15.7706    0.0000 </r>
      </set>
      <set comment="kpoint 7">
       <r>   -5.6365    1.0000 </r>
       <r>   -3.3988    0.0000 </r>
       <r>   -0.3674    0.0000 </r>
       <r>    3.3285    0.0000 </r>
       <r>    4.7572    0.0000 </r>
       <r>    5.4273    0.0000 </r>
       <r>    5.5258    0.0000 </r>
       <r>    5.7382    0.0000 </r>
       <r>    5.7978    0.0000 </r>
       <r>    6.2502    0.0000 </r>
       <r>    6.3276    0.0000 </r>
       <r>    6.5595    0.0000 </r>
       <r>    6.9320    0.0000 </r>
       <r>    7.0742    0.0000 </r>
       <r>    7.2704    0.0000 </r>
       <r>    7.3672    0.0000 </r>
       <r>    7.5656    0.0000 </r>
       <r>    7.6352    0.0000 </r>
       <r>    7.8996    0.0000 </r>
       <r>    8.0330    0.0000 </r>
       <r>    8.1286    0.0000 </r>
       <r>    8.1690    0.0000 </r>
       <r>    8.7803    0.0000 </r>
       <r>    8.8958    0.0000 </r>
       <r>    9.0992    0.0000 </r>
       <r>    9.1067    0.0000 </r>
       <r>    9.1933    0.0000 </r>
       <r>    9.7550    0.0000 </r>
       <r>    9.8576    0.0000 </r>
       <r>   10.3873    0.0000 </r>
       <r>   10.5455    0.0000 </r>
       <r>   10.9369    0.0000 </r>
       <r>   11.0083    0.0000 </r>
       <r>   11.8687    0.0000 </r>
       <r>   12.0952    0.0000 </r>
       <r>   12.3305    0.0000 </r>
       <r>   12.3584    0.0000 </r>
       <r>   13.5173    0.0000 </r>
       <r>   13.8222    0.0000 </r>
       <r>   13.9085    0.0000 </r>
       <r>   13.9475    0.0000 </r>
       <r>   15.3188    0.0000 </r>
      </set>
      <set comment="kpoint 8">
       <r>   -9.1479    1.0000 </r>
       <r>   -4.2279    1.0000 </r>
       <r>    0.0087    0.0000 </r>
       <r>    0.5546    0.0000 </r>
       <r>    0.7094    0.0000 </r>
       <r>    0.9035    0.0000 </r>
       <r>    0.9889    0.0000 </r>
       <r>    1.4205    0.0000 </r>
       <r>    1.5354    0.0000 </r>
       <r>    2.1393    0.0000 </r>
       <r>    2.2756    0.0000 </r>
       <r>    3.0695    0.0000 </r>
       <r>    3.2446    0.0000 </r>
       <r>    4.2075    0.0000 </r>
       <r>    4.3986    0.0000 </r>
       <r>    5.5384    0.0000 </r>
       <r>    5.6162    0.0000 </r>
       <r>    5.7322    0.0000 </r>
       <r>    6.6207    0.0000 </r>
       <r>    7.0613    0.0000 </r>
       <r>    7.3930    0.0000 </r>
       <r>    8.7708    0.0000 </r>
       <r>    9.1054    0.0000 </r>
       <r>   10.6567    0.0000 </r>
       <r>   11.0360    0.0000 </r>
       <r>   12.6833    0.0000 </r>
       <r>   13.1569    0.0000 </r>
       <r>   14.6354    0.0000 </r>
       <r>   14.6996    0.0000 </r>
       <r>   15.4184    0.0000 </r>
       <r>   16.1643    0.0000 </r>
       <r>   16.7789    0.0000 </r>
       <r>   17.0622    0.0000 </r>
       <r>   17.9071    0.0000 </r>
       <r>   18.1169    0.0000 </r>
       <r>   19.9997    0.0000 </r>
       <r>   20.1716    0.0000 </r>
       <r>   20.4770    0.0000 </r>
       <r>   20.8330    0.0000 </r>
       <r>   20.8962    0.0000 </r>
       <r>   20.9028    0.0000 </r>
       <r>   20.9675    0.0000 </r>
      </set>
      <set comment="kpoint 9">
       <r>   -8.8113    1.0000 </r>
       <r>   -3.8296    0.4689 </r>
       <r>    0.4148    0.0000 </r>
       <r>    0.9758    0.0000 </r>
       <r>    1.1341    0.0000 </r>
       <r>    1.3273    0.0000 </r>
       <r>    1.4110    0.0000 </r>
       <r>    1.8436    0.0000 </r>
       <r>    1.9520    0.0000 </r>
       <r>    2.5608    0.0000 </r>
       <r>    2.6849    0.0000 </r>
       <r>    3.4895    0.0000 </r>
       <r>    3.6036    0.0000 </r>
       <r>    3.9913    0.0000 </r>
       <r>    4.6250    0.0000 </r>
       <r>    4.8458    0.0000 </r>
       <r>    5.9518    0.0000 </r>
       <r>    6.1383    0.0000 </r>
       <r>    6.7486    0.0000 </r>
       <r>    7.4675    0.0000 </r>
       <r>    7.8111    0.0000 </r>
       <r>    9.1605    0.0000 </r>
       <r>    9.5358    0.0000 </r>
       <r>   10.9932    0.0000 </r>
       <r>   11.4675    0.0000 </r>
       <r>   12.6886    0.0000 </r>
       <r>   13.5890    0.0000 </r>
       <r>   13.7609    0.0000 </r>
       <r>   15.5355    0.0000 </r>
       <r>   15.6790    0.0000 </r>
       <r>   16.0741    0.0000 </r>
       <r>   16.2346    0.0000 </r>
       <r>   16.8937    0.0000 </r>
       <r>   17.6333    0.0000 </r>
       <r>   17.6793    0.0000 </r>
       <r>   17.8111    0.0000 </r>
       <r>   17.9268    0.0000 </r>
       <r>   18.1551    0.0000 </r>
       <r>   18.2562    0.0000 </r>
       <r>   18.4546    0.0000 </r>
       <r>   18.4852    0.0000 </r>
       <r>   18.7691    0.0000 </r>
      </set>
      <set comment="kpoint 10">
       <r>   -8.2539    1.0000 </r>
       <r>   -3.1741    0.0000 </r>
       <r>    1.0137    0.0000 </r>
       <r>    1.6757    0.0000 </r>
       <r>    1.8219    0.0000 </r>
       <r>    1.9023    0.0000 </r>
       <r>    2.0328    0.0000 </r>
       <r>    2.1601    0.0000 </r>
       <r>    2.5475    0.0000 </r>
       <r>    2.6971    0.0000 </r>
       <r>    3.2608    0.0000 </r>
       <r>    3.4255    0.0000 </r>
       <r>    4.1854    0.0000 </r>
       <r>    4.3880    0.0000 </r>
       <r>    5.3128    0.0000 </r>
       <r>    5.5344    0.0000 </r>
       <r>    6.6233    0.0000 </r>
       <r>    6.8004    0.0000 </r>
       <r>    7.2169    0.0000 </r>
       <r>    8.0959    0.0000 </r>
       <r>    8.5011    0.0000 </r>
       <r>    9.5745    0.0000 </r>
       <r>   10.2354    0.0000 </r>
       <r>   10.5555    0.0000 </r>
       <r>   11.9982    0.0000 </r>
       <r>   12.1687    0.0000 </r>
       <r>   13.6144    0.0000 </r>
       <r>   13.9133    0.0000 </r>
       <r>   14.2921    0.0000 </r>
       <r>   14.6494    0.0000 </r>
       <r>   14.7293    0.0000 </r>
       <r>   14.9483    0.0000 </r>
       <r>   14.9608    0.0000 </r>
       <r>   15.4156    0.0000 </r>
       <r>   15.4473    0.0000 </r>
       <r>   15.9965    0.0000 </r>
       <r>   16.0489    0.0000 </r>
       <r>   16.3610    0.0000 </r>
       <r>   16.4699    0.0000 </r>
       <r>   16.7672    0.0000 </r>
       <r>   17.1428    0.0000 </r>
       <r>   17.2929    0.0000 </r>
      </set>
      <set comment="kpoint 11">
       <r>   -7.4840    1.0000 </r>
       <r>   -2.2821    0.0000 </r>
       <r>   -0.1660    0.0000 </r>
       <r>    2.1531    0.0000 </r>
       <r>    2.6456    0.0000 </r>
       <r>    2.8350    0.0000 </r>
       <r>    3.0175    0.0000 </r>
       <r>    3.1149    0.0000 </r>
       <r>    3.5271    0.0000 </r>
       <r>    3.6608    0.0000 </r>
       <r>    4.2272    0.0000 </r>
       <r>    4.3991    0.0000 </r>
       <r>    5.1315    0.0000 </r>
       <r>    5.3647    0.0000 </r>
       <r>    6.1953    0.0000 </r>
       <r>    6.5095    0.0000 </r>
       <r>    7.2271    0.0000 </r>
       <r>    7.5700    0.0000 </r>
       <r>    7.9793    0.0000 </r>
       <r>    8.0560    0.0000 </r>
       <r>    9.3326    0.0000 </r>
       <r>    9.4668    0.0000 </r>
       <r>   10.9494    0.0000 </r>
       <r>   11.0779    0.0000 </r>
       <r>   11.2412    0.0000 </r>
       <r>   11.9241    0.0000 </r>
       <r>   12.0408    0.0000 </r>
       <r>   12.2410    0.0000 </r>
       <r>   12.2958    0.0000 </r>
       <r>   12.6953    0.0000 </r>
       <r>   12.7991    0.0000 </r>
       <r>   12.9446    0.0000 </r>
       <r>   13.1460    0.0000 </r>
       <r>   13.5198    0.0000 </r>
       <r>   13.5303    0.0000 </r>
       <r>   14.3933    0.0000 </r>
       <r>   14.4426    0.0000 </r>
       <r>   14.9587    0.0000 </r>
       <r>   15.2682    0.0000 </r>
       <r>   15.5141    0.0000 </r>
       <r>   15.6367    0.0000 </r>
       <r>   16.5068    0.0000 </r>
      </set>
      <set comment="kpoint 12">
       <r>   -6.5259    1.0000 </r>
       <r>   -1.9064    0.0000 </r>
       <r>   -1.2168    0.0000 </r>
       <r>    3.3750    0.0000 </r>
       <r>    3.7869    0.0000 </r>
       <r>    4.1094    0.0000 </r>
       <r>    4.2537    0.0000 </r>
       <r>    4.3850    0.0000 </r>
       <r>    4.6870    0.0000 </r>
       <r>    4.9248    0.0000 </r>
       <r>    5.1479    0.0000 </r>
       <r>    5.6609    0.0000 </r>
       <r>    5.7450    0.0000 </r>
       <r>    6.5825    0.0000 </r>
       <r>    6.6222    0.0000 </r>
       <r>    7.6740    0.0000 </r>
       <r>    7.7399    0.0000 </r>
       <r>    8.1234    0.0000 </r>
       <r>    8.8515    0.0000 </r>
       <r>    8.9401    0.0000 </r>
       <r>    9.2028    0.0000 </r>
       <r>    9.5334    0.0000 </r>
       <r>    9.6344    0.0000 </r>
       <r>    9.8383    0.0000 </r>
       <r>    9.9013    0.0000 </r>
       <r>   10.3085    0.0000 </r>
       <r>   10.4202    0.0000 </r>
       <r>   10.5594    0.0000 </r>
       <r>   10.7228    0.0000 </r>
       <r>   11.1131    0.0000 </r>
       <r>   11.1551    0.0000 </r>
       <r>   11.9447    0.0000 </r>
       <r>   12.0973    0.0000 </r>
       <r>   12.3154    0.0000 </r>
       <r>   12.4657    0.0000 </r>
       <r>   13.1787    0.0000 </r>
       <r>   13.2368    0.0000 </r>
       <r>   14.0794    0.0000 </r>
       <r>   14.3753    0.0000 </r>
       <r>   14.5621    0.0000 </r>
       <r>   14.6115    0.0000 </r>
       <r>   15.8601    0.0000 </r>
      </set>
      <set comment="kpoint 13">
       <r>   -5.5161    1.0000 </r>
       <r>   -3.3213    0.0000 </r>
       <r>   -0.2416    0.0000 </r>
       <r>    3.4676    0.0000 </r>
       <r>    4.8845    0.0000 </r>
       <r>    5.5684    0.0000 </r>
       <r>    5.6672    0.0000 </r>
       <r>    5.8796    0.0000 </r>
       <r>    5.9375    0.0000 </r>
       <r>    6.3913    0.0000 </r>
       <r>    6.4657    0.0000 </r>
       <r>    6.6647    0.0000 </r>
       <r>    7.0719    0.0000 </r>
       <r>    7.2011    0.0000 </r>
       <r>    7.4115    0.0000 </r>
       <r>    7.5078    0.0000 </r>
       <r>    7.7067    0.0000 </r>
       <r>    7.7683    0.0000 </r>
       <r>    8.0400    0.0000 </r>
       <r>    8.1302    0.0000 </r>
       <r>    8.2631    0.0000 </r>
       <r>    8.2701    0.0000 </r>
       <r>    8.6500    0.0000 </r>
       <r>    8.9200    0.0000 </r>
       <r>    9.0711    0.0000 </r>
       <r>    9.2398    0.0000 </r>
       <r>    9.3772    0.0000 </r>
       <r>    9.8951    0.0000 </r>
       <r>   10.0200    0.0000 </r>
       <r>   10.5259    0.0000 </r>
       <r>   10.6994    0.0000 </r>
       <r>   11.0771    0.0000 </r>
       <r>   11.1650    0.0000 </r>
       <r>   12.0044    0.0000 </r>
       <r>   12.2376    0.0000 </r>
       <r>   12.4711    0.0000 </r>
       <r>   12.5127    0.0000 </r>
       <r>   13.6485    0.0000 </r>
       <r>   13.9291    0.0000 </r>
       <r>   14.0717    0.0000 </r>
       <r>   14.0886    0.0000 </r>
       <r>   15.4422    0.0000 </r>
      </set>
      <set comment="kpoint 14">
       <r>   -8.4744    1.0000 </r>
       <r>   -3.4322    0.0000 </r>
       <r>    0.8244    0.0000 </r>
       <r>    1.3969    0.0000 </r>
       <r>    1.5589    0.0000 </r>
       <r>    1.7510    0.0000 </r>
       <r>    1.8341    0.0000 </r>
       <r>    2.2666    0.0000 </r>
       <r>    2.3722    0.0000 </r>
       <r>    2.9821    0.0000 </r>
       <r>    3.1049    0.0000 </r>
       <r>    3.3840    0.0000 </r>
       <r>    3.9093    0.0000 </r>
       <r>    4.0541    0.0000 </r>
       <r>    5.0419    0.0000 </r>
       <r>    5.1257    0.0000 </r>
       <r>    5.8477    0.0000 </r>
       <r>    6.3642    0.0000 </r>
       <r>    6.7383    0.0000 </r>
       <r>    7.8717    0.0000 </r>
       <r>    8.2355    0.0000 </r>
       <r>    9.5453    0.0000 </r>
       <r>    9.9699    0.0000 </r>
       <r>   11.3145    0.0000 </r>
       <r>   11.9041    0.0000 </r>
       <r>   12.8334    0.0000 </r>
       <r>   14.0348    0.0000 </r>
       <r>   14.1678    0.0000 </r>
       <r>   14.2424    0.0000 </r>
       <r>   15.9608    0.0000 </r>
       <r>   16.1468    0.0000 </r>
       <r>   16.3541    0.0000 </r>
       <r>   16.7174    0.0000 </r>
       <r>   17.8938    0.0000 </r>
       <r>   18.0222    0.0000 </r>
       <r>   18.0706    0.0000 </r>
       <r>   18.1085    0.0000 </r>
       <r>   18.1709    0.0000 </r>
       <r>   18.2353    0.0000 </r>
       <r>   18.2822    0.0000 </r>
       <r>   18.3725    0.0000 </r>
       <r>   18.5833    0.0000 </r>
      </set>
      <set comment="kpoint 15">
       <r>   -7.9167    1.0000 </r>
       <r>   -2.7785    0.0000 </r>
       <r>    1.4138    0.0000 </r>
       <r>    1.9349    0.0000 </r>
       <r>    2.0963    0.0000 </r>
       <r>    2.2690    0.0000 </r>
       <r>    2.4564    0.0000 </r>
       <r>    2.5478    0.0000 </r>
       <r>    2.9703    0.0000 </r>
       <r>    3.0842    0.0000 </r>
       <r>    3.6817    0.0000 </r>
       <r>    3.8096    0.0000 </r>
       <r>    4.6044    0.0000 </r>
       <r>    4.7358    0.0000 </r>
       <r>    5.6041    0.0000 </r>
       <r>    5.7283    0.0000 </r>
       <r>    6.1831    0.0000 </r>
       <r>    7.0327    0.0000 </r>
       <r>    7.3946    0.0000 </r>
       <r>    8.4930    0.0000 </r>
       <r>    8.9275    0.0000 </r>
       <r>    9.9458    0.0000 </r>
       <r>   10.6666    0.0000 </r>
       <r>   10.9687    0.0000 </r>
       <r>   12.3876    0.0000 </r>
       <r>   12.5982    0.0000 </r>
       <r>   13.9551    0.0000 </r>
       <r>   14.0233    0.0000 </r>
       <r>   14.7358    0.0000 </r>
       <r>   14.8848    0.0000 </r>
       <r>   15.0882    0.0000 </r>
       <r>   15.1531    0.0000 </r>
       <r>   15.3702    0.0000 </r>
       <r>   15.3860    0.0000 </r>
       <r>   15.7505    0.0000 </r>
       <r>   15.8998    0.0000 </r>
       <r>   16.1707    0.0000 </r>
       <r>   16.5751    0.0000 </r>
       <r>   16.7157    0.0000 </r>
       <r>   16.8751    0.0000 </r>
       <r>   17.0531    0.0000 </r>
       <r>   17.5513    0.0000 </r>
      </set>
      <set comment="kpoint 16">
       <r>   -7.1465    1.0000 </r>
       <r>   -1.8899    0.0000 </r>
       <r>    0.0087    0.0000 </r>
       <r>    2.5253    0.0000 </r>
       <r>    3.0647    0.0000 </r>
       <r>    3.2590    0.0000 </r>
       <r>    3.4408    0.0000 </r>
       <r>    3.5327    0.0000 </r>
       <r>    3.9492    0.0000 </r>
       <r>    4.0659    0.0000 </r>
       <r>    4.6465    0.0000 </r>
       <r>    4.7892    0.0000 </r>
       <r>    5.5477    0.0000 </r>
       <r>    5.6809    0.0000 </r>
       <r>    6.2749    0.0000 </r>
       <r>    6.6042    0.0000 </r>
       <r>    7.0443    0.0000 </r>
       <r>    7.6284    0.0000 </r>
       <r>    8.3485    0.0000 </r>
       <r>    8.4775    0.0000 </r>
       <r>    9.7500    0.0000 </r>
       <r>    9.8881    0.0000 </r>
       <r>   11.3445    0.0000 </r>
       <r>   11.4849    0.0000 </r>
       <r>   11.7009    0.0000 </r>
       <r>   12.3401    0.0000 </r>
       <r>   12.4662    0.0000 </r>
       <r>   12.6586    0.0000 </r>
       <r>   12.7211    0.0000 </r>
       <r>   13.0815    0.0000 </r>
       <r>   13.2146    0.0000 </r>
       <r>   13.3427    0.0000 </r>
       <r>   13.5518    0.0000 </r>
       <r>   13.9404    0.0000 </r>
       <r>   13.9501    0.0000 </r>
       <r>   14.6973    0.0000 </r>
       <r>   14.7064    0.0000 </r>
       <r>   15.1148    0.0000 </r>
       <r>   15.1975    0.0000 </r>
       <r>   15.7793    0.0000 </r>
       <r>   15.8645    0.0000 </r>
       <r>   16.0842    0.0000 </r>
      </set>
      <set comment="kpoint 17">
       <r>   -6.1862    1.0000 </r>
       <r>   -1.6852    0.0000 </r>
       <r>   -0.8311    0.0000 </r>
       <r>    3.7534    0.0000 </r>
       <r>    4.1978    0.0000 </r>
       <r>    4.5335    0.0000 </r>
       <r>    4.6760    0.0000 </r>
       <r>    4.8024    0.0000 </r>
       <r>    5.1047    0.0000 </r>
       <r>    5.3262    0.0000 </r>
       <r>    5.5644    0.0000 </r>
       <r>    6.0325    0.0000 </r>
       <r>    6.1683    0.0000 </r>
       <r>    6.7028    0.0000 </r>
       <r>    7.0061    0.0000 </r>
       <r>    7.1776    0.0000 </r>
       <r>    8.0940    0.0000 </r>
       <r>    8.2368    0.0000 </r>
       <r>    9.2537    0.0000 </r>
       <r>    9.3517    0.0000 </r>
       <r>    9.6238    0.0000 </r>
       <r>    9.9557    0.0000 </r>
       <r>   10.0599    0.0000 </r>
       <r>   10.2609    0.0000 </r>
       <r>   10.3285    0.0000 </r>
       <r>   10.7236    0.0000 </r>
       <r>   10.8437    0.0000 </r>
       <r>   10.9760    0.0000 </r>
       <r>   11.1372    0.0000 </r>
       <r>   11.5349    0.0000 </r>
       <r>   11.5881    0.0000 </r>
       <r>   12.3465    0.0000 </r>
       <r>   12.4917    0.0000 </r>
       <r>   12.7269    0.0000 </r>
       <r>   12.8449    0.0000 </r>
       <r>   13.5197    0.0000 </r>
       <r>   13.5889    0.0000 </r>
       <r>   13.9485    0.0000 </r>
       <r>   14.4237    0.0000 </r>
       <r>   14.9185    0.0000 </r>
       <r>   15.0327    0.0000 </r>
       <r>   15.1176    0.0000 </r>
      </set>
      <set comment="kpoint 18">
       <r>   -5.1595    1.0000 </r>
       <r>   -3.0941    0.0000 </r>
       <r>    0.1321    0.0000 </r>
       <r>    3.8840    0.0000 </r>
       <r>    5.2403    0.0000 </r>
       <r>    5.9913    0.0000 </r>
       <r>    6.0903    0.0000 </r>
       <r>    6.3034    0.0000 </r>
       <r>    6.3453    0.0000 </r>
       <r>    6.7164    0.0000 </r>
       <r>    6.8142    0.0000 </r>
       <r>    6.9027    0.0000 </r>
       <r>    7.4700    0.0000 </r>
       <r>    7.4908    0.0000 </r>
       <r>    7.8071    0.0000 </r>
       <r>    7.8346    0.0000 </r>
       <r>    7.9437    0.0000 </r>
       <r>    8.1297    0.0000 </r>
       <r>    8.2249    0.0000 </r>
       <r>    8.4602    0.0000 </r>
       <r>    8.6125    0.0000 </r>
       <r>    8.6945    0.0000 </r>
       <r>    8.8030    0.0000 </r>
       <r>    9.3379    0.0000 </r>
       <r>    9.4789    0.0000 </r>
       <r>    9.6608    0.0000 </r>
       <r>    9.7898    0.0000 </r>
       <r>   10.3139    0.0000 </r>
       <r>   10.4447    0.0000 </r>
       <r>   10.9389    0.0000 </r>
       <r>   11.0992    0.0000 </r>
       <r>   11.4965    0.0000 </r>
       <r>   11.5846    0.0000 </r>
       <r>   12.4046    0.0000 </r>
       <r>   12.4327    0.0000 </r>
       <r>   12.8902    0.0000 </r>
       <r>   12.8920    0.0000 </r>
       <r>   13.1885    0.0000 </r>
       <r>   14.0232    0.0000 </r>
       <r>   14.5046    0.0000 </r>
       <r>   14.5113    0.0000 </r>
       <r>   14.5656    0.0000 </r>
      </set>
      <set comment="kpoint 19">
       <r>   -7.3593    1.0000 </r>
       <r>   -2.1285    0.0000 </r>
       <r>    1.3828    0.0000 </r>
       <r>    2.1529    0.0000 </r>
       <r>    2.7944    0.0000 </r>
       <r>    2.9736    0.0000 </r>
       <r>    3.1616    0.0000 </r>
       <r>    3.2341    0.0000 </r>
       <r>    3.6735    0.0000 </r>
       <r>    3.7309    0.0000 </r>
       <r>    4.3645    0.0000 </r>
       <r>    4.3801    0.0000 </r>
       <r>    4.9032    0.0000 </r>
       <r>    5.2976    0.0000 </r>
       <r>    5.6398    0.0000 </r>
       <r>    6.4108    0.0000 </r>
       <r>    6.7350    0.0000 </r>
       <r>    7.6927    0.0000 </r>
       <r>    8.0698    0.0000 </r>
       <r>    9.0929    0.0000 </r>
       <r>    9.6155    0.0000 </r>
       <r>   10.3968    0.0000 </r>
       <r>   11.3493    0.0000 </r>
       <r>   11.5864    0.0000 </r>
       <r>   11.9822    0.0000 </r>
       <r>   13.2153    0.0000 </r>
       <r>   13.2252    0.0000 </r>
       <r>   14.1152    0.0000 </r>
       <r>   14.7649    0.0000 </r>
       <r>   15.1081    0.0000 </r>
       <r>   15.3836    0.0000 </r>
       <r>   15.6438    0.0000 </r>
       <r>   15.7599    0.0000 </r>
       <r>   15.8040    0.0000 </r>
       <r>   15.8646    0.0000 </r>
       <r>   15.8788    0.0000 </r>
       <r>   16.0650    0.0000 </r>
       <r>   16.1057    0.0000 </r>
       <r>   16.1083    0.0000 </r>
       <r>   16.1816    0.0000 </r>
       <r>   16.5580    0.0000 </r>
       <r>   16.5991    0.0000 </r>
      </set>
      <set comment="kpoint 20">
       <r>   -6.5901    1.0000 </r>
       <r>   -1.2465    0.0000 </r>
       <r>    0.1329    0.0000 </r>
       <r>    3.0871    0.0000 </r>
       <r>    3.7596    0.0000 </r>
       <r>    3.9628    0.0000 </r>
       <r>    4.1455    0.0000 </r>
       <r>    4.1977    0.0000 </r>
       <r>    4.5682    0.0000 </r>
       <r>    4.6509    0.0000 </r>
       <r>    4.9885    0.0000 </r>
       <r>    5.3415    0.0000 </r>
       <r>    5.6156    0.0000 </r>
       <r>    6.2342    0.0000 </r>
       <r>    6.5454    0.0000 </r>
       <r>    7.2710    0.0000 </r>
       <r>    7.6820    0.0000 </r>
       <r>    8.2785    0.0000 </r>
       <r>    9.0214    0.0000 </r>
       <r>    9.1789    0.0000 </r>
       <r>   10.4240    0.0000 </r>
       <r>   10.5445    0.0000 </r>
       <r>   11.7741    0.0000 </r>
       <r>   11.9690    0.0000 </r>
       <r>   12.3982    0.0000 </r>
       <r>   12.6420    0.0000 </r>
       <r>   12.9959    0.0000 </r>
       <r>   13.1028    0.0000 </r>
       <r>   13.1813    0.0000 </r>
       <r>   13.3990    0.0000 </r>
       <r>   13.4568    0.0000 </r>
       <r>   13.8985    0.0000 </r>
       <r>   13.9801    0.0000 </r>
       <r>   14.1704    0.0000 </r>
       <r>   14.3924    0.0000 </r>
       <r>   14.6639    0.0000 </r>
       <r>   14.7003    0.0000 </r>
       <r>   15.5451    0.0000 </r>
       <r>   15.6186    0.0000 </r>
       <r>   16.0018    0.0000 </r>
       <r>   16.1343    0.0000 </r>
       <r>   16.4824    0.0000 </r>
      </set>
      <set comment="kpoint 21">
       <r>   -5.6301    1.0000 </r>
       <r>   -1.3740    0.0000 </r>
       <r>   -0.2007    0.0000 </r>
       <r>    4.2567    0.0000 </r>
       <r>    4.8742    0.0000 </r>
       <r>    5.2107    0.0000 </r>
       <r>    5.3024    0.0000 </r>
       <r>    5.3785    0.0000 </r>
       <r>    5.5804    0.0000 </r>
       <r>    5.7974    0.0000 </r>
       <r>    6.1092    0.0000 </r>
       <r>    6.2557    0.0000 </r>
       <r>    6.8218    0.0000 </r>
       <r>    6.8734    0.0000 </r>
       <r>    7.7110    0.0000 </r>
       <r>    7.7666    0.0000 </r>
       <r>    8.7883    0.0000 </r>
       <r>    8.8840    0.0000 </r>
       <r>    9.8794    0.0000 </r>
       <r>   10.0170    0.0000 </r>
       <r>   10.2587    0.0000 </r>
       <r>   10.6559    0.0000 </r>
       <r>   10.7669    0.0000 </r>
       <r>   10.9605    0.0000 </r>
       <r>   10.9964    0.0000 </r>
       <r>   11.1533    0.0000 </r>
       <r>   11.3883    0.0000 </r>
       <r>   11.6078    0.0000 </r>
       <r>   11.6526    0.0000 </r>
       <r>   12.0330    0.0000 </r>
       <r>   12.2299    0.0000 </r>
       <r>   12.3294    0.0000 </r>
       <r>   12.8580    0.0000 </r>
       <r>   13.2830    0.0000 </r>
       <r>   13.3353    0.0000 </r>
       <r>   13.6845    0.0000 </r>
       <r>   13.8784    0.0000 </r>
       <r>   14.3806    0.0000 </r>
       <r>   14.4292    0.0000 </r>
       <r>   15.3860    0.0000 </r>
       <r>   15.5969    0.0000 </r>
       <r>   15.7351    0.0000 </r>
      </set>
      <set comment="kpoint 22">
       <r>   -4.5830    1.0000 </r>
       <r>   -2.7353    0.0000 </r>
       <r>    0.7392    0.0000 </r>
       <r>    4.5750    0.0000 </r>
       <r>    5.3466    0.0000 </r>
       <r>    6.2568    0.0000 </r>
       <r>    6.6948    0.0000 </r>
       <r>    6.8021    0.0000 </r>
       <r>    7.0090    0.0000 </r>
       <r>    7.0733    0.0000 </r>
       <r>    7.5173    0.0000 </r>
       <r>    7.5682    0.0000 </r>
       <r>    7.9496    0.0000 </r>
       <r>    8.1839    0.0000 </r>
       <r>    8.3693    0.0000 </r>
       <r>    8.5385    0.0000 </r>
       <r>    8.6443    0.0000 </r>
       <r>    8.8329    0.0000 </r>
       <r>    8.9092    0.0000 </r>
       <r>    9.1562    0.0000 </r>
       <r>    9.2051    0.0000 </r>
       <r>    9.4014    0.0000 </r>
       <r>    9.4819    0.0000 </r>
       <r>    9.8968    0.0000 </r>
       <r>   10.0261    0.0000 </r>
       <r>   10.2825    0.0000 </r>
       <r>   10.3581    0.0000 </r>
       <r>   10.6448    0.0000 </r>
       <r>   11.0034    0.0000 </r>
       <r>   11.2076    0.0000 </r>
       <r>   11.6062    0.0000 </r>
       <r>   11.9144    0.0000 </r>
       <r>   12.1860    0.0000 </r>
       <r>   12.3476    0.0000 </r>
       <r>   12.9980    0.0000 </r>
       <r>   13.4466    0.0000 </r>
       <r>   13.5849    0.0000 </r>
       <r>   13.6981    0.0000 </r>
       <r>   14.3342    0.0000 </r>
       <r>   15.1713    0.0000 </r>
       <r>   15.2105    0.0000 </r>
       <r>   15.2610    0.0000 </r>
      </set>
      <set comment="kpoint 23">
       <r>   -5.8259    1.0000 </r>
       <r>   -0.3769    0.0000 </r>
       <r>   -0.1740    0.0000 </r>
       <r>    3.4709    0.0000 </r>
       <r>    4.5242    0.0000 </r>
       <r>    4.7161    0.0000 </r>
       <r>    4.9635    0.0000 </r>
       <r>    5.1280    0.0000 </r>
       <r>    5.2529    0.0000 </r>
       <r>    5.6245    0.0000 </r>
       <r>    5.8005    0.0000 </r>
       <r>    6.2931    0.0000 </r>
       <r>    6.5287    0.0000 </r>
       <r>    7.1506    0.0000 </r>
       <r>    7.4801    0.0000 </r>
       <r>    8.0983    0.0000 </r>
       <r>    8.6038    0.0000 </r>
       <r>    9.0442    0.0000 </r>
       <r>    9.8415    0.0000 </r>
       <r>   10.1394    0.0000 </r>
       <r>   10.2860    0.0000 </r>
       <r>   10.7131    0.0000 </r>
       <r>   11.5222    0.0000 </r>
       <r>   11.7569    0.0000 </r>
       <r>   13.1053    0.0000 </r>
       <r>   13.1108    0.0000 </r>
       <r>   13.4159    0.0000 </r>
       <r>   13.5196    0.0000 </r>
       <r>   13.9724    0.0000 </r>
       <r>   14.1039    0.0000 </r>
       <r>   14.1650    0.0000 </r>
       <r>   14.1711    0.0000 </r>
       <r>   14.3366    0.0000 </r>
       <r>   14.4056    0.0000 </r>
       <r>   14.4127    0.0000 </r>
       <r>   14.4539    0.0000 </r>
       <r>   14.7862    0.0000 </r>
       <r>   14.9106    0.0000 </r>
       <r>   14.9332    0.0000 </r>
       <r>   15.0038    0.0000 </r>
       <r>   15.1236    0.0000 </r>
       <r>   15.3311    0.0000 </r>
      </set>
      <set comment="kpoint 24">
       <r>   -4.8763    1.0000 </r>
       <r>   -1.1192    0.0000 </r>
       <r>    0.6451    0.0000 </r>
       <r>    3.8054    0.0000 </r>
       <r>    5.5301    0.0000 </r>
       <r>    5.7871    0.0000 </r>
       <r>    6.2342    0.0000 </r>
       <r>    6.3574    0.0000 </r>
       <r>    6.5031    0.0000 </r>
       <r>    6.7543    0.0000 </r>
       <r>    7.0182    0.0000 </r>
       <r>    7.2144    0.0000 </r>
       <r>    7.7066    0.0000 </r>
       <r>    7.8590    0.0000 </r>
       <r>    8.4616    0.0000 </r>
       <r>    8.6895    0.0000 </r>
       <r>    9.0996    0.0000 </r>
       <r>    9.6928    0.0000 </r>
       <r>   10.0635    0.0000 </r>
       <r>   10.5633    0.0000 </r>
       <r>   10.9789    0.0000 </r>
       <r>   11.3654    0.0000 </r>
       <r>   11.4111    0.0000 </r>
       <r>   11.6865    0.0000 </r>
       <r>   11.7600    0.0000 </r>
       <r>   11.9821    0.0000 </r>
       <r>   12.0296    0.0000 </r>
       <r>   12.4829    0.0000 </r>
       <r>   12.5579    0.0000 </r>
       <r>   12.7644    0.0000 </r>
       <r>   12.9016    0.0000 </r>
       <r>   13.2312    0.0000 </r>
       <r>   13.2880    0.0000 </r>
       <r>   14.0663    0.0000 </r>
       <r>   14.2139    0.0000 </r>
       <r>   14.4590    0.0000 </r>
       <r>   14.5937    0.0000 </r>
       <r>   14.6458    0.0000 </r>
       <r>   15.1505    0.0000 </r>
       <r>   15.3832    0.0000 </r>
       <r>   15.4093    0.0000 </r>
       <r>   15.4497    0.0000 </r>
      </set>
      <set comment="kpoint 25">
       <r>   -3.8239    0.4062 </r>
       <r>   -2.2909    0.0000 </r>
       <r>    1.5432    0.0000 </r>
       <r>    4.3336    0.0000 </r>
       <r>    5.5327    0.0000 </r>
       <r>    6.6743    0.0000 </r>
       <r>    7.6059    0.0000 </r>
       <r>    7.6727    0.0000 </r>
       <r>    7.8067    0.0000 </r>
       <r>    7.9928    0.0000 </r>
       <r>    8.1151    0.0000 </r>
       <r>    8.4928    0.0000 </r>
       <r>    8.6741    0.0000 </r>
       <r>    8.9681    0.0000 </r>
       <r>    9.1233    0.0000 </r>
       <r>    9.4023    0.0000 </r>
       <r>    9.5166    0.0000 </r>
       <r>    9.6364    0.0000 </r>
       <r>    9.8054    0.0000 </r>
       <r>    9.9157    0.0000 </r>
       <r>   10.1005    0.0000 </r>
       <r>   10.3591    0.0000 </r>
       <r>   10.3886    0.0000 </r>
       <r>   10.4628    0.0000 </r>
       <r>   10.9022    0.0000 </r>
       <r>   11.1942    0.0000 </r>
       <r>   11.2922    0.0000 </r>
       <r>   11.5129    0.0000 </r>
       <r>   11.8134    0.0000 </r>
       <r>   12.1596    0.0000 </r>
       <r>   12.2362    0.0000 </r>
       <r>   12.8620    0.0000 </r>
       <r>   12.9066    0.0000 </r>
       <r>   13.2479    0.0000 </r>
       <r>   13.3124    0.0000 </r>
       <r>   14.2689    0.0000 </r>
       <r>   14.4112    0.0000 </r>
       <r>   14.5052    0.0000 </r>
       <r>   14.6620    0.0000 </r>
       <r>   15.0630    0.0000 </r>
       <r>   15.9285    0.0000 </r>
       <r>   16.0044    0.0000 </r>
      </set>
      <set comment="kpoint 26">
       <r>   -3.9598    0.9998 </r>
       <r>   -1.2285    0.0000 </r>
       <r>    1.6218    0.0000 </r>
       <r>    3.2696    0.0000 </r>
       <r>    6.1595    0.0000 </r>
       <r>    6.7447    0.0000 </r>
       <r>    7.2498    0.0000 </r>
       <r>    7.5203    0.0000 </r>
       <r>    7.5898    0.0000 </r>
       <r>    7.8282    0.0000 </r>
       <r>    7.9170    0.0000 </r>
       <r>    8.3921    0.0000 </r>
       <r>    8.3991    0.0000 </r>
       <r>    9.1197    0.0000 </r>
       <r>    9.1233    0.0000 </r>
       <r>    9.1549    0.0000 </r>
       <r>   10.0176    0.0000 </r>
       <r>   10.0852    0.0000 </r>
       <r>   11.1184    0.0000 </r>
       <r>   11.2342    0.0000 </r>
       <r>   11.9872    0.0000 </r>
       <r>   12.2959    0.0000 </r>
       <r>   12.3994    0.0000 </r>
       <r>   12.5915    0.0000 </r>
       <r>   12.8038    0.0000 </r>
       <r>   12.9706    0.0000 </r>
       <r>   13.0316    0.0000 </r>
       <r>   13.0382    0.0000 </r>
       <r>   13.1787    0.0000 </r>
       <r>   13.2721    0.0000 </r>
       <r>   13.2808    0.0000 </r>
       <r>   13.3248    0.0000 </r>
       <r>   13.5980    0.0000 </r>
       <r>   13.7810    0.0000 </r>
       <r>   13.7998    0.0000 </r>
       <r>   13.8810    0.0000 </r>
       <r>   13.9983    0.0000 </r>
       <r>   14.1389    0.0000 </r>
       <r>   14.2466    0.0000 </r>
       <r>   14.5060    0.0000 </r>
       <r>   14.5493    0.0000 </r>
       <r>   14.6285    0.0000 </r>
      </set>
      <set comment="kpoint 27">
       <r>   -2.9640    0.0000 </r>
       <r>   -1.8789    0.0000 </r>
       <r>    2.4458    0.0000 </r>
       <r>    3.3906    0.0000 </r>
       <r>    5.3406    0.0000 </r>
       <r>    6.7281    0.0000 </r>
       <r>    8.4128    0.0000 </r>
       <r>    8.8232    0.0000 </r>
       <r>    9.0699    0.0000 </r>
       <r>    9.1993    0.0000 </r>
       <r>    9.3511    0.0000 </r>
       <r>    9.5353    0.0000 </r>
       <r>    9.8960    0.0000 </r>
       <r>    9.9526    0.0000 </r>
       <r>   10.1481    0.0000 </r>
       <r>   10.6369    0.0000 </r>
       <r>   10.6466    0.0000 </r>
       <r>   10.8361    0.0000 </r>
       <r>   10.9102    0.0000 </r>
       <r>   11.1294    0.0000 </r>
       <r>   11.1819    0.0000 </r>
       <r>   11.5333    0.0000 </r>
       <r>   11.5995    0.0000 </r>
       <r>   11.6471    0.0000 </r>
       <r>   11.7166    0.0000 </r>
       <r>   12.2412    0.0000 </r>
       <r>   12.4433    0.0000 </r>
       <r>   12.6723    0.0000 </r>
       <r>   12.6815    0.0000 </r>
       <r>   12.7540    0.0000 </r>
       <r>   13.3702    0.0000 </r>
       <r>   13.3971    0.0000 </r>
       <r>   13.7791    0.0000 </r>
       <r>   13.9592    0.0000 </r>
       <r>   14.1001    0.0000 </r>
       <r>   14.5119    0.0000 </r>
       <r>   14.5332    0.0000 </r>
       <r>   14.5692    0.0000 </r>
       <r>   14.6054    0.0000 </r>
       <r>   14.8172    0.0000 </r>
       <r>   14.8645    0.0000 </r>
       <r>   15.2884    0.0000 </r>
      </set>
      <set comment="kpoint 28">
       <r>   -2.1792    0.0000 </r>
       <r>   -1.7595    0.0000 </r>
       <r>    2.9224    0.0000 </r>
       <r>    3.1646    0.0000 </r>
       <r>    4.1475    0.0000 </r>
       <r>    7.9169    0.0000 </r>
       <r>    8.5893    0.0000 </r>
       <r>    9.8731    0.0000 </r>
       <r>   10.5516    0.0000 </r>
       <r>   10.5911    0.0000 </r>
       <r>   10.6269    0.0000 </r>
       <r>   10.8548    0.0000 </r>
       <r>   10.8995    0.0000 </r>
       <r>   11.3688    0.0000 </r>
       <r>   11.4265    0.0000 </r>
       <r>   11.4327    0.0000 </r>
       <r>   11.8636    0.0000 </r>
       <r>   12.0528    0.0000 </r>
       <r>   12.1638    0.0000 </r>
       <r>   12.3966    0.0000 </r>
       <r>   12.4039    0.0000 </r>
       <r>   12.4650    0.0000 </r>
       <r>   12.4720    0.0000 </r>
       <r>   12.6667    0.0000 </r>
       <r>   12.7054    0.0000 </r>
       <r>   12.7146    0.0000 </r>
       <r>   12.7616    0.0000 </r>
       <r>   13.0116    0.0000 </r>
       <r>   13.0879    0.0000 </r>
       <r>   13.2157    0.0000 </r>
       <r>   13.2331    0.0000 </r>
       <r>   13.2375    0.0000 </r>
       <r>   13.3253    0.0000 </r>
       <r>   13.5110    0.0000 </r>
       <r>   13.8087    0.0000 </r>
       <r>   13.9412    0.0000 </r>
       <r>   13.9827    0.0000 </r>
       <r>   14.0729    0.0000 </r>
       <r>   14.2300    0.0000 </r>
       <r>   14.2500    0.0000 </r>
       <r>   14.2881    0.0000 </r>
       <r>   14.3246    0.0000 </r>
      </set>
     </set>
    </set>
   </array>
  </eigenvalues>
  <separator name="orbital magnetization" >
   <v name="MAGDIPOLOUT">      0.00000000      0.00000000      0.00000000</v>
  </separator>
  <dos>
   <i name="efermi">     -3.83232634 </i>
   <total>
    <array>
     <dimension dim="1">gridpoints</dimension>
     <dimension dim="2">spin</dimension>
     <field>energy</field>
     <field>total</field>
     <field>integrated</field>
     <set>
      <set comment="spin 1">
       <r>   -10.9950     0.0000     0.0000 </r>
       <r>   -10.8760     0.0000     0.0000 </r>
       <r>   -10.7571     0.0000     0.0000 </r>
       <r>   -10.6381     0.0000     0.0000 </r>
       <r>   -10.5192     0.0000     0.0000 </r>
       <r>   -10.4002     0.0000     0.0000 </r>
       <r>   -10.2813     0.0000     0.0000 </r>
       <r>   -10.1623     0.0000     0.0000 </r>
       <r>   -10.0434     0.0000     0.0000 </r>
       <r>    -9.9244     0.0000     0.0000 </r>
       <r>    -9.8055     0.0000     0.0000 </r>
       <r>    -9.6865     0.0000     0.0000 </r>
       <r>    -9.5676     0.0000     0.0000 </r>
       <r>    -9.4487     0.0016     0.0002 </r>
       <r>    -9.3297     0.0969     0.0117 </r>
       <r>    -9.2108     0.3822     0.0572 </r>
       <r>    -9.0918     0.3923     0.1038 </r>
       <r>    -8.9729     0.0555     0.1104 </r>
       <r>    -8.8539     0.4461     0.1635 </r>
       <r>    -8.7350     0.7024     0.2471 </r>
       <r>    -8.6160     0.0123     0.2485 </r>
       <r>    -8.4971     0.1037     0.2609 </r>
       <r>    -8.3781     0.4418     0.3134 </r>
       <r>    -8.2592     0.6009     0.3849 </r>
       <r>    -8.1402     0.4450     0.4378 </r>
       <r>    -8.0213     0.0018     0.4380 </r>
       <r>    -7.9023     0.5227     0.5002 </r>
       <r>    -7.7834     0.2719     0.5325 </r>
       <r>    -7.6644     0.0114     0.5339 </r>
       <r>    -7.5455     0.3906     0.5804 </r>
       <r>    -7.4265     0.7620     0.6710 </r>
       <r>    -7.3076     0.3994     0.7185 </r>
       <r>    -7.1886     0.1214     0.7329 </r>
       <r>    -7.0697     0.6912     0.8152 </r>
       <r>    -6.9507     0.0119     0.8166 </r>
       <r>    -6.8318     0.0000     0.8166 </r>
       <r>    -6.7128     0.0081     0.8175 </r>
       <r>    -6.5939     0.7376     0.9053 </r>
       <r>    -6.4749     1.1843     1.0461 </r>
       <r>    -6.3560     0.0598     1.0533 </r>
       <r>    -6.2371     0.0598     1.0604 </r>
       <r>    -6.1181     0.7146     1.1454 </r>
       <r>    -5.9992     0.0216     1.1479 </r>
       <r>    -5.8802     0.0247     1.1509 </r>
       <r>    -5.7613     0.3599     1.1937 </r>
       <r>    -5.6423     0.4771     1.2504 </r>
       <r>    -5.5234     1.0616     1.3767 </r>
       <r>    -5.4044     0.4638     1.4319 </r>
       <r>    -5.2855     0.0008     1.4320 </r>
       <r>    -5.1665     0.3349     1.4718 </r>
       <r>    -5.0476     0.4603     1.5266 </r>
       <r>    -4.9286     0.0560     1.5332 </r>
       <r>    -4.8097     0.7169     1.6185 </r>
       <r>    -4.6907     0.0246     1.6214 </r>
       <r>    -4.5718     0.4977     1.6806 </r>
       <r>    -4.4528     0.3870     1.7266 </r>
       <r>    -4.3339     0.3213     1.7649 </r>
       <r>    -4.2149     0.3424     1.8056 </r>
       <r>    -4.0960     0.1422     1.8225 </r>
       <r>    -3.9770     0.2610     1.8535 </r>
       <r>    -3.8581     0.8335     1.9527 </r>
       <r>    -3.7391     1.2825     2.1052 </r>
       <r>    -3.6202     0.0107     2.1065 </r>
       <r>    -3.5012     0.0109     2.1078 </r>
       <r>    -3.3823     0.6663     2.1871 </r>
       <r>    -3.2633     1.2333     2.3338 </r>
       <r>    -3.1444     0.7773     2.4262 </r>
       <r>    -3.0254     0.9057     2.5340 </r>
       <r>    -2.9065     0.7428     2.6223 </r>
       <r>    -2.7876     0.4146     2.6716 </r>
       <r>    -2.6686     1.1942     2.8137 </r>
       <r>    -2.5497     0.0244     2.8166 </r>
       <r>    -2.4307     0.1253     2.8315 </r>
       <r>    -2.3118     0.6528     2.9091 </r>
       <r>    -2.1928     1.3580     3.0707 </r>
       <r>    -2.0739     0.6270     3.1452 </r>
       <r>    -1.9549     0.4468     3.1984 </r>
       <r>    -1.8360     2.2090     3.4611 </r>
       <r>    -1.7170     0.6513     3.5386 </r>
       <r>    -1.5981     0.6897     3.6207 </r>
       <r>    -1.4791     0.0067     3.6214 </r>
       <r>    -1.3602     0.6572     3.6996 </r>
       <r>    -1.2412     1.3183     3.8564 </r>
       <r>    -1.1223     1.5739     4.0436 </r>
       <r>    -1.0033     0.4287     4.0946 </r>
       <r>    -0.8844     0.0529     4.1009 </r>
       <r>    -0.7654     0.7183     4.1864 </r>
       <r>    -0.6465     0.0251     4.1893 </r>
       <r>    -0.5275     0.0000     4.1893 </r>
       <r>    -0.4086     0.1222     4.2039 </r>
       <r>    -0.2896     0.7896     4.2978 </r>
       <r>    -0.1707     2.4003     4.5833 </r>
       <r>    -0.0517     1.2103     4.7273 </r>
       <r>     0.0672     1.1416     4.8631 </r>
       <r>     0.1862     1.4987     5.0413 </r>
       <r>     0.3051     0.4950     5.1002 </r>
       <r>     0.4240     0.8739     5.2042 </r>
       <r>     0.5430     0.7686     5.2956 </r>
       <r>     0.6619     1.2366     5.4427 </r>
       <r>     0.7809     1.7564     5.6516 </r>
       <r>     0.8998     1.7833     5.8637 </r>
       <r>     1.0188     2.1261     6.1166 </r>
       <r>     1.1377     1.1253     6.2505 </r>
       <r>     1.2567     1.0846     6.3795 </r>
       <r>     1.3756     1.9849     6.6156 </r>
       <r>     1.4946     2.7394     6.9414 </r>
       <r>     1.6135     1.9836     7.1774 </r>
       <r>     1.7325     1.8061     7.3922 </r>
       <r>     1.8514     2.6376     7.7059 </r>
       <r>     1.9704     3.2413     8.0915 </r>
       <r>     2.0893     2.6783     8.4101 </r>
       <r>     2.2083     3.1250     8.7818 </r>
       <r>     2.3272     1.6472     8.9777 </r>
       <r>     2.4462     1.8220     9.1944 </r>
       <r>     2.5651     4.0816     9.6799 </r>
       <r>     2.6841     2.8138    10.0146 </r>
       <r>     2.8030     1.7236    10.2196 </r>
       <r>     2.9220     1.7092    10.4230 </r>
       <r>     3.0409     3.4365    10.8317 </r>
       <r>     3.1599     4.7177    11.3929 </r>
       <r>     3.2788     3.1780    11.7709 </r>
       <r>     3.3978     3.6402    12.2039 </r>
       <r>     3.5167     4.9552    12.7933 </r>
       <r>     3.6356     2.7008    13.1146 </r>
       <r>     3.7546     3.3590    13.5141 </r>
       <r>     3.8735     3.4271    13.9218 </r>
       <r>     3.9925     3.1544    14.2970 </r>
       <r>     4.1114     3.9796    14.7703 </r>
       <r>     4.2304     5.3583    15.4077 </r>
       <r>     4.3493     4.3476    15.9248 </r>
       <r>     4.4683     3.4497    16.3352 </r>
       <r>     4.5872     3.2417    16.7208 </r>
       <r>     4.7062     4.9060    17.3043 </r>
       <r>     4.8251     3.9809    17.7778 </r>
       <r>     4.9441     3.5666    18.2021 </r>
       <r>     5.0630     2.4721    18.4961 </r>
       <r>     5.1820     3.4178    18.9027 </r>
       <r>     5.3009     3.9651    19.3743 </r>
       <r>     5.4199     5.9521    20.0823 </r>
       <r>     5.5388     3.7227    20.5251 </r>
       <r>     5.6578     7.9096    21.4659 </r>
       <r>     5.7767     4.7820    22.0348 </r>
       <r>     5.8957     3.3276    22.4306 </r>
       <r>     6.0146     2.8080    22.7646 </r>
       <r>     6.1336     3.6866    23.2031 </r>
       <r>     6.2525     5.5269    23.8605 </r>
       <r>     6.3715     5.3581    24.4978 </r>
       <r>     6.4904     3.8865    24.9601 </r>
       <r>     6.6094     4.9587    25.5499 </r>
       <r>     6.7283     6.4241    26.3141 </r>
       <r>     6.8473     6.3524    27.0697 </r>
       <r>     6.9662     2.8812    27.4124 </r>
       <r>     7.0851     5.8578    28.1092 </r>
       <r>     7.2041     3.8363    28.5655 </r>
       <r>     7.3230     4.1636    29.0607 </r>
       <r>     7.4420     3.1804    29.4390 </r>
       <r>     7.5609     5.6440    30.1104 </r>
       <r>     7.6799     6.2221    30.8505 </r>
       <r>     7.7988     7.3099    31.7200 </r>
       <r>     7.9178     5.2701    32.3469 </r>
       <r>     8.0367     4.8142    32.9195 </r>
       <r>     8.1557     6.6405    33.7094 </r>
       <r>     8.2746     4.8953    34.2917 </r>
       <r>     8.3936     3.8968    34.7552 </r>
       <r>     8.5125     5.2408    35.3786 </r>
       <r>     8.6315     3.9982    35.8541 </r>
       <r>     8.7504     4.4047    36.3781 </r>
       <r>     8.8694     5.3741    37.0173 </r>
       <r>     8.9883     5.3856    37.6579 </r>
       <r>     9.1073     5.4965    38.3117 </r>
       <r>     9.2262     7.7173    39.2297 </r>
       <r>     9.3452     4.3379    39.7457 </r>
       <r>     9.4641     5.7135    40.4253 </r>
       <r>     9.5831     5.9543    41.1335 </r>
       <r>     9.7020     4.5742    41.6776 </r>
       <r>     9.8210     3.8122    42.1311 </r>
       <r>     9.9399     7.7871    43.0573 </r>
       <r>    10.0589     5.9037    43.7596 </r>
       <r>    10.1778     3.7810    44.2093 </r>
       <r>    10.2967     4.2855    44.7191 </r>
       <r>    10.4157     6.4822    45.4901 </r>
       <r>    10.5346     5.1320    46.1005 </r>
       <r>    10.6536     6.7689    46.9057 </r>
       <r>    10.7725     5.2912    47.5351 </r>
       <r>    10.8915     4.1526    48.0290 </r>
       <r>    11.0104     9.0059    49.1002 </r>
       <r>    11.1294     6.6060    49.8860 </r>
       <r>    11.2483     6.3890    50.6460 </r>
       <r>    11.3673     3.8836    51.1079 </r>
       <r>    11.4862     4.6253    51.6581 </r>
       <r>    11.6052     6.3141    52.4092 </r>
       <r>    11.7241     5.2180    53.0298 </r>
       <r>    11.8431     4.0953    53.5170 </r>
       <r>    11.9620     5.1158    54.1255 </r>
       <r>    12.0810     6.8962    54.9458 </r>
       <r>    12.1999     4.8494    55.5226 </r>
       <r>    12.3189     6.7197    56.3219 </r>
       <r>    12.4378     8.4403    57.3258 </r>
       <r>    12.5568     6.9772    58.1558 </r>
       <r>    12.6757     5.8423    58.8507 </r>
       <r>    12.7947     7.3434    59.7242 </r>
       <r>    12.9136     6.3057    60.4742 </r>
       <r>    13.0326     5.1765    61.0900 </r>
       <r>    13.1515     5.2176    61.7106 </r>
       <r>    13.2705     8.4415    62.7147 </r>
       <r>    13.3894     7.0377    63.5518 </r>
       <r>    13.5083     5.4852    64.2043 </r>
       <r>    13.6273     6.4517    64.9717 </r>
       <r>    13.7462     3.4763    65.3852 </r>
       <r>    13.8652     4.1119    65.8743 </r>
       <r>    13.9841     8.8591    66.9281 </r>
       <r>    14.1031     7.3869    67.8067 </r>
       <r>    14.2220     5.2874    68.4357 </r>
       <r>    14.3410     5.6966    69.1133 </r>
       <r>    14.4599     8.3480    70.1062 </r>
       <r>    14.5789     8.5257    71.1204 </r>
       <r>    14.6978     8.4841    72.1295 </r>
       <r>    14.8168     5.1112    72.7375 </r>
       <r>    14.9357     4.3323    73.2528 </r>
       <r>    15.0547     3.9284    73.7201 </r>
       <r>    15.1736     6.2094    74.4587 </r>
       <r>    15.2926     4.8061    75.0304 </r>
       <r>    15.4115     6.3034    75.7801 </r>
       <r>    15.5305     5.7233    76.4609 </r>
       <r>    15.6494     3.5836    76.8872 </r>
       <r>    15.7684     3.3096    77.2808 </r>
       <r>    15.8873     4.2713    77.7889 </r>
       <r>    16.0063     4.4347    78.3164 </r>
       <r>    16.1252     4.9545    78.9057 </r>
       <r>    16.2442     3.7925    79.3568 </r>
       <r>    16.3631     1.4874    79.5338 </r>
       <r>    16.4821     1.7152    79.7378 </r>
       <r>    16.6010     2.7845    80.0690 </r>
       <r>    16.7200     1.5636    80.2550 </r>
       <r>    16.8389     2.2786    80.5260 </r>
       <r>    16.9578     1.5357    80.7087 </r>
       <r>    17.0768     1.3054    80.8639 </r>
       <r>    17.1957     1.4297    81.0340 </r>
       <r>    17.3147     0.7153    81.1191 </r>
       <r>    17.4336     0.5386    81.1832 </r>
       <r>    17.5526     0.6544    81.2610 </r>
       <r>    17.6715     2.1291    81.5142 </r>
       <r>    17.7905     1.4191    81.6830 </r>
       <r>    17.9094     1.4779    81.8588 </r>
       <r>    18.0284     1.7499    82.0670 </r>
       <r>    18.1473     2.1183    82.3189 </r>
       <r>    18.2663     1.8674    82.5411 </r>
       <r>    18.3852     1.6374    82.7358 </r>
       <r>    18.5042     1.4785    82.9117 </r>
       <r>    18.6231     0.6532    82.9894 </r>
       <r>    18.7421     0.6424    83.0658 </r>
       <r>    18.8610     0.6867    83.1475 </r>
       <r>    18.9800     0.0421    83.1525 </r>
       <r>    19.0989     0.3518    83.1943 </r>
       <r>    19.2179     0.0078    83.1953 </r>
       <r>    19.3368     0.0786    83.2046 </r>
       <r>    19.4558     0.3170    83.2423 </r>
       <r>    19.5747     0.0024    83.2426 </r>
       <r>    19.6937     0.0000    83.2426 </r>
       <r>    19.8126     0.0000    83.2426 </r>
       <r>    19.9316     0.0107    83.2439 </r>
       <r>    20.0505     0.3584    83.2865 </r>
       <r>    20.1694     0.6067    83.3587 </r>
       <r>    20.2884     0.6264    83.4332 </r>
       <r>    20.4073     0.1983    83.4568 </r>
       <r>    20.5263     0.4041    83.5048 </r>
       <r>    20.6452     0.2338    83.5326 </r>
       <r>    20.7642     0.8453    83.6332 </r>
       <r>    20.8831     1.3908    83.7986 </r>
       <r>    21.0021     0.9493    83.9115 </r>
       <r>    21.1210     0.4279    83.9624 </r>
       <r>    21.2400     0.0175    83.9645 </r>
       <r>    21.3589     0.0000    83.9645 </r>
       <r>    21.4779     0.0000    83.9645 </r>
       <r>    21.5968     0.0000    83.9645 </r>
       <r>    21.7158     0.0000    83.9645 </r>
       <r>    21.8347     0.0000    83.9645 </r>
       <r>    21.9537     0.0000    83.9645 </r>
       <r>    22.0726     0.0000    83.9645 </r>
       <r>    22.1916     0.0000    83.9645 </r>
       <r>    22.3105     0.0000    83.9645 </r>
       <r>    22.4295     0.0000    83.9645 </r>
       <r>    22.5484     0.0000    83.9645 </r>
       <r>    22.6674     0.0000    83.9645 </r>
       <r>    22.7863     0.0000    83.9645 </r>
       <r>    22.9053     0.0000    83.9645 </r>
       <r>    23.0242     0.0791    83.9739 </r>
       <r>    23.1432     0.2175    83.9998 </r>
       <r>    23.2621     0.0019    84.0000 </r>
       <r>    23.3811     0.0000    84.0000 </r>
       <r>    23.5000     0.0000    84.0000 </r>
       <r>    23.6189     0.0000    84.0000 </r>
       <r>    23.7379     0.0000    84.0000 </r>
       <r>    23.8568     0.0000    84.0000 </r>
       <r>    23.9758     0.0000    84.0000 </r>
       <r>    24.0947     0.0000    84.0000 </r>
       <r>    24.2137     0.0000    84.0000 </r>
       <r>    24.3326     0.0000    84.0000 </r>
       <r>    24.4516     0.0000    84.0000 </r>
       <r>    24.5705     0.0000    84.0000 </r>
       <r>    24.6895     0.0000    84.0000 </r>
      </set>
     </set>
    </array>
   </total>
  </dos>
 </calculation>
 <structure name="finalpos" >
  <crystal>
   <varray name="basis" >
    <v>       2.50624000       0.00000000       0.00000000 </v>
    <v>       0.00000000       2.50624000       0.00000000 </v>
    <v>       0.00000000       0.00000000      40.00000000 </v>
   </varray>
   <i name="volume">    251.24955750 </i>
   <varray name="rec_basis" >
    <v>       0.39900409       0.00000000       0.00000000 </v>
    <v>       0.00000000       0.39900409       0.00000000 </v>
    <v>       0.00000000       0.00000000       0.02500000 </v>
   </varray>
  </crystal>
  <varray name="positions" >
   <v>       0.00000000       0.00000000       0.10000000 </v>
  </varray>
 </structure>
</modeling>
