<?xml version="1.0" encoding="ISO-8859-1"?>
<modeling>
 <generator>
  <i name="program" type="string">vasp </i>
  <i name="version" type="string">6.5.0  </i>
  <i name="subversion" type="string">16Dec24 (build Jan 08 2025 16:17:04) complex                          parallel </i>
  <i name="platform" type="string">LinuxIFC </i>
  <i name="date" type="string">2025 08 30 </i>
  <i name="time" type="string">21:01:09 </i>
 </generator>
 <incar>
  <i type="string" name="SYSTEM">phonon_dispersion</i>
  <i type="int" name="ISTART">     1</i>
  <i type="string" name="PREC">Accurate</i>
  <i type="string" name="ALGO">Normal</i>
  <i type="int" name="ISPIN">     1</i>
  <i type="int" name="ICHARG">     1</i>
  <i type="int" name="NELM">    60</i>
  <i type="int" name="IBRION">     6</i>
  <i type="int" name="NFREE">     2</i>
  <i name="EDIFF">      0.00000100</i>
  <i name="EDIFFG">     -0.01000000</i>
  <i type="int" name="NSW">   300</i>
  <i type="int" name="ISIF">     2</i>
  <i name="ENCUT">    600.00000000</i>
  <i name="POTIM">      0.01500000</i>
  <i type="logical" name="LREAL"> F  </i>
  <i type="int" name="ISMEAR">     0</i>
  <i name="SIGMA">      0.05000000</i>
  <i type="logical" name="LWAVE"> F  </i>
  <i type="logical" name="LCHARG"> F  </i>
  <i type="string" name="GGA">PE</i>
  <i type="logical" name="LDIPOL"> T  </i>
  <i type="int" name="IDIPOL">     3</i>
  <v name="DIPOL">      0.50000000      0.50000000      0.10000000</v>
  <i type="int" name="IVDW">    12</i>
  <i type="logical" name="LPHON_DISPERSION"> T  </i>
 </incar>
 <primitive_cell>
  <structure name="primitive_cell" >
   <crystal>
    <varray name="basis" >
     <v>       2.99407298       1.72862884       0.00000000 </v>
     <v>      -2.99407298       1.72862884       0.00000000 </v>
     <v>       0.00000000       0.00000000      40.00000000 </v>
    </varray>
    <i name="volume">    414.05127267 </i>
    <varray name="rec_basis" >
     <v>       0.16699660       0.28924659       0.00000000 </v>
     <v>      -0.16699660       0.28924659       0.00000000 </v>
     <v>       0.00000000       0.00000000       0.02500000 </v>
    </varray>
   </crystal>
   <varray name="positions" >
    <v>       0.00000000       0.00000000       0.09999720 </v>
    <v>       0.66666666       0.33333334       0.12380304 </v>
    <v>       0.33333334       0.66666666       0.10000280 </v>
    <v>       0.66666666       0.33333334       0.07619696 </v>
   </varray>
  </structure>
  <varray name="primitive_index" >
   <v type="int" >        1 </v>
   <v type="int" >       92 </v>
   <v type="int" >      105 </v>
   <v type="int" >      190 </v>
  </varray>
 </primitive_cell>
 <kpoints>
  <generation param="Gamma">
   <v type="int" name="divisions">       3        3        1 </v>
   <v name="usershift">      0.00000000       0.00000000       0.00000000 </v>
   <v name="genvec1">      0.33333333       0.00000000       0.00000000 </v>
   <v name="genvec2">      0.00000000       0.33333333       0.00000000 </v>
   <v name="genvec3">      0.00000000       0.00000000       1.00000000 </v>
   <v name="shift">      0.00000000       0.00000000       0.00000000 </v>
  </generation>
  <varray name="kpointlist" >
   <v>       0.00000000       0.00000000       0.00000000 </v>
   <v>       0.33333333       0.00000000       0.00000000 </v>
   <v>       0.33333333       0.33333333       0.00000000 </v>
  </varray>
  <varray name="weights" >
   <v>       0.11111111 </v>
   <v>       0.66666667 </v>
   <v>       0.22222222 </v>
  </varray>
 </kpoints>
 <parameters>
  <separator name="general" >
   <i type="string" name="SYSTEM">phonon_dispersion</i>
   <i type="logical" name="LCOMPAT"> F  </i>
  </separator>
  <separator name="electronic" >
   <i type="string" name="PREC">accura</i>
   <i name="ENMAX">    600.00000000</i>
   <i name="ENAUG">    318.78100000</i>
   <i name="EDIFF">      0.00000100</i>
   <i type="int" name="IALGO">    38</i>
   <i type="int" name="IWAVPR">    11</i>
   <i type="int" name="NBANDS">   300</i>
   <i type="int" name="NBANDSLOW">    -1</i>
   <i type="int" name="NBANDSHIGH">    -1</i>
   <i name="NELECT">    392.00000000</i>
   <i type="int" name="TURBO">     0</i>
   <i type="int" name="IRESTART">     0</i>
   <i type="int" name="NREBOOT">     0</i>
   <i type="int" name="NMIN">     0</i>
   <i name="EREF">      0.00000000</i>
   <separator name="electronic smearing" >
    <i type="int" name="ISMEAR">     0</i>
    <i name="SIGMA">      0.05000000</i>
    <i name="KSPACING">      0.50000000</i>
    <i type="logical" name="KGAMMA"> T  </i>
    <i type="logical" name="KBLOWUP"> T  </i>
   </separator>
   <separator name="electronic projectors" >
    <i type="logical" name="LREAL"> F  </i>
    <v name="ROPT">      0.00000000</v>
    <i type="int" name="LMAXPAW">  -100</i>
    <i type="int" name="LMAXMIX">     2</i>
    <i type="logical" name="NLSPLINE"> F  </i>
   </separator>
   <separator name="electronic startup" >
    <i type="int" name="ISTART">     0</i>
    <i type="int" name="ICHARG">     1</i>
    <i type="int" name="INIWAV">     1</i>
   </separator>
   <separator name="electronic spin" >
    <i type="int" name="ISPIN">     1</i>
    <i type="logical" name="LNONCOLLINEAR"> F  </i>
    <v name="MAGMOM">      1.00000000      1.00000000      1.00000000      1.00000000      1.00000000      1.00000000      1.00000000      1.00000000      1.00000000      1.00000000      1.00000000      1.00000000      1.00000000      1.00000000      1.00000000      1.00000000      1.00000000      1.00000000      1.00000000      1.00000000
      1.00000000      1.00000000      1.00000000      1.00000000      1.00000000      1.00000000      1.00000000      1.00000000      1.00000000      1.00000000      1.00000000      1.00000000      1.00000000      1.00000000      1.00000000      1.00000000      1.00000000      1.00000000      1.00000000      1.00000000
      1.00000000      1.00000000      1.00000000      1.00000000      1.00000000      1.00000000      1.00000000      1.00000000      1.00000000      1.00000000      1.00000000      1.00000000      1.00000000      1.00000000      1.00000000      1.00000000      1.00000000      1.00000000      1.00000000      1.00000000
      1.00000000      1.00000000      1.00000000      1.00000000      1.00000000      1.00000000      1.00000000      1.00000000      1.00000000      1.00000000      1.00000000      1.00000000      1.00000000      1.00000000      1.00000000      1.00000000      1.00000000      1.00000000      1.00000000      1.00000000
      1.00000000      1.00000000      1.00000000      1.00000000      1.00000000      1.00000000      1.00000000      1.00000000      1.00000000      1.00000000      1.00000000      1.00000000      1.00000000      1.00000000      1.00000000      1.00000000      1.00000000      1.00000000      1.00000000      1.00000000
      1.00000000      1.00000000      1.00000000      1.00000000      1.00000000      1.00000000      1.00000000      1.00000000      1.00000000      1.00000000      1.00000000      1.00000000      1.00000000      1.00000000      1.00000000      1.00000000      1.00000000      1.00000000      1.00000000      1.00000000
      1.00000000      1.00000000      1.00000000      1.00000000      1.00000000      1.00000000      1.00000000      1.00000000      1.00000000      1.00000000      1.00000000      1.00000000      1.00000000      1.00000000      1.00000000      1.00000000      1.00000000      1.00000000      1.00000000      1.00000000
      1.00000000      1.00000000      1.00000000      1.00000000      1.00000000      1.00000000      1.00000000      1.00000000      1.00000000      1.00000000      1.00000000      1.00000000      1.00000000      1.00000000      1.00000000      1.00000000      1.00000000      1.00000000      1.00000000      1.00000000
      1.00000000      1.00000000      1.00000000      1.00000000      1.00000000      1.00000000      1.00000000      1.00000000      1.00000000      1.00000000      1.00000000      1.00000000      1.00000000      1.00000000      1.00000000      1.00000000      1.00000000      1.00000000      1.00000000      1.00000000
      1.00000000      1.00000000      1.00000000      1.00000000      1.00000000      1.00000000      1.00000000      1.00000000      1.00000000      1.00000000      1.00000000      1.00000000      1.00000000      1.00000000      1.00000000      1.00000000</v>
    <i name="NUPDOWN">     -1.00000000</i>
    <i type="logical" name="LSORBIT"> F  </i>
    <v name="SAXIS">      0.00000000      0.00000000      1.00000000</v>
    <i type="logical" name="LSPIRAL"> F  </i>
    <v name="QSPIRAL">      0.00000000      0.00000000      0.00000000</v>
    <i type="logical" name="LZEROZ"> F  </i>
   </separator>
   <separator name="electronic exchange-correlation" >
    <i type="logical" name="LASPH"> F  </i>
   </separator>
   <separator name="electronic convergence" >
    <i type="int" name="NELM">    60</i>
    <i type="int" name="NELMDL">     0</i>
    <i type="int" name="NELMIN">     2</i>
    <i name="ENINI">    600.00000000</i>
    <separator name="electronic convergence detail" >
     <i type="logical" name="LDIAG"> T  </i>
     <i type="logical" name="LSUBROT"> F  </i>
     <i name="WEIMIN">      0.00100000</i>
     <i name="EBREAK">      0.00000000</i>
     <i name="DEPER">      0.30000000</i>
     <i type="int" name="NRMM">     4</i>
     <i name="TIME">      0.40000000</i>
    </separator>
   </separator>
   <separator name="electronic mixer" >
    <i name="AMIX">      0.40000000</i>
    <i name="BMIX">      1.00000000</i>
    <i name="AMIN">      0.10000000</i>
    <i name="AMIX_MAG">      1.60000000</i>
    <i name="BMIX_MAG">      1.00000000</i>
    <separator name="electronic mixer details" >
     <i type="int" name="IMIX">     4</i>
     <i type="logical" name="MIXFIRST"> F  </i>
     <i type="int" name="MAXMIX">   -45</i>
     <i name="WC">    100.00000000</i>
     <i type="int" name="INIMIX">     1</i>
     <i type="int" name="MIXPRE">     1</i>
     <i type="int" name="MREMOVE">     5</i>
    </separator>
   </separator>
   <separator name="electronic dipolcorrection" >
    <i type="logical" name="LDIPOL"> T  </i>
    <i type="logical" name="LMONO"> F  </i>
    <i type="int" name="IDIPOL">     3</i>
    <i name="EPSILON">      1.00000000</i>
    <v name="DIPOL">      0.50000000      0.50000000      0.10000000</v>
    <i name="EFIELD">      0.00000000</i>
    <i type="logical" name="LVACPOTAV"> F  </i>
   </separator>
  </separator>
  <separator name="grids" >
   <i type="int" name="NGX">   196</i>
   <i type="int" name="NGY">   196</i>
   <i type="int" name="NGZ">   320</i>
   <i type="int" name="NGXF">   392</i>
   <i type="int" name="NGYF">   392</i>
   <i type="int" name="NGZF">   640</i>
   <i type="logical" name="ADDGRID"> F  </i>
  </separator>
  <separator name="ionic" >
   <i type="int" name="NSW">  2389</i>
   <i type="int" name="IBRION">     6</i>
   <i type="int" name="MDALGO">     0</i>
   <i type="int" name="ISIF">     2</i>
   <i name="PSTRESS">      0.00000000</i>
   <i name="EDIFFG">     -0.01000000</i>
   <i type="int" name="NFREE">     2</i>
   <i name="POTIM">      0.01500000</i>
   <i name="SMASS">     -3.00000000</i>
   <i name="SCALEE">      1.00000000</i>
  </separator>
  <separator name="ionic md" >
   <i name="TEBEG">      0.00010000</i>
   <i name="TEEND">      0.00010000</i>
   <i type="int" name="NBLOCK">     1</i>
   <i type="int" name="KBLOCK">  2389</i>
   <i type="int" name="NPACO">   256</i>
   <i name="APACO">     10.00000000</i>
  </separator>
  <separator name="symmetry" >
   <i type="int" name="ISYM">     2</i>
   <i name="SYMPREC">      0.00001000</i>
  </separator>
  <separator name="dos" >
   <i type="int" name="LORBIT">     0</i>
   <v name="RWIGS">     -1.00000000</v>
   <i type="int" name="NEDOS">   301</i>
   <i name="EMIN">     10.00000000</i>
   <i name="EMAX">    -10.00000000</i>
   <i name="EFERMI">      0.00000000</i>
  </separator>
  <separator name="writing" >
   <i type="int" name="NWRITE">     2</i>
   <i type="logical" name="LWAVE"> F  </i>
   <i type="logical" name="LDOWNSAMPLE"> F  </i>
   <i type="logical" name="LCHARG"> F  </i>
   <i type="logical" name="LPARD"> F  </i>
   <i type="logical" name="LVTOT"> F  </i>
   <i type="logical" name="LVHAR"> F  </i>
   <i type="logical" name="LELF"> F  </i>
   <i type="logical" name="LOPTICS"> F  </i>
   <v name="STM">      0.00000000      0.00000000      0.00000000      0.00000000      0.00000000      0.00000000      0.00000000</v>
  </separator>
  <separator name="performance" >
   <i type="int" name="NPAR">   100</i>
   <i type="int" name="NSIM">     4</i>
   <i type="int" name="NBLK">    -1</i>
   <i type="logical" name="LPLANE"> T  </i>
   <i type="logical" name="LSCALAPACK"> T  </i>
   <i type="logical" name="LSCAAWARE"> F  </i>
   <i type="logical" name="LSCALU"> F  </i>
   <i type="logical" name="LASYNC"> F  </i>
   <i type="logical" name="LORBITALREAL"> F  </i>
  </separator>
  <separator name="miscellaneous" >
   <i type="int" name="IDIOT">     3</i>
   <i type="int" name="PHON_NSTRUCT">    -1</i>
   <i type="logical" name="LMUSIC"> F  </i>
   <v name="POMASS">      9.01300000</v>
   <v name="DARWINR">      0.00000000</v>
   <v name="DARWINV">      1.00000000</v>
   <i type="logical" name="LCORR"> T  </i>
  </separator>
  <i type="logical" name="GGA_COMPAT"> T  </i>
  <i type="logical" name="LBERRY"> F  </i>
  <i type="int" name="ICORELEVEL">     0</i>
  <i type="logical" name="LDAU"> F  </i>
  <i type="int" name="I_CONSTRAINED_M">     0</i>
  <separator name="electronic exchange-correlation" >
   <i type="string" name="GGA    ">PE</i>
   <i type="string" name="XC_C">1</i>
   <i type="int" name="VOSKOWN">     0</i>
   <i type="logical" name="LHFCALC"> F  </i>
   <i type="string" name="PRECFOCK"></i>
   <i type="logical" name="LSYMGRAD"> F  </i>
   <i type="logical" name="LHFONE"> F  </i>
   <i type="logical" name="LRHFCALC"> F  </i>
   <i type="logical" name="LTHOMAS"> F  </i>
   <i type="logical" name="LMODELHF"> F  </i>
   <i type="logical" name="LFOCKACE"> F  </i>
   <i name="ENCUT4O">     -1.00000000</i>
   <i type="int" name="EXXOEP">     0</i>
   <i type="int" name="FOURORBIT">     0</i>
   <i name="AEXX">      0.00000000</i>
   <i name="HFALPHA">      0.00000000</i>
   <i name="MCALPHA">      0.00000000</i>
   <i name="ALDAX">      1.00000000</i>
   <i name="AGGAX">      1.00000000</i>
   <i name="AMGGAX">      1.00000000</i>
   <i name="ALDAC">      1.00000000</i>
   <i name="AGGAC">      1.00000000</i>
   <i name="AMGGAC">      1.00000000</i>
   <i type="int" name="NKREDX">     1</i>
   <i type="int" name="NKREDY">     1</i>
   <i type="int" name="NKREDZ">     1</i>
   <i type="logical" name="SHIFTRED"> F  </i>
   <i type="logical" name="ODDONLY"> F  </i>
   <i type="logical" name="EVENONLY"> F  </i>
   <i type="int" name="LMAXFOCK">     0</i>
   <i type="int" name="NMAXFOCKAE">     0</i>
   <i type="logical" name="LFOCKAEDFT"> F  </i>
   <i name="HFSCREEN">      0.00000000</i>
   <i name="HFSCREENC">      0.00000000</i>
   <i type="int" name="NBANDSGWLOW">     0</i>
  </separator>
  <separator name="vdW DFT" >
   <i type="logical" name="LUSE_VDW"> F  </i>
   <i type="int" name="IVDW_NL">    -1</i>
   <i type="logical" name="LSPIN_VDW"> F  </i>
   <i name="ZAB_VDW">     -0.84910000</i>
   <i name="GAMMA_VDW">      1.39626340</i>
   <i name="ALPHA_VDW">      0.00000000</i>
   <i name="PARAM1">      0.12340000</i>
   <i name="PARAM2">      1.00000000</i>
   <i name="BPARAM">      6.30000000</i>
   <i name="CPARAM">      0.00930000</i>
  </separator>
  <separator name="model GW" >
   <i type="int" name="MODEL_GW">     0</i>
   <i name="MODEL_EPS0">     62.10769078</i>
   <i name="MODEL_ALPHA">      1.00000000</i>
  </separator>
  <separator name="linear response parameters" >
   <i type="logical" name="LEPSILON"> F  </i>
   <i type="logical" name="LRPA"> F  </i>
   <i type="logical" name="LNABLA"> F  </i>
   <i type="logical" name="LVEL"> F  </i>
   <i name="CSHIFT">      0.10000000</i>
   <i name="OMEGAMAX">     -1.00000000</i>
   <i name="DEG_THRESHOLD">      0.00200000</i>
   <i name="RTIME">     -0.10000000</i>
   <i name="WPLASMAI">      0.00000000</i>
   <v name="DFIELD">      0.00000000      0.00000000      0.00000000</v>
   <v name="WPLASMA">      0.00000000      0.00000000      0.00000000      0.00000000      0.00000000      0.00000000      0.00000000      0.00000000      0.00000000</v>
  </separator>
  <separator name="orbital magnetization" >
   <i type="logical" name="NUCIND"> F  </i>
   <v name="MAGPOS">      0.00000000      0.00000000      0.00000000</v>
   <i type="logical" name="LNICSALL"> T  </i>
   <i type="logical" name="ORBITALMAG"> F  </i>
   <i type="logical" name="LMAGBLOCH"> F  </i>
   <i type="logical" name="LCHIMAG"> F  </i>
   <i type="logical" name="LGAUGE"> T  </i>
   <i type="int" name="MAGATOM">     0</i>
   <v name="MAGDIPOL">      0.00000000      0.00000000      0.00000000</v>
   <v name="AVECCONST">      0.00000000      0.00000000      0.00000000</v>
  </separator>
  <separator name="response functions" >
   <i type="logical" name="LALL_IN_ONE"> F  </i>
   <i type="int" name="IALL_IN_ONE">    -1</i>
   <i type="int" name="NBANDS_WAVE">    -1</i>
   <i type="logical" name="LFINITE_TEMPERATURE"> F  </i>
   <i type="logical" name="LADDER"> F  </i>
   <i type="logical" name="LRPAFORCE"> F  </i>
   <i type="logical" name="LFXC"> F  </i>
   <i type="logical" name="LHARTREE"> T  </i>
   <i type="int" name="IBSE">     2</i>
   <v type="int" name="KPOINT">    -1     0     0     0</v>
   <i type="logical" name="LTCTC"> F  </i>
   <i type="logical" name="LTCTE"> F  </i>
   <i type="logical" name="LTETE"> F  </i>
   <i type="logical" name="LTRIPLET"> F  </i>
   <i type="logical" name="LFXCEPS"> F  </i>
   <i type="logical" name="LFXHEG"> F  </i>
   <i type="int" name="NATURALO">     2</i>
   <i type="logical" name="LHOLEGF"> F  </i>
   <i type="logical" name="L2ORDER"> F  </i>
   <i type="logical" name="LDMP1"> F  </i>
   <i type="logical" name="LMP2LT"> F  </i>
   <i type="logical" name="LSMP2LT"> F  </i>
   <i type="logical" name="LGWLF"> F  </i>
   <i name="ENCUTGW">     -1.60000002</i>
   <i name="ENCUTGWSOFT">     -1.60000002</i>
   <i name="ENCUTLF">     -1.00000000</i>
   <i type="logical" name="ESF_SPLINES"> F  </i>
   <i name="ESF_CONV">      0.01000000</i>
   <i type="int" name="ESF_NINTER">    15</i>
   <i type="int" name="LMAXMP2">    -1</i>
   <i name="SCISSOR">      0.00000000</i>
   <i type="int" name="NOMEGA">     0</i>
   <i type="int" name="NOMEGAR">     0</i>
   <i type="int" name="NBANDSGW">    -1</i>
   <i type="int" name="NBANDSO">    -1</i>
   <i type="int" name="NBANDSV">    -1</i>
   <i type="int" name="NELMGW">     1</i>
   <i type="int" name="NELMHF">     1</i>
   <i type="int" name="DIM">     3</i>
   <i type="int" name="IESPILON">     4</i>
   <i type="int" name="ANTIRES">     0</i>
   <i name="OMEGAMAX">    -30.00000000</i>
   <i name="OMEGAMIN">    -30.00000000</i>
   <i name="OMEGATL">   -200.00000000</i>
   <i type="int" name="OMEGAGRID">     0</i>
   <i name="CSHIFT">     -0.10000000</i>
   <i type="logical" name="LSELFENERGY"> F  </i>
   <i type="logical" name="LSPECTRAL"> F  </i>
   <i type="logical" name="LSPECTRALGW"> F  </i>
   <i type="logical" name="LSINGLES"> F  </i>
   <i type="logical" name="LFERMIGW"> F  </i>
   <i type="logical" name="ODDONLYGW"> F  </i>
   <i type="logical" name="EVENONLYGW"> F  </i>
   <i type="int" name="NKREDLFX">     1</i>
   <i type="int" name="NKREDLFY">     1</i>
   <i type="int" name="NKREDLFZ">     1</i>
   <i type="int" name="MAXMEM">  2800</i>
   <i type="int" name="TELESCOPE">     0</i>
   <i type="int" name="NTAUPAR">    -1</i>
   <i type="int" name="NOMEGAPAR">    -1</i>
   <i name="DAMP_NEWTON">      0.80000001</i>
   <i name="LAMBDA">      1.00000000</i>
  </separator>
  <separator name="External order field" >
   <i name="OFIELD_KAPPA">      0.00000000</i>
   <v name="OFIELD_K">      0.00000000      0.00000000      0.00000000</v>
   <i name="OFIELD_Q6_NEAR">      0.00000000</i>
   <i name="OFIELD_Q6_FAR">      0.00000000</i>
   <i name="OFIELD_A">      0.00000000</i>
  </separator>
  <separator name="optional k-points parameters" >
   <i type="int" name="KPOINTS_OPT_MODE">     1</i>
   <i type="logical" name="LKPOINTS_OPT"> F  </i>
  </separator>
 </parameters>
 <atominfo>
  <atoms>     196 </atoms>
  <types>       1 </types>
  <array name="atoms" >
   <dimension dim="1">ion</dimension>
   <field type="string">element</field>
   <field type="int">atomtype</field>
   <set>
    <rc><c>Be</c><c>   1</c></rc>
    <rc><c>Be</c><c>   1</c></rc>
    <rc><c>Be</c><c>   1</c></rc>
    <rc><c>Be</c><c>   1</c></rc>
    <rc><c>Be</c><c>   1</c></rc>
    <rc><c>Be</c><c>   1</c></rc>
    <rc><c>Be</c><c>   1</c></rc>
    <rc><c>Be</c><c>   1</c></rc>
    <rc><c>Be</c><c>   1</c></rc>
    <rc><c>Be</c><c>   1</c></rc>
    <rc><c>Be</c><c>   1</c></rc>
    <rc><c>Be</c><c>   1</c></rc>
    <rc><c>Be</c><c>   1</c></rc>
    <rc><c>Be</c><c>   1</c></rc>
    <rc><c>Be</c><c>   1</c></rc>
    <rc><c>Be</c><c>   1</c></rc>
    <rc><c>Be</c><c>   1</c></rc>
    <rc><c>Be</c><c>   1</c></rc>
    <rc><c>Be</c><c>   1</c></rc>
    <rc><c>Be</c><c>   1</c></rc>
    <rc><c>Be</c><c>   1</c></rc>
    <rc><c>Be</c><c>   1</c></rc>
    <rc><c>Be</c><c>   1</c></rc>
    <rc><c>Be</c><c>   1</c></rc>
    <rc><c>Be</c><c>   1</c></rc>
    <rc><c>Be</c><c>   1</c></rc>
    <rc><c>Be</c><c>   1</c></rc>
    <rc><c>Be</c><c>   1</c></rc>
    <rc><c>Be</c><c>   1</c></rc>
    <rc><c>Be</c><c>   1</c></rc>
    <rc><c>Be</c><c>   1</c></rc>
    <rc><c>Be</c><c>   1</c></rc>
    <rc><c>Be</c><c>   1</c></rc>
    <rc><c>Be</c><c>   1</c></rc>
    <rc><c>Be</c><c>   1</c></rc>
    <rc><c>Be</c><c>   1</c></rc>
    <rc><c>Be</c><c>   1</c></rc>
    <rc><c>Be</c><c>   1</c></rc>
    <rc><c>Be</c><c>   1</c></rc>
    <rc><c>Be</c><c>   1</c></rc>
    <rc><c>Be</c><c>   1</c></rc>
    <rc><c>Be</c><c>   1</c></rc>
    <rc><c>Be</c><c>   1</c></rc>
    <rc><c>Be</c><c>   1</c></rc>
    <rc><c>Be</c><c>   1</c></rc>
    <rc><c>Be</c><c>   1</c></rc>
    <rc><c>Be</c><c>   1</c></rc>
    <rc><c>Be</c><c>   1</c></rc>
    <rc><c>Be</c><c>   1</c></rc>
    <rc><c>Be</c><c>   1</c></rc>
    <rc><c>Be</c><c>   1</c></rc>
    <rc><c>Be</c><c>   1</c></rc>
    <rc><c>Be</c><c>   1</c></rc>
    <rc><c>Be</c><c>   1</c></rc>
    <rc><c>Be</c><c>   1</c></rc>
    <rc><c>Be</c><c>   1</c></rc>
    <rc><c>Be</c><c>   1</c></rc>
    <rc><c>Be</c><c>   1</c></rc>
    <rc><c>Be</c><c>   1</c></rc>
    <rc><c>Be</c><c>   1</c></rc>
    <rc><c>Be</c><c>   1</c></rc>
    <rc><c>Be</c><c>   1</c></rc>
    <rc><c>Be</c><c>   1</c></rc>
    <rc><c>Be</c><c>   1</c></rc>
    <rc><c>Be</c><c>   1</c></rc>
    <rc><c>Be</c><c>   1</c></rc>
    <rc><c>Be</c><c>   1</c></rc>
    <rc><c>Be</c><c>   1</c></rc>
    <rc><c>Be</c><c>   1</c></rc>
    <rc><c>Be</c><c>   1</c></rc>
    <rc><c>Be</c><c>   1</c></rc>
    <rc><c>Be</c><c>   1</c></rc>
    <rc><c>Be</c><c>   1</c></rc>
    <rc><c>Be</c><c>   1</c></rc>
    <rc><c>Be</c><c>   1</c></rc>
    <rc><c>Be</c><c>   1</c></rc>
    <rc><c>Be</c><c>   1</c></rc>
    <rc><c>Be</c><c>   1</c></rc>
    <rc><c>Be</c><c>   1</c></rc>
    <rc><c>Be</c><c>   1</c></rc>
    <rc><c>Be</c><c>   1</c></rc>
    <rc><c>Be</c><c>   1</c></rc>
    <rc><c>Be</c><c>   1</c></rc>
    <rc><c>Be</c><c>   1</c></rc>
    <rc><c>Be</c><c>   1</c></rc>
    <rc><c>Be</c><c>   1</c></rc>
    <rc><c>Be</c><c>   1</c></rc>
    <rc><c>Be</c><c>   1</c></rc>
    <rc><c>Be</c><c>   1</c></rc>
    <rc><c>Be</c><c>   1</c></rc>
    <rc><c>Be</c><c>   1</c></rc>
    <rc><c>Be</c><c>   1</c></rc>
    <rc><c>Be</c><c>   1</c></rc>
    <rc><c>Be</c><c>   1</c></rc>
    <rc><c>Be</c><c>   1</c></rc>
    <rc><c>Be</c><c>   1</c></rc>
    <rc><c>Be</c><c>   1</c></rc>
    <rc><c>Be</c><c>   1</c></rc>
    <rc><c>Be</c><c>   1</c></rc>
    <rc><c>Be</c><c>   1</c></rc>
    <rc><c>Be</c><c>   1</c></rc>
    <rc><c>Be</c><c>   1</c></rc>
    <rc><c>Be</c><c>   1</c></rc>
    <rc><c>Be</c><c>   1</c></rc>
    <rc><c>Be</c><c>   1</c></rc>
    <rc><c>Be</c><c>   1</c></rc>
    <rc><c>Be</c><c>   1</c></rc>
    <rc><c>Be</c><c>   1</c></rc>
    <rc><c>Be</c><c>   1</c></rc>
    <rc><c>Be</c><c>   1</c></rc>
    <rc><c>Be</c><c>   1</c></rc>
    <rc><c>Be</c><c>   1</c></rc>
    <rc><c>Be</c><c>   1</c></rc>
    <rc><c>Be</c><c>   1</c></rc>
    <rc><c>Be</c><c>   1</c></rc>
    <rc><c>Be</c><c>   1</c></rc>
    <rc><c>Be</c><c>   1</c></rc>
    <rc><c>Be</c><c>   1</c></rc>
    <rc><c>Be</c><c>   1</c></rc>
    <rc><c>Be</c><c>   1</c></rc>
    <rc><c>Be</c><c>   1</c></rc>
    <rc><c>Be</c><c>   1</c></rc>
    <rc><c>Be</c><c>   1</c></rc>
    <rc><c>Be</c><c>   1</c></rc>
    <rc><c>Be</c><c>   1</c></rc>
    <rc><c>Be</c><c>   1</c></rc>
    <rc><c>Be</c><c>   1</c></rc>
    <rc><c>Be</c><c>   1</c></rc>
    <rc><c>Be</c><c>   1</c></rc>
    <rc><c>Be</c><c>   1</c></rc>
    <rc><c>Be</c><c>   1</c></rc>
    <rc><c>Be</c><c>   1</c></rc>
    <rc><c>Be</c><c>   1</c></rc>
    <rc><c>Be</c><c>   1</c></rc>
    <rc><c>Be</c><c>   1</c></rc>
    <rc><c>Be</c><c>   1</c></rc>
    <rc><c>Be</c><c>   1</c></rc>
    <rc><c>Be</c><c>   1</c></rc>
    <rc><c>Be</c><c>   1</c></rc>
    <rc><c>Be</c><c>   1</c></rc>
    <rc><c>Be</c><c>   1</c></rc>
    <rc><c>Be</c><c>   1</c></rc>
    <rc><c>Be</c><c>   1</c></rc>
    <rc><c>Be</c><c>   1</c></rc>
    <rc><c>Be</c><c>   1</c></rc>
    <rc><c>Be</c><c>   1</c></rc>
    <rc><c>Be</c><c>   1</c></rc>
    <rc><c>Be</c><c>   1</c></rc>
    <rc><c>Be</c><c>   1</c></rc>
    <rc><c>Be</c><c>   1</c></rc>
    <rc><c>Be</c><c>   1</c></rc>
    <rc><c>Be</c><c>   1</c></rc>
    <rc><c>Be</c><c>   1</c></rc>
    <rc><c>Be</c><c>   1</c></rc>
    <rc><c>Be</c><c>   1</c></rc>
    <rc><c>Be</c><c>   1</c></rc>
    <rc><c>Be</c><c>   1</c></rc>
    <rc><c>Be</c><c>   1</c></rc>
    <rc><c>Be</c><c>   1</c></rc>
    <rc><c>Be</c><c>   1</c></rc>
    <rc><c>Be</c><c>   1</c></rc>
    <rc><c>Be</c><c>   1</c></rc>
    <rc><c>Be</c><c>   1</c></rc>
    <rc><c>Be</c><c>   1</c></rc>
    <rc><c>Be</c><c>   1</c></rc>
    <rc><c>Be</c><c>   1</c></rc>
    <rc><c>Be</c><c>   1</c></rc>
    <rc><c>Be</c><c>   1</c></rc>
    <rc><c>Be</c><c>   1</c></rc>
    <rc><c>Be</c><c>   1</c></rc>
    <rc><c>Be</c><c>   1</c></rc>
    <rc><c>Be</c><c>   1</c></rc>
    <rc><c>Be</c><c>   1</c></rc>
    <rc><c>Be</c><c>   1</c></rc>
    <rc><c>Be</c><c>   1</c></rc>
    <rc><c>Be</c><c>   1</c></rc>
    <rc><c>Be</c><c>   1</c></rc>
    <rc><c>Be</c><c>   1</c></rc>
    <rc><c>Be</c><c>   1</c></rc>
    <rc><c>Be</c><c>   1</c></rc>
    <rc><c>Be</c><c>   1</c></rc>
    <rc><c>Be</c><c>   1</c></rc>
    <rc><c>Be</c><c>   1</c></rc>
    <rc><c>Be</c><c>   1</c></rc>
    <rc><c>Be</c><c>   1</c></rc>
    <rc><c>Be</c><c>   1</c></rc>
    <rc><c>Be</c><c>   1</c></rc>
    <rc><c>Be</c><c>   1</c></rc>
    <rc><c>Be</c><c>   1</c></rc>
    <rc><c>Be</c><c>   1</c></rc>
    <rc><c>Be</c><c>   1</c></rc>
    <rc><c>Be</c><c>   1</c></rc>
    <rc><c>Be</c><c>   1</c></rc>
    <rc><c>Be</c><c>   1</c></rc>
    <rc><c>Be</c><c>   1</c></rc>
    <rc><c>Be</c><c>   1</c></rc>
   </set>
  </array>
  <array name="atomtypes" >
   <dimension dim="1">type</dimension>
   <field type="int">atomspertype</field>
   <field type="string">element</field>
   <field>mass</field>
   <field>valence</field>
   <field type="string">pseudopotential</field>
   <set>
    <rc><c> 196</c><c>Be</c><c>      9.01300000</c><c>      2.00000000</c><c>  PAW_PBE Be 06Sep2000                  </c></rc>
   </set>
  </array>
 </atominfo>
 <structure name="initialpos" >
  <crystal>
   <varray name="basis" >
    <v>      20.95851085      12.10040188       0.00000000 </v>
    <v>     -20.95851085      12.10040188       0.00000000 </v>
    <v>       0.00000000       0.00000000      40.00000000 </v>
   </varray>
   <i name="volume">  20288.51232007 </i>
   <varray name="rec_basis" >
    <v>       0.02385666       0.04132094       0.00000000 </v>
    <v>      -0.02385666       0.04132094       0.00000000 </v>
    <v>       0.00000000       0.00000000       0.02500000 </v>
   </varray>
  </crystal>
  <varray name="positions" >
   <v>       0.00000000       0.00000000       0.09999720 </v>
   <v>       0.00000000       0.14285714       0.09999720 </v>
   <v>       0.00000000       0.28571429       0.09999720 </v>
   <v>       0.00000000       0.42857143       0.09999720 </v>
   <v>       0.00000000       0.57142857       0.09999720 </v>
   <v>       0.00000000       0.71428571       0.09999720 </v>
   <v>       0.00000000       0.85714286       0.09999720 </v>
   <v>       0.14285714       0.00000000       0.09999720 </v>
   <v>       0.14285714       0.14285714       0.09999720 </v>
   <v>       0.14285714       0.28571429       0.09999720 </v>
   <v>       0.14285714       0.42857143       0.09999720 </v>
   <v>       0.14285714       0.57142857       0.09999720 </v>
   <v>       0.14285714       0.71428571       0.09999720 </v>
   <v>       0.14285714       0.85714286       0.09999720 </v>
   <v>       0.28571429       0.00000000       0.09999720 </v>
   <v>       0.28571429       0.14285714       0.09999720 </v>
   <v>       0.28571429       0.28571429       0.09999720 </v>
   <v>       0.28571429       0.42857143       0.09999720 </v>
   <v>       0.28571429       0.57142857       0.09999720 </v>
   <v>       0.28571429       0.71428571       0.09999720 </v>
   <v>       0.28571429       0.85714286       0.09999720 </v>
   <v>       0.42857143       0.00000000       0.09999720 </v>
   <v>       0.42857143       0.14285714       0.09999720 </v>
   <v>       0.42857143       0.28571429       0.09999720 </v>
   <v>       0.42857143       0.42857143       0.09999720 </v>
   <v>       0.42857143       0.57142857       0.09999720 </v>
   <v>       0.42857143       0.71428571       0.09999720 </v>
   <v>       0.42857143       0.85714286       0.09999720 </v>
   <v>       0.57142857       0.00000000       0.09999720 </v>
   <v>       0.57142857       0.14285714       0.09999720 </v>
   <v>       0.57142857       0.28571429       0.09999720 </v>
   <v>       0.57142857       0.42857143       0.09999720 </v>
   <v>       0.57142857       0.57142857       0.09999720 </v>
   <v>       0.57142857       0.71428571       0.09999720 </v>
   <v>       0.57142857       0.85714286       0.09999720 </v>
   <v>       0.71428571       0.00000000       0.09999720 </v>
   <v>       0.71428571       0.14285714       0.09999720 </v>
   <v>       0.71428571       0.28571429       0.09999720 </v>
   <v>       0.71428571       0.42857143       0.09999720 </v>
   <v>       0.71428571       0.57142857       0.09999720 </v>
   <v>       0.71428571       0.71428571       0.09999720 </v>
   <v>       0.71428571       0.85714286       0.09999720 </v>
   <v>       0.85714286       0.00000000       0.09999720 </v>
   <v>       0.85714286       0.14285714       0.09999720 </v>
   <v>       0.85714286       0.28571429       0.09999720 </v>
   <v>       0.85714286       0.42857143       0.09999720 </v>
   <v>       0.85714286       0.57142857       0.09999720 </v>
   <v>       0.85714286       0.71428571       0.09999720 </v>
   <v>       0.85714286       0.85714286       0.09999720 </v>
   <v>       0.09523809       0.04761905       0.12380304 </v>
   <v>       0.09523809       0.19047619       0.12380304 </v>
   <v>       0.09523809       0.33333333       0.12380304 </v>
   <v>       0.09523809       0.47619048       0.12380304 </v>
   <v>       0.09523809       0.61904762       0.12380304 </v>
   <v>       0.09523809       0.76190476       0.12380304 </v>
   <v>       0.09523809       0.90476191       0.12380304 </v>
   <v>       0.23809524       0.04761905       0.12380304 </v>
   <v>       0.23809524       0.19047619       0.12380304 </v>
   <v>       0.23809524       0.33333333       0.12380304 </v>
   <v>       0.23809524       0.47619048       0.12380304 </v>
   <v>       0.23809524       0.61904762       0.12380304 </v>
   <v>       0.23809524       0.76190476       0.12380304 </v>
   <v>       0.23809524       0.90476191       0.12380304 </v>
   <v>       0.38095238       0.04761905       0.12380304 </v>
   <v>       0.38095238       0.19047619       0.12380304 </v>
   <v>       0.38095238       0.33333333       0.12380304 </v>
   <v>       0.38095238       0.47619048       0.12380304 </v>
   <v>       0.38095238       0.61904762       0.12380304 </v>
   <v>       0.38095238       0.76190476       0.12380304 </v>
   <v>       0.38095238       0.90476191       0.12380304 </v>
   <v>       0.52380952       0.04761905       0.12380304 </v>
   <v>       0.52380952       0.19047619       0.12380304 </v>
   <v>       0.52380952       0.33333333       0.12380304 </v>
   <v>       0.52380952       0.47619048       0.12380304 </v>
   <v>       0.52380952       0.61904762       0.12380304 </v>
   <v>       0.52380952       0.76190476       0.12380304 </v>
   <v>       0.52380952       0.90476191       0.12380304 </v>
   <v>       0.66666667       0.04761905       0.12380304 </v>
   <v>       0.66666667       0.19047619       0.12380304 </v>
   <v>       0.66666667       0.33333333       0.12380304 </v>
   <v>       0.66666667       0.47619048       0.12380304 </v>
   <v>       0.66666667       0.61904762       0.12380304 </v>
   <v>       0.66666667       0.76190476       0.12380304 </v>
   <v>       0.66666667       0.90476191       0.12380304 </v>
   <v>       0.80952381       0.04761905       0.12380304 </v>
   <v>       0.80952381       0.19047619       0.12380304 </v>
   <v>       0.80952381       0.33333333       0.12380304 </v>
   <v>       0.80952381       0.47619048       0.12380304 </v>
   <v>       0.80952381       0.61904762       0.12380304 </v>
   <v>       0.80952381       0.76190476       0.12380304 </v>
   <v>       0.80952381       0.90476191       0.12380304 </v>
   <v>       0.95238095       0.04761905       0.12380304 </v>
   <v>       0.95238095       0.19047619       0.12380304 </v>
   <v>       0.95238095       0.33333333       0.12380304 </v>
   <v>       0.95238095       0.47619048       0.12380304 </v>
   <v>       0.95238095       0.61904762       0.12380304 </v>
   <v>       0.95238095       0.76190476       0.12380304 </v>
   <v>       0.95238095       0.90476191       0.12380304 </v>
   <v>       0.04761905       0.09523809       0.10000280 </v>
   <v>       0.04761905       0.23809524       0.10000280 </v>
   <v>       0.04761905       0.38095238       0.10000280 </v>
   <v>       0.04761905       0.52380952       0.10000280 </v>
   <v>       0.04761905       0.66666667       0.10000280 </v>
   <v>       0.04761905       0.80952381       0.10000280 </v>
   <v>       0.04761905       0.95238095       0.10000280 </v>
   <v>       0.19047619       0.09523809       0.10000280 </v>
   <v>       0.19047619       0.23809524       0.10000280 </v>
   <v>       0.19047619       0.38095238       0.10000280 </v>
   <v>       0.19047619       0.52380952       0.10000280 </v>
   <v>       0.19047619       0.66666667       0.10000280 </v>
   <v>       0.19047619       0.80952381       0.10000280 </v>
   <v>       0.19047619       0.95238095       0.10000280 </v>
   <v>       0.33333333       0.09523809       0.10000280 </v>
   <v>       0.33333333       0.23809524       0.10000280 </v>
   <v>       0.33333333       0.38095238       0.10000280 </v>
   <v>       0.33333333       0.52380952       0.10000280 </v>
   <v>       0.33333333       0.66666667       0.10000280 </v>
   <v>       0.33333333       0.80952381       0.10000280 </v>
   <v>       0.33333333       0.95238095       0.10000280 </v>
   <v>       0.47619048       0.09523809       0.10000280 </v>
   <v>       0.47619048       0.23809524       0.10000280 </v>
   <v>       0.47619048       0.38095238       0.10000280 </v>
   <v>       0.47619048       0.52380952       0.10000280 </v>
   <v>       0.47619048       0.66666667       0.10000280 </v>
   <v>       0.47619048       0.80952381       0.10000280 </v>
   <v>       0.47619048       0.95238095       0.10000280 </v>
   <v>       0.61904762       0.09523809       0.10000280 </v>
   <v>       0.61904762       0.23809524       0.10000280 </v>
   <v>       0.61904762       0.38095238       0.10000280 </v>
   <v>       0.61904762       0.52380952       0.10000280 </v>
   <v>       0.61904762       0.66666667       0.10000280 </v>
   <v>       0.61904762       0.80952381       0.10000280 </v>
   <v>       0.61904762       0.95238095       0.10000280 </v>
   <v>       0.76190476       0.09523809       0.10000280 </v>
   <v>       0.76190476       0.23809524       0.10000280 </v>
   <v>       0.76190476       0.38095238       0.10000280 </v>
   <v>       0.76190476       0.52380952       0.10000280 </v>
   <v>       0.76190476       0.66666667       0.10000280 </v>
   <v>       0.76190476       0.80952381       0.10000280 </v>
   <v>       0.76190476       0.95238095       0.10000280 </v>
   <v>       0.90476191       0.09523809       0.10000280 </v>
   <v>       0.90476191       0.23809524       0.10000280 </v>
   <v>       0.90476191       0.38095238       0.10000280 </v>
   <v>       0.90476191       0.52380952       0.10000280 </v>
   <v>       0.90476191       0.66666667       0.10000280 </v>
   <v>       0.90476191       0.80952381       0.10000280 </v>
   <v>       0.90476191       0.95238095       0.10000280 </v>
   <v>       0.09523809       0.04761905       0.07619696 </v>
   <v>       0.09523809       0.19047619       0.07619696 </v>
   <v>       0.09523809       0.33333333       0.07619696 </v>
   <v>       0.09523809       0.47619048       0.07619696 </v>
   <v>       0.09523809       0.61904762       0.07619696 </v>
   <v>       0.09523809       0.76190476       0.07619696 </v>
   <v>       0.09523809       0.90476191       0.07619696 </v>
   <v>       0.23809524       0.04761905       0.07619696 </v>
   <v>       0.23809524       0.19047619       0.07619696 </v>
   <v>       0.23809524       0.33333333       0.07619696 </v>
   <v>       0.23809524       0.47619048       0.07619696 </v>
   <v>       0.23809524       0.61904762       0.07619696 </v>
   <v>       0.23809524       0.76190476       0.07619696 </v>
   <v>       0.23809524       0.90476191       0.07619696 </v>
   <v>       0.38095238       0.04761905       0.07619696 </v>
   <v>       0.38095238       0.19047619       0.07619696 </v>
   <v>       0.38095238       0.33333333       0.07619696 </v>
   <v>       0.38095238       0.47619048       0.07619696 </v>
   <v>       0.38095238       0.61904762       0.07619696 </v>
   <v>       0.38095238       0.76190476       0.07619696 </v>
   <v>       0.38095238       0.90476191       0.07619696 </v>
   <v>       0.52380952       0.04761905       0.07619696 </v>
   <v>       0.52380952       0.19047619       0.07619696 </v>
   <v>       0.52380952       0.33333333       0.07619696 </v>
   <v>       0.52380952       0.47619048       0.07619696 </v>
   <v>       0.52380952       0.61904762       0.07619696 </v>
   <v>       0.52380952       0.76190476       0.07619696 </v>
   <v>       0.52380952       0.90476191       0.07619696 </v>
   <v>       0.66666667       0.04761905       0.07619696 </v>
   <v>       0.66666667       0.19047619       0.07619696 </v>
   <v>       0.66666667       0.33333333       0.07619696 </v>
   <v>       0.66666667       0.47619048       0.07619696 </v>
   <v>       0.66666667       0.61904762       0.07619696 </v>
   <v>       0.66666667       0.76190476       0.07619696 </v>
   <v>       0.66666667       0.90476191       0.07619696 </v>
   <v>       0.80952381       0.04761905       0.07619696 </v>
   <v>       0.80952381       0.19047619       0.07619696 </v>
   <v>       0.80952381       0.33333333       0.07619696 </v>
   <v>       0.80952381       0.47619048       0.07619696 </v>
   <v>       0.80952381       0.61904762       0.07619696 </v>
   <v>       0.80952381       0.76190476       0.07619696 </v>
   <v>       0.80952381       0.90476191       0.07619696 </v>
   <v>       0.95238095       0.04761905       0.07619696 </v>
   <v>       0.95238095       0.19047619       0.07619696 </v>
   <v>       0.95238095       0.33333333       0.07619696 </v>
   <v>       0.95238095       0.47619048       0.07619696 </v>
   <v>       0.95238095       0.61904762       0.07619696 </v>
   <v>       0.95238095       0.76190476       0.07619696 </v>
   <v>       0.95238095       0.90476191       0.07619696 </v>
  </varray>
 </structure>
 <calculation>
  <scstep>
   <time name="dav">  487.37  490.40</time>
   <time name="total">  489.12  492.16</time>
   <dipole>
    <v name="dipole">      0.00000000       0.00000000      -0.00000000 </v>
    <i name="Tr[quadrupol]"> -38021.59182221 </i>
    <i name="Echarged">      0.00000000 </i>
    <i name="Edipol_quadrupol">      0.00000000 </i>
    <i name="Eion">      0.00000000 </i>
   </dipole>
   <energy>
    <i name="alphaZ">     33.07749215 </i>
    <i name="ewald">  72764.20763394 </i>
    <i name="hartreedc"> -75164.62020362 </i>
    <i name="XCdc">    658.90493993 </i>
    <i name="pawpsdc">   2990.22134090 </i>
    <i name="pawaedc">  -2866.02492985 </i>
    <i name="eentropy">     -0.09513999 </i>
    <i name="bandstr">  -1147.58708736 </i>
    <i name="atom">   5385.93370635 </i>
    <i name="e_fr_energy">   2654.01775245 </i>
    <i name="e_wo_entrp">   2654.11289243 </i>
    <i name="e_0_energy">   2654.06532244 </i>
   </energy>
  </scstep>
  <scstep>
   <time name="dav">  716.75  721.21</time>
   <time name="total">  716.91  721.38</time>
   <dipole>
    <v name="dipole">      0.00000000       0.00000000      -0.00000000 </v>
    <i name="Tr[quadrupol]"> -38021.59182221 </i>
    <i name="Echarged">      0.00000000 </i>
    <i name="Edipol_quadrupol">      0.00000000 </i>
    <i name="Eion">      0.00000000 </i>
   </dipole>
   <energy>
    <i name="e_fr_energy">   -402.70622471 </i>
    <i name="e_wo_entrp">   -402.68654549 </i>
    <i name="e_0_energy">   -402.69638510 </i>
   </energy>
  </scstep>
  <scstep>
   <time name="dav">  541.00  544.42</time>
   <time name="total">  541.11  544.52</time>
   <dipole>
    <v name="dipole">      0.00000000       0.00000000      -0.00000000 </v>
    <i name="Tr[quadrupol]"> -38021.59182221 </i>
    <i name="Echarged">      0.00000000 </i>
    <i name="Edipol_quadrupol">      0.00000000 </i>
    <i name="Eion">      0.00000000 </i>
   </dipole>
   <energy>
    <i name="e_fr_energy">   -744.10540258 </i>
    <i name="e_wo_entrp">   -744.10540237 </i>
    <i name="e_0_energy">   -744.10540247 </i>
   </energy>
  </scstep>
  <scstep>
   <time name="dav">  636.48  640.40</time>
   <time name="total">  636.72  640.64</time>
   <dipole>
    <v name="dipole">      0.00000000       0.00000000      -0.00000000 </v>
    <i name="Tr[quadrupol]"> -38021.59182221 </i>
    <i name="Echarged">      0.00000000 </i>
    <i name="Edipol_quadrupol">      0.00000000 </i>
    <i name="Eion">      0.00000000 </i>
   </dipole>
   <energy>
    <i name="e_fr_energy">   -756.43507228 </i>
    <i name="e_wo_entrp">   -756.43505765 </i>
    <i name="e_0_energy">   -756.43506497 </i>
   </energy>
  </scstep>
  <scstep>
   <time name="dav">  492.75  701.55</time>
   <time name="total">  515.23  745.62</time>
   <dipole>
    <v name="dipole">      0.00000000       0.00000000      -0.00000000 </v>
    <i name="Tr[quadrupol]"> -38021.59182221 </i>
    <i name="Echarged">      0.00000000 </i>
    <i name="Edipol_quadrupol">      0.00000000 </i>
    <i name="Eion">      0.00000000 </i>
   </dipole>
   <energy>
    <i name="e_fr_energy">   -756.77980378 </i>
    <i name="e_wo_entrp">   -756.77978264 </i>
    <i name="e_0_energy">   -756.77979321 </i>
   </energy>
  </scstep>
  <scstep>
   <time name="dav">  295.12  574.22</time>
   <time name="total">  310.62  605.38</time>
   <dipole>
    <v name="dipole">      0.00000000       0.00000000      -0.00000000 </v>
    <i name="Tr[quadrupol]"> -38044.26268495 </i>
    <i name="Echarged">      0.00000000 </i>
    <i name="Edipol_quadrupol">      0.00000000 </i>
    <i name="Eion">      0.00000000 </i>
   </dipole>
   <energy>
    <i name="e_fr_energy">   -642.76176425 </i>
    <i name="e_wo_entrp">   -642.72749315 </i>
    <i name="e_0_energy">   -642.74462870 </i>
   </energy>
  </scstep>
  <scstep>
   <time name="dav">  311.70  609.31</time>
   <time name="total">  336.24  657.95</time>
   <dipole>
    <v name="dipole">      0.00000000       0.00000000      -0.00000000 </v>
    <i name="Tr[quadrupol]"> -38075.12818135 </i>
    <i name="Echarged">      0.00000000 </i>
    <i name="Edipol_quadrupol">      0.00000000 </i>
    <i name="Eion">      0.00000000 </i>
   </dipole>
   <energy>
    <i name="e_fr_energy">   -599.95228179 </i>
    <i name="e_wo_entrp">   -599.85516096 </i>
    <i name="e_0_energy">   -599.90372137 </i>
   </energy>
  </scstep>
  <scstep>
   <time name="dav">  299.89  584.69</time>
   <time name="total">  328.36  641.67</time>
   <dipole>
    <v name="dipole">      0.00000000       0.00000000      -0.00000000 </v>
    <i name="Tr[quadrupol]"> -38081.32477327 </i>
    <i name="Echarged">      0.00000000 </i>
    <i name="Edipol_quadrupol">      0.00000000 </i>
    <i name="Eion">      0.00000000 </i>
   </dipole>
   <energy>
    <i name="e_fr_energy">   -600.70778950 </i>
    <i name="e_wo_entrp">   -600.64851437 </i>
    <i name="e_0_energy">   -600.67815194 </i>
   </energy>
  </scstep>
  <scstep>
   <time name="dav">  317.28  608.84</time>
   <time name="total">  341.34  657.20</time>
   <dipole>
    <v name="dipole">      0.00000000       0.00000000      -0.00000000 </v>
    <i name="Tr[quadrupol]"> -38088.96519075 </i>
    <i name="Echarged">      0.00000000 </i>
    <i name="Edipol_quadrupol">      0.00000000 </i>
    <i name="Eion">      0.00000000 </i>
   </dipole>
   <energy>
    <i name="e_fr_energy">   -599.17296996 </i>
    <i name="e_wo_entrp">   -599.10344013 </i>
    <i name="e_0_energy">   -599.13820505 </i>
   </energy>
  </scstep>
  <scstep>
   <time name="dav">  314.41  620.95</time>
   <time name="total">  340.92  671.96</time>
   <dipole>
    <v name="dipole">      0.00000000       0.00000000      -0.00000000 </v>
    <i name="Tr[quadrupol]"> -38105.62672513 </i>
    <i name="Echarged">      0.00000000 </i>
    <i name="Edipol_quadrupol">      0.00000000 </i>
    <i name="Eion">      0.00000000 </i>
   </dipole>
   <energy>
    <i name="e_fr_energy">   -598.25069417 </i>
    <i name="e_wo_entrp">   -598.16437341 </i>
    <i name="e_0_energy">   -598.20753379 </i>
   </energy>
  </scstep>
  <scstep>
   <time name="dav">  294.67  568.54</time>
   <time name="total">  312.05  603.46</time>
   <dipole>
    <v name="dipole">      0.00000000       0.00000000      -0.00000000 </v>
    <i name="Tr[quadrupol]"> -38108.94646783 </i>
    <i name="Echarged">      0.00000000 </i>
    <i name="Edipol_quadrupol">      0.00000000 </i>
    <i name="Eion">      0.00000000 </i>
   </dipole>
   <energy>
    <i name="e_fr_energy">   -598.23525087 </i>
    <i name="e_wo_entrp">   -598.12835144 </i>
    <i name="e_0_energy">   -598.18180116 </i>
   </energy>
  </scstep>
  <scstep>
   <time name="dav">  312.33  606.38</time>
   <time name="total">  336.83  655.63</time>
   <dipole>
    <v name="dipole">      0.00000000       0.00000000      -0.00000000 </v>
    <i name="Tr[quadrupol]"> -38115.05622747 </i>
    <i name="Echarged">      0.00000000 </i>
    <i name="Edipol_quadrupol">      0.00000000 </i>
    <i name="Eion">      0.00000000 </i>
   </dipole>
   <energy>
    <i name="e_fr_energy">   -598.27824164 </i>
    <i name="e_wo_entrp">   -598.16265377 </i>
    <i name="e_0_energy">   -598.22044771 </i>
   </energy>
  </scstep>
  <scstep>
   <time name="dav">  342.18  664.40</time>
   <time name="total">  369.75  719.81</time>
   <dipole>
    <v name="dipole">      0.00000000       0.00000000      -0.00000000 </v>
    <i name="Tr[quadrupol]"> -38118.32011769 </i>
    <i name="Echarged">      0.00000000 </i>
    <i name="Edipol_quadrupol">      0.00000000 </i>
    <i name="Eion">      0.00000000 </i>
   </dipole>
   <energy>
    <i name="e_fr_energy">   -598.33499754 </i>
    <i name="e_wo_entrp">   -598.21542644 </i>
    <i name="e_0_energy">   -598.27521199 </i>
   </energy>
  </scstep>
  <scstep>
   <time name="dav">  318.04  606.71</time>
   <time name="total">  345.57  662.05</time>
   <dipole>
    <v name="dipole">      0.00000000       0.00000000      -0.00000000 </v>
    <i name="Tr[quadrupol]"> -38120.31399755 </i>
    <i name="Echarged">      0.00000000 </i>
    <i name="Edipol_quadrupol">      0.00000000 </i>
    <i name="Eion">      0.00000000 </i>
   </dipole>
   <energy>
    <i name="e_fr_energy">   -598.40645888 </i>
    <i name="e_wo_entrp">   -598.28503272 </i>
    <i name="e_0_energy">   -598.34574580 </i>
   </energy>
  </scstep>
  <scstep>
   <time name="dav">  304.41  593.40</time>
   <time name="total">  333.60  651.49</time>
   <dipole>
    <v name="dipole">      0.00000000       0.00000000      -0.00000000 </v>
    <i name="Tr[quadrupol]"> -38120.68586218 </i>
    <i name="Echarged">      0.00000000 </i>
    <i name="Edipol_quadrupol">      0.00000000 </i>
    <i name="Eion">      0.00000000 </i>
   </dipole>
   <energy>
    <i name="e_fr_energy">   -598.41396507 </i>
    <i name="e_wo_entrp">   -598.29233359 </i>
    <i name="e_0_energy">   -598.35314933 </i>
   </energy>
  </scstep>
  <scstep>
   <time name="dav">  310.36  613.94</time>
   <time name="total">  337.49  666.38</time>
   <dipole>
    <v name="dipole">      0.00000000       0.00000000      -0.00000000 </v>
    <i name="Tr[quadrupol]"> -38121.57284552 </i>
    <i name="Echarged">      0.00000000 </i>
    <i name="Edipol_quadrupol">      0.00000000 </i>
    <i name="Eion">      0.00000000 </i>
   </dipole>
   <energy>
    <i name="e_fr_energy">   -598.42638828 </i>
    <i name="e_wo_entrp">   -598.30397112 </i>
    <i name="e_0_energy">   -598.36517970 </i>
   </energy>
  </scstep>
  <scstep>
   <time name="dav">  310.72  588.80</time>
   <time name="total">  338.08  643.77</time>
   <dipole>
    <v name="dipole">      0.00000000       0.00000000      -0.00000000 </v>
    <i name="Tr[quadrupol]"> -38122.08326255 </i>
    <i name="Echarged">      0.00000000 </i>
    <i name="Edipol_quadrupol">      0.00000000 </i>
    <i name="Eion">      0.00000000 </i>
   </dipole>
   <energy>
    <i name="e_fr_energy">   -598.43505812 </i>
    <i name="e_wo_entrp">   -598.31271181 </i>
    <i name="e_0_energy">   -598.37388497 </i>
   </energy>
  </scstep>
  <scstep>
   <time name="dav">  307.22  607.89</time>
   <time name="total">  334.77  663.25</time>
   <dipole>
    <v name="dipole">      0.00000000       0.00000000      -0.00000000 </v>
    <i name="Tr[quadrupol]"> -38122.11024107 </i>
    <i name="Echarged">      0.00000000 </i>
    <i name="Edipol_quadrupol">      0.00000000 </i>
    <i name="Eion">      0.00000000 </i>
   </dipole>
   <energy>
    <i name="e_fr_energy">   -598.43855115 </i>
    <i name="e_wo_entrp">   -598.31600222 </i>
    <i name="e_0_energy">   -598.37727669 </i>
   </energy>
  </scstep>
  <scstep>
   <time name="dav">  313.31  600.94</time>
   <time name="total">  343.06  658.42</time>
   <dipole>
    <v name="dipole">      0.00000000       0.00000000      -0.00000000 </v>
    <i name="Tr[quadrupol]"> -38122.19794146 </i>
    <i name="Echarged">      0.00000000 </i>
    <i name="Edipol_quadrupol">      0.00000000 </i>
    <i name="Eion">      0.00000000 </i>
   </dipole>
   <energy>
    <i name="e_fr_energy">   -598.43974363 </i>
    <i name="e_wo_entrp">   -598.31711610 </i>
    <i name="e_0_energy">   -598.37842987 </i>
   </energy>
  </scstep>
  <scstep>
   <time name="dav">  329.28  647.06</time>
   <time name="total">  358.98  706.76</time>
   <dipole>
    <v name="dipole">      0.00000000       0.00000000      -0.00000000 </v>
    <i name="Tr[quadrupol]"> -38122.35254163 </i>
    <i name="Echarged">      0.00000000 </i>
    <i name="Edipol_quadrupol">      0.00000000 </i>
    <i name="Eion">      0.00000000 </i>
   </dipole>
   <energy>
    <i name="e_fr_energy">   -598.44040671 </i>
    <i name="e_wo_entrp">   -598.31777948 </i>
    <i name="e_0_energy">   -598.37909310 </i>
   </energy>
  </scstep>
  <scstep>
   <time name="dav">  305.99  604.35</time>
   <time name="total">  322.99  638.52</time>
   <dipole>
    <v name="dipole">      0.00000000       0.00000000      -0.00000000 </v>
    <i name="Tr[quadrupol]"> -38122.37605500 </i>
    <i name="Echarged">      0.00000000 </i>
    <i name="Edipol_quadrupol">      0.00000000 </i>
    <i name="Eion">      0.00000000 </i>
   </dipole>
   <energy>
    <i name="e_fr_energy">   -598.44050198 </i>
    <i name="e_wo_entrp">   -598.31786233 </i>
    <i name="e_0_energy">   -598.37918216 </i>
   </energy>
  </scstep>
  <scstep>
   <time name="dav">  310.12  608.13</time>
   <time name="total">  342.15  672.49</time>
   <dipole>
    <v name="dipole">      0.00000000       0.00000000      -0.00000000 </v>
    <i name="Tr[quadrupol]"> -38122.39760603 </i>
    <i name="Echarged">      0.00000000 </i>
    <i name="Edipol_quadrupol">      0.00000000 </i>
    <i name="Eion">      0.00000000 </i>
   </dipole>
   <energy>
    <i name="e_fr_energy">   -598.44060203 </i>
    <i name="e_wo_entrp">   -598.31795080 </i>
    <i name="e_0_energy">   -598.37927641 </i>
   </energy>
  </scstep>
  <scstep>
   <time name="dav">  290.02  570.24</time>
   <time name="total">  318.66  627.81</time>
   <dipole>
    <v name="dipole">      0.00000000       0.00000000      -0.00000000 </v>
    <i name="Tr[quadrupol]"> -38122.40653959 </i>
    <i name="Echarged">      0.00000000 </i>
    <i name="Edipol_quadrupol">      0.00000000 </i>
    <i name="Eion">      0.00000000 </i>
   </dipole>
   <energy>
    <i name="e_fr_energy">   -598.44063278 </i>
    <i name="e_wo_entrp">   -598.31798177 </i>
    <i name="e_0_energy">   -598.37930728 </i>
   </energy>
  </scstep>
  <scstep>
   <time name="dav">  280.28  551.35</time>
   <time name="total">  308.51  608.06</time>
   <dipole>
    <v name="dipole">      0.00000000       0.00000000      -0.00000000 </v>
    <i name="Tr[quadrupol]"> -38122.41384305 </i>
    <i name="Echarged">      0.00000000 </i>
    <i name="Edipol_quadrupol">      0.00000000 </i>
    <i name="Eion">      0.00000000 </i>
   </dipole>
   <energy>
    <i name="e_fr_energy">   -598.44064842 </i>
    <i name="e_wo_entrp">   -598.31800124 </i>
    <i name="e_0_energy">   -598.37932483 </i>
   </energy>
  </scstep>
  <scstep>
   <time name="dav">  250.01  489.70</time>
   <time name="total">  277.75  545.45</time>
   <dipole>
    <v name="dipole">      0.00000000       0.00000000      -0.00000000 </v>
    <i name="Tr[quadrupol]"> -38122.41376783 </i>
    <i name="Echarged">      0.00000000 </i>
    <i name="Edipol_quadrupol">      0.00000000 </i>
    <i name="Eion">      0.00000000 </i>
   </dipole>
   <energy>
    <i name="e_fr_energy">   -598.44065083 </i>
    <i name="e_wo_entrp">   -598.31800313 </i>
    <i name="e_0_energy">   -598.37932698 </i>
   </energy>
  </scstep>
  <scstep>
   <time name="dav">  238.85  472.01</time>
   <time name="total">  268.16  530.92</time>
   <dipole>
    <v name="dipole">      0.00000000       0.00000000      -0.00000000 </v>
    <i name="Tr[quadrupol]"> -38122.41392219 </i>
    <i name="Echarged">      0.00000000 </i>
    <i name="Edipol_quadrupol">      0.00000000 </i>
    <i name="Eion">      0.00000000 </i>
   </dipole>
   <energy>
    <i name="e_fr_energy">   -598.44065251 </i>
    <i name="e_wo_entrp">   -598.31800442 </i>
    <i name="e_0_energy">   -598.37932846 </i>
   </energy>
  </scstep>
  <scstep>
   <time name="dav">  255.19  495.47</time>
   <time name="total">  256.35  497.80</time>
   <dipole>
    <v name="dipole">      0.00000000       0.00000000      -0.00000000 </v>
    <i name="Tr[quadrupol]"> -38122.41383899 </i>
    <i name="Echarged">      0.00000000 </i>
    <i name="Edipol_quadrupol">      0.00000000 </i>
    <i name="Eion">      0.00000000 </i>
   </dipole>
   <energy>
    <i name="alphaZ">     33.07749215 </i>
    <i name="ewald">  72764.20763394 </i>
    <i name="hartreedc"> -76988.08071857 </i>
    <i name="XCdc">    690.03716194 </i>
    <i name="pawpsdc">  12805.04719555 </i>
    <i name="pawaedc"> -12693.89368350 </i>
    <i name="eentropy">     -0.12264793 </i>
    <i name="bandstr">  -2594.64679260 </i>
    <i name="atom">   5385.93370635 </i>
    <i name="e_fr_energy">   -598.44065268 </i>
    <i name="e_wo_entrp">   -598.31800475 </i>
    <i name="e_0_energy">   -598.37932871 </i>
   </energy>
  </scstep>
  <structure>
   <crystal>
    <varray name="basis" >
     <v>      20.95851085      12.10040188       0.00000000 </v>
     <v>     -20.95851085      12.10040188       0.00000000 </v>
     <v>       0.00000000       0.00000000      40.00000000 </v>
    </varray>
    <i name="volume">  20288.51232007 </i>
    <varray name="rec_basis" >
     <v>       0.02385666       0.04132094       0.00000000 </v>
     <v>      -0.02385666       0.04132094       0.00000000 </v>
     <v>       0.00000000       0.00000000       0.02500000 </v>
    </varray>
   </crystal>
   <varray name="positions" >
    <v>       0.00000000       0.00000000       0.09999720 </v>
    <v>       0.00000000       0.14285714       0.09999720 </v>
    <v>       0.00000000       0.28571429       0.09999720 </v>
    <v>       0.00000000       0.42857143       0.09999720 </v>
    <v>       0.00000000       0.57142857       0.09999720 </v>
    <v>       0.00000000       0.71428571       0.09999720 </v>
    <v>       0.00000000       0.85714286       0.09999720 </v>
    <v>       0.14285714       0.00000000       0.09999720 </v>
    <v>       0.14285714       0.14285714       0.09999720 </v>
    <v>       0.14285714       0.28571429       0.09999720 </v>
    <v>       0.14285714       0.42857143       0.09999720 </v>
    <v>       0.14285714       0.57142857       0.09999720 </v>
    <v>       0.14285714       0.71428571       0.09999720 </v>
    <v>       0.14285714       0.85714286       0.09999720 </v>
    <v>       0.28571429       0.00000000       0.09999720 </v>
    <v>       0.28571429       0.14285714       0.09999720 </v>
    <v>       0.28571429       0.28571429       0.09999720 </v>
    <v>       0.28571429       0.42857143       0.09999720 </v>
    <v>       0.28571429       0.57142857       0.09999720 </v>
    <v>       0.28571429       0.71428571       0.09999720 </v>
    <v>       0.28571429       0.85714286       0.09999720 </v>
    <v>       0.42857143       0.00000000       0.09999720 </v>
    <v>       0.42857143       0.14285714       0.09999720 </v>
    <v>       0.42857143       0.28571429       0.09999720 </v>
    <v>       0.42857143       0.42857143       0.09999720 </v>
    <v>       0.42857143       0.57142857       0.09999720 </v>
    <v>       0.42857143       0.71428571       0.09999720 </v>
    <v>       0.42857143       0.85714286       0.09999720 </v>
    <v>       0.57142857       0.00000000       0.09999720 </v>
    <v>       0.57142857       0.14285714       0.09999720 </v>
    <v>       0.57142857       0.28571429       0.09999720 </v>
    <v>       0.57142857       0.42857143       0.09999720 </v>
    <v>       0.57142857       0.57142857       0.09999720 </v>
    <v>       0.57142857       0.71428571       0.09999720 </v>
    <v>       0.57142857       0.85714286       0.09999720 </v>
    <v>       0.71428571       0.00000000       0.09999720 </v>
    <v>       0.71428571       0.14285714       0.09999720 </v>
    <v>       0.71428571       0.28571429       0.09999720 </v>
    <v>       0.71428571       0.42857143       0.09999720 </v>
    <v>       0.71428571       0.57142857       0.09999720 </v>
    <v>       0.71428571       0.71428571       0.09999720 </v>
    <v>       0.71428571       0.85714286       0.09999720 </v>
    <v>       0.85714286       0.00000000       0.09999720 </v>
    <v>       0.85714286       0.14285714       0.09999720 </v>
    <v>       0.85714286       0.28571429       0.09999720 </v>
    <v>       0.85714286       0.42857143       0.09999720 </v>
    <v>       0.85714286       0.57142857       0.09999720 </v>
    <v>       0.85714286       0.71428571       0.09999720 </v>
    <v>       0.85714286       0.85714286       0.09999720 </v>
    <v>       0.09523809       0.04761905       0.12380304 </v>
    <v>       0.09523809       0.19047619       0.12380304 </v>
    <v>       0.09523809       0.33333333       0.12380304 </v>
    <v>       0.09523809       0.47619048       0.12380304 </v>
    <v>       0.09523809       0.61904762       0.12380304 </v>
    <v>       0.09523809       0.76190476       0.12380304 </v>
    <v>       0.09523809       0.90476191       0.12380304 </v>
    <v>       0.23809524       0.04761905       0.12380304 </v>
    <v>       0.23809524       0.19047619       0.12380304 </v>
    <v>       0.23809524       0.33333333       0.12380304 </v>
    <v>       0.23809524       0.47619048       0.12380304 </v>
    <v>       0.23809524       0.61904762       0.12380304 </v>
    <v>       0.23809524       0.76190476       0.12380304 </v>
    <v>       0.23809524       0.90476191       0.12380304 </v>
    <v>       0.38095238       0.04761905       0.12380304 </v>
    <v>       0.38095238       0.19047619       0.12380304 </v>
    <v>       0.38095238       0.33333333       0.12380304 </v>
    <v>       0.38095238       0.47619048       0.12380304 </v>
    <v>       0.38095238       0.61904762       0.12380304 </v>
    <v>       0.38095238       0.76190476       0.12380304 </v>
    <v>       0.38095238       0.90476191       0.12380304 </v>
    <v>       0.52380952       0.04761905       0.12380304 </v>
    <v>       0.52380952       0.19047619       0.12380304 </v>
    <v>       0.52380952       0.33333333       0.12380304 </v>
    <v>       0.52380952       0.47619048       0.12380304 </v>
    <v>       0.52380952       0.61904762       0.12380304 </v>
    <v>       0.52380952       0.76190476       0.12380304 </v>
    <v>       0.52380952       0.90476191       0.12380304 </v>
    <v>       0.66666667       0.04761905       0.12380304 </v>
    <v>       0.66666667       0.19047619       0.12380304 </v>
    <v>       0.66666667       0.33333333       0.12380304 </v>
    <v>       0.66666667       0.47619048       0.12380304 </v>
    <v>       0.66666667       0.61904762       0.12380304 </v>
    <v>       0.66666667       0.76190476       0.12380304 </v>
    <v>       0.66666667       0.90476191       0.12380304 </v>
    <v>       0.80952381       0.04761905       0.12380304 </v>
    <v>       0.80952381       0.19047619       0.12380304 </v>
    <v>       0.80952381       0.33333333       0.12380304 </v>
    <v>       0.80952381       0.47619048       0.12380304 </v>
    <v>       0.80952381       0.61904762       0.12380304 </v>
    <v>       0.80952381       0.76190476       0.12380304 </v>
    <v>       0.80952381       0.90476191       0.12380304 </v>
    <v>       0.95238095       0.04761905       0.12380304 </v>
    <v>       0.95238095       0.19047619       0.12380304 </v>
    <v>       0.95238095       0.33333333       0.12380304 </v>
    <v>       0.95238095       0.47619048       0.12380304 </v>
    <v>       0.95238095       0.61904762       0.12380304 </v>
    <v>       0.95238095       0.76190476       0.12380304 </v>
    <v>       0.95238095       0.90476191       0.12380304 </v>
    <v>       0.04761905       0.09523809       0.10000280 </v>
    <v>       0.04761905       0.23809524       0.10000280 </v>
    <v>       0.04761905       0.38095238       0.10000280 </v>
    <v>       0.04761905       0.52380952       0.10000280 </v>
    <v>       0.04761905       0.66666667       0.10000280 </v>
    <v>       0.04761905       0.80952381       0.10000280 </v>
    <v>       0.04761905       0.95238095       0.10000280 </v>
    <v>       0.19047619       0.09523809       0.10000280 </v>
    <v>       0.19047619       0.23809524       0.10000280 </v>
    <v>       0.19047619       0.38095238       0.10000280 </v>
    <v>       0.19047619       0.52380952       0.10000280 </v>
    <v>       0.19047619       0.66666667       0.10000280 </v>
    <v>       0.19047619       0.80952381       0.10000280 </v>
    <v>       0.19047619       0.95238095       0.10000280 </v>
    <v>       0.33333333       0.09523809       0.10000280 </v>
    <v>       0.33333333       0.23809524       0.10000280 </v>
    <v>       0.33333333       0.38095238       0.10000280 </v>
    <v>       0.33333333       0.52380952       0.10000280 </v>
    <v>       0.33333333       0.66666667       0.10000280 </v>
    <v>       0.33333333       0.80952381       0.10000280 </v>
    <v>       0.33333333       0.95238095       0.10000280 </v>
    <v>       0.47619048       0.09523809       0.10000280 </v>
    <v>       0.47619048       0.23809524       0.10000280 </v>
    <v>       0.47619048       0.38095238       0.10000280 </v>
    <v>       0.47619048       0.52380952       0.10000280 </v>
    <v>       0.47619048       0.66666667       0.10000280 </v>
    <v>       0.47619048       0.80952381       0.10000280 </v>
    <v>       0.47619048       0.95238095       0.10000280 </v>
    <v>       0.61904762       0.09523809       0.10000280 </v>
    <v>       0.61904762       0.23809524       0.10000280 </v>
    <v>       0.61904762       0.38095238       0.10000280 </v>
    <v>       0.61904762       0.52380952       0.10000280 </v>
    <v>       0.61904762       0.66666667       0.10000280 </v>
    <v>       0.61904762       0.80952381       0.10000280 </v>
    <v>       0.61904762       0.95238095       0.10000280 </v>
    <v>       0.76190476       0.09523809       0.10000280 </v>
    <v>       0.76190476       0.23809524       0.10000280 </v>
    <v>       0.76190476       0.38095238       0.10000280 </v>
    <v>       0.76190476       0.52380952       0.10000280 </v>
    <v>       0.76190476       0.66666667       0.10000280 </v>
    <v>       0.76190476       0.80952381       0.10000280 </v>
    <v>       0.76190476       0.95238095       0.10000280 </v>
    <v>       0.90476191       0.09523809       0.10000280 </v>
    <v>       0.90476191       0.23809524       0.10000280 </v>
    <v>       0.90476191       0.38095238       0.10000280 </v>
    <v>       0.90476191       0.52380952       0.10000280 </v>
    <v>       0.90476191       0.66666667       0.10000280 </v>
    <v>       0.90476191       0.80952381       0.10000280 </v>
    <v>       0.90476191       0.95238095       0.10000280 </v>
    <v>       0.09523809       0.04761905       0.07619696 </v>
    <v>       0.09523809       0.19047619       0.07619696 </v>
    <v>       0.09523809       0.33333333       0.07619696 </v>
    <v>       0.09523809       0.47619048       0.07619696 </v>
    <v>       0.09523809       0.61904762       0.07619696 </v>
    <v>       0.09523809       0.76190476       0.07619696 </v>
    <v>       0.09523809       0.90476191       0.07619696 </v>
    <v>       0.23809524       0.04761905       0.07619696 </v>
    <v>       0.23809524       0.19047619       0.07619696 </v>
    <v>       0.23809524       0.33333333       0.07619696 </v>
    <v>       0.23809524       0.47619048       0.07619696 </v>
    <v>       0.23809524       0.61904762       0.07619696 </v>
    <v>       0.23809524       0.76190476       0.07619696 </v>
    <v>       0.23809524       0.90476191       0.07619696 </v>
    <v>       0.38095238       0.04761905       0.07619696 </v>
    <v>       0.38095238       0.19047619       0.07619696 </v>
    <v>       0.38095238       0.33333333       0.07619696 </v>
    <v>       0.38095238       0.47619048       0.07619696 </v>
    <v>       0.38095238       0.61904762       0.07619696 </v>
    <v>       0.38095238       0.76190476       0.07619696 </v>
    <v>       0.38095238       0.90476191       0.07619696 </v>
    <v>       0.52380952       0.04761905       0.07619696 </v>
    <v>       0.52380952       0.19047619       0.07619696 </v>
    <v>       0.52380952       0.33333333       0.07619696 </v>
    <v>       0.52380952       0.47619048       0.07619696 </v>
    <v>       0.52380952       0.61904762       0.07619696 </v>
    <v>       0.52380952       0.76190476       0.07619696 </v>
    <v>       0.52380952       0.90476191       0.07619696 </v>
    <v>       0.66666667       0.04761905       0.07619696 </v>
    <v>       0.66666667       0.19047619       0.07619696 </v>
    <v>       0.66666667       0.33333333       0.07619696 </v>
    <v>       0.66666667       0.47619048       0.07619696 </v>
    <v>       0.66666667       0.61904762       0.07619696 </v>
    <v>       0.66666667       0.76190476       0.07619696 </v>
    <v>       0.66666667       0.90476191       0.07619696 </v>
    <v>       0.80952381       0.04761905       0.07619696 </v>
    <v>       0.80952381       0.19047619       0.07619696 </v>
    <v>       0.80952381       0.33333333       0.07619696 </v>
    <v>       0.80952381       0.47619048       0.07619696 </v>
    <v>       0.80952381       0.61904762       0.07619696 </v>
    <v>       0.80952381       0.76190476       0.07619696 </v>
    <v>       0.80952381       0.90476191       0.07619696 </v>
    <v>       0.95238095       0.04761905       0.07619696 </v>
    <v>       0.95238095       0.19047619       0.07619696 </v>
    <v>       0.95238095       0.33333333       0.07619696 </v>
    <v>       0.95238095       0.47619048       0.07619696 </v>
    <v>       0.95238095       0.61904762       0.07619696 </v>
    <v>       0.95238095       0.76190476       0.07619696 </v>
    <v>       0.95238095       0.90476191       0.07619696 </v>
   </varray>
  </structure>
  <varray name="forces" >
   <v>      -0.00000000       0.00000000       0.00059082 </v>
   <v>       0.00000000      -0.00000000       0.00059082 </v>
   <v>       0.00000000      -0.00000000       0.00059082 </v>
   <v>       0.00000000       0.00000000       0.00059082 </v>
   <v>      -0.00000000      -0.00000000       0.00059082 </v>
   <v>       0.00000000      -0.00000000       0.00059082 </v>
   <v>      -0.00000000      -0.00000000       0.00059082 </v>
   <v>      -0.00000000       0.00000000       0.00059082 </v>
   <v>       0.00000000       0.00000000       0.00059082 </v>
   <v>       0.00000000      -0.00000000       0.00059082 </v>
   <v>      -0.00000000       0.00000000       0.00059082 </v>
   <v>       0.00000000      -0.00000000       0.00059082 </v>
   <v>       0.00000000      -0.00000000       0.00059082 </v>
   <v>       0.00000000      -0.00000000       0.00059082 </v>
   <v>       0.00000000       0.00000000       0.00059082 </v>
   <v>       0.00000000       0.00000000       0.00059082 </v>
   <v>       0.00000000       0.00000000       0.00059082 </v>
   <v>       0.00000000       0.00000000       0.00059082 </v>
   <v>       0.00000000      -0.00000000       0.00059082 </v>
   <v>       0.00000000       0.00000000       0.00059082 </v>
   <v>       0.00000000       0.00000000       0.00059082 </v>
   <v>       0.00000000       0.00000000       0.00059082 </v>
   <v>       0.00000000       0.00000000       0.00059082 </v>
   <v>       0.00000000       0.00000000       0.00059082 </v>
   <v>       0.00000000       0.00000000       0.00059082 </v>
   <v>       0.00000000       0.00000000       0.00059082 </v>
   <v>       0.00000000       0.00000000       0.00059082 </v>
   <v>      -0.00000000       0.00000000       0.00059082 </v>
   <v>       0.00000000       0.00000000       0.00059082 </v>
   <v>       0.00000000      -0.00000000       0.00059082 </v>
   <v>       0.00000000       0.00000000       0.00059082 </v>
   <v>      -0.00000000      -0.00000000       0.00059082 </v>
   <v>       0.00000000       0.00000000       0.00059082 </v>
   <v>       0.00000000      -0.00000000       0.00059082 </v>
   <v>       0.00000000      -0.00000000       0.00059082 </v>
   <v>       0.00000000       0.00000000       0.00059082 </v>
   <v>       0.00000000      -0.00000000       0.00059082 </v>
   <v>       0.00000000       0.00000000       0.00059082 </v>
   <v>      -0.00000000       0.00000000       0.00059082 </v>
   <v>       0.00000000       0.00000000       0.00059082 </v>
   <v>       0.00000000      -0.00000000       0.00059082 </v>
   <v>       0.00000000       0.00000000       0.00059082 </v>
   <v>       0.00000000       0.00000000       0.00059082 </v>
   <v>       0.00000000      -0.00000000       0.00059082 </v>
   <v>       0.00000000       0.00000000       0.00059082 </v>
   <v>       0.00000000       0.00000000       0.00059082 </v>
   <v>      -0.00000000       0.00000000       0.00059082 </v>
   <v>       0.00000000       0.00000000       0.00059082 </v>
   <v>      -0.00000000       0.00000000       0.00059082 </v>
   <v>      -0.00000000       0.00000000      -0.02971846 </v>
   <v>      -0.00000000       0.00000000      -0.02971846 </v>
   <v>      -0.00000000       0.00000000      -0.02971846 </v>
   <v>      -0.00000000      -0.00000000      -0.02971846 </v>
   <v>      -0.00000000      -0.00000000      -0.02971846 </v>
   <v>       0.00000000      -0.00000000      -0.02971846 </v>
   <v>      -0.00000000      -0.00000000      -0.02971846 </v>
   <v>      -0.00000000       0.00000000      -0.02971846 </v>
   <v>      -0.00000000       0.00000000      -0.02971846 </v>
   <v>      -0.00000000      -0.00000000      -0.02971846 </v>
   <v>      -0.00000000      -0.00000000      -0.02971846 </v>
   <v>      -0.00000000      -0.00000000      -0.02971846 </v>
   <v>       0.00000000      -0.00000000      -0.02971846 </v>
   <v>      -0.00000000      -0.00000000      -0.02971846 </v>
   <v>      -0.00000000       0.00000000      -0.02971846 </v>
   <v>      -0.00000000      -0.00000000      -0.02971846 </v>
   <v>      -0.00000000      -0.00000000      -0.02971846 </v>
   <v>      -0.00000000      -0.00000000      -0.02971846 </v>
   <v>      -0.00000000      -0.00000000      -0.02971846 </v>
   <v>      -0.00000000      -0.00000000      -0.02971846 </v>
   <v>      -0.00000000       0.00000000      -0.02971846 </v>
   <v>      -0.00000000       0.00000000      -0.02971846 </v>
   <v>      -0.00000000       0.00000000      -0.02971846 </v>
   <v>      -0.00000000      -0.00000000      -0.02971846 </v>
   <v>      -0.00000000      -0.00000000      -0.02971846 </v>
   <v>      -0.00000000      -0.00000000      -0.02971846 </v>
   <v>       0.00000000       0.00000000      -0.02971846 </v>
   <v>      -0.00000000      -0.00000000      -0.02971846 </v>
   <v>      -0.00000000       0.00000000      -0.02971846 </v>
   <v>      -0.00000000       0.00000000      -0.02971846 </v>
   <v>      -0.00000000       0.00000000      -0.02971846 </v>
   <v>      -0.00000000      -0.00000000      -0.02971846 </v>
   <v>      -0.00000000      -0.00000000      -0.02971846 </v>
   <v>      -0.00000000      -0.00000000      -0.02971846 </v>
   <v>      -0.00000000      -0.00000000      -0.02971846 </v>
   <v>      -0.00000000      -0.00000000      -0.02971846 </v>
   <v>      -0.00000000      -0.00000000      -0.02971846 </v>
   <v>      -0.00000000       0.00000000      -0.02971846 </v>
   <v>      -0.00000000       0.00000000      -0.02971846 </v>
   <v>      -0.00000000      -0.00000000      -0.02971846 </v>
   <v>       0.00000000      -0.00000000      -0.02971846 </v>
   <v>      -0.00000000       0.00000000      -0.02971846 </v>
   <v>      -0.00000000       0.00000000      -0.02971846 </v>
   <v>      -0.00000000       0.00000000      -0.02971846 </v>
   <v>      -0.00000000       0.00000000      -0.02971846 </v>
   <v>      -0.00000000      -0.00000000      -0.02971846 </v>
   <v>      -0.00000000      -0.00000000      -0.02971846 </v>
   <v>      -0.00000000      -0.00000000      -0.02971846 </v>
   <v>      -0.00000000       0.00000000      -0.02971846 </v>
   <v>      -0.00000000      -0.00000000      -0.00059082 </v>
   <v>      -0.00000000       0.00000000      -0.00059082 </v>
   <v>      -0.00000000       0.00000000      -0.00059082 </v>
   <v>      -0.00000000       0.00000000      -0.00059082 </v>
   <v>      -0.00000000       0.00000000      -0.00059082 </v>
   <v>      -0.00000000       0.00000000      -0.00059082 </v>
   <v>      -0.00000000      -0.00000000      -0.00059082 </v>
   <v>      -0.00000000      -0.00000000      -0.00059082 </v>
   <v>      -0.00000000      -0.00000000      -0.00059082 </v>
   <v>       0.00000000       0.00000000      -0.00059082 </v>
   <v>      -0.00000000       0.00000000      -0.00059082 </v>
   <v>      -0.00000000       0.00000000      -0.00059082 </v>
   <v>      -0.00000000       0.00000000      -0.00059082 </v>
   <v>      -0.00000000      -0.00000000      -0.00059082 </v>
   <v>       0.00000000      -0.00000000      -0.00059082 </v>
   <v>       0.00000000       0.00000000      -0.00059082 </v>
   <v>      -0.00000000      -0.00000000      -0.00059082 </v>
   <v>      -0.00000000      -0.00000000      -0.00059082 </v>
   <v>      -0.00000000      -0.00000000      -0.00059082 </v>
   <v>       0.00000000      -0.00000000      -0.00059082 </v>
   <v>       0.00000000      -0.00000000      -0.00059082 </v>
   <v>      -0.00000000      -0.00000000      -0.00059082 </v>
   <v>      -0.00000000      -0.00000000      -0.00059082 </v>
   <v>      -0.00000000       0.00000000      -0.00059082 </v>
   <v>      -0.00000000       0.00000000      -0.00059082 </v>
   <v>      -0.00000000       0.00000000      -0.00059082 </v>
   <v>       0.00000000      -0.00000000      -0.00059082 </v>
   <v>      -0.00000000       0.00000000      -0.00059082 </v>
   <v>      -0.00000000      -0.00000000      -0.00059082 </v>
   <v>      -0.00000000       0.00000000      -0.00059082 </v>
   <v>      -0.00000000      -0.00000000      -0.00059082 </v>
   <v>      -0.00000000       0.00000000      -0.00059082 </v>
   <v>      -0.00000000       0.00000000      -0.00059082 </v>
   <v>      -0.00000000      -0.00000000      -0.00059082 </v>
   <v>      -0.00000000      -0.00000000      -0.00059082 </v>
   <v>      -0.00000000      -0.00000000      -0.00059082 </v>
   <v>      -0.00000000       0.00000000      -0.00059082 </v>
   <v>      -0.00000000       0.00000000      -0.00059082 </v>
   <v>      -0.00000000       0.00000000      -0.00059082 </v>
   <v>      -0.00000000       0.00000000      -0.00059082 </v>
   <v>      -0.00000000      -0.00000000      -0.00059082 </v>
   <v>      -0.00000000      -0.00000000      -0.00059082 </v>
   <v>      -0.00000000      -0.00000000      -0.00059082 </v>
   <v>      -0.00000000       0.00000000      -0.00059082 </v>
   <v>      -0.00000000       0.00000000      -0.00059082 </v>
   <v>      -0.00000000       0.00000000      -0.00059082 </v>
   <v>      -0.00000000       0.00000000      -0.00059082 </v>
   <v>      -0.00000000      -0.00000000      -0.00059082 </v>
   <v>      -0.00000000      -0.00000000      -0.00059082 </v>
   <v>       0.00000000      -0.00000000       0.02971846 </v>
   <v>       0.00000000       0.00000000       0.02971846 </v>
   <v>       0.00000000       0.00000000       0.02971846 </v>
   <v>       0.00000000       0.00000000       0.02971846 </v>
   <v>       0.00000000       0.00000000       0.02971846 </v>
   <v>       0.00000000      -0.00000000       0.02971846 </v>
   <v>       0.00000000      -0.00000000       0.02971846 </v>
   <v>       0.00000000      -0.00000000       0.02971846 </v>
   <v>       0.00000000       0.00000000       0.02971846 </v>
   <v>       0.00000000       0.00000000       0.02971846 </v>
   <v>       0.00000000       0.00000000       0.02971846 </v>
   <v>       0.00000000       0.00000000       0.02971846 </v>
   <v>       0.00000000      -0.00000000       0.02971846 </v>
   <v>       0.00000000       0.00000000       0.02971846 </v>
   <v>       0.00000000      -0.00000000       0.02971846 </v>
   <v>       0.00000000      -0.00000000       0.02971846 </v>
   <v>       0.00000000       0.00000000       0.02971846 </v>
   <v>       0.00000000       0.00000000       0.02971846 </v>
   <v>       0.00000000      -0.00000000       0.02971846 </v>
   <v>       0.00000000      -0.00000000       0.02971846 </v>
   <v>       0.00000000       0.00000000       0.02971846 </v>
   <v>       0.00000000      -0.00000000       0.02971846 </v>
   <v>       0.00000000      -0.00000000       0.02971846 </v>
   <v>       0.00000000       0.00000000       0.02971846 </v>
   <v>       0.00000000       0.00000000       0.02971846 </v>
   <v>       0.00000000      -0.00000000       0.02971846 </v>
   <v>       0.00000000      -0.00000000       0.02971846 </v>
   <v>       0.00000000       0.00000000       0.02971846 </v>
   <v>       0.00000000      -0.00000000       0.02971846 </v>
   <v>       0.00000000       0.00000000       0.02971846 </v>
   <v>       0.00000000      -0.00000000       0.02971846 </v>
   <v>       0.00000000      -0.00000000       0.02971846 </v>
   <v>       0.00000000      -0.00000000       0.02971846 </v>
   <v>       0.00000000      -0.00000000       0.02971846 </v>
   <v>       0.00000000      -0.00000000       0.02971846 </v>
   <v>       0.00000000       0.00000000       0.02971846 </v>
   <v>       0.00000000       0.00000000       0.02971846 </v>
   <v>       0.00000000      -0.00000000       0.02971846 </v>
   <v>       0.00000000      -0.00000000       0.02971846 </v>
   <v>       0.00000000       0.00000000       0.02971846 </v>
   <v>       0.00000000      -0.00000000       0.02971846 </v>
   <v>       0.00000000       0.00000000       0.02971846 </v>
   <v>       0.00000000       0.00000000       0.02971846 </v>
   <v>       0.00000000       0.00000000       0.02971846 </v>
   <v>       0.00000000      -0.00000000       0.02971846 </v>
   <v>       0.00000000      -0.00000000       0.02971846 </v>
   <v>       0.00000000       0.00000000       0.02971846 </v>
   <v>       0.00000000      -0.00000000       0.02971846 </v>
   <v>       0.00000000       0.00000000       0.02971846 </v>
  </varray>
  <varray name="stress" >
   <v>      -2.63430224       0.00000000      -0.00000000 </v>
   <v>       0.00000000      -2.63430224       0.00000000 </v>
   <v>       0.00000000       0.00000000      -0.22120997 </v>
  </varray>
  <energy>
   <i name="e_fr_energy">   -629.12612325 </i>
   <i name="e_wo_entrp">   -629.00347532 </i>
   <i name="e_0_energy">   -629.06479928 </i>
  </energy>
  <kpoints>
   <generation param="Gamma">
    <v type="int" name="divisions">       3        3        1 </v>
    <v name="usershift">      0.00000000       0.00000000       0.00000000 </v>
    <v name="genvec1">      0.33333333       0.00000000       0.00000000 </v>
    <v name="genvec2">      0.00000000       0.33333333       0.00000000 </v>
    <v name="genvec3">      0.00000000       0.00000000       1.00000000 </v>
    <v name="shift">      0.00000000       0.00000000       0.00000000 </v>
   </generation>
   <varray name="kpointlist" >
    <v>       0.00000000       0.00000000       0.00000000 </v>
    <v>       0.33333333       0.00000000       0.00000000 </v>
    <v>      -0.33333333       0.33333333       0.00000000 </v>
    <v>       0.33333333       0.33333333       0.00000000 </v>
   </varray>
   <varray name="weights" >
    <v>       0.11111111 </v>
    <v>       0.44444444 </v>
    <v>       0.22222222 </v>
    <v>       0.22222222 </v>
   </varray>
  </kpoints>
  <time name="totalsc">10586.9818158.22</time>
 </calculation>
 <calculation>
  <scstep>
   <time name="dav">  413.77  806.21</time>
   <time name="total">  428.58  835.96</time>
   <dipole>
    <v name="dipole">      0.00000000       0.00000000      -0.00000000 </v>
    <i name="Tr[quadrupol]"> -38122.41391383 </i>
    <i name="Echarged">      0.00000000 </i>
    <i name="Edipol_quadrupol">      0.00000000 </i>
    <i name="Eion">      0.00000000 </i>
   </dipole>
   <energy>
    <i name="alphaZ">     33.07749215 </i>
    <i name="ewald">  72764.21217110 </i>
    <i name="hartreedc"> -76988.07983302 </i>
    <i name="XCdc">    690.03713823 </i>
    <i name="pawpsdc">  12805.03531011 </i>
    <i name="pawaedc"> -12693.88177920 </i>
    <i name="eentropy">     -0.12263365 </i>
    <i name="bandstr">  -2594.65105527 </i>
    <i name="atom">   5385.93370635 </i>
    <i name="e_fr_energy">   -598.43948321 </i>
    <i name="e_wo_entrp">   -598.31684956 </i>
    <i name="e_0_energy">   -598.37816638 </i>
   </energy>
  </scstep>
  <scstep>
   <time name="dav">  418.36  814.32</time>
   <time name="total">  443.58  865.00</time>
   <dipole>
    <v name="dipole">      0.00000000       0.00000000       0.00000027 </v>
    <i name="Tr[quadrupol]"> -38122.41388220 </i>
    <i name="Echarged">      0.00000000 </i>
    <i name="Edipol_quadrupol">      0.00000000 </i>
    <i name="Eion">      0.00000000 </i>
   </dipole>
   <energy>
    <i name="e_fr_energy">   -598.43908028 </i>
    <i name="e_wo_entrp">   -598.31644163 </i>
    <i name="e_0_energy">   -598.37776095 </i>
   </energy>
  </scstep>
  <scstep>
   <time name="dav">  423.80  813.02</time>
   <time name="total">  446.02  857.68</time>
   <dipole>
    <v name="dipole">      0.00000000       0.00000000      -0.00000013 </v>
    <i name="Tr[quadrupol]"> -38122.41378687 </i>
    <i name="Echarged">      0.00000000 </i>
    <i name="Edipol_quadrupol">      0.00000000 </i>
    <i name="Eion">      0.00000000 </i>
   </dipole>
   <energy>
    <i name="e_fr_energy">   -598.43903792 </i>
    <i name="e_wo_entrp">   -598.31639727 </i>
    <i name="e_0_energy">   -598.37771759 </i>
   </energy>
  </scstep>
  <scstep>
   <time name="dav">  464.06  890.69</time>
   <time name="total">  486.92  936.62</time>
   <dipole>
    <v name="dipole">      0.00000000       0.00000000       0.00000002 </v>
    <i name="Tr[quadrupol]"> -38122.41374505 </i>
    <i name="Echarged">      0.00000000 </i>
    <i name="Edipol_quadrupol">      0.00000000 </i>
    <i name="Eion">      0.00000000 </i>
   </dipole>
   <energy>
    <i name="e_fr_energy">   -598.43903038 </i>
    <i name="e_wo_entrp">   -598.31638945 </i>
    <i name="e_0_energy">   -598.37770992 </i>
   </energy>
  </scstep>
  <scstep>
