phonon_dispersion                       
           1
    20.958511   12.100402    0.000000
   -20.958511   12.100402    0.000000
     0.000000    0.000000   40.000000
   Be
   196
Direct configuration=     1
   0.00000000  0.00000000  0.09999720
   0.00000000  0.14285714  0.09999720
   0.00000000  0.28571429  0.09999720
   0.00000000  0.42857143  0.09999720
   0.00000000  0.57142857  0.09999720
   0.00000000  0.71428571  0.09999720
   0.00000000  0.85714286  0.09999720
   0.14285714  0.00000000  0.09999720
   0.14285714  0.14285714  0.09999720
   0.14285714  0.28571429  0.09999720
   0.14285714  0.42857143  0.09999720
   0.14285714  0.57142857  0.09999720
   0.14285714  0.71428571  0.09999720
   0.14285714  0.85714286  0.09999720
   0.28571429  0.00000000  0.09999720
   0.28571429  0.14285714  0.09999720
   0.28571429  0.28571429  0.09999720
   0.28571429  0.42857143  0.09999720
   0.28571429  0.57142857  0.09999720
   0.28571429  0.71428571  0.09999720
   0.28571429  0.85714286  0.09999720
   0.42857143  0.00000000  0.09999720
   0.42857143  0.14285714  0.09999720
   0.42857143  0.28571429  0.09999720
   0.42857143  0.42857143  0.09999720
   0.42857143  0.57142857  0.09999720
   0.42857143  0.71428571  0.09999720
   0.42857143  0.85714286  0.09999720
   0.57142857  0.00000000  0.09999720
   0.57142857  0.14285714  0.09999720
   0.57142857  0.28571429  0.09999720
   0.57142857  0.42857143  0.09999720
   0.57142857  0.57142857  0.09999720
   0.57142857  0.71428571  0.09999720
   0.57142857  0.85714286  0.09999720
   0.71428571  0.00000000  0.09999720
   0.71428571  0.14285714  0.09999720
   0.71428571  0.28571429  0.09999720
   0.71428571  0.42857143  0.09999720
   0.71428571  0.57142857  0.09999720
   0.71428571  0.71428571  0.09999720
   0.71428571  0.85714286  0.09999720
   0.85714286  0.00000000  0.09999720
   0.85714286  0.14285714  0.09999720
   0.85714286  0.28571429  0.09999720
   0.85714286  0.42857143  0.09999720
   0.85714286  0.57142857  0.09999720
   0.85714286  0.71428571  0.09999720
   0.85714286  0.85714286  0.09999720
   0.09523809  0.04761905  0.12380304
   0.09523809  0.19047619  0.12380304
   0.09523809  0.33333333  0.12380304
   0.09523809  0.47619048  0.12380304
   0.09523809  0.61904762  0.12380304
   0.09523809  0.76190476  0.12380304
   0.09523809  0.90476191  0.12380304
   0.23809524  0.04761905  0.12380304
   0.23809524  0.19047619  0.12380304
   0.23809524  0.33333333  0.12380304
   0.23809524  0.47619048  0.12380304
   0.23809524  0.61904762  0.12380304
   0.23809524  0.76190476  0.12380304
   0.23809524  0.90476191  0.12380304
   0.38095238  0.04761905  0.12380304
   0.38095238  0.19047619  0.12380304
   0.38095238  0.33333333  0.12380304
   0.38095238  0.47619048  0.12380304
   0.38095238  0.61904762  0.12380304
   0.38095238  0.76190476  0.12380304
   0.38095238  0.90476191  0.12380304
   0.52380952  0.04761905  0.12380304
   0.52380952  0.19047619  0.12380304
   0.52380952  0.33333333  0.12380304
   0.52380952  0.47619048  0.12380304
   0.52380952  0.61904762  0.12380304
   0.52380952  0.76190476  0.12380304
   0.52380952  0.90476191  0.12380304
   0.66666667  0.04761905  0.12380304
   0.66666667  0.19047619  0.12380304
   0.66666667  0.33333333  0.12380304
   0.66666667  0.47619048  0.12380304
   0.66666667  0.61904762  0.12380304
   0.66666667  0.76190476  0.12380304
   0.66666667  0.90476191  0.12380304
   0.80952381  0.04761905  0.12380304
   0.80952381  0.19047619  0.12380304
   0.80952381  0.33333333  0.12380304
   0.80952381  0.47619048  0.12380304
   0.80952381  0.61904762  0.12380304
   0.80952381  0.76190476  0.12380304
   0.80952381  0.90476191  0.12380304
   0.95238095  0.04761905  0.12380304
   0.95238095  0.19047619  0.12380304
   0.95238095  0.33333333  0.12380304
   0.95238095  0.47619048  0.12380304
   0.95238095  0.61904762  0.12380304
   0.95238095  0.76190476  0.12380304
   0.95238095  0.90476191  0.12380304
   0.04761905  0.09523809  0.10000280
   0.04761905  0.23809524  0.10000280
   0.04761905  0.38095238  0.10000280
   0.04761905  0.52380952  0.10000280
   0.04761905  0.66666667  0.10000280
   0.04761905  0.80952381  0.10000280
   0.04761905  0.95238095  0.10000280
   0.19047619  0.09523809  0.10000280
   0.19047619  0.23809524  0.10000280
   0.19047619  0.38095238  0.10000280
   0.19047619  0.52380952  0.10000280
   0.19047619  0.66666667  0.10000280
   0.19047619  0.80952381  0.10000280
   0.19047619  0.95238095  0.10000280
   0.33333333  0.09523809  0.10000280
   0.33333333  0.23809524  0.10000280
   0.33333333  0.38095238  0.10000280
   0.33333333  0.52380952  0.10000280
   0.33333333  0.66666667  0.10000280
   0.33333333  0.80952381  0.10000280
   0.33333333  0.95238095  0.10000280
   0.47619048  0.09523809  0.10000280
   0.47619048  0.23809524  0.10000280
   0.47619048  0.38095238  0.10000280
   0.47619048  0.52380952  0.10000280
   0.47619048  0.66666667  0.10000280
   0.47619048  0.80952381  0.10000280
   0.47619048  0.95238095  0.10000280
   0.61904762  0.09523809  0.10000280
   0.61904762  0.23809524  0.10000280
   0.61904762  0.38095238  0.10000280
   0.61904762  0.52380952  0.10000280
   0.61904762  0.66666667  0.10000280
   0.61904762  0.80952381  0.10000280
   0.61904762  0.95238095  0.10000280
   0.76190476  0.09523809  0.10000280
   0.76190476  0.23809524  0.10000280
   0.76190476  0.38095238  0.10000280
   0.76190476  0.52380952  0.10000280
   0.76190476  0.66666667  0.10000280
   0.76190476  0.80952381  0.10000280
   0.76190476  0.95238095  0.10000280
   0.90476191  0.09523809  0.10000280
   0.90476191  0.23809524  0.10000280
   0.90476191  0.38095238  0.10000280
   0.90476191  0.52380952  0.10000280
   0.90476191  0.66666667  0.10000280
   0.90476191  0.80952381  0.10000280
   0.90476191  0.95238095  0.10000280
   0.09523809  0.04761905  0.07619696
   0.09523809  0.19047619  0.07619696
   0.09523809  0.33333333  0.07619696
   0.09523809  0.47619048  0.07619696
   0.09523809  0.61904762  0.07619696
   0.09523809  0.76190476  0.07619696
   0.09523809  0.90476191  0.07619696
   0.23809524  0.04761905  0.07619696
   0.23809524  0.19047619  0.07619696
   0.23809524  0.33333333  0.07619696
   0.23809524  0.47619048  0.07619696
   0.23809524  0.61904762  0.07619696
   0.23809524  0.76190476  0.07619696
   0.23809524  0.90476191  0.07619696
   0.38095238  0.04761905  0.07619696
   0.38095238  0.19047619  0.07619696
   0.38095238  0.33333333  0.07619696
   0.38095238  0.47619048  0.07619696
   0.38095238  0.61904762  0.07619696
   0.38095238  0.76190476  0.07619696
   0.38095238  0.90476191  0.07619696
   0.52380952  0.04761905  0.07619696
   0.52380952  0.19047619  0.07619696
   0.52380952  0.33333333  0.07619696
   0.52380952  0.47619048  0.07619696
   0.52380952  0.61904762  0.07619696
   0.52380952  0.76190476  0.07619696
   0.52380952  0.90476191  0.07619696
   0.66666667  0.04761905  0.07619696
   0.66666667  0.19047619  0.07619696
   0.66666667  0.33333333  0.07619696
   0.66666667  0.47619048  0.07619696
   0.66666667  0.61904762  0.07619696
   0.66666667  0.76190476  0.07619696
   0.66666667  0.90476191  0.07619696
   0.80952381  0.04761905  0.07619696
   0.80952381  0.19047619  0.07619696
   0.80952381  0.33333333  0.07619696
   0.80952381  0.47619048  0.07619696
   0.80952381  0.61904762  0.07619696
   0.80952381  0.76190476  0.07619696
   0.80952381  0.90476191  0.07619696
   0.95238095  0.04761905  0.07619696
   0.95238095  0.19047619  0.07619696
   0.95238095  0.33333333  0.07619696
   0.95238095  0.47619048  0.07619696
   0.95238095  0.61904762  0.07619696
   0.95238095  0.76190476  0.07619696
   0.95238095  0.90476191  0.07619696
Direct configuration=     2
   0.00035785 -0.00035785  0.09999720
   0.00000000  0.14285714  0.09999720
   0.00000000  0.28571429  0.09999720
   0.00000000  0.42857143  0.09999720
   0.00000000  0.57142857  0.09999720
   0.00000000  0.71428571  0.09999720
   0.00000000  0.85714286  0.09999720
   0.14285714  0.00000000  0.09999720
   0.14285714  0.14285714  0.09999720
   0.14285714  0.28571429  0.09999720
   0.14285714  0.42857143  0.09999720
   0.14285714  0.57142857  0.09999720
   0.14285714  0.71428571  0.09999720
   0.14285714  0.85714286  0.09999720
   0.28571429  0.00000000  0.09999720
   0.28571429  0.14285714  0.09999720
   0.28571429  0.28571429  0.09999720
   0.28571429  0.42857143  0.09999720
   0.28571429  0.57142857  0.09999720
   0.28571429  0.71428571  0.09999720
   0.28571429  0.85714286  0.09999720
   0.42857143  0.00000000  0.09999720
   0.42857143  0.14285714  0.09999720
   0.42857143  0.28571429  0.09999720
   0.42857143  0.42857143  0.09999720
   0.42857143  0.57142857  0.09999720
   0.42857143  0.71428571  0.09999720
   0.42857143  0.85714286  0.09999720
   0.57142857  0.00000000  0.09999720
   0.57142857  0.14285714  0.09999720
   0.57142857  0.28571429  0.09999720
   0.57142857  0.42857143  0.09999720
   0.57142857  0.57142857  0.09999720
   0.57142857  0.71428571  0.09999720
   0.57142857  0.85714286  0.09999720
   0.71428571  0.00000000  0.09999720
   0.71428571  0.14285714  0.09999720
   0.71428571  0.28571429  0.09999720
   0.71428571  0.42857143  0.09999720
   0.71428571  0.57142857  0.09999720
   0.71428571  0.71428571  0.09999720
   0.71428571  0.85714286  0.09999720
   0.85714286  0.00000000  0.09999720
   0.85714286  0.14285714  0.09999720
   0.85714286  0.28571429  0.09999720
   0.85714286  0.42857143  0.09999720
   0.85714286  0.57142857  0.09999720
   0.85714286  0.71428571  0.09999720
   0.85714286  0.85714286  0.09999720
   0.09523809  0.04761905  0.12380304
   0.09523809  0.19047619  0.12380304
   0.09523809  0.33333333  0.12380304
   0.09523809  0.47619048  0.12380304
   0.09523809  0.61904762  0.12380304
   0.09523809  0.76190476  0.12380304
   0.09523809  0.90476191  0.12380304
   0.23809524  0.04761905  0.12380304
   0.23809524  0.19047619  0.12380304
   0.23809524  0.33333333  0.12380304
   0.23809524  0.47619048  0.12380304
   0.23809524  0.61904762  0.12380304
   0.23809524  0.76190476  0.12380304
   0.23809524  0.90476191  0.12380304
   0.38095238  0.04761905  0.12380304
   0.38095238  0.19047619  0.12380304
   0.38095238  0.33333333  0.12380304
   0.38095238  0.47619048  0.12380304
   0.38095238  0.61904762  0.12380304
   0.38095238  0.76190476  0.12380304
   0.38095238  0.90476191  0.12380304
   0.52380952  0.04761905  0.12380304
   0.52380952  0.19047619  0.12380304
   0.52380952  0.33333333  0.12380304
   0.52380952  0.47619048  0.12380304
   0.52380952  0.61904762  0.12380304
   0.52380952  0.76190476  0.12380304
   0.52380952  0.90476191  0.12380304
   0.66666667  0.04761905  0.12380304
   0.66666667  0.19047619  0.12380304
   0.66666667  0.33333333  0.12380304
   0.66666667  0.47619048  0.12380304
   0.66666667  0.61904762  0.12380304
   0.66666667  0.76190476  0.12380304
   0.66666667  0.90476191  0.12380304
   0.80952381  0.04761905  0.12380304
   0.80952381  0.19047619  0.12380304
   0.80952381  0.33333333  0.12380304
   0.80952381  0.47619048  0.12380304
   0.80952381  0.61904762  0.12380304
   0.80952381  0.76190476  0.12380304
   0.80952381  0.90476191  0.12380304
   0.95238095  0.04761905  0.12380304
   0.95238095  0.19047619  0.12380304
   0.95238095  0.33333333  0.12380304
   0.95238095  0.47619048  0.12380304
   0.95238095  0.61904762  0.12380304
   0.95238095  0.76190476  0.12380304
   0.95238095  0.90476191  0.12380304
   0.04761905  0.09523809  0.10000280
   0.04761905  0.23809524  0.10000280
   0.04761905  0.38095238  0.10000280
   0.04761905  0.52380952  0.10000280
   0.04761905  0.66666667  0.10000280
   0.04761905  0.80952381  0.10000280
   0.04761905  0.95238095  0.10000280
   0.19047619  0.09523809  0.10000280
   0.19047619  0.23809524  0.10000280
   0.19047619  0.38095238  0.10000280
   0.19047619  0.52380952  0.10000280
   0.19047619  0.66666667  0.10000280
   0.19047619  0.80952381  0.10000280
   0.19047619  0.95238095  0.10000280
   0.33333333  0.09523809  0.10000280
   0.33333333  0.23809524  0.10000280
   0.33333333  0.38095238  0.10000280
   0.33333333  0.52380952  0.10000280
   0.33333333  0.66666667  0.10000280
   0.33333333  0.80952381  0.10000280
   0.33333333  0.95238095  0.10000280
   0.47619048  0.09523809  0.10000280
   0.47619048  0.23809524  0.10000280
   0.47619048  0.38095238  0.10000280
   0.47619048  0.52380952  0.10000280
   0.47619048  0.66666667  0.10000280
   0.47619048  0.80952381  0.10000280
   0.47619048  0.95238095  0.10000280
   0.61904762  0.09523809  0.10000280
   0.61904762  0.23809524  0.10000280
   0.61904762  0.38095238  0.10000280
   0.61904762  0.52380952  0.10000280
   0.61904762  0.66666667  0.10000280
   0.61904762  0.80952381  0.10000280
   0.61904762  0.95238095  0.10000280
   0.76190476  0.09523809  0.10000280
   0.76190476  0.23809524  0.10000280
   0.76190476  0.38095238  0.10000280
   0.76190476  0.52380952  0.10000280
   0.76190476  0.66666667  0.10000280
   0.76190476  0.80952381  0.10000280
   0.76190476  0.95238095  0.10000280
   0.90476191  0.09523809  0.10000280
   0.90476191  0.23809524  0.10000280
   0.90476191  0.38095238  0.10000280
   0.90476191  0.52380952  0.10000280
   0.90476191  0.66666667  0.10000280
   0.90476191  0.80952381  0.10000280
   0.90476191  0.95238095  0.10000280
   0.09523809  0.04761905  0.07619696
   0.09523809  0.19047619  0.07619696
   0.09523809  0.33333333  0.07619696
   0.09523809  0.47619048  0.07619696
   0.09523809  0.61904762  0.07619696
   0.09523809  0.76190476  0.07619696
   0.09523809  0.90476191  0.07619696
   0.23809524  0.04761905  0.07619696
   0.23809524  0.19047619  0.07619696
   0.23809524  0.33333333  0.07619696
   0.23809524  0.47619048  0.07619696
   0.23809524  0.61904762  0.07619696
   0.23809524  0.76190476  0.07619696
   0.23809524  0.90476191  0.07619696
   0.38095238  0.04761905  0.07619696
   0.38095238  0.19047619  0.07619696
   0.38095238  0.33333333  0.07619696
   0.38095238  0.47619048  0.07619696
   0.38095238  0.61904762  0.07619696
   0.38095238  0.76190476  0.07619696
   0.38095238  0.90476191  0.07619696
   0.52380952  0.04761905  0.07619696
   0.52380952  0.19047619  0.07619696
   0.52380952  0.33333333  0.07619696
   0.52380952  0.47619048  0.07619696
   0.52380952  0.61904762  0.07619696
   0.52380952  0.76190476  0.07619696
   0.52380952  0.90476191  0.07619696
   0.66666667  0.04761905  0.07619696
   0.66666667  0.19047619  0.07619696
   0.66666667  0.33333333  0.07619696
   0.66666667  0.47619048  0.07619696
   0.66666667  0.61904762  0.07619696
   0.66666667  0.76190476  0.07619696
   0.66666667  0.90476191  0.07619696
   0.80952381  0.04761905  0.07619696
   0.80952381  0.19047619  0.07619696
   0.80952381  0.33333333  0.07619696
   0.80952381  0.47619048  0.07619696
   0.80952381  0.61904762  0.07619696
   0.80952381  0.76190476  0.07619696
   0.80952381  0.90476191  0.07619696
   0.95238095  0.04761905  0.07619696
   0.95238095  0.19047619  0.07619696
   0.95238095  0.33333333  0.07619696
   0.95238095  0.47619048  0.07619696
   0.95238095  0.61904762  0.07619696
   0.95238095  0.76190476  0.07619696
   0.95238095  0.90476191  0.07619696
Direct configuration=     3
  -0.00035785  0.00035785  0.09999720
   0.00000000  0.14285714  0.09999720
   0.00000000  0.28571429  0.09999720
   0.00000000  0.42857143  0.09999720
   0.00000000  0.57142857  0.09999720
   0.00000000  0.71428571  0.09999720
   0.00000000  0.85714286  0.09999720
   0.14285714  0.00000000  0.09999720
   0.14285714  0.14285714  0.09999720
   0.14285714  0.28571429  0.09999720
   0.14285714  0.42857143  0.09999720
   0.14285714  0.57142857  0.09999720
   0.14285714  0.71428571  0.09999720
   0.14285714  0.85714286  0.09999720
   0.28571429  0.00000000  0.09999720
   0.28571429  0.14285714  0.09999720
   0.28571429  0.28571429  0.09999720
   0.28571429  0.42857143  0.09999720
   0.28571429  0.57142857  0.09999720
   0.28571429  0.71428571  0.09999720
   0.28571429  0.85714286  0.09999720
   0.42857143  0.00000000  0.09999720
   0.42857143  0.14285714  0.09999720
   0.42857143  0.28571429  0.09999720
   0.42857143  0.42857143  0.09999720
   0.42857143  0.57142857  0.09999720
   0.42857143  0.71428571  0.09999720
   0.42857143  0.85714286  0.09999720
   0.57142857  0.00000000  0.09999720
   0.57142857  0.14285714  0.09999720
   0.57142857  0.28571429  0.09999720
   0.57142857  0.42857143  0.09999720
   0.57142857  0.57142857  0.09999720
   0.57142857  0.71428571  0.09999720
   0.57142857  0.85714286  0.09999720
   0.71428571  0.00000000  0.09999720
   0.71428571  0.14285714  0.09999720
   0.71428571  0.28571429  0.09999720
   0.71428571  0.42857143  0.09999720
   0.71428571  0.57142857  0.09999720
   0.71428571  0.71428571  0.09999720
   0.71428571  0.85714286  0.09999720
   0.85714286  0.00000000  0.09999720
   0.85714286  0.14285714  0.09999720
   0.85714286  0.28571429  0.09999720
   0.85714286  0.42857143  0.09999720
   0.85714286  0.57142857  0.09999720
   0.85714286  0.71428571  0.09999720
   0.85714286  0.85714286  0.09999720
   0.09523809  0.04761905  0.12380304
   0.09523809  0.19047619  0.12380304
   0.09523809  0.33333333  0.12380304
   0.09523809  0.47619048  0.12380304
   0.09523809  0.61904762  0.12380304
   0.09523809  0.76190476  0.12380304
   0.09523809  0.90476191  0.12380304
   0.23809524  0.04761905  0.12380304
   0.23809524  0.19047619  0.12380304
   0.23809524  0.33333333  0.12380304
   0.23809524  0.47619048  0.12380304
   0.23809524  0.61904762  0.12380304
   0.23809524  0.76190476  0.12380304
   0.23809524  0.90476191  0.12380304
   0.38095238  0.04761905  0.12380304
   0.38095238  0.19047619  0.12380304
   0.38095238  0.33333333  0.12380304
   0.38095238  0.47619048  0.12380304
   0.38095238  0.61904762  0.12380304
   0.38095238  0.76190476  0.12380304
   0.38095238  0.90476191  0.12380304
   0.52380952  0.04761905  0.12380304
   0.52380952  0.19047619  0.12380304
   0.52380952  0.33333333  0.12380304
   0.52380952  0.47619048  0.12380304
   0.52380952  0.61904762  0.12380304
   0.52380952  0.76190476  0.12380304
   0.52380952  0.90476191  0.12380304
   0.66666667  0.04761905  0.12380304
   0.66666667  0.19047619  0.12380304
   0.66666667  0.33333333  0.12380304
   0.66666667  0.47619048  0.12380304
   0.66666667  0.61904762  0.12380304
   0.66666667  0.76190476  0.12380304
   0.66666667  0.90476191  0.12380304
   0.80952381  0.04761905  0.12380304
   0.80952381  0.19047619  0.12380304
   0.80952381  0.33333333  0.12380304
   0.80952381  0.47619048  0.12380304
   0.80952381  0.61904762  0.12380304
   0.80952381  0.76190476  0.12380304
   0.80952381  0.90476191  0.12380304
   0.95238095  0.04761905  0.12380304
   0.95238095  0.19047619  0.12380304
   0.95238095  0.33333333  0.12380304
   0.95238095  0.47619048  0.12380304
   0.95238095  0.61904762  0.12380304
   0.95238095  0.76190476  0.12380304
   0.95238095  0.90476191  0.12380304
   0.04761905  0.09523809  0.10000280
   0.04761905  0.23809524  0.10000280
   0.04761905  0.38095238  0.10000280
   0.04761905  0.52380952  0.10000280
   0.04761905  0.66666667  0.10000280
   0.04761905  0.80952381  0.10000280
   0.04761905  0.95238095  0.10000280
   0.19047619  0.09523809  0.10000280
   0.19047619  0.23809524  0.10000280
   0.19047619  0.38095238  0.10000280
   0.19047619  0.52380952  0.10000280
   0.19047619  0.66666667  0.10000280
   0.19047619  0.80952381  0.10000280
   0.19047619  0.95238095  0.10000280
   0.33333333  0.09523809  0.10000280
   0.33333333  0.23809524  0.10000280
   0.33333333  0.38095238  0.10000280
   0.33333333  0.52380952  0.10000280
   0.33333333  0.66666667  0.10000280
   0.33333333  0.80952381  0.10000280
   0.33333333  0.95238095  0.10000280
   0.47619048  0.09523809  0.10000280
   0.47619048  0.23809524  0.10000280
   0.47619048  0.38095238  0.10000280
   0.47619048  0.52380952  0.10000280
   0.47619048  0.66666667  0.10000280
   0.47619048  0.80952381  0.10000280
   0.47619048  0.95238095  0.10000280
   0.61904762  0.09523809  0.10000280
   0.61904762  0.23809524  0.10000280
   0.61904762  0.38095238  0.10000280
   0.61904762  0.52380952  0.10000280
   0.61904762  0.66666667  0.10000280
   0.61904762  0.80952381  0.10000280
   0.61904762  0.95238095  0.10000280
   0.76190476  0.09523809  0.10000280
   0.76190476  0.23809524  0.10000280
   0.76190476  0.38095238  0.10000280
   0.76190476  0.52380952  0.10000280
   0.76190476  0.66666667  0.10000280
   0.76190476  0.80952381  0.10000280
   0.76190476  0.95238095  0.10000280
   0.90476191  0.09523809  0.10000280
   0.90476191  0.23809524  0.10000280
   0.90476191  0.38095238  0.10000280
   0.90476191  0.52380952  0.10000280
   0.90476191  0.66666667  0.10000280
   0.90476191  0.80952381  0.10000280
   0.90476191  0.95238095  0.10000280
   0.09523809  0.04761905  0.07619696
   0.09523809  0.19047619  0.07619696
   0.09523809  0.33333333  0.07619696
   0.09523809  0.47619048  0.07619696
   0.09523809  0.61904762  0.07619696
   0.09523809  0.76190476  0.07619696
   0.09523809  0.90476191  0.07619696
   0.23809524  0.04761905  0.07619696
   0.23809524  0.19047619  0.07619696
   0.23809524  0.33333333  0.07619696
   0.23809524  0.47619048  0.07619696
   0.23809524  0.61904762  0.07619696
   0.23809524  0.76190476  0.07619696
   0.23809524  0.90476191  0.07619696
   0.38095238  0.04761905  0.07619696
   0.38095238  0.19047619  0.07619696
   0.38095238  0.33333333  0.07619696
   0.38095238  0.47619048  0.07619696
   0.38095238  0.61904762  0.07619696
   0.38095238  0.76190476  0.07619696
   0.38095238  0.90476191  0.07619696
   0.52380952  0.04761905  0.07619696
   0.52380952  0.19047619  0.07619696
   0.52380952  0.33333333  0.07619696
   0.52380952  0.47619048  0.07619696
   0.52380952  0.61904762  0.07619696
   0.52380952  0.76190476  0.07619696
   0.52380952  0.90476191  0.07619696
   0.66666667  0.04761905  0.07619696
   0.66666667  0.19047619  0.07619696
   0.66666667  0.33333333  0.07619696
   0.66666667  0.47619048  0.07619696
   0.66666667  0.61904762  0.07619696
   0.66666667  0.76190476  0.07619696
   0.66666667  0.90476191  0.07619696
   0.80952381  0.04761905  0.07619696
   0.80952381  0.19047619  0.07619696
   0.80952381  0.33333333  0.07619696
   0.80952381  0.47619048  0.07619696
   0.80952381  0.61904762  0.07619696
   0.80952381  0.76190476  0.07619696
   0.80952381  0.90476191  0.07619696
   0.95238095  0.04761905  0.07619696
   0.95238095  0.19047619  0.07619696
   0.95238095  0.33333333  0.07619696
   0.95238095  0.47619048  0.07619696
   0.95238095  0.61904762  0.07619696
   0.95238095  0.76190476  0.07619696
   0.95238095  0.90476191  0.07619696
Direct configuration=     4
   0.00000000  0.00000000  0.10037220
   0.00000000  0.14285714  0.09999720
   0.00000000  0.28571429  0.09999720
   0.00000000  0.42857143  0.09999720
   0.00000000  0.57142857  0.09999720
   0.00000000  0.71428571  0.09999720
   0.00000000  0.85714286  0.09999720
   0.14285714  0.00000000  0.09999720
   0.14285714  0.14285714  0.09999720
   0.14285714  0.28571429  0.09999720
   0.14285714  0.42857143  0.09999720
   0.14285714  0.57142857  0.09999720
   0.14285714  0.71428571  0.09999720
   0.14285714  0.85714286  0.09999720
   0.28571429  0.00000000  0.09999720
   0.28571429  0.14285714  0.09999720
   0.28571429  0.28571429  0.09999720
   0.28571429  0.42857143  0.09999720
   0.28571429  0.57142857  0.09999720
   0.28571429  0.71428571  0.09999720
   0.28571429  0.85714286  0.09999720
   0.42857143  0.00000000  0.09999720
   0.42857143  0.14285714  0.09999720
   0.42857143  0.28571429  0.09999720
   0.42857143  0.42857143  0.09999720
   0.42857143  0.57142857  0.09999720
   0.42857143  0.71428571  0.09999720
   0.42857143  0.85714286  0.09999720
   0.57142857  0.00000000  0.09999720
   0.57142857  0.14285714  0.09999720
   0.57142857  0.28571429  0.09999720
   0.57142857  0.42857143  0.09999720
   0.57142857  0.57142857  0.09999720
   0.57142857  0.71428571  0.09999720
   0.57142857  0.85714286  0.09999720
   0.71428571  0.00000000  0.09999720
   0.71428571  0.14285714  0.09999720
   0.71428571  0.28571429  0.09999720
   0.71428571  0.42857143  0.09999720
   0.71428571  0.57142857  0.09999720
   0.71428571  0.71428571  0.09999720
   0.71428571  0.85714286  0.09999720
   0.85714286  0.00000000  0.09999720
   0.85714286  0.14285714  0.09999720
   0.85714286  0.28571429  0.09999720
   0.85714286  0.42857143  0.09999720
   0.85714286  0.57142857  0.09999720
   0.85714286  0.71428571  0.09999720
   0.85714286  0.85714286  0.09999720
   0.09523809  0.04761905  0.12380304
   0.09523809  0.19047619  0.12380304
   0.09523809  0.33333333  0.12380304
   0.09523809  0.47619048  0.12380304
   0.09523809  0.61904762  0.12380304
   0.09523809  0.76190476  0.12380304
   0.09523809  0.90476191  0.12380304
   0.23809524  0.04761905  0.12380304
   0.23809524  0.19047619  0.12380304
   0.23809524  0.33333333  0.12380304
   0.23809524  0.47619048  0.12380304
   0.23809524  0.61904762  0.12380304
   0.23809524  0.76190476  0.12380304
   0.23809524  0.90476191  0.12380304
   0.38095238  0.04761905  0.12380304
   0.38095238  0.19047619  0.12380304
   0.38095238  0.33333333  0.12380304
   0.38095238  0.47619048  0.12380304
   0.38095238  0.61904762  0.12380304
   0.38095238  0.76190476  0.12380304
   0.38095238  0.90476191  0.12380304
   0.52380952  0.04761905  0.12380304
   0.52380952  0.19047619  0.12380304
   0.52380952  0.33333333  0.12380304
   0.52380952  0.47619048  0.12380304
   0.52380952  0.61904762  0.12380304
   0.52380952  0.76190476  0.12380304
   0.52380952  0.90476191  0.12380304
   0.66666667  0.04761905  0.12380304
   0.66666667  0.19047619  0.12380304
   0.66666667  0.33333333  0.12380304
   0.66666667  0.47619048  0.12380304
   0.66666667  0.61904762  0.12380304
   0.66666667  0.76190476  0.12380304
   0.66666667  0.90476191  0.12380304
   0.80952381  0.04761905  0.12380304
   0.80952381  0.19047619  0.12380304
   0.80952381  0.33333333  0.12380304
   0.80952381  0.47619048  0.12380304
   0.80952381  0.61904762  0.12380304
   0.80952381  0.76190476  0.12380304
   0.80952381  0.90476191  0.12380304
   0.95238095  0.04761905  0.12380304
   0.95238095  0.19047619  0.12380304
   0.95238095  0.33333333  0.12380304
   0.95238095  0.47619048  0.12380304
   0.95238095  0.61904762  0.12380304
   0.95238095  0.76190476  0.12380304
   0.95238095  0.90476191  0.12380304
   0.04761905  0.09523809  0.10000280
   0.04761905  0.23809524  0.10000280
   0.04761905  0.38095238  0.10000280
   0.04761905  0.52380952  0.10000280
   0.04761905  0.66666667  0.10000280
   0.04761905  0.80952381  0.10000280
   0.04761905  0.95238095  0.10000280
   0.19047619  0.09523809  0.10000280
   0.19047619  0.23809524  0.10000280
   0.19047619  0.38095238  0.10000280
   0.19047619  0.52380952  0.10000280
   0.19047619  0.66666667  0.10000280
   0.19047619  0.80952381  0.10000280
   0.19047619  0.95238095  0.10000280
   0.33333333  0.09523809  0.10000280
   0.33333333  0.23809524  0.10000280
   0.33333333  0.38095238  0.10000280
   0.33333333  0.52380952  0.10000280
   0.33333333  0.66666667  0.10000280
   0.33333333  0.80952381  0.10000280
   0.33333333  0.95238095  0.10000280
   0.47619048  0.09523809  0.10000280
   0.47619048  0.23809524  0.10000280
   0.47619048  0.38095238  0.10000280
   0.47619048  0.52380952  0.10000280
   0.47619048  0.66666667  0.10000280
   0.47619048  0.80952381  0.10000280
   0.47619048  0.95238095  0.10000280
   0.61904762  0.09523809  0.10000280
   0.61904762  0.23809524  0.10000280
   0.61904762  0.38095238  0.10000280
   0.61904762  0.52380952  0.10000280
   0.61904762  0.66666667  0.10000280
   0.61904762  0.80952381  0.10000280
   0.61904762  0.95238095  0.10000280
   0.76190476  0.09523809  0.10000280
   0.76190476  0.23809524  0.10000280
   0.76190476  0.38095238  0.10000280
   0.76190476  0.52380952  0.10000280
   0.76190476  0.66666667  0.10000280
   0.76190476  0.80952381  0.10000280
   0.76190476  0.95238095  0.10000280
   0.90476191  0.09523809  0.10000280
   0.90476191  0.23809524  0.10000280
   0.90476191  0.38095238  0.10000280
   0.90476191  0.52380952  0.10000280
   0.90476191  0.66666667  0.10000280
   0.90476191  0.80952381  0.10000280
   0.90476191  0.95238095  0.10000280
   0.09523809  0.04761905  0.07619696
   0.09523809  0.19047619  0.07619696
   0.09523809  0.33333333  0.07619696
   0.09523809  0.47619048  0.07619696
   0.09523809  0.61904762  0.07619696
   0.09523809  0.76190476  0.07619696
   0.09523809  0.90476191  0.07619696
   0.23809524  0.04761905  0.07619696
   0.23809524  0.19047619  0.07619696
   0.23809524  0.33333333  0.07619696
   0.23809524  0.47619048  0.07619696
   0.23809524  0.61904762  0.07619696
   0.23809524  0.76190476  0.07619696
   0.23809524  0.90476191  0.07619696
   0.38095238  0.04761905  0.07619696
   0.38095238  0.19047619  0.07619696
   0.38095238  0.33333333  0.07619696
   0.38095238  0.47619048  0.07619696
   0.38095238  0.61904762  0.07619696
   0.38095238  0.76190476  0.07619696
   0.38095238  0.90476191  0.07619696
   0.52380952  0.04761905  0.07619696
   0.52380952  0.19047619  0.07619696
   0.52380952  0.33333333  0.07619696
   0.52380952  0.47619048  0.07619696
   0.52380952  0.61904762  0.07619696
   0.52380952  0.76190476  0.07619696
   0.52380952  0.90476191  0.07619696
   0.66666667  0.04761905  0.07619696
   0.66666667  0.19047619  0.07619696
   0.66666667  0.33333333  0.07619696
   0.66666667  0.47619048  0.07619696
   0.66666667  0.61904762  0.07619696
   0.66666667  0.76190476  0.07619696
   0.66666667  0.90476191  0.07619696
   0.80952381  0.04761905  0.07619696
   0.80952381  0.19047619  0.07619696
   0.80952381  0.33333333  0.07619696
   0.80952381  0.47619048  0.07619696
   0.80952381  0.61904762  0.07619696
   0.80952381  0.76190476  0.07619696
   0.80952381  0.90476191  0.07619696
   0.95238095  0.04761905  0.07619696
   0.95238095  0.19047619  0.07619696
   0.95238095  0.33333333  0.07619696
   0.95238095  0.47619048  0.07619696
   0.95238095  0.61904762  0.07619696
   0.95238095  0.76190476  0.07619696
   0.95238095  0.90476191  0.07619696
Direct configuration=     5
   0.00000000  0.00000000  0.09962220
   0.00000000  0.14285714  0.09999720
   0.00000000  0.28571429  0.09999720
   0.00000000  0.42857143  0.09999720
   0.00000000  0.57142857  0.09999720
   0.00000000  0.71428571  0.09999720
   0.00000000  0.85714286  0.09999720
   0.14285714  0.00000000  0.09999720
   0.14285714  0.14285714  0.09999720
   0.14285714  0.28571429  0.09999720
   0.14285714  0.42857143  0.09999720
   0.14285714  0.57142857  0.09999720
   0.14285714  0.71428571  0.09999720
   0.14285714  0.85714286  0.09999720
   0.28571429  0.00000000  0.09999720
   0.28571429  0.14285714  0.09999720
   0.28571429  0.28571429  0.09999720
   0.28571429  0.42857143  0.09999720
   0.28571429  0.57142857  0.09999720
   0.28571429  0.71428571  0.09999720
   0.28571429  0.85714286  0.09999720
   0.42857143  0.00000000  0.09999720
   0.42857143  0.14285714  0.09999720
   0.42857143  0.28571429  0.09999720
   0.42857143  0.42857143  0.09999720
   0.42857143  0.57142857  0.09999720
   0.42857143  0.71428571  0.09999720
   0.42857143  0.85714286  0.09999720
   0.57142857  0.00000000  0.09999720
   0.57142857  0.14285714  0.09999720
   0.57142857  0.28571429  0.09999720
   0.57142857  0.42857143  0.09999720
   0.57142857  0.57142857  0.09999720
   0.57142857  0.71428571  0.09999720
   0.57142857  0.85714286  0.09999720
   0.71428571  0.00000000  0.09999720
   0.71428571  0.14285714  0.09999720
   0.71428571  0.28571429  0.09999720
   0.71428571  0.42857143  0.09999720
   0.71428571  0.57142857  0.09999720
   0.71428571  0.71428571  0.09999720
   0.71428571  0.85714286  0.09999720
   0.85714286  0.00000000  0.09999720
   0.85714286  0.14285714  0.09999720
   0.85714286  0.28571429  0.09999720
   0.85714286  0.42857143  0.09999720
   0.85714286  0.57142857  0.09999720
   0.85714286  0.71428571  0.09999720
   0.85714286  0.85714286  0.09999720
   0.09523809  0.04761905  0.12380304
   0.09523809  0.19047619  0.12380304
   0.09523809  0.33333333  0.12380304
   0.09523809  0.47619048  0.12380304
   0.09523809  0.61904762  0.12380304
   0.09523809  0.76190476  0.12380304
   0.09523809  0.90476191  0.12380304
   0.23809524  0.04761905  0.12380304
   0.23809524  0.19047619  0.12380304
   0.23809524  0.33333333  0.12380304
   0.23809524  0.47619048  0.12380304
   0.23809524  0.61904762  0.12380304
   0.23809524  0.76190476  0.12380304
   0.23809524  0.90476191  0.12380304
   0.38095238  0.04761905  0.12380304
   0.38095238  0.19047619  0.12380304
   0.38095238  0.33333333  0.12380304
   0.38095238  0.47619048  0.12380304
   0.38095238  0.61904762  0.12380304
   0.38095238  0.76190476  0.12380304
   0.38095238  0.90476191  0.12380304
   0.52380952  0.04761905  0.12380304
   0.52380952  0.19047619  0.12380304
   0.52380952  0.33333333  0.12380304
   0.52380952  0.47619048  0.12380304
   0.52380952  0.61904762  0.12380304
   0.52380952  0.76190476  0.12380304
   0.52380952  0.90476191  0.12380304
   0.66666667  0.04761905  0.12380304
   0.66666667  0.19047619  0.12380304
   0.66666667  0.33333333  0.12380304
   0.66666667  0.47619048  0.12380304
   0.66666667  0.61904762  0.12380304
   0.66666667  0.76190476  0.12380304
   0.66666667  0.90476191  0.12380304
   0.80952381  0.04761905  0.12380304
   0.80952381  0.19047619  0.12380304
   0.80952381  0.33333333  0.12380304
   0.80952381  0.47619048  0.12380304
   0.80952381  0.61904762  0.12380304
   0.80952381  0.76190476  0.12380304
   0.80952381  0.90476191  0.12380304
   0.95238095  0.04761905  0.12380304
   0.95238095  0.19047619  0.12380304
   0.95238095  0.33333333  0.12380304
   0.95238095  0.47619048  0.12380304
   0.95238095  0.61904762  0.12380304
   0.95238095  0.76190476  0.12380304
   0.95238095  0.90476191  0.12380304
   0.04761905  0.09523809  0.10000280
   0.04761905  0.23809524  0.10000280
   0.04761905  0.38095238  0.10000280
   0.04761905  0.52380952  0.10000280
   0.04761905  0.66666667  0.10000280
   0.04761905  0.80952381  0.10000280
   0.04761905  0.95238095  0.10000280
   0.19047619  0.09523809  0.10000280
   0.19047619  0.23809524  0.10000280
   0.19047619  0.38095238  0.10000280
   0.19047619  0.52380952  0.10000280
   0.19047619  0.66666667  0.10000280
   0.19047619  0.80952381  0.10000280
   0.19047619  0.95238095  0.10000280
   0.33333333  0.09523809  0.10000280
   0.33333333  0.23809524  0.10000280
   0.33333333  0.38095238  0.10000280
   0.33333333  0.52380952  0.10000280
   0.33333333  0.66666667  0.10000280
   0.33333333  0.80952381  0.10000280
   0.33333333  0.95238095  0.10000280
   0.47619048  0.09523809  0.10000280
   0.47619048  0.23809524  0.10000280
   0.47619048  0.38095238  0.10000280
   0.47619048  0.52380952  0.10000280
   0.47619048  0.66666667  0.10000280
   0.47619048  0.80952381  0.10000280
   0.47619048  0.95238095  0.10000280
   0.61904762  0.09523809  0.10000280
   0.61904762  0.23809524  0.10000280
   0.61904762  0.38095238  0.10000280
   0.61904762  0.52380952  0.10000280
   0.61904762  0.66666667  0.10000280
   0.61904762  0.80952381  0.10000280
   0.61904762  0.95238095  0.10000280
   0.76190476  0.09523809  0.10000280
   0.76190476  0.23809524  0.10000280
   0.76190476  0.38095238  0.10000280
   0.76190476  0.52380952  0.10000280
   0.76190476  0.66666667  0.10000280
   0.76190476  0.80952381  0.10000280
   0.76190476  0.95238095  0.10000280
   0.90476191  0.09523809  0.10000280
   0.90476191  0.23809524  0.10000280
   0.90476191  0.38095238  0.10000280
   0.90476191  0.52380952  0.10000280
   0.90476191  0.66666667  0.10000280
   0.90476191  0.80952381  0.10000280
   0.90476191  0.95238095  0.10000280
   0.09523809  0.04761905  0.07619696
   0.09523809  0.19047619  0.07619696
   0.09523809  0.33333333  0.07619696
   0.09523809  0.47619048  0.07619696
   0.09523809  0.61904762  0.07619696
   0.09523809  0.76190476  0.07619696
   0.09523809  0.90476191  0.07619696
   0.23809524  0.04761905  0.07619696
   0.23809524  0.19047619  0.07619696
   0.23809524  0.33333333  0.07619696
   0.23809524  0.47619048  0.07619696
   0.23809524  0.61904762  0.07619696
   0.23809524  0.76190476  0.07619696
   0.23809524  0.90476191  0.07619696
   0.38095238  0.04761905  0.07619696
   0.38095238  0.19047619  0.07619696
   0.38095238  0.33333333  0.07619696
   0.38095238  0.47619048  0.07619696
   0.38095238  0.61904762  0.07619696
   0.38095238  0.76190476  0.07619696
   0.38095238  0.90476191  0.07619696
   0.52380952  0.04761905  0.07619696
   0.52380952  0.19047619  0.07619696
   0.52380952  0.33333333  0.07619696
   0.52380952  0.47619048  0.07619696
   0.52380952  0.61904762  0.07619696
   0.52380952  0.76190476  0.07619696
   0.52380952  0.90476191  0.07619696
   0.66666667  0.04761905  0.07619696
   0.66666667  0.19047619  0.07619696
   0.66666667  0.33333333  0.07619696
   0.66666667  0.47619048  0.07619696
   0.66666667  0.61904762  0.07619696
   0.66666667  0.76190476  0.07619696
   0.66666667  0.90476191  0.07619696
   0.80952381  0.04761905  0.07619696
   0.80952381  0.19047619  0.07619696
   0.80952381  0.33333333  0.07619696
   0.80952381  0.47619048  0.07619696
   0.80952381  0.61904762  0.07619696
   0.80952381  0.76190476  0.07619696
   0.80952381  0.90476191  0.07619696
   0.95238095  0.04761905  0.07619696
   0.95238095  0.19047619  0.07619696
   0.95238095  0.33333333  0.07619696
   0.95238095  0.47619048  0.07619696
   0.95238095  0.61904762  0.07619696
   0.95238095  0.76190476  0.07619696
   0.95238095  0.90476191  0.07619696
Direct configuration=     6
   0.00000000  0.00000000  0.09999720
   0.00000000  0.14285714  0.09999720
   0.00000000  0.28571429  0.09999720
   0.00000000  0.42857143  0.09999720
   0.00000000  0.57142857  0.09999720
   0.00000000  0.71428571  0.09999720
   0.00000000  0.85714286  0.09999720
   0.14285714  0.00000000  0.09999720
   0.14285714  0.14285714  0.09999720
   0.14285714  0.28571429  0.09999720
   0.14285714  0.42857143  0.09999720
   0.14285714  0.57142857  0.09999720
   0.14285714  0.71428571  0.09999720
   0.14285714  0.85714286  0.09999720
   0.28571429  0.00000000  0.09999720
   0.28571429  0.14285714  0.09999720
   0.28571429  0.28571429  0.09999720
   0.28571429  0.42857143  0.09999720
   0.28571429  0.57142857  0.09999720
   0.28571429  0.71428571  0.09999720
   0.28571429  0.85714286  0.09999720
   0.42857143  0.00000000  0.09999720
   0.42857143  0.14285714  0.09999720
   0.42857143  0.28571429  0.09999720
   0.42857143  0.42857143  0.09999720
   0.42857143  0.57142857  0.09999720
   0.42857143  0.71428571  0.09999720
   0.42857143  0.85714286  0.09999720
   0.57142857  0.00000000  0.09999720
   0.57142857  0.14285714  0.09999720
   0.57142857  0.28571429  0.09999720
   0.57142857  0.42857143  0.09999720
   0.57142857  0.57142857  0.09999720
   0.57142857  0.71428571  0.09999720
   0.57142857  0.85714286  0.09999720
   0.71428571  0.00000000  0.09999720
   0.71428571  0.14285714  0.09999720
   0.71428571  0.28571429  0.09999720
   0.71428571  0.42857143  0.09999720
   0.71428571  0.57142857  0.09999720
   0.71428571  0.71428571  0.09999720
   0.71428571  0.85714286  0.09999720
   0.85714286  0.00000000  0.09999720
   0.85714286  0.14285714  0.09999720
   0.85714286  0.28571429  0.09999720
   0.85714286  0.42857143  0.09999720
   0.85714286  0.57142857  0.09999720
   0.85714286  0.71428571  0.09999720
   0.85714286  0.85714286  0.09999720
   0.09559594  0.04726120  0.12380304
   0.09523809  0.19047619  0.12380304
   0.09523809  0.33333333  0.12380304
   0.09523809  0.47619048  0.12380304
   0.09523809  0.61904762  0.12380304
   0.09523809  0.76190476  0.12380304
   0.09523809  0.90476191  0.12380304
   0.23809524  0.04761905  0.12380304
   0.23809524  0.19047619  0.12380304
   0.23809524  0.33333333  0.12380304
   0.23809524  0.47619048  0.12380304
   0.23809524  0.61904762  0.12380304
   0.23809524  0.76190476  0.12380304
   0.23809524  0.90476191  0.12380304
   0.38095238  0.04761905  0.12380304
   0.38095238  0.19047619  0.12380304
   0.38095238  0.33333333  0.12380304
   0.38095238  0.47619048  0.12380304
   0.38095238  0.61904762  0.12380304
   0.38095238  0.76190476  0.12380304
   0.38095238  0.90476191  0.12380304
   0.52380952  0.04761905  0.12380304
   0.52380952  0.19047619  0.12380304
   0.52380952  0.33333333  0.12380304
   0.52380952  0.47619048  0.12380304
   0.52380952  0.61904762  0.12380304
   0.52380952  0.76190476  0.12380304
   0.52380952  0.90476191  0.12380304
   0.66666667  0.04761905  0.12380304
   0.66666667  0.19047619  0.12380304
   0.66666667  0.33333333  0.12380304
   0.66666667  0.47619048  0.12380304
   0.66666667  0.61904762  0.12380304
   0.66666667  0.76190476  0.12380304
   0.66666667  0.90476191  0.12380304
   0.80952381  0.04761905  0.12380304
   0.80952381  0.19047619  0.12380304
   0.80952381  0.33333333  0.12380304
   0.80952381  0.47619048  0.12380304
   0.80952381  0.61904762  0.12380304
   0.80952381  0.76190476  0.12380304
   0.80952381  0.90476191  0.12380304
   0.95238095  0.04761905  0.12380304
   0.95238095  0.19047619  0.12380304
   0.95238095  0.33333333  0.12380304
   0.95238095  0.47619048  0.12380304
   0.95238095  0.61904762  0.12380304
   0.95238095  0.76190476  0.12380304
   0.95238095  0.90476191  0.12380304
   0.04761905  0.09523809  0.10000280
   0.04761905  0.23809524  0.10000280
   0.04761905  0.38095238  0.10000280
   0.04761905  0.52380952  0.10000280
   0.04761905  0.66666667  0.10000280
   0.04761905  0.80952381  0.10000280
   0.04761905  0.95238095  0.10000280
   0.19047619  0.09523809  0.10000280
   0.19047619  0.23809524  0.10000280
   0.19047619  0.38095238  0.10000280
   0.19047619  0.52380952  0.10000280
   0.19047619  0.66666667  0.10000280
   0.19047619  0.80952381  0.10000280
   0.19047619  0.95238095  0.10000280
   0.33333333  0.09523809  0.10000280
   0.33333333  0.23809524  0.10000280
   0.33333333  0.38095238  0.10000280
   0.33333333  0.52380952  0.10000280
   0.33333333  0.66666667  0.10000280
   0.33333333  0.80952381  0.10000280
   0.33333333  0.95238095  0.10000280
   0.47619048  0.09523809  0.10000280
   0.47619048  0.23809524  0.10000280
   0.47619048  0.38095238  0.10000280
   0.47619048  0.52380952  0.10000280
   0.47619048  0.66666667  0.10000280
   0.47619048  0.80952381  0.10000280
   0.47619048  0.95238095  0.10000280
   0.61904762  0.09523809  0.10000280
   0.61904762  0.23809524  0.10000280
   0.61904762  0.38095238  0.10000280
   0.61904762  0.52380952  0.10000280
   0.61904762  0.66666667  0.10000280
   0.61904762  0.80952381  0.10000280
   0.61904762  0.95238095  0.10000280
   0.76190476  0.09523809  0.10000280
   0.76190476  0.23809524  0.10000280
   0.76190476  0.38095238  0.10000280
   0.76190476  0.52380952  0.10000280
   0.76190476  0.66666667  0.10000280
   0.76190476  0.80952381  0.10000280
   0.76190476  0.95238095  0.10000280
   0.90476191  0.09523809  0.10000280
   0.90476191  0.23809524  0.10000280
   0.90476191  0.38095238  0.10000280
   0.90476191  0.52380952  0.10000280
   0.90476191  0.66666667  0.10000280
   0.90476191  0.80952381  0.10000280
   0.90476191  0.95238095  0.10000280
   0.09523809  0.04761905  0.07619696
   0.09523809  0.19047619  0.07619696
   0.09523809  0.33333333  0.07619696
   0.09523809  0.47619048  0.07619696
   0.09523809  0.61904762  0.07619696
   0.09523809  0.76190476  0.07619696
   0.09523809  0.90476191  0.07619696
   0.23809524  0.04761905  0.07619696
   0.23809524  0.19047619  0.07619696
   0.23809524  0.33333333  0.07619696
   0.23809524  0.47619048  0.07619696
   0.23809524  0.61904762  0.07619696
   0.23809524  0.76190476  0.07619696
   0.23809524  0.90476191  0.07619696
   0.38095238  0.04761905  0.07619696
   0.38095238  0.19047619  0.07619696
   0.38095238  0.33333333  0.07619696
   0.38095238  0.47619048  0.07619696
   0.38095238  0.61904762  0.07619696
   0.38095238  0.76190476  0.07619696
   0.38095238  0.90476191  0.07619696
   0.52380952  0.04761905  0.07619696
   0.52380952  0.19047619  0.07619696
   0.52380952  0.33333333  0.07619696
   0.52380952  0.47619048  0.07619696
   0.52380952  0.61904762  0.07619696
   0.52380952  0.76190476  0.07619696
   0.52380952  0.90476191  0.07619696
   0.66666667  0.04761905  0.07619696
   0.66666667  0.19047619  0.07619696
   0.66666667  0.33333333  0.07619696
   0.66666667  0.47619048  0.07619696
   0.66666667  0.61904762  0.07619696
   0.66666667  0.76190476  0.07619696
   0.66666667  0.90476191  0.07619696
   0.80952381  0.04761905  0.07619696
   0.80952381  0.19047619  0.07619696
   0.80952381  0.33333333  0.07619696
   0.80952381  0.47619048  0.07619696
   0.80952381  0.61904762  0.07619696
   0.80952381  0.76190476  0.07619696
   0.80952381  0.90476191  0.07619696
   0.95238095  0.04761905  0.07619696
   0.95238095  0.19047619  0.07619696
   0.95238095  0.33333333  0.07619696
   0.95238095  0.47619048  0.07619696
   0.95238095  0.61904762  0.07619696
   0.95238095  0.76190476  0.07619696
   0.95238095  0.90476191  0.07619696
Direct configuration=     7
   0.00000000  0.00000000  0.09999720
   0.00000000  0.14285714  0.09999720
   0.00000000  0.28571429  0.09999720
   0.00000000  0.42857143  0.09999720
   0.00000000  0.57142857  0.09999720
   0.00000000  0.71428571  0.09999720
   0.00000000  0.85714286  0.09999720
   0.14285714  0.00000000  0.09999720
   0.14285714  0.14285714  0.09999720
   0.14285714  0.28571429  0.09999720
   0.14285714  0.42857143  0.09999720
   0.14285714  0.57142857  0.09999720
   0.14285714  0.71428571  0.09999720
   0.14285714  0.85714286  0.09999720
   0.28571429  0.00000000  0.09999720
   0.28571429  0.14285714  0.09999720
   0.28571429  0.28571429  0.09999720
   0.28571429  0.42857143  0.09999720
   0.28571429  0.57142857  0.09999720
   0.28571429  0.71428571  0.09999720
   0.28571429  0.85714286  0.09999720
   0.42857143  0.00000000  0.09999720
   0.42857143  0.14285714  0.09999720
   0.42857143  0.28571429  0.09999720
   0.42857143  0.42857143  0.09999720
   0.42857143  0.57142857  0.09999720
   0.42857143  0.71428571  0.09999720
   0.42857143  0.85714286  0.09999720
   0.57142857  0.00000000  0.09999720
   0.57142857  0.14285714  0.09999720
   0.57142857  0.28571429  0.09999720
   0.57142857  0.42857143  0.09999720
   0.57142857  0.57142857  0.09999720
   0.57142857  0.71428571  0.09999720
   0.57142857  0.85714286  0.09999720
   0.71428571  0.00000000  0.09999720
   0.71428571  0.14285714  0.09999720
   0.71428571  0.28571429  0.09999720
   0.71428571  0.42857143  0.09999720
   0.71428571  0.57142857  0.09999720
   0.71428571  0.71428571  0.09999720
   0.71428571  0.85714286  0.09999720
   0.85714286  0.00000000  0.09999720
   0.85714286  0.14285714  0.09999720
   0.85714286  0.28571429  0.09999720
   0.85714286  0.42857143  0.09999720
   0.85714286  0.57142857  0.09999720
   0.85714286  0.71428571  0.09999720
   0.85714286  0.85714286  0.09999720
   0.09488025  0.04797690  0.12380304
   0.09523809  0.19047619  0.12380304
   0.09523809  0.33333333  0.12380304
   0.09523809  0.47619048  0.12380304
   0.09523809  0.61904762  0.12380304
   0.09523809  0.76190476  0.12380304
   0.09523809  0.90476191  0.12380304
   0.23809524  0.04761905  0.12380304
   0.23809524  0.19047619  0.12380304
   0.23809524  0.33333333  0.12380304
   0.23809524  0.47619048  0.12380304
   0.23809524  0.61904762  0.12380304
   0.23809524  0.76190476  0.12380304
   0.23809524  0.90476191  0.12380304
   0.38095238  0.04761905  0.12380304
   0.38095238  0.19047619  0.12380304
   0.38095238  0.33333333  0.12380304
   0.38095238  0.47619048  0.12380304
   0.38095238  0.61904762  0.12380304
   0.38095238  0.76190476  0.12380304
   0.38095238  0.90476191  0.12380304
   0.52380952  0.04761905  0.12380304
   0.52380952  0.19047619  0.12380304
   0.52380952  0.33333333  0.12380304
   0.52380952  0.47619048  0.12380304
   0.52380952  0.61904762  0.12380304
   0.52380952  0.76190476  0.12380304
   0.52380952  0.90476191  0.12380304
   0.66666667  0.04761905  0.12380304
   0.66666667  0.19047619  0.12380304
   0.66666667  0.33333333  0.12380304
   0.66666667  0.47619048  0.12380304
   0.66666667  0.61904762  0.12380304
   0.66666667  0.76190476  0.12380304
   0.66666667  0.90476191  0.12380304
   0.80952381  0.04761905  0.12380304
   0.80952381  0.19047619  0.12380304
   0.80952381  0.33333333  0.12380304
   0.80952381  0.47619048  0.12380304
   0.80952381  0.61904762  0.12380304
   0.80952381  0.76190476  0.12380304
   0.80952381  0.90476191  0.12380304
   0.95238095  0.04761905  0.12380304
   0.95238095  0.19047619  0.12380304
   0.95238095  0.33333333  0.12380304
   0.95238095  0.47619048  0.12380304
   0.95238095  0.61904762  0.12380304
   0.95238095  0.76190476  0.12380304
   0.95238095  0.90476191  0.12380304
   0.04761905  0.09523809  0.10000280
   0.04761905  0.23809524  0.10000280
   0.04761905  0.38095238  0.10000280
   0.04761905  0.52380952  0.10000280
   0.04761905  0.66666667  0.10000280
   0.04761905  0.80952381  0.10000280
   0.04761905  0.95238095  0.10000280
   0.19047619  0.09523809  0.10000280
   0.19047619  0.23809524  0.10000280
   0.19047619  0.38095238  0.10000280
   0.19047619  0.52380952  0.10000280
   0.19047619  0.66666667  0.10000280
   0.19047619  0.80952381  0.10000280
   0.19047619  0.95238095  0.10000280
   0.33333333  0.09523809  0.10000280
   0.33333333  0.23809524  0.10000280
   0.33333333  0.38095238  0.10000280
   0.33333333  0.52380952  0.10000280
   0.33333333  0.66666667  0.10000280
   0.33333333  0.80952381  0.10000280
   0.33333333  0.95238095  0.10000280
   0.47619048  0.09523809  0.10000280
   0.47619048  0.23809524  0.10000280
   0.47619048  0.38095238  0.10000280
   0.47619048  0.52380952  0.10000280
   0.47619048  0.66666667  0.10000280
   0.47619048  0.80952381  0.10000280
   0.47619048  0.95238095  0.10000280
   0.61904762  0.09523809  0.10000280
   0.61904762  0.23809524  0.10000280
   0.61904762  0.38095238  0.10000280
   0.61904762  0.52380952  0.10000280
   0.61904762  0.66666667  0.10000280
   0.61904762  0.80952381  0.10000280
   0.61904762  0.95238095  0.10000280
   0.76190476  0.09523809  0.10000280
   0.76190476  0.23809524  0.10000280
   0.76190476  0.38095238  0.10000280
   0.76190476  0.52380952  0.10000280
   0.76190476  0.66666667  0.10000280
   0.76190476  0.80952381  0.10000280
   0.76190476  0.95238095  0.10000280
   0.90476191  0.09523809  0.10000280
   0.90476191  0.23809524  0.10000280
   0.90476191  0.38095238  0.10000280
   0.90476191  0.52380952  0.10000280
   0.90476191  0.66666667  0.10000280
   0.90476191  0.80952381  0.10000280
   0.90476191  0.95238095  0.10000280
   0.09523809  0.04761905  0.07619696
   0.09523809  0.19047619  0.07619696
   0.09523809  0.33333333  0.07619696
   0.09523809  0.47619048  0.07619696
   0.09523809  0.61904762  0.07619696
   0.09523809  0.76190476  0.07619696
   0.09523809  0.90476191  0.07619696
   0.23809524  0.04761905  0.07619696
   0.23809524  0.19047619  0.07619696
   0.23809524  0.33333333  0.07619696
   0.23809524  0.47619048  0.07619696
   0.23809524  0.61904762  0.07619696
   0.23809524  0.76190476  0.07619696
   0.23809524  0.90476191  0.07619696
   0.38095238  0.04761905  0.07619696
   0.38095238  0.19047619  0.07619696
   0.38095238  0.33333333  0.07619696
   0.38095238  0.47619048  0.07619696
   0.38095238  0.61904762  0.07619696
   0.38095238  0.76190476  0.07619696
   0.38095238  0.90476191  0.07619696
   0.52380952  0.04761905  0.07619696
   0.52380952  0.19047619  0.07619696
   0.52380952  0.33333333  0.07619696
   0.52380952  0.47619048  0.07619696
   0.52380952  0.61904762  0.07619696
   0.52380952  0.76190476  0.07619696
   0.52380952  0.90476191  0.07619696
   0.66666667  0.04761905  0.07619696
   0.66666667  0.19047619  0.07619696
   0.66666667  0.33333333  0.07619696
   0.66666667  0.47619048  0.07619696
   0.66666667  0.61904762  0.07619696
   0.66666667  0.76190476  0.07619696
   0.66666667  0.90476191  0.07619696
   0.80952381  0.04761905  0.07619696
   0.80952381  0.19047619  0.07619696
   0.80952381  0.33333333  0.07619696
   0.80952381  0.47619048  0.07619696
   0.80952381  0.61904762  0.07619696
   0.80952381  0.76190476  0.07619696
   0.80952381  0.90476191  0.07619696
   0.95238095  0.04761905  0.07619696
   0.95238095  0.19047619  0.07619696
   0.95238095  0.33333333  0.07619696
   0.95238095  0.47619048  0.07619696
   0.95238095  0.61904762  0.07619696
   0.95238095  0.76190476  0.07619696
   0.95238095  0.90476191  0.07619696
Direct configuration=     8
   0.00000000  0.00000000  0.09999720
   0.00000000  0.14285714  0.09999720
   0.00000000  0.28571429  0.09999720
   0.00000000  0.42857143  0.09999720
   0.00000000  0.57142857  0.09999720
   0.00000000  0.71428571  0.09999720
   0.00000000  0.85714286  0.09999720
   0.14285714  0.00000000  0.09999720
   0.14285714  0.14285714  0.09999720
   0.14285714  0.28571429  0.09999720
   0.14285714  0.42857143  0.09999720
   0.14285714  0.57142857  0.09999720
   0.14285714  0.71428571  0.09999720
   0.14285714  0.85714286  0.09999720
   0.28571429  0.00000000  0.09999720
   0.28571429  0.14285714  0.09999720
   0.28571429  0.28571429  0.09999720
   0.28571429  0.42857143  0.09999720
   0.28571429  0.57142857  0.09999720
   0.28571429  0.71428571  0.09999720
   0.28571429  0.85714286  0.09999720
   0.42857143  0.00000000  0.09999720
   0.42857143  0.14285714  0.09999720
   0.42857143  0.28571429  0.09999720
   0.42857143  0.42857143  0.09999720
   0.42857143  0.57142857  0.09999720
   0.42857143  0.71428571  0.09999720
   0.42857143  0.85714286  0.09999720
   0.57142857  0.00000000  0.09999720
   0.57142857  0.14285714  0.09999720
   0.57142857  0.28571429  0.09999720
   0.57142857  0.42857143  0.09999720
   0.57142857  0.57142857  0.09999720
   0.57142857  0.71428571  0.09999720
   0.57142857  0.85714286  0.09999720
   0.71428571  0.00000000  0.09999720
   0.71428571  0.14285714  0.09999720
   0.71428571  0.28571429  0.09999720
   0.71428571  0.42857143  0.09999720
   0.71428571  0.57142857  0.09999720
   0.71428571  0.71428571  0.09999720
   0.71428571  0.85714286  0.09999720
   0.85714286  0.00000000  0.09999720
   0.85714286  0.14285714  0.09999720
   0.85714286  0.28571429  0.09999720
   0.85714286  0.42857143  0.09999720
   0.85714286  0.57142857  0.09999720
   0.85714286  0.71428571  0.09999720
   0.85714286  0.85714286  0.09999720
   0.09523809  0.04761905  0.12417804
   0.09523809  0.19047619  0.12380304
   0.09523809  0.33333333  0.12380304
   0.09523809  0.47619048  0.12380304
   0.09523809  0.61904762  0.12380304
   0.09523809  0.76190476  0.12380304
   0.09523809  0.90476191  0.12380304
   0.23809524  0.04761905  0.12380304
   0.23809524  0.19047619  0.12380304
   0.23809524  0.33333333  0.12380304
   0.23809524  0.47619048  0.12380304
   0.23809524  0.61904762  0.12380304
   0.23809524  0.76190476  0.12380304
   0.23809524  0.90476191  0.12380304
   0.38095238  0.04761905  0.12380304
   0.38095238  0.19047619  0.12380304
   0.38095238  0.33333333  0.12380304
   0.38095238  0.47619048  0.12380304
   0.38095238  0.61904762  0.12380304
   0.38095238  0.76190476  0.12380304
   0.38095238  0.90476191  0.12380304
   0.52380952  0.04761905  0.12380304
   0.52380952  0.19047619  0.12380304
   0.52380952  0.33333333  0.12380304
   0.52380952  0.47619048  0.12380304
   0.52380952  0.61904762  0.12380304
   0.52380952  0.76190476  0.12380304
   0.52380952  0.90476191  0.12380304
   0.66666667  0.04761905  0.12380304
   0.66666667  0.19047619  0.12380304
   0.66666667  0.33333333  0.12380304
   0.66666667  0.47619048  0.12380304
   0.66666667  0.61904762  0.12380304
   0.66666667  0.76190476  0.12380304
   0.66666667  0.90476191  0.12380304
   0.80952381  0.04761905  0.12380304
   0.80952381  0.19047619  0.12380304
   0.80952381  0.33333333  0.12380304
   0.80952381  0.47619048  0.12380304
   0.80952381  0.61904762  0.12380304
   0.80952381  0.76190476  0.12380304
   0.80952381  0.90476191  0.12380304
   0.95238095  0.04761905  0.12380304
   0.95238095  0.19047619  0.12380304
   0.95238095  0.33333333  0.12380304
   0.95238095  0.47619048  0.12380304
   0.95238095  0.61904762  0.12380304
   0.95238095  0.76190476  0.12380304
   0.95238095  0.90476191  0.12380304
   0.04761905  0.09523809  0.10000280
   0.04761905  0.23809524  0.10000280
   0.04761905  0.38095238  0.10000280
   0.04761905  0.52380952  0.10000280
   0.04761905  0.66666667  0.10000280
   0.04761905  0.80952381  0.10000280
   0.04761905  0.95238095  0.10000280
   0.19047619  0.09523809  0.10000280
   0.19047619  0.23809524  0.10000280
   0.19047619  0.38095238  0.10000280
   0.19047619  0.52380952  0.10000280
   0.19047619  0.66666667  0.10000280
   0.19047619  0.80952381  0.10000280
   0.19047619  0.95238095  0.10000280
   0.33333333  0.09523809  0.10000280
   0.33333333  0.23809524  0.10000280
   0.33333333  0.38095238  0.10000280
   0.33333333  0.52380952  0.10000280
   0.33333333  0.66666667  0.10000280
   0.33333333  0.80952381  0.10000280
   0.33333333  0.95238095  0.10000280
   0.47619048  0.09523809  0.10000280
   0.47619048  0.23809524  0.10000280
   0.47619048  0.38095238  0.10000280
   0.47619048  0.52380952  0.10000280
   0.47619048  0.66666667  0.10000280
   0.47619048  0.80952381  0.10000280
   0.47619048  0.95238095  0.10000280
   0.61904762  0.09523809  0.10000280
   0.61904762  0.23809524  0.10000280
   0.61904762  0.38095238  0.10000280
   0.61904762  0.52380952  0.10000280
   0.61904762  0.66666667  0.10000280
   0.61904762  0.80952381  0.10000280
   0.61904762  0.95238095  0.10000280
   0.76190476  0.09523809  0.10000280
   0.76190476  0.23809524  0.10000280
   0.76190476  0.38095238  0.10000280
   0.76190476  0.52380952  0.10000280
   0.76190476  0.66666667  0.10000280
   0.76190476  0.80952381  0.10000280
   0.76190476  0.95238095  0.10000280
   0.90476191  0.09523809  0.10000280
   0.90476191  0.23809524  0.10000280
   0.90476191  0.38095238  0.10000280
   0.90476191  0.52380952  0.10000280
   0.90476191  0.66666667  0.10000280
   0.90476191  0.80952381  0.10000280
   0.90476191  0.95238095  0.10000280
   0.09523809  0.04761905  0.07619696
   0.09523809  0.19047619  0.07619696
   0.09523809  0.33333333  0.07619696
   0.09523809  0.47619048  0.07619696
   0.09523809  0.61904762  0.07619696
   0.09523809  0.76190476  0.07619696
   0.09523809  0.90476191  0.07619696
   0.23809524  0.04761905  0.07619696
   0.23809524  0.19047619  0.07619696
   0.23809524  0.33333333  0.07619696
   0.23809524  0.47619048  0.07619696
   0.23809524  0.61904762  0.07619696
   0.23809524  0.76190476  0.07619696
   0.23809524  0.90476191  0.07619696
   0.38095238  0.04761905  0.07619696
   0.38095238  0.19047619  0.07619696
   0.38095238  0.33333333  0.07619696
   0.38095238  0.47619048  0.07619696
   0.38095238  0.61904762  0.07619696
   0.38095238  0.76190476  0.07619696
   0.38095238  0.90476191  0.07619696
   0.52380952  0.04761905  0.07619696
   0.52380952  0.19047619  0.07619696
   0.52380952  0.33333333  0.07619696
   0.52380952  0.47619048  0.07619696
   0.52380952  0.61904762  0.07619696
   0.52380952  0.76190476  0.07619696
   0.52380952  0.90476191  0.07619696
   0.66666667  0.04761905  0.07619696
   0.66666667  0.19047619  0.07619696
   0.66666667  0.33333333  0.07619696
   0.66666667  0.47619048  0.07619696
   0.66666667  0.61904762  0.07619696
   0.66666667  0.76190476  0.07619696
   0.66666667  0.90476191  0.07619696
   0.80952381  0.04761905  0.07619696
   0.80952381  0.19047619  0.07619696
   0.80952381  0.33333333  0.07619696
   0.80952381  0.47619048  0.07619696
   0.80952381  0.61904762  0.07619696
   0.80952381  0.76190476  0.07619696
   0.80952381  0.90476191  0.07619696
   0.95238095  0.04761905  0.07619696
   0.95238095  0.19047619  0.07619696
   0.95238095  0.33333333  0.07619696
   0.95238095  0.47619048  0.07619696
   0.95238095  0.61904762  0.07619696
   0.95238095  0.76190476  0.07619696
   0.95238095  0.90476191  0.07619696
Direct configuration=     9
   0.00000000  0.00000000  0.09999720
   0.00000000  0.14285714  0.09999720
   0.00000000  0.28571429  0.09999720
   0.00000000  0.42857143  0.09999720
   0.00000000  0.57142857  0.09999720
   0.00000000  0.71428571  0.09999720
   0.00000000  0.85714286  0.09999720
   0.14285714  0.00000000  0.09999720
   0.14285714  0.14285714  0.09999720
   0.14285714  0.28571429  0.09999720
   0.14285714  0.42857143  0.09999720
   0.14285714  0.57142857  0.09999720
   0.14285714  0.71428571  0.09999720
   0.14285714  0.85714286  0.09999720
   0.28571429  0.00000000  0.09999720
   0.28571429  0.14285714  0.09999720
   0.28571429  0.28571429  0.09999720
   0.28571429  0.42857143  0.09999720
   0.28571429  0.57142857  0.09999720
   0.28571429  0.71428571  0.09999720
   0.28571429  0.85714286  0.09999720
   0.42857143  0.00000000  0.09999720
   0.42857143  0.14285714  0.09999720
   0.42857143  0.28571429  0.09999720
   0.42857143  0.42857143  0.09999720
   0.42857143  0.57142857  0.09999720
   0.42857143  0.71428571  0.09999720
   0.42857143  0.85714286  0.09999720
   0.57142857  0.00000000  0.09999720
   0.57142857  0.14285714  0.09999720
   0.57142857  0.28571429  0.09999720
   0.57142857  0.42857143  0.09999720
   0.57142857  0.57142857  0.09999720
   0.57142857  0.71428571  0.09999720
   0.57142857  0.85714286  0.09999720
   0.71428571  0.00000000  0.09999720
   0.71428571  0.14285714  0.09999720
   0.71428571  0.28571429  0.09999720
   0.71428571  0.42857143  0.09999720
   0.71428571  0.57142857  0.09999720
   0.71428571  0.71428571  0.09999720
   0.71428571  0.85714286  0.09999720
   0.85714286  0.00000000  0.09999720
   0.85714286  0.14285714  0.09999720
   0.85714286  0.28571429  0.09999720
   0.85714286  0.42857143  0.09999720
   0.85714286  0.57142857  0.09999720
   0.85714286  0.71428571  0.09999720
   0.85714286  0.85714286  0.09999720
   0.09523809  0.04761905  0.12342804
   0.09523809  0.19047619  0.12380304
   0.09523809  0.33333333  0.12380304
   0.09523809  0.47619048  0.12380304
   0.09523809  0.61904762  0.12380304
   0.09523809  0.76190476  0.12380304
   0.09523809  0.90476191  0.12380304
   0.23809524  0.04761905  0.12380304
   0.23809524  0.19047619  0.12380304
   0.23809524  0.33333333  0.12380304
   0.23809524  0.47619048  0.12380304
   0.23809524  0.61904762  0.12380304
   0.23809524  0.76190476  0.12380304
   0.23809524  0.90476191  0.12380304
   0.38095238  0.04761905  0.12380304
   0.38095238  0.19047619  0.12380304
   0.38095238  0.33333333  0.12380304
   0.38095238  0.47619048  0.12380304
   0.38095238  0.61904762  0.12380304
   0.38095238  0.76190476  0.12380304
   0.38095238  0.90476191  0.12380304
   0.52380952  0.04761905  0.12380304
   0.52380952  0.19047619  0.12380304
   0.52380952  0.33333333  0.12380304
   0.52380952  0.47619048  0.12380304
   0.52380952  0.61904762  0.12380304
   0.52380952  0.76190476  0.12380304
   0.52380952  0.90476191  0.12380304
   0.66666667  0.04761905  0.12380304
   0.66666667  0.19047619  0.12380304
   0.66666667  0.33333333  0.12380304
   0.66666667  0.47619048  0.12380304
   0.66666667  0.61904762  0.12380304
   0.66666667  0.76190476  0.12380304
   0.66666667  0.90476191  0.12380304
   0.80952381  0.04761905  0.12380304
   0.80952381  0.19047619  0.12380304
   0.80952381  0.33333333  0.12380304
   0.80952381  0.47619048  0.12380304
   0.80952381  0.61904762  0.12380304
   0.80952381  0.76190476  0.12380304
   0.80952381  0.90476191  0.12380304
   0.95238095  0.04761905  0.12380304
   0.95238095  0.19047619  0.12380304
   0.95238095  0.33333333  0.12380304
   0.95238095  0.47619048  0.12380304
   0.95238095  0.61904762  0.12380304
   0.95238095  0.76190476  0.12380304
   0.95238095  0.90476191  0.12380304
   0.04761905  0.09523809  0.10000280
   0.04761905  0.23809524  0.10000280
   0.04761905  0.38095238  0.10000280
   0.04761905  0.52380952  0.10000280
   0.04761905  0.66666667  0.10000280
   0.04761905  0.80952381  0.10000280
   0.04761905  0.95238095  0.10000280
   0.19047619  0.09523809  0.10000280
   0.19047619  0.23809524  0.10000280
   0.19047619  0.38095238  0.10000280
   0.19047619  0.52380952  0.10000280
   0.19047619  0.66666667  0.10000280
   0.19047619  0.80952381  0.10000280
   0.19047619  0.95238095  0.10000280
   0.33333333  0.09523809  0.10000280
   0.33333333  0.23809524  0.10000280
   0.33333333  0.38095238  0.10000280
   0.33333333  0.52380952  0.10000280
   0.33333333  0.66666667  0.10000280
   0.33333333  0.80952381  0.10000280
   0.33333333  0.95238095  0.10000280
   0.47619048  0.09523809  0.10000280
   0.47619048  0.23809524  0.10000280
   0.47619048  0.38095238  0.10000280
   0.47619048  0.52380952  0.10000280
   0.47619048  0.66666667  0.10000280
   0.47619048  0.80952381  0.10000280
   0.47619048  0.95238095  0.10000280
   0.61904762  0.09523809  0.10000280
   0.61904762  0.23809524  0.10000280
   0.61904762  0.38095238  0.10000280
   0.61904762  0.52380952  0.10000280
   0.61904762  0.66666667  0.10000280
   0.61904762  0.80952381  0.10000280
   0.61904762  0.95238095  0.10000280
   0.76190476  0.09523809  0.10000280
   0.76190476  0.23809524  0.10000280
   0.76190476  0.38095238  0.10000280
   0.76190476  0.52380952  0.10000280
   0.76190476  0.66666667  0.10000280
   0.76190476  0.80952381  0.10000280
   0.76190476  0.95238095  0.10000280
   0.90476191  0.09523809  0.10000280
   0.90476191  0.23809524  0.10000280
   0.90476191  0.38095238  0.10000280
   0.90476191  0.52380952  0.10000280
   0.90476191  0.66666667  0.10000280
   0.90476191  0.80952381  0.10000280
   0.90476191  0.95238095  0.10000280
   0.09523809  0.04761905  0.07619696
   0.09523809  0.19047619  0.07619696
   0.09523809  0.33333333  0.07619696
   0.09523809  0.47619048  0.07619696
   0.09523809  0.61904762  0.07619696
   0.09523809  0.76190476  0.07619696
   0.09523809  0.90476191  0.07619696
   0.23809524  0.04761905  0.07619696
   0.23809524  0.19047619  0.07619696
   0.23809524  0.33333333  0.07619696
   0.23809524  0.47619048  0.07619696
   0.23809524  0.61904762  0.07619696
   0.23809524  0.76190476  0.07619696
   0.23809524  0.90476191  0.07619696
   0.38095238  0.04761905  0.07619696
   0.38095238  0.19047619  0.07619696
   0.38095238  0.33333333  0.07619696
   0.38095238  0.47619048  0.07619696
   0.38095238  0.61904762  0.07619696
   0.38095238  0.76190476  0.07619696
   0.38095238  0.90476191  0.07619696
   0.52380952  0.04761905  0.07619696
   0.52380952  0.19047619  0.07619696
   0.52380952  0.33333333  0.07619696
   0.52380952  0.47619048  0.07619696
   0.52380952  0.61904762  0.07619696
   0.52380952  0.76190476  0.07619696
   0.52380952  0.90476191  0.07619696
   0.66666667  0.04761905  0.07619696
   0.66666667  0.19047619  0.07619696
   0.66666667  0.33333333  0.07619696
   0.66666667  0.47619048  0.07619696
   0.66666667  0.61904762  0.07619696
   0.66666667  0.76190476  0.07619696
   0.66666667  0.90476191  0.07619696
   0.80952381  0.04761905  0.07619696
   0.80952381  0.19047619  0.07619696
   0.80952381  0.33333333  0.07619696
   0.80952381  0.47619048  0.07619696
   0.80952381  0.61904762  0.07619696
   0.80952381  0.76190476  0.07619696
   0.80952381  0.90476191  0.07619696
   0.95238095  0.04761905  0.07619696
   0.95238095  0.19047619  0.07619696
   0.95238095  0.33333333  0.07619696
   0.95238095  0.47619048  0.07619696
   0.95238095  0.61904762  0.07619696
   0.95238095  0.76190476  0.07619696
   0.95238095  0.90476191  0.07619696
