   2   2   0   0
  0.2003849E+03  0.3585345E-09  0.3585345E-09  0.3600000E-08  0.5000000E-15
  1.000000000000000E-004
  CAR 
 Convergence                             
     16.94342950    -10.81836981  301     -4.07955467      1.00000000
    -10.818  0.0000E+00  0.0000E+00
    -10.726  0.0000E+00  0.0000E+00
    -10.633  0.0000E+00  0.0000E+00
    -10.541  0.0000E+00  0.0000E+00
    -10.448  0.0000E+00  0.0000E+00
    -10.356  0.0000E+00  0.0000E+00
    -10.263  0.0000E+00  0.0000E+00
    -10.171  0.0000E+00  0.0000E+00
    -10.078  0.0000E+00  0.0000E+00
     -9.986  0.0000E+00  0.0000E+00
     -9.893  0.0000E+00  0.0000E+00
     -9.800  0.8987E-13  0.8316E-14
     -9.708  0.4658E-06  0.4310E-07
     -9.615  0.4709E-02  0.4359E-03
     -9.523  0.2425E+00  0.2288E-01
     -9.430  0.5985E+00  0.7826E-01
     -9.338  0.6208E+00  0.1357E+00
     -9.245  0.6344E+00  0.1944E+00
     -9.153  0.6293E+00  0.2526E+00
     -9.060  0.5742E+00  0.3058E+00
     -8.968  0.6799E+00  0.3687E+00
     -8.875  0.5988E+00  0.4241E+00
     -8.783  0.6241E+00  0.4819E+00
     -8.690  0.6421E+00  0.5413E+00
     -8.597  0.6244E+00  0.5991E+00
     -8.505  0.6211E+00  0.6566E+00
     -8.412  0.6926E+00  0.7207E+00
     -8.320  0.4822E+00  0.7653E+00
     -8.227  0.8134E+00  0.8405E+00
     -8.135  0.5138E+00  0.8881E+00
     -8.042  0.6718E+00  0.9503E+00
     -7.950  0.7062E+00  0.1016E+01
     -7.857  0.4802E+00  0.1060E+01
     -7.765  0.7771E+00  0.1132E+01
     -7.672  0.6631E+00  0.1193E+01
     -7.579  0.4396E+00  0.1234E+01
     -7.487  0.8790E+00  0.1315E+01
     -7.394  0.6328E+00  0.1374E+01
     -7.302  0.4422E+00  0.1415E+01
     -7.209  0.8739E+00  0.1496E+01
     -7.117  0.6174E+00  0.1553E+01
     -7.024  0.5393E+00  0.1603E+01
     -6.932  0.6966E+00  0.1667E+01
     -6.839  0.8851E+00  0.1749E+01
     -6.747  0.5101E+00  0.1796E+01
     -6.654  0.5045E+00  0.1843E+01
     -6.562  0.8739E+00  0.1924E+01
     -6.469  0.6115E+00  0.1980E+01
     -6.376  0.4174E+00  0.2019E+01
     -6.284  0.9714E+00  0.2109E+01
     -6.191  0.5494E+00  0.2160E+01
     -6.099  0.6564E+00  0.2221E+01
     -6.006  0.7007E+00  0.2285E+01
     -5.914  0.6149E+00  0.2342E+01
     -5.821  0.9170E+00  0.2427E+01
     -5.729  0.5445E+00  0.2478E+01
     -5.636  0.7106E+00  0.2543E+01
     -5.544  0.5994E+00  0.2599E+01
     -5.451  0.7233E+00  0.2666E+01
     -5.359  0.8198E+00  0.2742E+01
     -5.266  0.4996E+00  0.2788E+01
     -5.173  0.6558E+00  0.2849E+01
     -5.081  0.9684E+00  0.2938E+01
     -4.988  0.6299E+00  0.2996E+01
     -4.896  0.6257E+00  0.3054E+01
     -4.803  0.6389E+00  0.3113E+01
     -4.711  0.1199E+01  0.3224E+01
     -4.618  0.1124E+01  0.3328E+01
     -4.526  0.1177E+01  0.3437E+01
     -4.433  0.1183E+01  0.3547E+01
     -4.341  0.1443E+01  0.3680E+01
     -4.248  0.1443E+01  0.3814E+01
     -4.156  0.8709E+00  0.3894E+01
     -4.063  0.1538E+01  0.4037E+01
     -3.970  0.1532E+01  0.4178E+01
     -3.878  0.1042E+01  0.4275E+01
     -3.785  0.1458E+01  0.4410E+01
     -3.693  0.1467E+01  0.4546E+01
     -3.600  0.1509E+01  0.4685E+01
     -3.508  0.1116E+01  0.4788E+01
     -3.415  0.1800E+01  0.4955E+01
     -3.323  0.1600E+01  0.5103E+01
     -3.230  0.1291E+01  0.5223E+01
     -3.138  0.2060E+01  0.5413E+01
     -3.045  0.2004E+01  0.5599E+01
     -2.953  0.1784E+01  0.5764E+01
     -2.860  0.2219E+01  0.5969E+01
     -2.767  0.1358E+01  0.6095E+01
     -2.675  0.1484E+01  0.6232E+01
     -2.582  0.1650E+01  0.6385E+01
     -2.490  0.1255E+01  0.6501E+01
     -2.397  0.1328E+01  0.6624E+01
     -2.305  0.1314E+01  0.6745E+01
     -2.212  0.1578E+01  0.6891E+01
     -2.120  0.9290E+00  0.6977E+01
     -2.027  0.1475E+01  0.7114E+01
     -1.935  0.1700E+01  0.7271E+01
     -1.842  0.1208E+01  0.7383E+01
     -1.750  0.1154E+01  0.7490E+01
     -1.657  0.1297E+01  0.7610E+01
     -1.564  0.8236E+00  0.7686E+01
     -1.472  0.5689E+00  0.7738E+01
     -1.379  0.1023E+01  0.7833E+01
     -1.287  0.5916E+00  0.7888E+01
     -1.194  0.4604E+00  0.7930E+01
     -1.102  0.4274E+00  0.7970E+01
     -1.009  0.1661E+00  0.7985E+01
     -0.917  0.1874E-01  0.7987E+01
     -0.824  0.1248E+00  0.7999E+01
     -0.732  0.1453E-01  0.8000E+01
     -0.639  0.1453E-02  0.8000E+01
     -0.547  0.9189E-01  0.8009E+01
     -0.454  0.6106E-01  0.8014E+01
     -0.361  0.1184E+00  0.8025E+01
     -0.269  0.3701E+00  0.8059E+01
     -0.176  0.3710E+00  0.8094E+01
     -0.084  0.1787E+01  0.8259E+01
      0.009  0.1598E+01  0.8407E+01
      0.101  0.9645E+00  0.8496E+01
      0.194  0.1335E+01  0.8620E+01
      0.286  0.1007E+01  0.8713E+01
      0.379  0.1411E+01  0.8844E+01
      0.471  0.1047E+01  0.8940E+01
      0.564  0.1999E+01  0.9125E+01
      0.657  0.1746E+01  0.9287E+01
      0.749  0.1787E+01  0.9452E+01
      0.842  0.2279E+01  0.9663E+01
      0.934  0.2331E+01  0.9879E+01
      1.027  0.2943E+01  0.1015E+02
      1.119  0.2684E+01  0.1040E+02
      1.212  0.2355E+01  0.1062E+02
      1.304  0.3469E+01  0.1094E+02
      1.397  0.2332E+01  0.1115E+02
      1.489  0.3014E+01  0.1143E+02
      1.582  0.3573E+01  0.1176E+02
      1.674  0.3175E+01  0.1206E+02
      1.767  0.3975E+01  0.1243E+02
      1.860  0.3927E+01  0.1279E+02
      1.952  0.3178E+01  0.1308E+02
      2.045  0.3106E+01  0.1337E+02
      2.137  0.3800E+01  0.1372E+02
      2.230  0.3707E+01  0.1407E+02
      2.322  0.3628E+01  0.1440E+02
      2.415  0.3816E+01  0.1475E+02
      2.507  0.4174E+01  0.1514E+02
      2.600  0.4784E+01  0.1558E+02
      2.692  0.4437E+01  0.1599E+02
      2.785  0.4046E+01  0.1637E+02
      2.877  0.4491E+01  0.1678E+02
      2.970  0.4948E+01  0.1724E+02
      3.063  0.5255E+01  0.1773E+02
      3.155  0.4665E+01  0.1816E+02
      3.248  0.5538E+01  0.1867E+02
      3.340  0.6520E+01  0.1928E+02
      3.433  0.5818E+01  0.1981E+02
      3.525  0.6494E+01  0.2041E+02
      3.618  0.5432E+01  0.2092E+02
      3.710  0.8397E+01  0.2169E+02
      3.803  0.7512E+01  0.2239E+02
      3.895  0.6468E+01  0.2299E+02
      3.988  0.6806E+01  0.2362E+02
      4.080  0.5598E+01  0.2414E+02
      4.173  0.7174E+01  0.2480E+02
      4.266  0.6845E+01  0.2543E+02
      4.358  0.5615E+01  0.2595E+02
      4.451  0.6233E+01  0.2653E+02
      4.543  0.6871E+01  0.2717E+02
      4.636  0.7104E+01  0.2782E+02
      4.728  0.6003E+01  0.2838E+02
      4.821  0.5844E+01  0.2892E+02
      4.913  0.5332E+01  0.2941E+02
      5.006  0.8420E+01  0.3019E+02
      5.098  0.7075E+01  0.3085E+02
      5.191  0.6702E+01  0.3147E+02
      5.283  0.7213E+01  0.3213E+02
      5.376  0.7096E+01  0.3279E+02
      5.469  0.7155E+01  0.3345E+02
      5.561  0.6834E+01  0.3409E+02
      5.654  0.7114E+01  0.3474E+02
      5.746  0.6498E+01  0.3534E+02
      5.839  0.6109E+01  0.3591E+02
      5.931  0.7901E+01  0.3664E+02
      6.024  0.8444E+01  0.3742E+02
      6.116  0.7836E+01  0.3815E+02
      6.209  0.5931E+01  0.3870E+02
      6.301  0.5638E+01  0.3922E+02
      6.394  0.6333E+01  0.3980E+02
      6.486  0.5997E+01  0.4036E+02
      6.579  0.6982E+01  0.4101E+02
      6.672  0.6670E+01  0.4162E+02
      6.764  0.6217E+01  0.4220E+02
      6.857  0.8165E+01  0.4295E+02
      6.949  0.8472E+01  0.4374E+02
      7.042  0.8603E+01  0.4453E+02
      7.134  0.6584E+01  0.4514E+02
      7.227  0.7945E+01  0.4588E+02
      7.319  0.8314E+01  0.4665E+02
      7.412  0.8126E+01  0.4740E+02
      7.504  0.7175E+01  0.4806E+02
      7.597  0.9128E+01  0.4891E+02
      7.689  0.7715E+01  0.4962E+02
      7.782  0.7792E+01  0.5034E+02
      7.875  0.7898E+01  0.5107E+02
      7.967  0.9073E+01  0.5191E+02
      8.060  0.8711E+01  0.5272E+02
      8.152  0.7525E+01  0.5342E+02
      8.245  0.7082E+01  0.5407E+02
      8.337  0.7685E+01  0.5478E+02
      8.430  0.8376E+01  0.5556E+02
      8.522  0.8602E+01  0.5635E+02
      8.615  0.9103E+01  0.5720E+02
      8.707  0.8590E+01  0.5799E+02
      8.800  0.6693E+01  0.5861E+02
      8.893  0.7933E+01  0.5935E+02
      8.985  0.8458E+01  0.6013E+02
      9.078  0.9283E+01  0.6099E+02
      9.170  0.7949E+01  0.6172E+02
      9.263  0.1010E+02  0.6266E+02
      9.355  0.9666E+01  0.6355E+02
      9.448  0.8530E+01  0.6434E+02
      9.540  0.8760E+01  0.6515E+02
      9.633  0.9267E+01  0.6601E+02
      9.725  0.9757E+01  0.6691E+02
      9.818  0.7447E+01  0.6760E+02
      9.910  0.7525E+01  0.6830E+02
     10.003  0.8071E+01  0.6904E+02
     10.096  0.8213E+01  0.6980E+02
     10.188  0.8178E+01  0.7056E+02
     10.281  0.7835E+01  0.7129E+02
     10.373  0.8623E+01  0.7208E+02
     10.466  0.7514E+01  0.7278E+02
     10.558  0.6226E+01  0.7336E+02
     10.651  0.6979E+01  0.7400E+02
     10.743  0.7585E+01  0.7470E+02
     10.836  0.5838E+01  0.7524E+02
     10.928  0.4691E+01  0.7568E+02
     11.021  0.7622E+01  0.7638E+02
     11.113  0.5406E+01  0.7688E+02
     11.206  0.4032E+01  0.7726E+02
     11.299  0.5225E+01  0.7774E+02
     11.391  0.5449E+01  0.7824E+02
     11.484  0.4604E+01  0.7867E+02
     11.576  0.3866E+01  0.7903E+02
     11.669  0.4381E+01  0.7943E+02
     11.761  0.3781E+01  0.7978E+02
     11.854  0.3034E+01  0.8006E+02
     11.946  0.3441E+01  0.8038E+02
     12.039  0.3183E+01  0.8068E+02
     12.131  0.2611E+01  0.8092E+02
     12.224  0.2899E+01  0.8119E+02
     12.316  0.2639E+01  0.8143E+02
     12.409  0.2475E+01  0.8166E+02
     12.502  0.1575E+01  0.8181E+02
     12.594  0.1889E+01  0.8198E+02
     12.687  0.1060E+01  0.8208E+02
     12.779  0.1048E+01  0.8218E+02
     12.872  0.1655E+01  0.8233E+02
     12.964  0.1099E+01  0.8243E+02
     13.057  0.1254E+01  0.8255E+02
     13.149  0.1806E+01  0.8271E+02
     13.242  0.1541E+01  0.8286E+02
     13.334  0.1264E+01  0.8297E+02
     13.427  0.1008E+01  0.8307E+02
     13.519  0.1575E+01  0.8321E+02
     13.612  0.1478E+01  0.8335E+02
     13.705  0.8239E+00  0.8343E+02
     13.797  0.2907E+00  0.8345E+02
     13.890  0.5093E+00  0.8350E+02
     13.982  0.9360E+00  0.8359E+02
     14.075  0.9539E+00  0.8367E+02
     14.167  0.6758E+00  0.8374E+02
     14.260  0.1871E+00  0.8375E+02
     14.352  0.1202E+00  0.8376E+02
     14.445  0.3049E+00  0.8379E+02
     14.537  0.3551E+00  0.8383E+02
     14.630  0.5762E+00  0.8388E+02
     14.722  0.1168E+00  0.8389E+02
     14.815  0.8472E-01  0.8390E+02
     14.908  0.1592E+00  0.8391E+02
     15.000  0.2935E+00  0.8394E+02
     15.093  0.1470E+00  0.8395E+02
     15.185  0.6663E-01  0.8396E+02
     15.278  0.4037E-01  0.8396E+02
     15.370  0.1210E+00  0.8397E+02
     15.463  0.1448E+00  0.8399E+02
     15.555  0.5804E-01  0.8399E+02
     15.648  0.4355E-01  0.8400E+02
     15.740  0.2693E-01  0.8400E+02
     15.833  0.1240E-02  0.8400E+02
     15.925  0.2369E-06  0.8400E+02
     16.018  0.6661E-13  0.8400E+02
     16.111  0.0000E+00  0.8400E+02
     16.203  0.0000E+00  0.8400E+02
     16.296  0.0000E+00  0.8400E+02
     16.388  0.0000E+00  0.8400E+02
     16.481  0.0000E+00  0.8400E+02
     16.573  0.0000E+00  0.8400E+02
     16.666  0.0000E+00  0.8400E+02
     16.758  0.0000E+00  0.8400E+02
     16.851  0.0000E+00  0.8400E+02
     16.943  0.0000E+00  0.8400E+02
