   1   1   0   0
  0.1572813E+03  0.2130000E-09  0.2131204E-09  0.4000000E-08  0.5000000E-15
  1.000000000000000E-004
  CAR 
 Convergence                             
     34.47043435    -12.78743301  301     -4.22422601      1.00000000
    -12.787  0.0000E+00  0.0000E+00
    -12.630  0.0000E+00  0.0000E+00
    -12.472  0.0000E+00  0.0000E+00
    -12.315  0.0000E+00  0.0000E+00
    -12.157  0.0000E+00  0.0000E+00
    -12.000  0.0000E+00  0.0000E+00
    -11.842  0.0000E+00  0.0000E+00
    -11.685  0.0000E+00  0.0000E+00
    -11.527  0.0000E+00  0.0000E+00
    -11.370  0.0000E+00  0.0000E+00
    -11.212  0.0000E+00  0.0000E+00
    -11.055  0.0000E+00  0.0000E+00
    -10.897  0.1211E-14  0.1907E-15
    -10.740  0.3602E-04  0.5674E-05
    -10.582  0.8759E-01  0.1380E-01
    -10.425  0.2391E+00  0.5147E-01
    -10.267  0.2359E+00  0.8864E-01
    -10.109  0.2343E+00  0.1255E+00
     -9.952  0.2449E+00  0.1641E+00
     -9.794  0.2527E+00  0.2039E+00
     -9.637  0.2419E+00  0.2420E+00
     -9.479  0.2107E+00  0.2752E+00
     -9.322  0.2694E+00  0.3177E+00
     -9.164  0.2561E+00  0.3580E+00
     -9.007  0.2030E+00  0.3900E+00
     -8.849  0.2934E+00  0.4362E+00
     -8.692  0.1917E+00  0.4664E+00
     -8.534  0.3045E+00  0.5144E+00
     -8.377  0.1840E+00  0.5434E+00
     -8.219  0.3118E+00  0.5925E+00
     -8.062  0.1719E+00  0.6195E+00
     -7.904  0.3235E+00  0.6705E+00
     -7.747  0.2009E+00  0.7022E+00
     -7.589  0.3287E+00  0.7539E+00
     -7.432  0.2197E+00  0.7885E+00
     -7.274  0.2364E+00  0.8258E+00
     -7.116  0.3044E+00  0.8737E+00
     -6.959  0.1901E+00  0.9037E+00
     -6.801  0.3585E+00  0.9602E+00
     -6.644  0.2152E+00  0.9941E+00
     -6.486  0.2589E+00  0.1035E+01
     -6.329  0.3659E+00  0.1092E+01
     -6.171  0.2093E+00  0.1125E+01
     -6.014  0.3284E+00  0.1177E+01
     -5.856  0.3164E+00  0.1227E+01
     -5.699  0.2119E+00  0.1260E+01
     -5.541  0.4670E+00  0.1334E+01
     -5.384  0.4864E+00  0.1411E+01
     -5.226  0.3986E+00  0.1473E+01
     -5.069  0.9715E+00  0.1626E+01
     -4.911  0.4100E+00  0.1691E+01
     -4.754  0.4672E+00  0.1765E+01
     -4.596  0.6298E+00  0.1864E+01
     -4.439  0.3143E+00  0.1913E+01
     -4.281  0.3640E+00  0.1971E+01
     -4.123  0.4728E+00  0.2045E+01
     -3.966  0.2582E+00  0.2086E+01
     -3.808  0.3170E+00  0.2136E+01
     -3.651  0.4116E+00  0.2201E+01
     -3.493  0.2307E+00  0.2237E+01
     -3.336  0.2851E+00  0.2282E+01
     -3.178  0.2478E+00  0.2321E+01
     -3.021  0.3460E+00  0.2375E+01
     -2.863  0.1404E+00  0.2398E+01
     -2.706  0.2635E+00  0.2439E+01
     -2.548  0.3044E+00  0.2487E+01
     -2.391  0.1064E+00  0.2504E+01
     -2.233  0.2839E+00  0.2548E+01
     -2.076  0.2086E+00  0.2581E+01
     -1.918  0.1384E+00  0.2603E+01
     -1.761  0.2089E+00  0.2636E+01
     -1.603  0.2157E+00  0.2670E+01
     -1.446  0.1498E+00  0.2694E+01
     -1.288  0.1266E+00  0.2714E+01
     -1.130  0.2881E+00  0.2759E+01
     -0.973  0.1205E+00  0.2778E+01
     -0.815  0.1731E+00  0.2805E+01
     -0.658  0.2994E+00  0.2852E+01
     -0.500  0.2103E+00  0.2885E+01
     -0.343  0.1209E+00  0.2905E+01
     -0.185  0.3237E+00  0.2956E+01
     -0.028  0.4979E+00  0.3034E+01
      0.130  0.3750E+00  0.3093E+01
      0.287  0.3735E+00  0.3152E+01
      0.445  0.6203E+00  0.3250E+01
      0.602  0.7376E+00  0.3366E+01
      0.760  0.7077E+00  0.3477E+01
      0.917  0.1294E+01  0.3681E+01
      1.075  0.1168E+01  0.3865E+01
      1.232  0.1408E+01  0.4087E+01
      1.390  0.1703E+01  0.4355E+01
      1.547  0.1829E+01  0.4643E+01
      1.705  0.1574E+01  0.4891E+01
      1.863  0.1706E+01  0.5160E+01
      2.020  0.1629E+01  0.5417E+01
      2.178  0.1907E+01  0.5717E+01
      2.335  0.1827E+01  0.6005E+01
      2.493  0.1982E+01  0.6317E+01
      2.650  0.1978E+01  0.6629E+01
      2.808  0.1787E+01  0.6910E+01
      2.965  0.2019E+01  0.7228E+01
      3.123  0.2269E+01  0.7586E+01
      3.280  0.2088E+01  0.7914E+01
      3.438  0.2451E+01  0.8301E+01
      3.595  0.2163E+01  0.8641E+01
      3.753  0.2279E+01  0.9000E+01
      3.910  0.2656E+01  0.9419E+01
      4.068  0.2403E+01  0.9797E+01
      4.225  0.2374E+01  0.1017E+02
      4.383  0.2496E+01  0.1056E+02
      4.540  0.2457E+01  0.1095E+02
      4.698  0.2282E+01  0.1131E+02
      4.856  0.2165E+01  0.1165E+02
      5.013  0.2137E+01  0.1199E+02
      5.171  0.2363E+01  0.1236E+02
      5.328  0.2056E+01  0.1268E+02
      5.486  0.2323E+01  0.1305E+02
      5.643  0.2420E+01  0.1343E+02
      5.801  0.2837E+01  0.1388E+02
      5.958  0.3211E+01  0.1438E+02
      6.116  0.2306E+01  0.1475E+02
      6.273  0.2846E+01  0.1520E+02
      6.431  0.2814E+01  0.1564E+02
      6.588  0.2850E+01  0.1609E+02
      6.746  0.2965E+01  0.1656E+02
      6.903  0.3111E+01  0.1705E+02
      7.061  0.3367E+01  0.1758E+02
      7.218  0.2876E+01  0.1803E+02
      7.376  0.2857E+01  0.1848E+02
      7.533  0.3468E+01  0.1903E+02
      7.691  0.3302E+01  0.1955E+02
      7.849  0.3104E+01  0.2003E+02
      8.006  0.3180E+01  0.2054E+02
      8.164  0.2867E+01  0.2099E+02
      8.321  0.3298E+01  0.2151E+02
      8.479  0.3730E+01  0.2209E+02
      8.636  0.2860E+01  0.2254E+02
      8.794  0.3301E+01  0.2306E+02
      8.951  0.3411E+01  0.2360E+02
      9.109  0.2980E+01  0.2407E+02
      9.266  0.3423E+01  0.2461E+02
      9.424  0.4256E+01  0.2528E+02
      9.581  0.3345E+01  0.2581E+02
      9.739  0.3395E+01  0.2634E+02
      9.896  0.3632E+01  0.2691E+02
     10.054  0.3206E+01  0.2742E+02
     10.211  0.3543E+01  0.2798E+02
     10.369  0.3229E+01  0.2849E+02
     10.526  0.4340E+01  0.2917E+02
     10.684  0.3304E+01  0.2969E+02
     10.842  0.4451E+01  0.3039E+02
     10.999  0.3380E+01  0.3092E+02
     11.157  0.3215E+01  0.3143E+02
     11.314  0.3857E+01  0.3204E+02
     11.472  0.4239E+01  0.3271E+02
     11.629  0.4287E+01  0.3338E+02
     11.787  0.3789E+01  0.3398E+02
     11.944  0.3542E+01  0.3454E+02
     12.102  0.4801E+01  0.3529E+02
     12.259  0.4316E+01  0.3597E+02
     12.417  0.3705E+01  0.3656E+02
     12.574  0.3573E+01  0.3712E+02
     12.732  0.3421E+01  0.3766E+02
     12.889  0.4055E+01  0.3830E+02
     13.047  0.4717E+01  0.3904E+02
     13.204  0.4117E+01  0.3969E+02
     13.362  0.4647E+01  0.4042E+02
     13.519  0.4122E+01  0.4107E+02
     13.677  0.4207E+01  0.4173E+02
     13.834  0.3833E+01  0.4234E+02
     13.992  0.4084E+01  0.4298E+02
     14.150  0.4322E+01  0.4366E+02
     14.307  0.4097E+01  0.4431E+02
     14.465  0.3844E+01  0.4491E+02
     14.622  0.4221E+01  0.4558E+02
     14.780  0.4725E+01  0.4632E+02
     14.937  0.3658E+01  0.4690E+02
     15.095  0.3854E+01  0.4750E+02
     15.252  0.4786E+01  0.4826E+02
     15.410  0.4453E+01  0.4896E+02
     15.567  0.4746E+01  0.4971E+02
     15.725  0.4674E+01  0.5044E+02
     15.882  0.4120E+01  0.5109E+02
     16.040  0.4114E+01  0.5174E+02
     16.197  0.4362E+01  0.5243E+02
     16.355  0.4366E+01  0.5312E+02
     16.512  0.4591E+01  0.5384E+02
     16.670  0.4233E+01  0.5451E+02
     16.827  0.4477E+01  0.5521E+02
     16.985  0.4430E+01  0.5591E+02
     17.143  0.4471E+01  0.5661E+02
     17.300  0.4166E+01  0.5727E+02
     17.458  0.4814E+01  0.5803E+02
     17.615  0.4836E+01  0.5879E+02
     17.773  0.4512E+01  0.5950E+02
     17.930  0.4490E+01  0.6021E+02
     18.088  0.5050E+01  0.6100E+02
     18.245  0.4410E+01  0.6170E+02
     18.403  0.4277E+01  0.6237E+02
     18.560  0.4735E+01  0.6312E+02
     18.718  0.4749E+01  0.6387E+02
     18.875  0.4335E+01  0.6455E+02
     19.033  0.4585E+01  0.6527E+02
     19.190  0.4427E+01  0.6597E+02
     19.348  0.4372E+01  0.6666E+02
     19.505  0.5100E+01  0.6746E+02
     19.663  0.4116E+01  0.6811E+02
     19.820  0.4261E+01  0.6878E+02
     19.978  0.4154E+01  0.6943E+02
     20.136  0.2975E+01  0.6990E+02
     20.293  0.3770E+01  0.7050E+02
     20.451  0.3975E+01  0.7112E+02
     20.608  0.3569E+01  0.7168E+02
     20.766  0.4055E+01  0.7232E+02
     20.923  0.2907E+01  0.7278E+02
     21.081  0.3082E+01  0.7327E+02
     21.238  0.3243E+01  0.7378E+02
     21.396  0.2703E+01  0.7420E+02
     21.553  0.2842E+01  0.7465E+02
     21.711  0.2309E+01  0.7501E+02
     21.868  0.1819E+01  0.7530E+02
     22.026  0.2357E+01  0.7567E+02
     22.183  0.1758E+01  0.7595E+02
     22.341  0.1577E+01  0.7620E+02
     22.498  0.1634E+01  0.7646E+02
     22.656  0.1841E+01  0.7675E+02
     22.813  0.1910E+01  0.7705E+02
     22.971  0.1576E+01  0.7729E+02
     23.129  0.1661E+01  0.7756E+02
     23.286  0.1622E+01  0.7781E+02
     23.444  0.2212E+01  0.7816E+02
     23.601  0.1242E+01  0.7836E+02
     23.759  0.1481E+01  0.7859E+02
     23.916  0.1757E+01  0.7887E+02
     24.074  0.1429E+01  0.7909E+02
     24.231  0.1170E+01  0.7928E+02
     24.389  0.1258E+01  0.7947E+02
     24.546  0.1353E+01  0.7969E+02
     24.704  0.1154E+01  0.7987E+02
     24.861  0.1041E+01  0.8003E+02
     25.019  0.1343E+01  0.8024E+02
     25.176  0.1085E+01  0.8041E+02
     25.334  0.1709E+01  0.8068E+02
     25.491  0.1081E+01  0.8085E+02
     25.649  0.1109E+01  0.8103E+02
     25.806  0.8879E+00  0.8117E+02
     25.964  0.7253E+00  0.8128E+02
     26.122  0.9261E+00  0.8143E+02
     26.279  0.1130E+01  0.8161E+02
     26.437  0.1139E+01  0.8179E+02
     26.594  0.8013E+00  0.8191E+02
     26.752  0.2849E+00  0.8196E+02
     26.909  0.5387E+00  0.8204E+02
     27.067  0.4890E+00  0.8212E+02
     27.224  0.5482E+00  0.8221E+02
     27.382  0.4315E+00  0.8227E+02
     27.539  0.9212E+00  0.8242E+02
     27.697  0.7882E+00  0.8254E+02
     27.854  0.5067E+00  0.8262E+02
     28.012  0.6731E+00  0.8273E+02
     28.169  0.5463E+00  0.8282E+02
     28.327  0.4891E+00  0.8289E+02
     28.484  0.4659E+00  0.8297E+02
     28.642  0.4355E+00  0.8303E+02
     28.799  0.2119E+00  0.8307E+02
     28.957  0.1222E+00  0.8309E+02
     29.115  0.2577E+00  0.8313E+02
     29.272  0.4678E+00  0.8320E+02
     29.430  0.3242E+00  0.8325E+02
     29.587  0.1882E+00  0.8328E+02
     29.745  0.3160E+00  0.8333E+02
     29.902  0.3202E+00  0.8338E+02
     30.060  0.1985E+00  0.8341E+02
     30.217  0.7515E+00  0.8353E+02
     30.375  0.5634E+00  0.8362E+02
     30.532  0.5144E+00  0.8370E+02
     30.690  0.3439E+00  0.8376E+02
     30.847  0.4540E+00  0.8383E+02
     31.005  0.1189E+00  0.8385E+02
     31.162  0.1519E+00  0.8387E+02
     31.320  0.1821E+00  0.8390E+02
     31.477  0.1128E+00  0.8392E+02
     31.635  0.5263E-01  0.8392E+02
     31.792  0.6679E-01  0.8394E+02
     31.950  0.1485E+00  0.8396E+02
     32.108  0.6682E-01  0.8397E+02
     32.265  0.1325E+00  0.8399E+02
     32.423  0.6396E-01  0.8400E+02
     32.580  0.8909E-04  0.8400E+02
     32.738  0.0000E+00  0.8400E+02
     32.895  0.0000E+00  0.8400E+02
     33.053  0.0000E+00  0.8400E+02
     33.210  0.0000E+00  0.8400E+02
     33.368  0.0000E+00  0.8400E+02
     33.525  0.0000E+00  0.8400E+02
     33.683  0.0000E+00  0.8400E+02
     33.840  0.0000E+00  0.8400E+02
     33.998  0.0000E+00  0.8400E+02
     34.155  0.0000E+00  0.8400E+02
     34.313  0.0000E+00  0.8400E+02
     34.470  0.0000E+00  0.8400E+02
