   75   75    1    1
  0.5815868E+02  0.1161076E-08  0.1053976E-08  0.4000000E-08  0.5000000E-15
  1.000000000000000E-004
  CAR 
 Phonopy                                 
    125     13    105
 
  0.1276756E-14  0.1276756E-14  0.1276756E-14  0.4000000E-01
      1        -14.288317   1.000000
      2        -13.196387   1.000000
      3        -13.196385   1.000000
      4        -13.061477   1.000000
      5        -13.061038   1.000000
      6        -13.060967   1.000000
      7        -13.060523   1.000000
      8        -11.352177   1.000000
      9        -10.933455   1.000000
     10        -10.933230   1.000000
     11        -10.932799   1.000000
     12        -10.932574   1.000000
     13        -10.636550   1.000000
     14        -10.636295   1.000000
     15        -10.270893   1.000000
     16        -10.270890   1.000000
     17         -9.981492   1.000000
     18         -9.979958   1.000000
     19         -9.979813   1.000000
     20         -9.979195   1.000000
     21         -9.979062   1.000000
     22         -9.978139   1.000000
     23         -9.834562   1.000000
     24         -9.834422   1.000000
     25         -9.833904   1.000000
     26         -9.833754   1.000000
     27         -7.975678   1.000000
     28         -7.975454   1.000000
     29         -7.975059   1.000000
     30         -7.974840   1.000000
     31         -7.920030   1.000000
     32         -7.919825   1.000000
     33         -7.917839   1.000000
     34         -7.917638   1.000000
     35         -7.509241   1.000000
     36         -7.509238   1.000000
     37         -7.413870   1.000000
     38         -7.413857   1.000000
     39         -7.161362   1.000000
     40         -7.161352   1.000000
     41         -6.627897   1.000000
     42         -6.354198   1.000000
     43         -6.353836   1.000000
     44         -6.352773   1.000000
     45         -6.352400   1.000000
     46         -6.217274   1.000000
     47         -6.216076   1.000000
     48         -5.524790   1.000000
     49         -5.524779   1.000000
     50         -5.188644   1.000000
     51         -5.186259   1.000000
     52         -5.186218   1.000000
     53         -5.183831   1.000000
     54         -4.998204   1.000000
     55         -4.998097   1.000000
     56         -4.982492   1.000000
     57         -4.978613   1.000000
     58         -4.410694   1.000000
     59         -4.408851   1.000000
     60         -4.406730   1.000000
     61         -4.404875   1.000000
     62         -3.280671   0.000001
     63         -3.279574   0.000001
     64         -3.278342   0.000001
     65         -3.277252   0.000001
     66         -2.134125   0.000000
     67         -2.131691   0.000000
     68         -1.525238   0.000000
     69         -1.522602   0.000000
     70         -1.522559   0.000000
     71         -1.519971   0.000000
     72         -1.338457   0.000000
     73         -1.336078   0.000000
     74         -1.335057   0.000000
     75         -1.332620   0.000000
     76         -0.678775   0.000000
     77         -0.640886   0.000000
     78         -0.640873   0.000000
     79         -0.608370   0.000000
     80         -0.606324   0.000000
     81         -0.605129   0.000000
     82         -0.603087   0.000000
     83         -0.312518   0.000000
     84         -0.309203   0.000000
     85          0.341832   0.000000
     86          0.341836   0.000000
     87          0.684680   0.000000
     88          0.714108   0.000000
     89          0.714905   0.000000
     90          0.714909   0.000000
     91          0.715539   0.000000
     92          0.729812   0.000000
     93          0.730521   0.000000
     94          0.730999   0.000000
     95          0.731836   0.000000
     96          0.836876   0.000000
     97          0.837135   0.000000
     98          0.838395   0.000000
     99          0.838674   0.000000
    100          0.859452   0.000000
    101          1.164910   0.000000
    102          1.275541   0.000000
    103          1.275560   0.000000
    104          1.576743   0.000000
    105          1.630713   0.000000
 
  0.2000000E+00  0.1304512E-14  0.1276756E-14  0.8000000E-01
      1        -14.244549   1.000000
      2        -13.588872   1.000000
      3        -13.232332   1.000000
      4        -13.231917   1.000000
      5        -12.804691   1.000000
      6        -12.804215   1.000000
      7        -12.717820   1.000000
      8        -11.526156   1.000000
      9        -11.525545   1.000000
     10        -11.308170   1.000000
     11        -10.780325   1.000000
     12        -10.655229   1.000000
     13        -10.603529   1.000000
     14        -10.603240   1.000000
     15        -10.261043   1.000000
     16        -10.260348   1.000000
     17        -10.153341   1.000000
     18        -10.151742   1.000000
     19        -10.117033   1.000000
     20        -10.116461   1.000000
     21         -9.810399   1.000000
     22         -9.723353   1.000000
     23         -9.721646   1.000000
     24         -9.500983   1.000000
     25         -9.500250   1.000000
     26         -9.117843   1.000000
     27         -8.474036   1.000000
     28         -8.471998   1.000000
     29         -8.333996   1.000000
     30         -8.333266   1.000000
     31         -8.092533   1.000000
     32         -7.903943   1.000000
     33         -7.903341   1.000000
     34         -7.698675   1.000000
     35         -7.698246   1.000000
     36         -7.320658   1.000000
     37         -7.318309   1.000000
     38         -7.127630   1.000000
     39         -7.127402   1.000000
     40         -7.083569   1.000000
     41         -6.635398   1.000000
     42         -6.634341   1.000000
     43         -6.581928   1.000000
     44         -6.024896   1.000000
     45         -6.023023   1.000000
     46         -5.982153   1.000000
     47         -5.980614   1.000000
     48         -5.908675   1.000000
     49         -5.796455   1.000000
     50         -5.367814   1.000000
     51         -5.365389   1.000000
     52         -5.088395   1.000000
     53         -4.920502   1.000000
     54         -4.918072   1.000000
     55         -4.867717   1.000000
     56         -4.864513   1.000000
     57         -4.841793   1.000000
     58         -4.838291   1.000000
     59         -4.414155   1.000000
     60         -3.981350   1.000000
     61         -3.977097   1.000000
     62         -3.701589   0.874710
     63         -3.699184   0.867562
     64         -3.097678   0.000000
     65         -3.095561   0.000000
     66         -2.103346   0.000000
     67         -2.100902   0.000000
     68         -1.700978   0.000000
     69         -1.698376   0.000000
     70         -1.638442   0.000000
     71         -1.635035   0.000000
     72         -1.379854   0.000000
     73         -1.377233   0.000000
     74         -1.258524   0.000000
     75         -1.255413   0.000000
     76         -0.818385   0.000000
     77         -0.817509   0.000000
     78         -0.813515   0.000000
     79         -0.631837   0.000000
     80         -0.386199   0.000000
     81         -0.212155   0.000000
     82         -0.209840   0.000000
     83         -0.138023   0.000000
     84         -0.134603   0.000000
     85          0.027390   0.000000
     86          0.064086   0.000000
     87          0.065785   0.000000
     88          0.504672   0.000000
     89          0.516976   0.000000
     90          0.518098   0.000000
     91          0.540085   0.000000
     92          0.540724   0.000000
     93          0.737914   0.000000
     94          0.852662   0.000000
     95          0.912388   0.000000
     96          0.968850   0.000000
     97          0.969667   0.000000
     98          1.053128   0.000000
     99          1.054424   0.000000
    100          1.220304   0.000000
    101          1.498769   0.000000
    102          1.564279   0.000000
    103          1.565972   0.000000
    104          1.588244   0.000000
    105          1.589701   0.000000
 
  0.4000000E+00  0.1249001E-14  0.1276756E-14  0.8000000E-01
      1        -14.113278   1.000000
      2        -13.894638   1.000000
      3        -13.317913   1.000000
      4        -13.317512   1.000000
      5        -12.462990   1.000000
      6        -12.462471   1.000000
      7        -12.154227   1.000000
      8        -12.036542   1.000000
      9        -12.035977   1.000000
     10        -11.507364   1.000000
     11        -11.176478   1.000000
     12        -10.958172   1.000000
     13        -10.504880   1.000000
     14        -10.504508   1.000000
     15        -10.341888   1.000000
     16        -10.341416   1.000000
     17        -10.239970   1.000000
     18        -10.238393   1.000000
     19         -9.515462   1.000000
     20         -9.514742   1.000000
     21         -9.383654   1.000000
     22         -9.381859   1.000000
     23         -9.282252   1.000000
     24         -9.127184   1.000000
     25         -9.126409   1.000000
     26         -8.965240   1.000000
     27         -8.963335   1.000000
     28         -8.729775   1.000000
     29         -8.728997   1.000000
     30         -8.711996   1.000000
     31         -8.711284   1.000000
     32         -8.700899   1.000000
     33         -8.255912   1.000000
     34         -7.546528   1.000000
     35         -7.546330   1.000000
     36         -7.250797   1.000000
     37         -7.026957   1.000000
     38         -7.026487   1.000000
     39         -6.861587   1.000000
     40         -6.860846   1.000000
     41         -6.711514   1.000000
     42         -6.709036   1.000000
     43         -6.444741   1.000000
     44         -6.227445   1.000000
     45         -6.218669   1.000000
     46         -6.176981   1.000000
     47         -6.174582   1.000000
     48         -5.657007   1.000000
     49         -5.654621   1.000000
     50         -5.458614   1.000000
     51         -5.456191   1.000000
     52         -5.259880   1.000000
     53         -5.256934   1.000000
     54         -4.650167   1.000000
     55         -4.572973   1.000000
     56         -4.570542   1.000000
     57         -4.339043   1.000000
     58         -4.227326   1.000000
     59         -4.225206   1.000000
     60         -4.157243   1.000000
     61         -4.154816   1.000000
     62         -3.645188   0.637322
     63         -3.640918   0.614447
     64         -3.460685   0.011974
     65         -3.458754   0.011149
     66         -2.013704   0.000000
     67         -2.011229   0.000000
     68         -1.996202   0.000000
     69         -1.992881   0.000000
     70         -1.873754   0.000000
     71         -1.871224   0.000000
     72         -1.294258   0.000000
     73         -1.291722   0.000000
     74         -1.259278   0.000000
     75         -1.256604   0.000000
     76         -0.856836   0.000000
     77         -0.852238   0.000000
     78         -0.540181   0.000000
     79         -0.492654   0.000000
     80         -0.463348   0.000000
     81         -0.267385   0.000000
     82         -0.120132   0.000000
     83         -0.117868   0.000000
     84          0.043855   0.000000
     85          0.046882   0.000000
     86          0.140237   0.000000
     87          0.141852   0.000000
     88          0.178802   0.000000
     89          0.360663   0.000000
     90          0.361687   0.000000
     91          0.451623   0.000000
     92          0.452225   0.000000
     93          0.896336   0.000000
     94          1.071214   0.000000
     95          1.154836   0.000000
     96          1.286522   0.000000
     97          1.288378   0.000000
     98          1.291313   0.000000
     99          1.336256   0.000000
    100          1.386472   0.000000
    101          1.433865   0.000000
    102          1.481537   0.000000
    103          1.482982   0.000000
    104          1.582518   0.000000
    105          1.582929   0.000000
 
  0.1318390E-14  0.2000000E+00  0.1276756E-14  0.8000000E-01
      1        -14.238528   1.000000
      2        -13.498303   1.000000
      3        -13.365053   1.000000
      4        -13.282181   1.000000
      5        -12.929717   1.000000
      6        -12.745703   1.000000
      7        -12.535409   1.000000
      8        -11.561500   1.000000
      9        -11.296596   1.000000
     10        -11.275628   1.000000
     11        -10.921123   1.000000
     12        -10.859781   1.000000
     13        -10.543460   1.000000
     14        -10.469327   1.000000
     15        -10.428578   1.000000
     16        -10.351277   1.000000
     17        -10.252481   1.000000
     18        -10.239554   1.000000
     19        -10.183849   1.000000
     20        -10.005493   1.000000
     21         -9.949261   1.000000
     22         -9.603220   1.000000
     23         -9.517830   1.000000
     24         -9.444158   1.000000
     25         -9.390751   1.000000
     26         -9.216828   1.000000
     27         -8.584595   1.000000
     28         -8.275761   1.000000
     29         -8.237494   1.000000
     30         -8.124475   1.000000
     31         -8.002635   1.000000
     32         -7.895197   1.000000
     33         -7.779743   1.000000
     34         -7.749964   1.000000
     35         -7.747614   1.000000
     36         -7.741890   1.000000
     37         -7.362880   1.000000
     38         -7.215789   1.000000
     39         -7.175777   1.000000
     40         -7.149254   1.000000
     41         -6.788340   1.000000
     42         -6.569737   1.000000
     43         -6.528719   1.000000
     44         -6.373847   1.000000
     45         -5.890605   1.000000
     46         -5.701962   1.000000
     47         -5.679955   1.000000
     48         -5.678205   1.000000
     49         -5.608887   1.000000
     50         -5.476507   1.000000
     51         -5.417361   1.000000
     52         -5.350669   1.000000
     53         -5.264150   1.000000
     54         -4.876821   1.000000
     55         -4.784803   1.000000
     56         -4.640934   1.000000
     57         -4.605348   1.000000
     58         -4.563184   1.000000
     59         -4.420101   1.000000
     60         -4.374913   1.000000
     61         -4.367573   1.000000
     62         -3.893328   0.999943
     63         -3.563136   0.209235
     64         -2.982143   0.000000
     65         -2.938497   0.000000
     66         -2.630794   0.000000
     67         -2.206715   0.000000
     68         -1.882783   0.000000
     69         -1.756157   0.000000
     70         -1.356601   0.000000
     71         -1.332951   0.000000
     72         -1.305107   0.000000
     73         -1.297626   0.000000
     74         -1.280082   0.000000
     75         -1.277529   0.000000
     76         -1.019981   0.000000
     77         -0.750954   0.000000
     78         -0.669353   0.000000
     79         -0.620922   0.000000
     80         -0.440468   0.000000
     81         -0.327175   0.000000
     82         -0.308257   0.000000
     83          0.091599   0.000000
     84          0.114024   0.000000
     85          0.129381   0.000000
     86          0.228008   0.000000
     87          0.234587   0.000000
     88          0.449614   0.000000
     89          0.504305   0.000000
     90          0.510989   0.000000
     91          0.618825   0.000000
     92          0.631242   0.000000
     93          0.750434   0.000000
     94          0.917005   0.000000
     95          0.925015   0.000000
     96          0.979680   0.000000
     97          1.070967   0.000000
     98          1.075320   0.000000
     99          1.232380   0.000000
    100          1.271387   0.000000
    101          1.448707   0.000000
    102          1.454927   0.000000
    103          1.457615   0.000000
    104          1.644179   0.000000
    105          1.651320   0.000000
 
  0.2000000E+00  0.2000000E+00  0.1276756E-14  0.8000000E-01
      1        -14.151058   1.000000
      2        -13.714059   1.000000
      3        -13.627923   1.000000
      4        -12.980013   1.000000
      5        -12.872104   1.000000
      6        -12.408720   1.000000
      7        -12.241025   1.000000
      8        -12.119023   1.000000
      9        -11.401935   1.000000
     10        -11.208718   1.000000
     11        -11.201606   1.000000
     12        -11.116170   1.000000
     13        -10.834395   1.000000
     14        -10.772653   1.000000
     15        -10.599978   1.000000
     16        -10.202193   1.000000
     17         -9.951545   1.000000
     18         -9.896262   1.000000
     19         -9.761580   1.000000
     20         -9.731509   1.000000
     21         -9.638872   1.000000
     22         -9.545776   1.000000
     23         -9.509857   1.000000
     24         -9.111377   1.000000
     25         -9.095362   1.000000
     26         -8.968226   1.000000
     27         -8.768068   1.000000
     28         -8.641730   1.000000
     29         -8.571898   1.000000
     30         -8.477771   1.000000
     31         -8.353210   1.000000
     32         -8.268824   1.000000
     33         -8.031411   1.000000
     34         -8.014055   1.000000
     35         -7.819009   1.000000
     36         -7.443721   1.000000
     37         -7.391503   1.000000
     38         -7.367172   1.000000
     39         -7.013225   1.000000
     40         -6.569128   1.000000
     41         -6.478004   1.000000
     42         -6.383720   1.000000
     43         -6.369339   1.000000
     44         -6.321979   1.000000
     45         -6.073910   1.000000
     46         -6.052948   1.000000
     47         -6.027042   1.000000
     48         -5.838483   1.000000
     49         -5.560656   1.000000
     50         -5.445607   1.000000
     51         -5.397708   1.000000
     52         -5.166951   1.000000
     53         -5.032506   1.000000
     54         -4.921375   1.000000
     55         -4.919202   1.000000
     56         -4.816819   1.000000
     57         -4.342134   1.000000
     58         -4.261157   1.000000
     59         -4.257879   1.000000
     60         -4.168522   1.000000
     61         -4.080647   1.000000
     62         -3.929220   0.999994
     63         -3.632904   0.570476
     64         -3.437697   0.004896
     65         -2.861301   0.000000
     66         -2.690796   0.000000
     67         -2.488056   0.000000
     68         -2.298163   0.000000
     69         -1.551510   0.000000
     70         -1.391707   0.000000
     71         -1.360082   0.000000
     72         -1.264573   0.000000
     73         -1.263191   0.000000
     74         -1.253702   0.000000
     75         -1.228440   0.000000
     76         -1.142427   0.000000
     77         -0.670576   0.000000
     78         -0.527530   0.000000
     79         -0.425411   0.000000
     80         -0.321885   0.000000
     81         -0.158011   0.000000
     82         -0.082186   0.000000
     83         -0.080952   0.000000
     84         -0.029177   0.000000
     85          0.042077   0.000000
     86          0.051941   0.000000
     87          0.090637   0.000000
     88          0.092115   0.000000
     89          0.347902   0.000000
     90          0.463824   0.000000
     91          0.697015   0.000000
     92          0.744428   0.000000
     93          0.816532   0.000000
     94          0.856498   0.000000
     95          0.948024   0.000000
     96          1.031018   0.000000
     97          1.045890   0.000000
     98          1.284380   0.000000
     99          1.289761   0.000000
    100          1.343177   0.000000
    101          1.369824   0.000000
    102          1.440844   0.000000
    103          1.481348   0.000000
    104          1.541614   0.000000
    105          1.566188   0.000000
 
  0.4000000E+00  0.2000000E+00  0.1276756E-14  0.8000000E-01
      1        -13.976191   1.000000
      2        -13.976157   1.000000
      3        -13.671121   1.000000
      4        -12.914276   1.000000
      5        -12.592263   1.000000
      6        -12.592000   1.000000
      7        -11.863106   1.000000
      8        -11.862712   1.000000
      9        -11.803471   1.000000
     10        -11.803375   1.000000
     11        -11.054427   1.000000
     12        -11.054125   1.000000
     13        -11.033554   1.000000
     14        -11.033502   1.000000
     15        -10.643615   1.000000
     16         -9.791809   1.000000
     17         -9.791450   1.000000
     18         -9.774405   1.000000
     19         -9.569724   1.000000
     20         -9.569444   1.000000
     21         -9.412490   1.000000
     22         -9.412013   1.000000
     23         -9.285226   1.000000
     24         -9.284484   1.000000
     25         -8.952736   1.000000
     26         -8.952644   1.000000
     27         -8.791853   1.000000
     28         -8.791180   1.000000
     29         -8.720108   1.000000
     30         -8.719655   1.000000
     31         -8.715549   1.000000
     32         -8.714836   1.000000
     33         -8.000154   1.000000
     34         -7.975484   1.000000
     35         -7.668103   1.000000
     36         -7.667662   1.000000
     37         -7.400084   1.000000
     38         -7.222798   1.000000
     39         -6.804194   1.000000
     40         -6.803834   1.000000
     41         -6.295977   1.000000
     42         -6.295940   1.000000
     43         -6.220685   1.000000
     44         -6.219917   1.000000
     45         -6.194780   1.000000
     46         -5.982581   1.000000
     47         -5.981959   1.000000
     48         -5.902158   1.000000
     49         -5.900797   1.000000
     50         -5.884187   1.000000
     51         -5.193099   1.000000
     52         -5.190830   1.000000
     53         -4.964249   1.000000
     54         -4.782456   1.000000
     55         -4.782213   1.000000
     56         -4.416909   1.000000
     57         -4.416868   1.000000
     58         -4.240578   1.000000
     59         -4.240111   1.000000
     60         -4.088965   1.000000
     61         -3.877203   0.999860
     62         -3.876810   0.999857
     63         -3.716350   0.912721
     64         -3.320780   0.000011
     65         -3.320061   0.000011
     66         -2.709625   0.000000
     67         -2.709197   0.000000
     68         -2.560458   0.000000
     69         -1.388242   0.000000
     70         -1.387375   0.000000
     71         -1.308212   0.000000
     72         -1.273689   0.000000
     73         -1.273133   0.000000
     74         -1.247019   0.000000
     75         -1.246111   0.000000
     76         -1.236704   0.000000
     77         -0.561902   0.000000
     78         -0.344242   0.000000
     79         -0.344207   0.000000
     80         -0.203596   0.000000
     81         -0.203373   0.000000
     82         -0.098159   0.000000
     83         -0.098050   0.000000
     84         -0.029333   0.000000
     85          0.046397   0.000000
     86          0.064724   0.000000
     87          0.065381   0.000000
     88          0.184608   0.000000
     89          0.185997   0.000000
     90          0.304829   0.000000
     91          0.305544   0.000000
     92          0.906554   0.000000
     93          1.065804   0.000000
     94          1.065842   0.000000
     95          1.075540   0.000000
     96          1.075764   0.000000
     97          1.145612   0.000000
     98          1.145771   0.000000
     99          1.243172   0.000000
    100          1.243210   0.000000
    101          1.468892   0.000000
    102          1.518568   0.000000
    103          1.564739   0.000000
    104          1.564782   0.000000
    105          1.619196   0.000000
 
 -0.4000000E+00  0.2000000E+00  0.1276756E-14  0.8000000E-01
      1        -14.151037   1.000000
      2        -13.714106   1.000000
      3        -13.627869   1.000000
      4        -12.980226   1.000000
      5        -12.872186   1.000000
      6        -12.408636   1.000000
      7        -12.240706   1.000000
      8        -12.118711   1.000000
      9        -11.402400   1.000000
     10        -11.208698   1.000000
     11        -11.201787   1.000000
     12        -11.116277   1.000000
     13        -10.833983   1.000000
     14        -10.772701   1.000000
     15        -10.599919   1.000000
     16        -10.202637   1.000000
     17         -9.951773   1.000000
     18         -9.896041   1.000000
     19         -9.762267   1.000000
     20         -9.731603   1.000000
     21         -9.639356   1.000000
     22         -9.545134   1.000000
     23         -9.509773   1.000000
     24         -9.111048   1.000000
     25         -9.094995   1.000000
     26         -8.967514   1.000000
     27         -8.767305   1.000000
     28         -8.641604   1.000000
     29         -8.571409   1.000000
     30         -8.478438   1.000000
     31         -8.353305   1.000000
     32         -8.269359   1.000000
     33         -8.031193   1.000000
     34         -8.014704   1.000000
     35         -7.819273   1.000000
     36         -7.443100   1.000000
     37         -7.391909   1.000000
     38         -7.367545   1.000000
     39         -7.013250   1.000000
     40         -6.568445   1.000000
     41         -6.477984   1.000000
     42         -6.383562   1.000000
     43         -6.370519   1.000000
     44         -6.321524   1.000000
     45         -6.075004   1.000000
     46         -6.053009   1.000000
     47         -6.027086   1.000000
     48         -5.838429   1.000000
     49         -5.560970   1.000000
     50         -5.443548   1.000000
     51         -5.396191   1.000000
     52         -5.167157   1.000000
     53         -5.032904   1.000000
     54         -4.923708   1.000000
     55         -4.919293   1.000000
     56         -4.816759   1.000000
     57         -4.341874   1.000000
     58         -4.261138   1.000000
     59         -4.257552   1.000000
     60         -4.167493   1.000000
     61         -4.080120   1.000000
     62         -3.930345   0.999994
     63         -3.632657   0.569107
     64         -3.438122   0.004982
     65         -2.861556   0.000000
     66         -2.691227   0.000000
     67         -2.487455   0.000000
     68         -2.297629   0.000000
     69         -1.552402   0.000000
     70         -1.391871   0.000000
     71         -1.358760   0.000000
     72         -1.264864   0.000000
     73         -1.262856   0.000000
     74         -1.254780   0.000000
     75         -1.227645   0.000000
     76         -1.142944   0.000000
     77         -0.670517   0.000000
     78         -0.527508   0.000000
     79         -0.425451   0.000000
     80         -0.321900   0.000000
     81         -0.156605   0.000000
     82         -0.082284   0.000000
     83         -0.080998   0.000000
     84         -0.029032   0.000000
     85          0.041742   0.000000
     86          0.052463   0.000000
     87          0.089146   0.000000
     88          0.092176   0.000000
     89          0.348732   0.000000
     90          0.463766   0.000000
     91          0.696702   0.000000
     92          0.744196   0.000000
     93          0.816871   0.000000
     94          0.856521   0.000000
     95          0.947896   0.000000
     96          1.031041   0.000000
     97          1.045980   0.000000
     98          1.277062   0.000000
     99          1.289550   0.000000
    100          1.343200   0.000000
    101          1.369772   0.000000
    102          1.440589   0.000000
    103          1.480968   0.000000
    104          1.542121   0.000000
    105          1.562344   0.000000
 
 -0.2000000E+00  0.2000000E+00  0.1276756E-14  0.8000000E-01
      1        -14.238521   1.000000
      2        -13.498195   1.000000
      3        -13.365113   1.000000
      4        -13.282342   1.000000
      5        -12.929644   1.000000
      6        -12.745866   1.000000
      7        -12.535168   1.000000
      8        -11.561140   1.000000
      9        -11.296589   1.000000
     10        -11.275689   1.000000
     11        -10.921527   1.000000
     12        -10.860313   1.000000
     13        -10.542943   1.000000
     14        -10.469211   1.000000
     15        -10.428639   1.000000
     16        -10.351394   1.000000
     17        -10.252653   1.000000
     18        -10.238963   1.000000
     19        -10.184458   1.000000
     20        -10.005420   1.000000
     21         -9.949186   1.000000
     22         -9.603405   1.000000
     23         -9.517705   1.000000
     24         -9.444747   1.000000
     25         -9.390473   1.000000
     26         -9.216161   1.000000
     27         -8.584224   1.000000
     28         -8.276326   1.000000
     29         -8.236761   1.000000
     30         -8.124061   1.000000
     31         -8.003035   1.000000
     32         -7.895285   1.000000
     33         -7.779378   1.000000
     34         -7.750545   1.000000
     35         -7.747733   1.000000
     36         -7.742509   1.000000
     37         -7.363257   1.000000
     38         -7.215720   1.000000
     39         -7.175114   1.000000
     40         -7.148449   1.000000
     41         -6.789332   1.000000
     42         -6.569730   1.000000
     43         -6.528951   1.000000
     44         -6.373696   1.000000
     45         -5.892036   1.000000
     46         -5.701854   1.000000
     47         -5.678584   1.000000
     48         -5.677867   1.000000
     49         -5.608732   1.000000
     50         -5.476666   1.000000
     51         -5.417398   1.000000
     52         -5.350789   1.000000
     53         -5.264089   1.000000
     54         -4.875214   1.000000
     55         -4.784975   1.000000
     56         -4.643133   1.000000
     57         -4.605257   1.000000
     58         -4.562929   1.000000
     59         -4.420061   1.000000
     60         -4.373408   1.000000
     61         -4.368833   1.000000
     62         -3.893098   0.999943
     63         -3.563214   0.209551
     64         -2.982523   0.000000
     65         -2.938582   0.000000
     66         -2.630667   0.000000
     67         -2.205948   0.000000
     68         -1.883677   0.000000
     69         -1.755254   0.000000
     70         -1.356084   0.000000
     71         -1.331605   0.000000
     72         -1.306109   0.000000
     73         -1.298600   0.000000
     74         -1.280423   0.000000
     75         -1.278492   0.000000
     76         -1.019486   0.000000
     77         -0.750977   0.000000
     78         -0.668234   0.000000
     79         -0.620914   0.000000
     80         -0.440440   0.000000
     81         -0.326984   0.000000
     82         -0.308375   0.000000
     83          0.090561   0.000000
     84          0.114195   0.000000
     85          0.129745   0.000000
     86          0.228138   0.000000
     87          0.234537   0.000000
     88          0.449424   0.000000
     89          0.504349   0.000000
     90          0.511014   0.000000
     91          0.618676   0.000000
     92          0.631686   0.000000
     93          0.750441   0.000000
     94          0.916555   0.000000
     95          0.925024   0.000000
     96          0.979634   0.000000
     97          1.070701   0.000000
     98          1.074853   0.000000
     99          1.232388   0.000000
    100          1.271775   0.000000
    101          1.448697   0.000000
    102          1.453750   0.000000
    103          1.458492   0.000000
    104          1.644166   0.000000
    105          1.651786   0.000000
 
  0.1332268E-14  0.4000000E+00  0.1276756E-14  0.8000000E-01
      1        -14.089463   1.000000
      2        -13.842109   1.000000
      3        -13.435328   1.000000
      4        -13.407437   1.000000
      5        -12.566298   1.000000
      6        -12.339612   1.000000
      7        -12.108672   1.000000
      8        -11.929466   1.000000
      9        -11.847216   1.000000
     10        -11.257196   1.000000
     11        -11.130110   1.000000
     12        -10.853740   1.000000
     13        -10.821649   1.000000
     14        -10.706394   1.000000
     15        -10.632125   1.000000
     16        -10.478551   1.000000
     17        -10.477808   1.000000
     18        -10.418987   1.000000
     19         -9.633890   1.000000
     20         -9.510438   1.000000
     21         -9.249454   1.000000
     22         -9.158771   1.000000
     23         -9.126312   1.000000
     24         -9.036177   1.000000
     25         -8.974644   1.000000
     26         -8.834363   1.000000
     27         -8.805239   1.000000
     28         -8.710298   1.000000
     29         -8.637021   1.000000
     30         -8.602346   1.000000
     31         -8.554338   1.000000
     32         -8.370906   1.000000
     33         -8.000815   1.000000
     34         -7.953692   1.000000
     35         -7.914434   1.000000
     36         -7.568091   1.000000
     37         -7.500034   1.000000
     38         -7.440351   1.000000
     39         -7.175998   1.000000
     40         -6.905738   1.000000
     41         -6.665913   1.000000
     42         -6.395471   1.000000
     43         -6.380113   1.000000
     44         -6.105762   1.000000
     45         -5.722251   1.000000
     46         -5.657040   1.000000
     47         -5.655196   1.000000
     48         -5.605335   1.000000
     49         -5.582223   1.000000
     50         -5.572095   1.000000
     51         -5.429240   1.000000
     52         -5.292207   1.000000
     53         -5.000138   1.000000
     54         -4.992236   1.000000
     55         -4.900387   1.000000
     56         -4.841440   1.000000
     57         -4.563930   1.000000
     58         -4.439912   1.000000
     59         -4.273985   1.000000
     60         -4.217228   1.000000
     61         -3.867865   0.999768
     62         -3.840854   0.999091
     63         -3.693139   0.848363
     64         -3.656611   0.695975
     65         -3.038178   0.000000
     66         -2.766644   0.000000
     67         -2.650293   0.000000
     68         -2.277923   0.000000
     69         -2.012678   0.000000
     70         -1.534534   0.000000
     71         -1.441984   0.000000
     72         -1.289528   0.000000
     73         -1.250113   0.000000
     74         -0.786755   0.000000
     75         -0.751557   0.000000
     76         -0.683170   0.000000
     77         -0.580823   0.000000
     78         -0.461565   0.000000
     79         -0.448202   0.000000
     80         -0.391009   0.000000
     81         -0.295832   0.000000
     82         -0.283908   0.000000
     83         -0.216897   0.000000
     84         -0.163362   0.000000
     85          0.210719   0.000000
     86          0.211108   0.000000
     87          0.257485   0.000000
     88          0.281113   0.000000
     89          0.494390   0.000000
     90          0.663650   0.000000
     91          0.703570   0.000000
     92          0.860437   0.000000
     93          0.947229   0.000000
     94          0.974435   0.000000
     95          0.990009   0.000000
     96          1.122039   0.000000
     97          1.201286   0.000000
     98          1.273626   0.000000
     99          1.283092   0.000000
    100          1.434821   0.000000
    101          1.451553   0.000000
    102          1.482376   0.000000
    103          1.504897   0.000000
    104          1.567537   0.000000
    105          1.573201   0.000000
 
  0.2000000E+00  0.4000000E+00  0.1276756E-14  0.8000000E-01
      1        -13.958540   1.000000
      2        -13.929069   1.000000
      3        -13.740380   1.000000
      4        -13.060243   1.000000
      5        -12.627200   1.000000
      6        -12.421843   1.000000
      7        -12.003810   1.000000
      8        -11.728773   1.000000
      9        -11.602002   1.000000
     10        -11.532067   1.000000
     11        -11.357911   1.000000
     12        -11.193490   1.000000
     13        -10.998623   1.000000
     14        -10.941325   1.000000
     15        -10.780536   1.000000
     16        -10.075822   1.000000
     17        -10.060384   1.000000
     18         -9.980661   1.000000
     19         -9.653755   1.000000
     20         -9.419089   1.000000
     21         -9.232764   1.000000
     22         -9.210308   1.000000
     23         -9.202699   1.000000
     24         -9.128971   1.000000
     25         -9.105794   1.000000
     26         -8.818911   1.000000
     27         -8.747349   1.000000
     28         -8.680455   1.000000
     29         -8.598505   1.000000
     30         -8.523889   1.000000
     31         -8.432969   1.000000
     32         -8.381494   1.000000
     33         -8.232324   1.000000
     34         -8.125792   1.000000
     35         -8.098568   1.000000
     36         -7.975873   1.000000
     37         -7.393022   1.000000
     38         -7.158497   1.000000
     39         -7.072325   1.000000
     40         -6.859816   1.000000
     41         -6.689307   1.000000
     42         -6.258379   1.000000
     43         -6.197311   1.000000
     44         -6.152032   1.000000
     45         -6.032303   1.000000
     46         -6.024243   1.000000
     47         -5.783585   1.000000
     48         -5.539134   1.000000
     49         -5.488707   1.000000
     50         -5.306216   1.000000
     51         -5.251361   1.000000
     52         -5.206171   1.000000
     53         -5.104295   1.000000
     54         -4.973191   1.000000
     55         -4.890890   1.000000
     56         -4.806960   1.000000
     57         -4.459280   1.000000
     58         -4.368319   1.000000
     59         -4.361982   1.000000
     60         -4.218503   1.000000
     61         -4.143335   1.000000
     62         -3.530508   0.101952
     63         -3.503711   0.049526
     64         -3.323010   0.000013
     65         -3.128417   0.000000
     66         -3.105774   0.000000
     67         -3.098537   0.000000
     68         -2.382258   0.000000
     69         -1.855273   0.000000
     70         -1.511985   0.000000
     71         -1.438613   0.000000
     72         -1.395103   0.000000
     73         -1.033074   0.000000
     74         -1.023654   0.000000
     75         -0.782075   0.000000
     76         -0.504556   0.000000
     77         -0.475997   0.000000
     78         -0.468219   0.000000
     79         -0.309547   0.000000
     80         -0.305434   0.000000
     81         -0.255807   0.000000
     82         -0.234786   0.000000
     83         -0.138819   0.000000
     84         -0.084671   0.000000
     85         -0.032578   0.000000
     86          0.140155   0.000000
     87          0.243490   0.000000
     88          0.331130   0.000000
     89          0.368478   0.000000
     90          0.600341   0.000000
     91          0.748197   0.000000
     92          0.853378   0.000000
     93          0.893565   0.000000
     94          0.996597   0.000000
     95          1.026592   0.000000
     96          1.105098   0.000000
     97          1.168344   0.000000
     98          1.185501   0.000000
     99          1.281716   0.000000
    100          1.344511   0.000000
    101          1.363004   0.000000
    102          1.371333   0.000000
    103          1.436654   0.000000
    104          1.449606   0.000000
    105          1.477709   0.000000
 
  0.4000000E+00  0.4000000E+00  0.1276756E-14  0.8000000E-01
      1        -13.958487   1.000000
      2        -13.929049   1.000000
      3        -13.740460   1.000000
      4        -13.060422   1.000000
      5        -12.626983   1.000000
      6        -12.421890   1.000000
      7        -12.003629   1.000000
      8        -11.728989   1.000000
      9        -11.601588   1.000000
     10        -11.531747   1.000000
     11        -11.358113   1.000000
     12        -11.193986   1.000000
     13        -10.998567   1.000000
     14        -10.941303   1.000000
     15        -10.780619   1.000000
     16        -10.076009   1.000000
     17        -10.060732   1.000000
     18         -9.981334   1.000000
     19         -9.653531   1.000000
     20         -9.418359   1.000000
     21         -9.232393   1.000000
     22         -9.210364   1.000000
     23         -9.202381   1.000000
     24         -9.129427   1.000000
     25         -9.105616   1.000000
     26         -8.818181   1.000000
     27         -8.746657   1.000000
     28         -8.681104   1.000000
     29         -8.598412   1.000000
     30         -8.524079   1.000000
     31         -8.433250   1.000000
     32         -8.380985   1.000000
     33         -8.231901   1.000000
     34         -8.125576   1.000000
     35         -8.099282   1.000000
     36         -7.976490   1.000000
     37         -7.393306   1.000000
     38         -7.158761   1.000000
     39         -7.072473   1.000000
     40         -6.859603   1.000000
     41         -6.690281   1.000000
     42         -6.258327   1.000000
     43         -6.197291   1.000000
     44         -6.150943   1.000000
     45         -6.032380   1.000000
     46         -6.024266   1.000000
     47         -5.782711   1.000000
     48         -5.538269   1.000000
     49         -5.490013   1.000000
     50         -5.306382   1.000000
     51         -5.252074   1.000000
     52         -5.203732   1.000000
     53         -5.106631   1.000000
     54         -4.973549   1.000000
     55         -4.890703   1.000000
     56         -4.806634   1.000000
     57         -4.459171   1.000000
     58         -4.368545   1.000000
     59         -4.362036   1.000000
     60         -4.218219   1.000000
     61         -4.143372   1.000000
     62         -3.530771   0.102616
     63         -3.503259   0.048874
     64         -3.322615   0.000013
     65         -3.127667   0.000000
     66         -3.105692   0.000000
     67         -3.099057   0.000000
     68         -2.383058   0.000000
     69         -1.855901   0.000000
     70         -1.511820   0.000000
     71         -1.439771   0.000000
     72         -1.394036   0.000000
     73         -1.033784   0.000000
     74         -1.023307   0.000000
     75         -0.781170   0.000000
     76         -0.504648   0.000000
     77         -0.475712   0.000000
     78         -0.468273   0.000000
     79         -0.309488   0.000000
     80         -0.305246   0.000000
     81         -0.255783   0.000000
     82         -0.234705   0.000000
     83         -0.139075   0.000000
     84         -0.084756   0.000000
     85         -0.031331   0.000000
     86          0.141897   0.000000
     87          0.241866   0.000000
     88          0.332297   0.000000
     89          0.368279   0.000000
     90          0.600178   0.000000
     91          0.747810   0.000000
     92          0.853663   0.000000
     93          0.893659   0.000000
     94          0.996243   0.000000
     95          1.025777   0.000000
     96          1.105160   0.000000
     97          1.168368   0.000000
     98          1.185383   0.000000
     99          1.281777   0.000000
    100          1.344533   0.000000
    101          1.362915   0.000000
    102          1.371811   0.000000
    103          1.436562   0.000000
    104          1.477493   0.000000
    105          1.488223   0.000000
 
 -0.4000000E+00  0.4000000E+00  0.1276756E-14  0.8000000E-01
      1        -14.089436   1.000000
      2        -13.842048   1.000000
      3        -13.435435   1.000000
      4        -13.407577   1.000000
      5        -12.566141   1.000000
      6        -12.339754   1.000000
      7        -12.108419   1.000000
      8        -11.929139   1.000000
      9        -11.847325   1.000000
     10        -11.256776   1.000000
     11        -11.130082   1.000000
     12        -10.853676   1.000000
     13        -10.821969   1.000000
     14        -10.706967   1.000000
     15        -10.632349   1.000000
     16        -10.479096   1.000000
     17        -10.477973   1.000000
     18        -10.419135   1.000000
     19         -9.633732   1.000000
     20         -9.509742   1.000000
     21         -9.249291   1.000000
     22         -9.158515   1.000000
     23         -9.126483   1.000000
     24         -9.036746   1.000000
     25         -8.974390   1.000000
     26         -8.833669   1.000000
     27         -8.804478   1.000000
     28         -8.709900   1.000000
     29         -8.637580   1.000000
     30         -8.602075   1.000000
     31         -8.554479   1.000000
     32         -8.370540   1.000000
     33         -8.001111   1.000000
     34         -7.953129   1.000000
     35         -7.914626   1.000000
     36         -7.568706   1.000000
     37         -7.500752   1.000000
     38         -7.440901   1.000000
     39         -7.176840   1.000000
     40         -6.905663   1.000000
     41         -6.665984   1.000000
     42         -6.395444   1.000000
     43         -6.379243   1.000000
     44         -6.105702   1.000000
     45         -5.722351   1.000000
     46         -5.657207   1.000000
     47         -5.655330   1.000000
     48         -5.605544   1.000000
     49         -5.581059   1.000000
     50         -5.571667   1.000000
     51         -5.430973   1.000000
     52         -5.289855   1.000000
     53         -5.002171   1.000000
     54         -4.992422   1.000000
     55         -4.900262   1.000000
     56         -4.840473   1.000000
     57         -4.564770   1.000000
     58         -4.439726   1.000000
     59         -4.274145   1.000000
     60         -4.217112   1.000000
     61         -3.867813   0.999767
     62         -3.840489   0.999075
     63         -3.692878   0.847497
     64         -3.656744   0.696631
     65         -3.037658   0.000000
     66         -2.766082   0.000000
     67         -2.650823   0.000000
     68         -2.278617   0.000000
     69         -2.012878   0.000000
     70         -1.535384   0.000000
     71         -1.442845   0.000000
     72         -1.288855   0.000000
     73         -1.250382   0.000000
     74         -0.786501   0.000000
     75         -0.751062   0.000000
     76         -0.683145   0.000000
     77         -0.580203   0.000000
     78         -0.461203   0.000000
     79         -0.448172   0.000000
     80         -0.390844   0.000000
     81         -0.295868   0.000000
     82         -0.284037   0.000000
     83         -0.215218   0.000000
     84         -0.163292   0.000000
     85          0.210635   0.000000
     86          0.212612   0.000000
     87          0.258386   0.000000
     88          0.280964   0.000000
     89          0.493132   0.000000
     90          0.663325   0.000000
     91          0.703552   0.000000
     92          0.860250   0.000000
     93          0.947260   0.000000
     94          0.974513   0.000000
     95          0.989855   0.000000
     96          1.122070   0.000000
     97          1.201281   0.000000
     98          1.273696   0.000000
     99          1.283380   0.000000
    100          1.434852   0.000000
    101          1.451316   0.000000
    102          1.452175   0.000000
    103          1.482011   0.000000
    104          1.504602   0.000000
    105          1.567623   0.000000
 
 -0.2000000E+00  0.4000000E+00  0.1276756E-14  0.8000000E-01
      1        -14.133106   1.000000
      2        -13.668231   1.000000
      3        -13.668130   1.000000
      4        -13.043845   1.000000
      5        -13.043713   1.000000
      6        -12.175535   1.000000
      7        -12.175299   1.000000
      8        -11.886767   1.000000
      9        -11.506138   1.000000
     10        -11.505851   1.000000
     11        -11.174042   1.000000
     12        -10.905509   1.000000
     13        -10.904995   1.000000
     14        -10.679200   1.000000
     15        -10.679093   1.000000
     16        -10.143877   1.000000
     17        -10.143236   1.000000
     18        -10.094090   1.000000
     19        -10.093954   1.000000
     20         -9.832756   1.000000
     21         -9.832513   1.000000
     22         -9.265437   1.000000
     23         -8.959378   1.000000
     24         -8.959092   1.000000
     25         -8.934530   1.000000
     26         -8.933880   1.000000
     27         -8.613413   1.000000
     28         -8.612983   1.000000
     29         -8.601641   1.000000
     30         -8.601358   1.000000
     31         -8.594881   1.000000
     32         -8.167197   1.000000
     33         -8.166455   1.000000
     34         -7.760454   1.000000
     35         -7.600318   1.000000
     36         -7.599614   1.000000
     37         -7.329931   1.000000
     38         -7.329761   1.000000
     39         -7.122019   1.000000
     40         -7.008068   1.000000
     41         -6.963281   1.000000
     42         -6.962474   1.000000
     43         -6.441384   1.000000
     44         -5.924011   1.000000
     45         -5.923912   1.000000
     46         -5.787307   1.000000
     47         -5.583627   1.000000
     48         -5.365597   1.000000
     49         -5.363497   1.000000
     50         -5.338013   1.000000
     51         -5.337893   1.000000
     52         -5.046935   1.000000
     53         -5.021809   1.000000
     54         -5.020671   1.000000
     55         -4.908845   1.000000
     56         -4.907288   1.000000
     57         -4.807289   1.000000
     58         -4.807062   1.000000
     59         -4.099533   1.000000
     60         -4.099259   1.000000
     61         -4.032190   1.000000
     62         -4.032048   1.000000
     63         -3.809356   0.996241
     64         -3.698951   0.866852
     65         -2.684597   0.000000
     66         -2.683968   0.000000
     67         -2.222382   0.000000
     68         -2.222010   0.000000
     69         -2.113952   0.000000
     70         -2.113000   0.000000
     71         -1.387667   0.000000
     72         -1.387349   0.000000
     73         -1.088310   0.000000
     74         -1.088140   0.000000
     75         -0.642053   0.000000
     76         -0.519603   0.000000
     77         -0.519478   0.000000
     78         -0.505909   0.000000
     79         -0.494924   0.000000
     80         -0.456888   0.000000
     81         -0.456269   0.000000
     82         -0.433680   0.000000
     83          0.018452   0.000000
     84          0.018565   0.000000
     85          0.242515   0.000000
     86          0.242856   0.000000
     87          0.415171   0.000000
     88          0.416192   0.000000
     89          0.529653   0.000000
     90          0.529743   0.000000
     91          0.815451   0.000000
     92          0.816196   0.000000
     93          0.894201   0.000000
     94          1.068854   0.000000
     95          1.099351   0.000000
     96          1.099772   0.000000
     97          1.373376   0.000000
     98          1.378183   0.000000
     99          1.379404   0.000000
    100          1.379961   0.000000
    101          1.383956   0.000000
    102          1.385051   0.000000
    103          1.481605   0.000000
    104          1.481720   0.000000
    105          1.581032   0.000000
