       N       E                     dE             d eps       ncg     rms          rms(c)
DAV:   1    -0.738179542918E+01   -0.73818E+01   -0.15010E+03   616   0.208E+02
DAV:   2    -0.171524786191E+02   -0.97707E+01   -0.91315E+01   784   0.284E+01
DAV:   3    -0.173562857084E+02   -0.20381E+00   -0.20242E+00   812   0.560E+00
DAV:   4    -0.173571062800E+02   -0.82057E-03   -0.82057E-03  1064   0.359E-01
DAV:   5    -0.173571065532E+02   -0.27312E-06   -0.27322E-06   812   0.684E-03
DAV:   6    -0.173571065576E+02   -0.44747E-08   -0.43363E-08  1120   0.665E-04
   1 F= -.17357107E+02 E0= -.17356820E+02  d E =-.573100E-03  mag=     0.0000    -0.0000     0.0000
