  45  45   0   0
  0.3867808E+02  0.6596426E-09  0.6596426E-09  0.4000000E-08  0.1500000E-16
  1.000000000000000E-004
  CAR 
 phonon_dispersion                       
     10.98031343    -15.06523165  301     -2.05738702      1.00000000
    -15.065  0.0000E+00  0.0000E+00
    -14.978  0.0000E+00  0.0000E+00
    -14.892  0.0000E+00  0.0000E+00
    -14.805  0.0000E+00  0.0000E+00
    -14.718  0.0000E+00  0.0000E+00
    -14.631  0.0000E+00  0.0000E+00
    -14.544  0.0000E+00  0.0000E+00
    -14.458  0.0000E+00  0.0000E+00
    -14.371  0.0000E+00  0.0000E+00
    -14.284  0.0000E+00  0.0000E+00
    -14.197  0.0000E+00  0.0000E+00
    -14.110  0.1679E-13  0.1458E-14
    -14.023  0.1239E-07  0.1075E-08
    -13.937  0.4371E-04  0.3796E-05
    -13.850  0.1679E-02  0.1496E-03
    -13.763  0.4156E-02  0.5105E-03
    -13.676  0.4268E-02  0.8810E-03
    -13.589  0.4084E-02  0.1236E-02
    -13.502  0.4635E-02  0.1638E-02
    -13.416  0.3806E-02  0.1968E-02
    -13.329  0.4953E-02  0.2399E-02
    -13.242  0.6676E-02  0.2978E-02
    -13.155  0.7866E-02  0.3661E-02
    -13.068  0.9402E-02  0.4477E-02
    -12.982  0.8421E-02  0.5208E-02
    -12.895  0.8005E-02  0.5903E-02
    -12.808  0.8583E-02  0.6649E-02
    -12.721  0.1053E-01  0.7563E-02
    -12.634  0.6125E-02  0.8095E-02
    -12.547  0.9165E-02  0.8891E-02
    -12.461  0.1076E-01  0.9824E-02
    -12.374  0.6911E-02  0.1042E-01
    -12.287  0.8054E-02  0.1112E-01
    -12.200  0.1026E-01  0.1201E-01
    -12.113  0.8913E-02  0.1279E-01
    -12.027  0.7737E-02  0.1346E-01
    -11.940  0.9735E-02  0.1431E-01
    -11.853  0.7523E-02  0.1496E-01
    -11.766  0.1050E-01  0.1587E-01
    -11.679  0.8620E-02  0.1662E-01
    -11.592  0.9650E-02  0.1746E-01
    -11.506  0.5883E-02  0.1797E-01
    -11.419  0.1279E-01  0.1908E-01
    -11.332  0.7341E-02  0.1971E-01
    -11.245  0.1002E-01  0.2058E-01
    -11.158  0.8919E-02  0.2136E-01
    -11.072  0.9215E-02  0.2216E-01
    -10.985  0.8115E-02  0.2286E-01
    -10.898  0.1079E-01  0.2380E-01
    -10.811  0.1145E-01  0.2479E-01
    -10.724  0.8094E-02  0.2550E-01
    -10.637  0.6465E-02  0.2606E-01
    -10.551  0.1274E-01  0.2716E-01
    -10.464  0.1116E-01  0.2813E-01
    -10.377  0.1003E-01  0.2900E-01
    -10.290  0.8784E-02  0.2977E-01
    -10.203  0.1516E-01  0.3108E-01
    -10.117  0.1719E-01  0.3258E-01
    -10.030  0.1274E-01  0.3368E-01
     -9.943  0.1489E-01  0.3497E-01
     -9.856  0.1641E-01  0.3640E-01
     -9.769  0.1750E-01  0.3792E-01
     -9.682  0.1562E-01  0.3927E-01
     -9.596  0.1997E-01  0.4101E-01
     -9.509  0.1882E-01  0.4264E-01
     -9.422  0.2130E-01  0.4449E-01
     -9.335  0.1277E-01  0.4560E-01
     -9.248  0.1440E-01  0.4685E-01
     -9.162  0.1378E-01  0.4805E-01
     -9.075  0.1320E-01  0.4919E-01
     -8.988  0.1675E-01  0.5065E-01
     -8.901  0.1041E-01  0.5155E-01
     -8.814  0.8570E-02  0.5229E-01
     -8.727  0.9419E-02  0.5311E-01
     -8.641  0.1890E-01  0.5475E-01
     -8.554  0.1170E-01  0.5577E-01
     -8.467  0.6417E-02  0.5633E-01
     -8.380  0.6950E-02  0.5693E-01
     -8.293  0.1128E-01  0.5791E-01
     -8.207  0.1724E-01  0.5940E-01
     -8.120  0.8949E-02  0.6018E-01
     -8.033  0.6700E-02  0.6076E-01
     -7.946  0.8067E-02  0.6146E-01
     -7.859  0.5748E-02  0.6196E-01
     -7.772  0.1922E-01  0.6363E-01
     -7.686  0.9945E-02  0.6449E-01
     -7.599  0.4981E-02  0.6493E-01
     -7.512  0.7202E-02  0.6555E-01
     -7.425  0.7773E-02  0.6623E-01
     -7.338  0.1520E-01  0.6755E-01
     -7.252  0.1306E-01  0.6868E-01
     -7.165  0.1160E-01  0.6969E-01
     -7.078  0.2059E-01  0.7148E-01
     -6.991  0.2040E-01  0.7325E-01
     -6.904  0.1475E-01  0.7453E-01
     -6.817  0.1915E-01  0.7619E-01
     -6.731  0.1360E-01  0.7737E-01
     -6.644  0.1023E-01  0.7826E-01
     -6.557  0.1611E-01  0.7966E-01
     -6.470  0.1080E-01  0.8059E-01
     -6.383  0.5139E-02  0.8104E-01
     -6.297  0.1769E-01  0.8258E-01
     -6.210  0.1654E-01  0.8401E-01
     -6.123  0.6005E-02  0.8453E-01
     -6.036  0.5239E-02  0.8499E-01
     -5.949  0.1060E-01  0.8591E-01
     -5.862  0.1492E-01  0.8720E-01
     -5.776  0.9750E-02  0.8805E-01
     -5.689  0.8285E-02  0.8877E-01
     -5.602  0.7074E-02  0.8938E-01
     -5.515  0.9328E-02  0.9019E-01
     -5.428  0.1055E-01  0.9111E-01
     -5.342  0.7166E-02  0.9173E-01
     -5.255  0.8070E-02  0.9243E-01
     -5.168  0.8273E-02  0.9315E-01
     -5.081  0.9488E-02  0.9397E-01
     -4.994  0.8502E-02  0.9471E-01
     -4.907  0.6389E-02  0.9527E-01
     -4.821  0.6468E-02  0.9583E-01
     -4.734  0.8017E-02  0.9652E-01
     -4.647  0.6388E-02  0.9708E-01
     -4.560  0.1016E-01  0.9796E-01
     -4.473  0.7614E-02  0.9862E-01
     -4.387  0.4940E-02  0.9905E-01
     -4.300  0.4985E-02  0.9948E-01
     -4.213  0.7053E-02  0.1001E+00
     -4.126  0.1107E-01  0.1011E+00
     -4.039  0.3884E-02  0.1014E+00
     -3.952  0.4403E-02  0.1018E+00
     -3.866  0.7542E-02  0.1024E+00
     -3.779  0.8199E-02  0.1031E+00
     -3.692  0.5852E-02  0.1037E+00
     -3.605  0.6610E-02  0.1042E+00
     -3.518  0.2108E-02  0.1044E+00
     -3.432  0.6248E-02  0.1050E+00
     -3.345  0.1012E-01  0.1058E+00
     -3.258  0.5237E-02  0.1063E+00
     -3.171  0.5496E-02  0.1068E+00
     -3.084  0.7720E-02  0.1074E+00
     -2.997  0.4883E-02  0.1079E+00
     -2.911  0.4158E-02  0.1082E+00
     -2.824  0.5565E-02  0.1087E+00
     -2.737  0.1994E-01  0.1104E+00
     -2.650  0.1766E-01  0.1120E+00
     -2.563  0.1640E-01  0.1134E+00
     -2.477  0.2503E-01  0.1156E+00
     -2.390  0.2132E-01  0.1174E+00
     -2.303  0.1859E-01  0.1190E+00
     -2.216  0.1793E-01  0.1206E+00
     -2.129  0.3025E-01  0.1232E+00
     -2.042  0.2312E-01  0.1252E+00
     -1.956  0.2951E-01  0.1278E+00
     -1.869  0.2625E-01  0.1301E+00
     -1.782  0.1987E-01  0.1318E+00
     -1.695  0.1509E-01  0.1331E+00
     -1.608  0.1963E-01  0.1348E+00
     -1.522  0.2824E-01  0.1372E+00
     -1.435  0.2937E-01  0.1398E+00
     -1.348  0.2343E-01  0.1418E+00
     -1.261  0.1752E-01  0.1434E+00
     -1.174  0.1284E-01  0.1445E+00
     -1.087  0.1292E-01  0.1456E+00
     -1.001  0.1932E-01  0.1473E+00
     -0.914  0.1879E-01  0.1489E+00
     -0.827  0.1538E-01  0.1502E+00
     -0.740  0.2443E-01  0.1524E+00
     -0.653  0.1296E-01  0.1535E+00
     -0.567  0.1337E-01  0.1546E+00
     -0.480  0.1759E-01  0.1562E+00
     -0.393  0.9603E-02  0.1570E+00
     -0.306  0.1060E-01  0.1579E+00
     -0.219  0.1916E-01  0.1596E+00
     -0.132  0.1496E-01  0.1609E+00
     -0.046  0.1771E-01  0.1624E+00
      0.041  0.2013E-01  0.1642E+00
      0.128  0.1420E-01  0.1654E+00
      0.215  0.1469E-01  0.1667E+00
      0.302  0.2238E-01  0.1686E+00
      0.388  0.2012E-01  0.1704E+00
      0.475  0.2012E-01  0.1721E+00
      0.562  0.3011E-01  0.1747E+00
      0.649  0.2124E-01  0.1766E+00
      0.736  0.1525E-01  0.1779E+00
      0.823  0.1617E-01  0.1793E+00
      0.909  0.2120E-01  0.1811E+00
      0.996  0.1958E-01  0.1828E+00
      1.083  0.2036E-01  0.1846E+00
      1.170  0.1904E-01  0.1863E+00
      1.257  0.1853E-01  0.1879E+00
      1.343  0.1260E-01  0.1890E+00
      1.430  0.9401E-02  0.1898E+00
      1.517  0.1067E-01  0.1907E+00
      1.604  0.1495E-01  0.1920E+00
      1.691  0.1898E-01  0.1937E+00
      1.778  0.1974E-01  0.1954E+00
      1.864  0.2130E-01  0.1972E+00
      1.951  0.2588E-01  0.1995E+00
      2.038  0.2179E-01  0.2014E+00
      2.125  0.2338E-01  0.2034E+00
      2.212  0.1519E-01  0.2047E+00
      2.298  0.2513E-01  0.2069E+00
      2.385  0.2796E-01  0.2093E+00
      2.472  0.3243E-01  0.2121E+00
      2.559  0.3528E-01  0.2152E+00
      2.646  0.3355E-01  0.2181E+00
      2.733  0.3520E-01  0.2212E+00
      2.819  0.4814E-01  0.2253E+00
      2.906  0.4684E-01  0.2294E+00
      2.993  0.2700E-01  0.2317E+00
      3.080  0.3618E-01  0.2349E+00
      3.167  0.4428E-01  0.2387E+00
      3.253  0.3982E-01  0.2422E+00
      3.340  0.3521E-01  0.2452E+00
      3.427  0.3284E-01  0.2481E+00
      3.514  0.4440E-01  0.2520E+00
      3.601  0.4967E-01  0.2563E+00
      3.688  0.4610E-01  0.2603E+00
      3.774  0.5558E-01  0.2651E+00
      3.861  0.4317E-01  0.2688E+00
      3.948  0.3940E-01  0.2723E+00
      4.035  0.5207E-01  0.2768E+00
      4.122  0.4799E-01  0.2809E+00
      4.208  0.5953E-01  0.2861E+00
      4.295  0.4721E-01  0.2902E+00
      4.382  0.4999E-01  0.2946E+00
      4.469  0.3931E-01  0.2980E+00
      4.556  0.5169E-01  0.3025E+00
      4.643  0.6317E-01  0.3079E+00
      4.729  0.5410E-01  0.3126E+00
      4.816  0.5741E-01  0.3176E+00
      4.903  0.4181E-01  0.3213E+00
      4.990  0.4618E-01  0.3253E+00
      5.077  0.5195E-01  0.3298E+00
      5.163  0.5111E-01  0.3342E+00
      5.250  0.4573E-01  0.3382E+00
      5.337  0.5355E-01  0.3428E+00
      5.424  0.5196E-01  0.3473E+00
      5.511  0.5545E-01  0.3522E+00
      5.598  0.5212E-01  0.3567E+00
      5.684  0.6337E-01  0.3622E+00
      5.771  0.5923E-01  0.3673E+00
      5.858  0.5817E-01  0.3724E+00
      5.945  0.5371E-01  0.3770E+00
      6.032  0.6455E-01  0.3826E+00
      6.118  0.6559E-01  0.3883E+00
      6.205  0.4852E-01  0.3925E+00
      6.292  0.4155E-01  0.3962E+00
      6.379  0.5738E-01  0.4011E+00
      6.466  0.6783E-01  0.4070E+00
      6.553  0.6168E-01  0.4124E+00
      6.639  0.6417E-01  0.4179E+00
      6.726  0.5803E-01  0.4230E+00
      6.813  0.5763E-01  0.4280E+00
      6.900  0.6241E-01  0.4334E+00
      6.987  0.6314E-01  0.4389E+00
      7.073  0.5885E-01  0.4440E+00
      7.160  0.7620E-01  0.4506E+00
      7.247  0.7308E-01  0.4570E+00
      7.334  0.5621E-01  0.4618E+00
      7.421  0.6440E-01  0.4674E+00
      7.508  0.6449E-01  0.4730E+00
      7.594  0.7261E-01  0.4793E+00
      7.681  0.7022E-01  0.4854E+00
      7.768  0.5711E-01  0.4904E+00
      7.855  0.6939E-01  0.4964E+00
      7.942  0.6303E-01  0.5019E+00
      8.028  0.6129E-01  0.5072E+00
      8.115  0.8065E-01  0.5142E+00
      8.202  0.6910E-01  0.5202E+00
      8.289  0.7325E-01  0.5266E+00
      8.376  0.6083E-01  0.5318E+00
      8.463  0.6943E-01  0.5379E+00
      8.549  0.7735E-01  0.5446E+00
      8.636  0.7274E-01  0.5509E+00
      8.723  0.6828E-01  0.5568E+00
      8.810  0.6457E-01  0.5624E+00
      8.897  0.5288E-01  0.5670E+00
      8.983  0.5024E-01  0.5714E+00
      9.070  0.3243E-01  0.5742E+00
      9.157  0.2509E-01  0.5764E+00
      9.244  0.2056E-01  0.5782E+00
      9.331  0.1700E-01  0.5796E+00
      9.418  0.1115E-01  0.5806E+00
      9.504  0.8385E-02  0.5813E+00
      9.591  0.2038E-02  0.5815E+00
      9.678  0.3052E-02  0.5818E+00
      9.765  0.4573E-02  0.5822E+00
      9.852  0.1518E-02  0.5823E+00
      9.938  0.7980E-04  0.5823E+00
     10.025  0.3873E-07  0.5823E+00
     10.112  0.6305E-13  0.5823E+00
     10.199  0.0000E+00  0.5823E+00
     10.286  0.0000E+00  0.5823E+00
     10.373  0.0000E+00  0.5823E+00
     10.459  0.0000E+00  0.5823E+00
     10.546  0.0000E+00  0.5823E+00
     10.633  0.0000E+00  0.5823E+00
     10.720  0.0000E+00  0.5823E+00
     10.807  0.0000E+00  0.5823E+00
     10.893  0.0000E+00  0.5823E+00
     10.980  0.0000E+00  0.5823E+00
