    3    3    1    1
  0.5815868E+02  0.2322153E-09  0.2107952E-09  0.4000000E-08  0.5000000E-15
  1.000000000000000E-004
  CAR 
 1H-beta isolated lowest-6 spinor-band WC
      5     19     28
 
  0.1249001E-14  0.3875000E+00  0.1276756E-14  0.5263158E-01
      1        -10.048073   1.000000
      2        -10.047981   1.000000
      3         -6.600540   1.000000
      4         -6.600355   1.000000
      5         -1.699579   0.503680
      6         -1.698846   0.462402
      7          0.916504   0.000000
      8          0.916542   0.000000
      9          3.043338   0.000000
     10          3.043562   0.000000
     11          4.884389   0.000000
     12          4.884782   0.000000
     13          6.679698   0.000000
     14          6.679777   0.000000
     15          7.168145   0.000000
     16          7.168260   0.000000
     17          7.317389   0.000000
     18          7.317620   0.000000
     19          7.535569   0.000000
     20          7.535619   0.000000
     21          7.742209   0.000000
     22          7.742509   0.000000
     23          8.039329   0.000000
     24          8.039385   0.000000
     25          8.230393   0.000000
     26          8.230439   0.000000
     27          8.621070   0.000000
     28          8.621219   0.000000
 
  0.5263158E-01  0.3875000E+00  0.1276756E-14  0.5263158E-01
      1         -9.581324   1.000000
      2         -9.581228   1.000000
      3         -6.137573   1.000000
      4         -6.137390   1.000000
      5         -1.415473   0.000000
      6         -1.414776   0.000000
      7          0.549794   0.000000
      8          0.549983   0.000000
      9          2.393378   0.000000
     10          2.393599   0.000000
     11          4.838476   0.000000
     12          4.839130   0.000000
     13          6.467148   0.000000
     14          6.467950   0.000000
     15          7.223668   0.000000
     16          7.223822   0.000000
     17          7.967299   0.000000
     18          7.967390   0.000000
     19          8.168728   0.000000
     20          8.168915   0.000000
     21          8.375956   0.000000
     22          8.375992   0.000000
     23          8.772293   0.000000
     24          8.772336   0.000000
     25          8.964428   0.000000
     26          8.964501   0.000000
     27          9.305997   0.000000
     28          9.306812   0.000000
 
  0.1052632E+00  0.3875000E+00  0.1276756E-14  0.5263158E-01
      1         -9.036691   1.000000
      2         -9.036589   1.000000
      3         -5.600393   1.000000
      4         -5.600216   1.000000
      5         -1.241019   0.000000
      6         -1.240455   0.000000
      7          0.269315   0.000000
      8          0.269727   0.000000
      9          1.871552   0.000000
     10          1.871693   0.000000
     11          4.631686   0.000000
     12          4.632418   0.000000
     13          5.448534   0.000000
     14          5.449416   0.000000
     15          7.790065   0.000000
     16          7.790226   0.000000
     17          8.422443   0.000000
     18          8.422646   0.000000
     19          8.945029   0.000000
     20          8.945145   0.000000
     21          9.107821   0.000000
     22          9.107888   0.000000
     23          9.375273   0.000000
     24          9.375335   0.000000
     25          9.712201   0.000000
     26          9.712272   0.000000
     27          9.951816   0.000000
     28          9.951908   0.000000
 
  0.1578947E+00  0.3875000E+00  0.1276756E-14  0.5263158E-01
      1         -8.454786   1.000000
      2         -8.454677   1.000000
      3         -5.013345   1.000000
      4         -5.013175   1.000000
      5         -1.205570   0.000000
      6         -1.205124   0.000000
      7         -0.191899   0.000000
      8         -0.191329   0.000000
      9          1.615216   0.000000
     10          1.615701   0.000000
     11          4.398410   0.000000
     12          4.398805   0.000000
     13          4.751546   0.000000
     14          4.752259   0.000000
     15          7.419170   0.000000
     16          7.419602   0.000000
     17          8.517857   0.000000
     18          8.518027   0.000000
     19          9.796148   0.000000
     20          9.796309   0.000000
     21         10.208289   0.000000
     22         10.208408   0.000000
     23         10.529336   0.000000
     24         10.529401   0.000000
     25         10.633101   0.000000
     26         10.633237   0.000000
     27         11.050663   0.000000
     28         11.052310   0.000000
 
  0.2105263E+00  0.3875000E+00  0.1276756E-14  0.5263158E-01
      1         -7.909908   1.000000
      2         -7.909790   1.000000
      3         -4.401185   1.000000
      4         -4.401009   1.000000
      5         -1.334794   0.000000
      6         -1.334525   0.000000
      7         -0.834475   0.000000
      8         -0.834089   0.000000
      9          1.552099   0.000000
     10          1.552603   0.000000
     11          4.044101   0.000000
     12          4.044678   0.000000
     13          4.754857   0.000000
     14          4.755009   0.000000
     15          6.703622   0.000000
     16          6.704038   0.000000
     17          8.601041   0.000000
     18          8.601197   0.000000
     19         10.385304   0.000000
     20         10.385474   0.000000
     21         11.414369   0.000000
     22         11.414479   0.000000
     23         11.594532   0.000000
     24         11.594654   0.000000
     25         11.891225   0.000000
     26         11.891322   0.000000
     27         12.266444   0.000000
     28         12.271208   0.000000
 
  0.2631579E+00  0.3875000E+00  0.1276756E-14  0.5263158E-01
      1         -7.520194   1.000000
      2         -7.520067   1.000000
      3         -3.808123   1.000000
      4         -3.807938   1.000000
      5         -1.928571   1.000000
      6         -1.928134   1.000000
      7         -1.050942   0.000000
      8         -1.050476   0.000000
      9          1.544840   0.000000
     10          1.545106   0.000000
     11          3.647567   0.000000
     12          3.648070   0.000000
     13          5.313559   0.000000
     14          5.313722   0.000000
     15          6.306506   0.000000
     16          6.306879   0.000000
     17          7.900917   0.000000
     18          7.901095   0.000000
     19         10.942004   0.000000
     20         10.942188   0.000000
     21         12.050531   0.000000
     22         12.050558   0.000000
     23         12.998041   0.000000
     24         12.998249   0.000000
     25         13.166365   0.000000
     26         13.169855   0.000000
     27         13.292423   0.000000
     28         13.322238   0.000000
 
  0.3157895E+00  0.3875000E+00  0.1276756E-14  0.5263158E-01
      1         -7.413946   1.000000
      2         -7.413817   1.000000
      3         -3.558670   1.000000
      4         -3.558496   1.000000
      5         -2.229272   1.000000
      6         -2.228790   1.000000
      7         -1.066925   0.000000
      8         -1.066407   0.000000
      9          1.549313   0.000000
     10          1.549476   0.000000
     11          3.527716   0.000000
     12          3.528155   0.000000
     13          5.598355   0.000000
     14          5.598479   0.000000
     15          6.231037   0.000000
     16          6.231408   0.000000
     17          7.529255   0.000000
     18          7.529340   0.000000
     19         11.109865   0.000000
     20         11.110073   0.000000
     21         12.348594   0.000000
     22         12.348742   0.000000
     23         13.022947   0.000000
     24         13.023052   0.000000
     25         13.465023   0.000000
     26         13.472008   0.000000
     27         13.532169   0.000000
     28         13.569723   0.000000
 
  0.3684211E+00  0.3875000E+00  0.1276756E-14  0.5263158E-01
      1         -7.634272   1.000000
      2         -7.634148   1.000000
      3         -4.012353   1.000000
      4         -4.012168   1.000000
      5         -1.684698   0.018073
      6         -1.684323   0.015844
      7         -1.020932   0.000000
      8         -1.020539   0.000000
      9          1.543990   0.000000
     10          1.544346   0.000000
     11          3.770621   0.000000
     12          3.771172   0.000000
     13          5.090288   0.000000
     14          5.090402   0.000000
     15          6.409112   0.000000
     16          6.409502   0.000000
     17          8.193606   0.000000
     18          8.193828   0.000000
     19         10.758698   0.000000
     20         10.758859   0.000000
     21         11.866563   0.000000
     22         11.866657   0.000000
     23         12.534487   0.000000
     24         12.534554   0.000000
     25         12.702828   0.000000
     26         12.702934   0.000000
     27         12.963348   0.000000
     28         12.964708   0.000000
 
  0.4210526E+00  0.3875000E+00  0.1276756E-14  0.5263158E-01
      1         -8.095897   1.000000
      2         -8.095782   1.000000
      3         -4.623120   1.000000
      4         -4.622948   1.000000
      5         -1.251852   0.000000
      6         -1.251479   0.000000
      7         -0.615181   0.000000
      8         -0.614659   0.000000
      9          1.564805   0.000000
     10          1.565355   0.000000
     11          4.204785   0.000000
     12          4.205249   0.000000
     13          4.651715   0.000000
     14          4.651937   0.000000
     15          6.929638   0.000000
     16          6.930059   0.000000
     17          8.682734   0.000000
     18          8.682791   0.000000
     19         10.189973   0.000000
     20         10.190183   0.000000
     21         11.039663   0.000000
     22         11.039785   0.000000
     23         11.136783   0.000000
     24         11.136896   0.000000
     25         11.397760   0.000000
     26         11.397811   0.000000
     27         11.838796   0.000000
     28         11.840228   0.000000
 
  0.4736842E+00  0.3875000E+00  0.1276756E-14  0.5263158E-01
      1         -8.665489   1.000000
      2         -8.665383   1.000000
      3         -5.229051   1.000000
      4         -5.228880   1.000000
      5         -1.204401   0.000000
      6         -1.203921   0.000000
      7          0.012251   0.000000
      8          0.012785   0.000000
      9          1.674773   0.000000
     10          1.675138   0.000000
     11          4.473294   0.000000
     12          4.473903   0.000000
     13          4.953468   0.000000
     14          4.954326   0.000000
     15          7.714131   0.000000
     16          7.714591   0.000000
     17          8.344473   0.000000
     18          8.344713   0.000000
     19          9.509193   0.000000
     20          9.509292   0.000000
     21          9.766876   0.000000
     22          9.766997   0.000000
     23         10.095840   0.000000
     24         10.095872   0.000000
     25         10.322759   0.000000
     26         10.322873   0.000000
     27         10.635889   0.000000
     28         10.636355   0.000000
 
 -0.4736842E+00  0.3875000E+00  0.1276756E-14  0.5263158E-01
      1         -9.240368   1.000000
      2         -9.240269   1.000000
      3         -5.801104   1.000000
      4         -5.800925   1.000000
      5         -1.286408   0.000000
      6         -1.285789   0.000000
      7          0.375166   0.000000
      8          0.375495   0.000000
      9          2.036610   0.000000
     10          2.036755   0.000000
     11          4.719907   0.000000
     12          4.720637   0.000000
     13          5.794336   0.000000
     14          5.795196   0.000000
     15          7.584792   0.000000
     16          7.584914   0.000000
     17          8.483759   0.000000
     18          8.484044   0.000000
     19          8.631155   0.000000
     20          8.631280   0.000000
     21          8.926849   0.000000
     22          8.927005   0.000000
     23          9.072913   0.000000
     24          9.073020   0.000000
     25          9.362629   0.000000
     26          9.362666   0.000000
     27          9.594188   0.000000
     28          9.594217   0.000000
 
 -0.4210526E+00  0.3875000E+00  0.1276756E-14  0.5263158E-01
      1         -9.760283   1.000000
      2         -9.760189   1.000000
      3         -6.314211   1.000000
      4         -6.314026   1.000000
      5         -1.509708   0.000000
      6         -1.508986   0.000000
      7          0.666053   0.000000
      8          0.666175   0.000000
      9          2.621707   0.000000
     10          2.621944   0.000000
     11          4.874263   0.000000
     12          4.874840   0.000000
     13          6.789615   0.000000
     14          6.790171   0.000000
     15          7.092703   0.000000
     16          7.093039   0.000000
     17          7.664344   0.000000
     18          7.664457   0.000000
     19          7.929325   0.000000
     20          7.929437   0.000000
     21          8.080543   0.000000
     22          8.080595   0.000000
     23          8.475890   0.000000
     24          8.475944   0.000000
     25          8.671691   0.000000
     26          8.671771   0.000000
     27          9.070959   0.000000
     28          9.072246   0.000000
 
 -0.3684211E+00  0.3875000E+00  0.1276756E-14  0.5263158E-01
      1        -10.192949   1.000000
      2        -10.192859   1.000000
      3         -6.745284   1.000000
      4         -6.745098   1.000000
      5         -1.809723   1.000000
      6         -1.808998   1.000000
      7          1.088021   0.000000
      8          1.088041   0.000000
      9          3.288846   0.000000
     10          3.289052   0.000000
     11          4.864765   0.000000
     12          4.865037   0.000000
     13          6.535940   0.000000
     14          6.536023   0.000000
     15          6.936863   0.000000
     16          6.936977   0.000000
     17          7.223077   0.000000
     18          7.223184   0.000000
     19          7.317750   0.000000
     20          7.317855   0.000000
     21          7.617356   0.000000
     22          7.617604   0.000000
     23          7.847462   0.000000
     24          7.847525   0.000000
     25          8.075433   0.000000
     26          8.075610   0.000000
     27          8.383835   0.000000
     28          8.383885   0.000000
 
 -0.3157895E+00  0.3875000E+00  0.1276756E-14  0.5263158E-01
      1        -10.521364   1.000000
      2        -10.521277   1.000000
      3         -7.076571   1.000000
      4         -7.076388   1.000000
      5         -2.090697   1.000000
      6         -2.090013   1.000000
      7          1.646036   0.000000
      8          1.646126   0.000000
      9          3.903055   0.000000
     10          3.903200   0.000000
     11          4.817087   0.000000
     12          4.817159   0.000000
     13          6.158606   0.000000
     14          6.158673   0.000000
     15          6.412791   0.000000
     16          6.412906   0.000000
     17          6.753635   0.000000
     18          6.753655   0.000000
     19          6.791144   0.000000
     20          6.791582   0.000000
     21          7.112778   0.000000
     22          7.112847   0.000000
     23          7.316645   0.000000
     24          7.316674   0.000000
     25          7.635889   0.000000
     26          7.635967   0.000000
     27          7.835034   0.000000
     28          7.835074   0.000000
 
 -0.2631579E+00  0.3875000E+00  0.1276756E-14  0.5263158E-01
      1        -10.736643   1.000000
      2        -10.736557   1.000000
      3         -7.295945   1.000000
      4         -7.295765   1.000000
      5         -2.293105   1.000000
      6         -2.292463   1.000000
      7          2.261541   0.000000
      8          2.261720   0.000000
      9          4.171359   0.000000
     10          4.171519   0.000000
     11          5.043036   0.000000
     12          5.043311   0.000000
     13          5.771871   0.000000
     14          5.772009   0.000000
     15          6.047879   0.000000
     16          6.048023   0.000000
     17          6.254006   0.000000
     18          6.254213   0.000000
     19          6.411224   0.000000
     20          6.411259   0.000000
     21          6.781785   0.000000
     22          6.781817   0.000000
     23          6.960398   0.000000
     24          6.960417   0.000000
     25          7.307462   0.000000
     26          7.307507   0.000000
     27          7.467117   0.000000
     28          7.467163   0.000000
 
 -0.2105263E+00  0.3875000E+00  0.1276756E-14  0.5263158E-01
      1        -10.834351   1.000000
      2        -10.834267   1.000000
      3         -7.396131   1.000000
      4         -7.395954   1.000000
      5         -2.388782   1.000000
      6         -2.388163   1.000000
      7          2.710092   0.000000
      8          2.710373   0.000000
      9          4.168959   0.000000
     10          4.169075   0.000000
     11          5.223912   0.000000
     12          5.224263   0.000000
     13          5.494504   0.000000
     14          5.494642   0.000000
     15          5.875106   0.000000
     16          5.875229   0.000000
     17          6.060809   0.000000
     18          6.060955   0.000000
     19          6.240593   0.000000
     20          6.240621   0.000000
     21          6.637998   0.000000
     22          6.638025   0.000000
     23          6.792019   0.000000
     24          6.792033   0.000000
     25          7.156400   0.000000
     26          7.156455   0.000000
     27          7.290787   0.000000
     28          7.290838   0.000000
 
 -0.1578947E+00  0.3875000E+00  0.1276756E-14  0.5263158E-01
      1        -10.812787   1.000000
      2        -10.812703   1.000000
      3         -7.374013   1.000000
      4         -7.373835   1.000000
      5         -2.367523   1.000000
      6         -2.366898   1.000000
      7          2.591923   0.000000
      8          2.592172   0.000000
      9          4.176283   0.000000
     10          4.176454   0.000000
     11          5.225848   0.000000
     12          5.226227   0.000000
     13          5.526712   0.000000
     14          5.526897   0.000000
     15          5.908878   0.000000
     16          5.909002   0.000000
     17          6.096049   0.000000
     18          6.096192   0.000000
     19          6.281000   0.000000
     20          6.281054   0.000000
     21          6.669659   0.000000
     22          6.669679   0.000000
     23          6.831228   0.000000
     24          6.831248   0.000000
     25          7.191259   0.000000
     26          7.191321   0.000000
     27          7.330673   0.000000
     28          7.330717   0.000000
 
 -0.1052632E+00  0.3875000E+00  0.1276756E-14  0.5263158E-01
      1        -10.672311   1.000000
      2        -10.672225   1.000000
      3         -7.230272   1.000000
      4         -7.230092   1.000000
      5         -2.231467   1.000000
      6         -2.230812   1.000000
      7          2.039338   0.000000
      8          2.039481   0.000000
      9          4.127640   0.000000
     10          4.127781   0.000000
     11          4.919841   0.000000
     12          4.920071   0.000000
     13          5.921672   0.000000
     14          5.921769   0.000000
     15          6.165452   0.000000
     16          6.165560   0.000000
     17          6.422339   0.000000
     18          6.422646   0.000000
     19          6.516880   0.000000
     20          6.516935   0.000000
     21          6.877792   0.000000
     22          6.877809   0.000000
     23          7.066368   0.000000
     24          7.066408   0.000000
     25          7.404392   0.000000
     26          7.404464   0.000000
     27          7.578953   0.000000
     28          7.578994   0.000000
 
 -0.5263158E-01  0.3875000E+00  0.1276756E-14  0.5263158E-01
      1        -10.415485   1.000000
      2        -10.415397   1.000000
      3         -6.969470   1.000000
      4         -6.969286   1.000000
      5         -1.996278   1.000000
      6         -1.995578   1.000000
      7          1.430218   0.000000
      8          1.430281   0.000000
      9          3.700292   0.000000
     10          3.700457   0.000000
     11          4.820904   0.000000
     12          4.820959   0.000000
     13          6.292238   0.000000
     14          6.292320   0.000000
     15          6.580726   0.000000
     16          6.580827   0.000000
     17          6.921219   0.000000
     18          6.921267   0.000000
     19          6.985678   0.000000
     20          6.986104   0.000000
     21          7.286747   0.000000
     22          7.286878   0.000000
     23          7.495262   0.000000
     24          7.495322   0.000000
     25          7.797935   0.000000
     26          7.798084   0.000000
     27          8.012984   0.000000
     28          8.013018   0.000000
