       N       E                     dE             d eps       ncg     rms          ort
DAV:   1     0.373721352057E+01    0.37372E+01   -0.16950E+03  3570   0.857E+01
DAV:   2    -0.351200012856E+01   -0.72492E+01   -0.68880E+01  3570   0.715E+00
DAV:   3    -0.356191784384E+01   -0.49918E-01   -0.49826E-01  3570   0.781E-01
DAV:   4    -0.356209780764E+01   -0.17996E-03   -0.17996E-03  3570   0.504E-02
DAV:   5    -0.356209782428E+01   -0.16643E-07   -0.16480E-07  3570   0.406E-04
SDA:   6    -0.315486560367E+01    0.40723E+00   -0.16480E-07  3570   0.229E+00 0.000E+00
CGA:   7    -0.327554724910E+01   -0.12068E+00   -0.12500E+00  3570   0.645E-01-0.753E-02
CGA:   8    -0.330206007558E+01   -0.26513E-01   -0.29559E-01  3570   0.121E-01-0.107E-01
CGA:   9    -0.330528010018E+01   -0.32200E-02   -0.32238E-02  3570   0.153E-02-0.436E-04
CGA:  10    -0.330589794398E+01   -0.61784E-03   -0.61968E-03  3570   0.349E-03-0.979E-05
CGA:  11    -0.330604779287E+01   -0.14985E-03   -0.15086E-03  3570   0.858E-04-0.536E-05
CGA:  12    -0.330608424627E+01   -0.36453E-04   -0.36298E-04  3570   0.179E-04 0.868E-06
   1 F= -.33060842E+01 E0= -.33050128E+01  d E =-.214280E-02
