 100 100   0   0
  0.4951695E+02  0.1298018E-08  0.1298246E-08  0.4000000E-08  0.5000000E-15
  1.000000000000000E-004
  CAR 
 Phonopy                                 
      3.15198506    -14.65151022  301     -3.09873525      1.00000000
    -14.652  0.0000E+00  0.0000E+00
    -14.592  0.0000E+00  0.0000E+00
    -14.533  0.0000E+00  0.0000E+00
    -14.473  0.0000E+00  0.0000E+00
    -14.414  0.0000E+00  0.0000E+00
    -14.355  0.0000E+00  0.0000E+00
    -14.295  0.0000E+00  0.0000E+00
    -14.236  0.7749E-16  0.4599E-17
    -14.177  0.5902E-13  0.3507E-14
    -14.117  0.2654E-10  0.1578E-11
    -14.058  0.6051E-08  0.3607E-09
    -13.999  0.7045E-06  0.4217E-07
    -13.939  0.4220E-04  0.2546E-05
    -13.880  0.1314E-02  0.8054E-04
    -13.821  0.2159E-01  0.1362E-02
    -13.761  0.1909E+00  0.1269E-01
    -13.702  0.9368E+00  0.6828E-01
    -13.643  0.2682E+01  0.2275E+00
    -13.583  0.4859E+01  0.5158E+00
    -13.524  0.6309E+01  0.8902E+00
    -13.465  0.6826E+01  0.1295E+01
    -13.405  0.6929E+01  0.1707E+01
    -13.346  0.6945E+01  0.2119E+01
    -13.287  0.6952E+01  0.2531E+01
    -13.227  0.6958E+01  0.2944E+01
    -13.168  0.6966E+01  0.3358E+01
    -13.109  0.6972E+01  0.3771E+01
    -13.049  0.6981E+01  0.4186E+01
    -12.990  0.6986E+01  0.4600E+01
    -12.931  0.6998E+01  0.5015E+01
    -12.871  0.7000E+01  0.5431E+01
    -12.812  0.7015E+01  0.5847E+01
    -12.752  0.7019E+01  0.6264E+01
    -12.693  0.7026E+01  0.6681E+01
    -12.634  0.7045E+01  0.7099E+01
    -12.574  0.7039E+01  0.7517E+01
    -12.515  0.7057E+01  0.7935E+01
    -12.456  0.7081E+01  0.8356E+01
    -12.396  0.7050E+01  0.8774E+01
    -12.337  0.7122E+01  0.9197E+01
    -12.278  0.7260E+01  0.9627E+01
    -12.218  0.7835E+01  0.1009E+02
    -12.159  0.9552E+01  0.1066E+02
    -12.100  0.1166E+02  0.1135E+02
    -12.040  0.1316E+02  0.1213E+02
    -11.981  0.1392E+02  0.1296E+02
    -11.922  0.1398E+02  0.1379E+02
    -11.862  0.1396E+02  0.1462E+02
    -11.803  0.1414E+02  0.1546E+02
    -11.744  0.1410E+02  0.1629E+02
    -11.684  0.1406E+02  0.1713E+02
    -11.625  0.1419E+02  0.1797E+02
    -11.566  0.1422E+02  0.1881E+02
    -11.506  0.1421E+02  0.1966E+02
    -11.447  0.1425E+02  0.2050E+02
    -11.388  0.1429E+02  0.2135E+02
    -11.328  0.1439E+02  0.2220E+02
    -11.269  0.1440E+02  0.2306E+02
    -11.210  0.1431E+02  0.2391E+02
    -11.150  0.1449E+02  0.2477E+02
    -11.091  0.1469E+02  0.2564E+02
    -11.031  0.1443E+02  0.2650E+02
    -10.972  0.1445E+02  0.2735E+02
    -10.913  0.1487E+02  0.2823E+02
    -10.853  0.1481E+02  0.2911E+02
    -10.794  0.1448E+02  0.2997E+02
    -10.735  0.1477E+02  0.3085E+02
    -10.675  0.1516E+02  0.3175E+02
    -10.616  0.1494E+02  0.3264E+02
    -10.557  0.1470E+02  0.3351E+02
    -10.497  0.1505E+02  0.3440E+02
    -10.438  0.1549E+02  0.3532E+02
    -10.379  0.1518E+02  0.3622E+02
    -10.319  0.1485E+02  0.3710E+02
    -10.260  0.1547E+02  0.3802E+02
    -10.201  0.1585E+02  0.3896E+02
    -10.141  0.1532E+02  0.3987E+02
    -10.082  0.1527E+02  0.4078E+02
    -10.023  0.1589E+02  0.4172E+02
     -9.963  0.1614E+02  0.4268E+02
     -9.904  0.1572E+02  0.4361E+02
     -9.845  0.1570E+02  0.4454E+02
     -9.785  0.1639E+02  0.4552E+02
     -9.726  0.1655E+02  0.4650E+02
     -9.667  0.1612E+02  0.4745E+02
     -9.607  0.1640E+02  0.4843E+02
     -9.548  0.1701E+02  0.4944E+02
     -9.488  0.1690E+02  0.5044E+02
     -9.429  0.1687E+02  0.5144E+02
     -9.370  0.1732E+02  0.5247E+02
     -9.310  0.1759E+02  0.5351E+02
     -9.251  0.1769E+02  0.5456E+02
     -9.192  0.1792E+02  0.5563E+02
     -9.132  0.1836E+02  0.5672E+02
     -9.073  0.1887E+02  0.5784E+02
     -9.014  0.1954E+02  0.5900E+02
     -8.954  0.2131E+02  0.6026E+02
     -8.895  0.2423E+02  0.6170E+02
     -8.836  0.2649E+02  0.6327E+02
     -8.776  0.2800E+02  0.6493E+02
     -8.717  0.2941E+02  0.6668E+02
     -8.658  0.2962E+02  0.6844E+02
     -8.598  0.2847E+02  0.7013E+02
     -8.539  0.2785E+02  0.7178E+02
     -8.480  0.2829E+02  0.7346E+02
     -8.420  0.2855E+02  0.7515E+02
     -8.361  0.2900E+02  0.7687E+02
     -8.302  0.3019E+02  0.7866E+02
     -8.242  0.3010E+02  0.8045E+02
     -8.183  0.2839E+02  0.8213E+02
     -8.124  0.2713E+02  0.8374E+02
     -8.064  0.2635E+02  0.8531E+02
     -8.005  0.2557E+02  0.8683E+02
     -7.946  0.2510E+02  0.8832E+02
     -7.886  0.2487E+02  0.8979E+02
     -7.827  0.2480E+02  0.9126E+02
     -7.767  0.2474E+02  0.9273E+02
     -7.708  0.2479E+02  0.9420E+02
     -7.649  0.2522E+02  0.9570E+02
     -7.589  0.2589E+02  0.9724E+02
     -7.530  0.2706E+02  0.9884E+02
     -7.471  0.2902E+02  0.1006E+03
     -7.411  0.3107E+02  0.1024E+03
     -7.352  0.3132E+02  0.1043E+03
     -7.293  0.2910E+02  0.1060E+03
     -7.233  0.2695E+02  0.1076E+03
     -7.174  0.2658E+02  0.1092E+03
     -7.115  0.2749E+02  0.1108E+03
     -7.055  0.2863E+02  0.1125E+03
     -6.996  0.2836E+02  0.1142E+03
     -6.937  0.2522E+02  0.1157E+03
     -6.877  0.1996E+02  0.1169E+03
     -6.818  0.1530E+02  0.1178E+03
     -6.759  0.1285E+02  0.1185E+03
     -6.699  0.1203E+02  0.1193E+03
     -6.640  0.1177E+02  0.1199E+03
     -6.581  0.1130E+02  0.1206E+03
     -6.521  0.1061E+02  0.1212E+03
     -6.462  0.1037E+02  0.1219E+03
     -6.403  0.1057E+02  0.1225E+03
     -6.343  0.1040E+02  0.1231E+03
     -6.284  0.9810E+01  0.1237E+03
     -6.225  0.9475E+01  0.1243E+03
     -6.165  0.9684E+01  0.1248E+03
     -6.106  0.9820E+01  0.1254E+03
     -6.046  0.9346E+01  0.1260E+03
     -5.987  0.9066E+01  0.1265E+03
     -5.928  0.9195E+01  0.1270E+03
     -5.868  0.9036E+01  0.1276E+03
     -5.809  0.8942E+01  0.1281E+03
     -5.750  0.9055E+01  0.1287E+03
     -5.690  0.8827E+01  0.1292E+03
     -5.631  0.8565E+01  0.1297E+03
     -5.572  0.8657E+01  0.1302E+03
     -5.512  0.8679E+01  0.1307E+03
     -5.453  0.8445E+01  0.1312E+03
     -5.394  0.8543E+01  0.1317E+03
     -5.334  0.8707E+01  0.1322E+03
     -5.275  0.8299E+01  0.1327E+03
     -5.216  0.7964E+01  0.1332E+03
     -5.156  0.8207E+01  0.1337E+03
     -5.097  0.8566E+01  0.1342E+03
     -5.038  0.8552E+01  0.1347E+03
     -4.978  0.8113E+01  0.1352E+03
     -4.919  0.7778E+01  0.1357E+03
     -4.860  0.7862E+01  0.1361E+03
     -4.800  0.8132E+01  0.1366E+03
     -4.741  0.8412E+01  0.1371E+03
     -4.682  0.8428E+01  0.1376E+03
     -4.622  0.7964E+01  0.1381E+03
     -4.563  0.7362E+01  0.1385E+03
     -4.504  0.7418E+01  0.1389E+03
     -4.444  0.8240E+01  0.1394E+03
     -4.385  0.8798E+01  0.1400E+03
     -4.325  0.8211E+01  0.1404E+03
     -4.266  0.7263E+01  0.1409E+03
     -4.207  0.7144E+01  0.1413E+03
     -4.147  0.7780E+01  0.1418E+03
     -4.088  0.8406E+01  0.1423E+03
     -4.029  0.8363E+01  0.1428E+03
     -3.969  0.7737E+01  0.1432E+03
     -3.910  0.7408E+01  0.1437E+03
     -3.851  0.7697E+01  0.1441E+03
     -3.791  0.7810E+01  0.1446E+03
     -3.732  0.7577E+01  0.1450E+03
     -3.673  0.7738E+01  0.1455E+03
     -3.613  0.8252E+01  0.1460E+03
     -3.554  0.8385E+01  0.1465E+03
     -3.495  0.7821E+01  0.1469E+03
     -3.435  0.6954E+01  0.1474E+03
     -3.376  0.6784E+01  0.1478E+03
     -3.317  0.7802E+01  0.1482E+03
     -3.257  0.9140E+01  0.1488E+03
     -3.198  0.9165E+01  0.1493E+03
     -3.139  0.7538E+01  0.1498E+03
     -3.079  0.6177E+01  0.1501E+03
     -3.020  0.6555E+01  0.1505E+03
     -2.961  0.8219E+01  0.1510E+03
     -2.901  0.9611E+01  0.1516E+03
     -2.842  0.9241E+01  0.1521E+03
     -2.783  0.7619E+01  0.1526E+03
     -2.723  0.6419E+01  0.1529E+03
     -2.664  0.6683E+01  0.1533E+03
     -2.604  0.8240E+01  0.1538E+03
     -2.545  0.9479E+01  0.1544E+03
     -2.486  0.9214E+01  0.1549E+03
     -2.426  0.8197E+01  0.1554E+03
     -2.367  0.7511E+01  0.1559E+03
     -2.308  0.7340E+01  0.1563E+03
     -2.248  0.7863E+01  0.1568E+03
     -2.189  0.8948E+01  0.1573E+03
     -2.130  0.9632E+01  0.1579E+03
     -2.070  0.9396E+01  0.1584E+03
     -2.011  0.8735E+01  0.1590E+03
     -1.952  0.8348E+01  0.1594E+03
     -1.892  0.8592E+01  0.1600E+03
     -1.833  0.9464E+01  0.1605E+03
     -1.774  0.1047E+02  0.1611E+03
     -1.714  0.1135E+02  0.1618E+03
     -1.655  0.1202E+02  0.1625E+03
     -1.596  0.1248E+02  0.1633E+03
     -1.536  0.1310E+02  0.1640E+03
     -1.477  0.1299E+02  0.1648E+03
     -1.418  0.1108E+02  0.1655E+03
     -1.358  0.9036E+01  0.1660E+03
     -1.299  0.8714E+01  0.1665E+03
     -1.240  0.9018E+01  0.1671E+03
     -1.180  0.8230E+01  0.1676E+03
     -1.121  0.6729E+01  0.1680E+03
     -1.062  0.5831E+01  0.1683E+03
     -1.002  0.5506E+01  0.1686E+03
     -0.943  0.5347E+01  0.1689E+03
     -0.883  0.5548E+01  0.1693E+03
     -0.824  0.5683E+01  0.1696E+03
     -0.765  0.5183E+01  0.1699E+03
     -0.705  0.4576E+01  0.1702E+03
     -0.646  0.4913E+01  0.1705E+03
     -0.587  0.7107E+01  0.1709E+03
     -0.527  0.1179E+02  0.1716E+03
     -0.468  0.1863E+02  0.1727E+03
     -0.409  0.2525E+02  0.1742E+03
     -0.349  0.2962E+02  0.1760E+03
     -0.290  0.3218E+02  0.1779E+03
     -0.231  0.3320E+02  0.1798E+03
     -0.171  0.3221E+02  0.1818E+03
     -0.112  0.3005E+02  0.1835E+03
     -0.053  0.2766E+02  0.1852E+03
      0.007  0.2527E+02  0.1867E+03
      0.066  0.2373E+02  0.1881E+03
      0.125  0.2303E+02  0.1895E+03
      0.185  0.2249E+02  0.1908E+03
      0.244  0.2204E+02  0.1921E+03
      0.303  0.2184E+02  0.1934E+03
      0.363  0.2188E+02  0.1947E+03
      0.422  0.2108E+02  0.1959E+03
      0.481  0.1983E+02  0.1971E+03
      0.541  0.2022E+02  0.1983E+03
      0.600  0.2178E+02  0.1996E+03
      0.659  0.2345E+02  0.2010E+03
      0.719  0.2547E+02  0.2025E+03
      0.778  0.2732E+02  0.2041E+03
      0.838  0.2838E+02  0.2058E+03
      0.897  0.2936E+02  0.2076E+03
      0.956  0.3101E+02  0.2094E+03
      1.016  0.3236E+02  0.2113E+03
      1.075  0.3339E+02  0.2133E+03
      1.134  0.3592E+02  0.2154E+03
      1.194  0.3922E+02  0.2178E+03
      1.253  0.4097E+02  0.2202E+03
      1.312  0.4182E+02  0.2227E+03
      1.372  0.4333E+02  0.2252E+03
      1.431  0.4533E+02  0.2279E+03
      1.490  0.4798E+02  0.2308E+03
      1.550  0.5164E+02  0.2339E+03
      1.609  0.5446E+02  0.2371E+03
      1.668  0.5411E+02  0.2403E+03
      1.728  0.5059E+02  0.2433E+03
      1.787  0.4405E+02  0.2459E+03
      1.846  0.3518E+02  0.2480E+03
      1.906  0.2656E+02  0.2496E+03
      1.965  0.1914E+02  0.2507E+03
      2.024  0.1208E+02  0.2514E+03
      2.084  0.6154E+01  0.2518E+03
      2.143  0.2484E+01  0.2519E+03
      2.202  0.7872E+00  0.2520E+03
      2.262  0.1910E+00  0.2520E+03
      2.321  0.3359E-01  0.2520E+03
      2.381  0.3868E-02  0.2520E+03
      2.440  0.2612E-03  0.2520E+03
      2.499  0.9583E-05  0.2520E+03
      2.559  0.1834E-06  0.2520E+03
      2.618  0.1793E-08  0.2520E+03
      2.677  0.8863E-11  0.2520E+03
      2.737  0.2196E-13  0.2520E+03
      2.796  0.0000E+00  0.2520E+03
      2.855  0.0000E+00  0.2520E+03
      2.915  0.0000E+00  0.2520E+03
      2.974  0.0000E+00  0.2520E+03
      3.033  0.0000E+00  0.2520E+03
      3.093  0.0000E+00  0.2520E+03
      3.152  0.0000E+00  0.2520E+03
