  50  50   0   0
  0.8146739E+02  0.1073475E-08  0.1093194E-08  0.4000000E-08  0.5000000E-15
  1.000000000000000E-004
  CAR 
 Phonopy                                 
      1.34666833    -13.79816532  301     -4.08148844      1.00000000
    -13.798  0.0000E+00  0.0000E+00
    -13.748  0.0000E+00  0.0000E+00
    -13.697  0.0000E+00  0.0000E+00
    -13.647  0.0000E+00  0.0000E+00
    -13.596  0.0000E+00  0.0000E+00
    -13.546  0.0000E+00  0.0000E+00
    -13.495  0.0000E+00  0.0000E+00
    -13.445  0.0000E+00  0.0000E+00
    -13.394  0.1822E-15  0.9197E-17
    -13.344  0.1051E-10  0.5303E-12
    -13.293  0.7572E-07  0.3823E-08
    -13.243  0.7991E-04  0.4038E-05
    -13.192  0.1321E-01  0.6708E-03
    -13.142  0.3861E+00  0.2016E-01
    -13.091  0.2474E+01  0.1451E+00
    -13.041  0.5034E+01  0.3992E+00
    -12.990  0.5732E+01  0.6886E+00
    -12.940  0.5770E+01  0.9798E+00
    -12.889  0.5785E+01  0.1272E+01
    -12.839  0.5761E+01  0.1563E+01
    -12.789  0.5775E+01  0.1854E+01
    -12.738  0.5816E+01  0.2148E+01
    -12.688  0.5698E+01  0.2436E+01
    -12.637  0.5901E+01  0.2733E+01
    -12.587  0.5648E+01  0.3019E+01
    -12.536  0.5890E+01  0.3316E+01
    -12.486  0.5783E+01  0.3608E+01
    -12.435  0.5616E+01  0.3891E+01
    -12.385  0.6158E+01  0.4202E+01
    -12.334  0.5318E+01  0.4471E+01
    -12.284  0.6147E+01  0.4781E+01
    -12.233  0.5821E+01  0.5075E+01
    -12.183  0.5330E+01  0.5344E+01
    -12.132  0.6389E+01  0.5666E+01
    -12.082  0.5624E+01  0.5950E+01
    -12.031  0.5324E+01  0.6219E+01
    -11.981  0.6498E+01  0.6547E+01
    -11.930  0.5687E+01  0.6834E+01
    -11.880  0.5154E+01  0.7094E+01
    -11.829  0.6451E+01  0.7420E+01
    -11.779  0.6042E+01  0.7725E+01
    -11.728  0.5045E+01  0.7980E+01
    -11.678  0.5946E+01  0.8280E+01
    -11.627  0.6593E+01  0.8613E+01
    -11.577  0.5351E+01  0.8883E+01
    -11.526  0.5209E+01  0.9146E+01
    -11.476  0.6479E+01  0.9473E+01
    -11.425  0.6288E+01  0.9790E+01
    -11.375  0.5129E+01  0.1005E+02
    -11.325  0.5394E+01  0.1032E+02
    -11.274  0.6672E+01  0.1066E+02
    -11.224  0.6154E+01  0.1097E+02
    -11.173  0.5091E+01  0.1123E+02
    -11.123  0.5438E+01  0.1150E+02
    -11.072  0.6588E+01  0.1183E+02
    -11.022  0.6370E+01  0.1215E+02
    -10.971  0.5136E+01  0.1241E+02
    -10.921  0.5282E+01  0.1268E+02
    -10.870  0.6391E+01  0.1300E+02
    -10.820  0.6557E+01  0.1333E+02
    -10.769  0.5653E+01  0.1362E+02
    -10.719  0.4915E+01  0.1387E+02
    -10.668  0.5991E+01  0.1417E+02
    -10.618  0.6675E+01  0.1451E+02
    -10.567  0.6166E+01  0.1482E+02
    -10.517  0.5261E+01  0.1508E+02
    -10.466  0.5224E+01  0.1535E+02
    -10.416  0.6262E+01  0.1566E+02
    -10.365  0.6751E+01  0.1600E+02
    -10.315  0.5926E+01  0.1630E+02
    -10.264  0.5077E+01  0.1656E+02
    -10.214  0.5549E+01  0.1684E+02
    -10.163  0.6301E+01  0.1716E+02
    -10.113  0.6639E+01  0.1749E+02
    -10.062  0.6105E+01  0.1780E+02
    -10.012  0.5016E+01  0.1806E+02
     -9.961  0.5409E+01  0.1833E+02
     -9.911  0.6608E+01  0.1866E+02
     -9.861  0.6304E+01  0.1898E+02
     -9.810  0.6380E+01  0.1930E+02
     -9.760  0.5364E+01  0.1957E+02
     -9.709  0.5069E+01  0.1983E+02
     -9.659  0.6294E+01  0.2015E+02
     -9.608  0.6774E+01  0.2049E+02
     -9.558  0.6133E+01  0.2080E+02
     -9.507  0.5891E+01  0.2110E+02
     -9.457  0.5207E+01  0.2136E+02
     -9.406  0.5638E+01  0.2164E+02
     -9.356  0.6553E+01  0.2197E+02
     -9.305  0.6771E+01  0.2232E+02
     -9.255  0.6029E+01  0.2262E+02
     -9.204  0.5460E+01  0.2290E+02
     -9.154  0.5437E+01  0.2317E+02
     -9.103  0.6131E+01  0.2348E+02
     -9.053  0.6442E+01  0.2380E+02
     -9.002  0.6725E+01  0.2414E+02
     -8.952  0.6223E+01  0.2446E+02
     -8.901  0.5141E+01  0.2472E+02
     -8.851  0.5662E+01  0.2500E+02
     -8.800  0.7671E+01  0.2539E+02
     -8.750  0.1051E+02  0.2592E+02
     -8.699  0.1225E+02  0.2654E+02
     -8.649  0.1274E+02  0.2718E+02
     -8.598  0.1129E+02  0.2775E+02
     -8.548  0.1140E+02  0.2833E+02
     -8.497  0.1279E+02  0.2897E+02
     -8.447  0.1287E+02  0.2962E+02
     -8.397  0.1223E+02  0.3024E+02
     -8.346  0.1294E+02  0.3089E+02
     -8.296  0.1201E+02  0.3150E+02
     -8.245  0.1129E+02  0.3207E+02
     -8.195  0.1234E+02  0.3269E+02
     -8.144  0.1341E+02  0.3337E+02
     -8.094  0.1270E+02  0.3401E+02
     -8.043  0.1227E+02  0.3463E+02
     -7.993  0.1333E+02  0.3530E+02
     -7.942  0.1131E+02  0.3587E+02
     -7.892  0.1191E+02  0.3648E+02
     -7.841  0.1356E+02  0.3716E+02
     -7.791  0.1291E+02  0.3781E+02
     -7.740  0.1301E+02  0.3847E+02
     -7.690  0.1306E+02  0.3913E+02
     -7.639  0.1226E+02  0.3975E+02
     -7.589  0.1229E+02  0.4037E+02
     -7.538  0.1257E+02  0.4100E+02
     -7.488  0.1328E+02  0.4167E+02
     -7.437  0.1393E+02  0.4238E+02
     -7.387  0.1311E+02  0.4304E+02
     -7.336  0.1289E+02  0.4369E+02
     -7.286  0.1301E+02  0.4434E+02
     -7.235  0.1263E+02  0.4498E+02
     -7.185  0.1294E+02  0.4564E+02
     -7.134  0.1391E+02  0.4634E+02
     -7.084  0.1434E+02  0.4706E+02
     -7.033  0.1374E+02  0.4776E+02
     -6.983  0.1348E+02  0.4844E+02
     -6.933  0.1312E+02  0.4910E+02
     -6.882  0.1385E+02  0.4980E+02
     -6.832  0.1379E+02  0.5049E+02
     -6.781  0.1431E+02  0.5122E+02
     -6.731  0.1549E+02  0.5200E+02
     -6.680  0.1524E+02  0.5277E+02
     -6.630  0.1534E+02  0.5354E+02
     -6.579  0.1496E+02  0.5430E+02
     -6.529  0.1617E+02  0.5511E+02
     -6.478  0.1718E+02  0.5598E+02
     -6.428  0.1650E+02  0.5681E+02
     -6.377  0.1511E+02  0.5758E+02
     -6.327  0.1459E+02  0.5831E+02
     -6.276  0.1461E+02  0.5905E+02
     -6.226  0.1379E+02  0.5975E+02
     -6.175  0.1124E+02  0.6031E+02
     -6.125  0.1132E+02  0.6089E+02
     -6.074  0.1414E+02  0.6160E+02
     -6.024  0.1469E+02  0.6234E+02
     -5.973  0.1336E+02  0.6302E+02
     -5.923  0.1589E+02  0.6382E+02
     -5.872  0.1727E+02  0.6469E+02
     -5.822  0.1467E+02  0.6543E+02
     -5.771  0.1475E+02  0.6617E+02
     -5.721  0.1691E+02  0.6703E+02
     -5.670  0.1857E+02  0.6797E+02
     -5.620  0.1689E+02  0.6882E+02
     -5.569  0.1573E+02  0.6961E+02
     -5.519  0.1631E+02  0.7044E+02
     -5.469  0.1759E+02  0.7132E+02
     -5.418  0.1730E+02  0.7220E+02
     -5.368  0.1908E+02  0.7316E+02
     -5.317  0.1917E+02  0.7413E+02
     -5.267  0.1917E+02  0.7510E+02
     -5.216  0.2024E+02  0.7612E+02
     -5.166  0.2121E+02  0.7719E+02
     -5.115  0.2286E+02  0.7834E+02
     -5.065  0.2397E+02  0.7955E+02
     -5.014  0.2414E+02  0.8077E+02
     -4.964  0.2409E+02  0.8199E+02
     -4.913  0.2611E+02  0.8330E+02
     -4.863  0.2852E+02  0.8474E+02
     -4.812  0.2539E+02  0.8603E+02
     -4.762  0.2567E+02  0.8732E+02
     -4.711  0.2664E+02  0.8867E+02
     -4.661  0.2424E+02  0.8989E+02
     -4.610  0.2164E+02  0.9098E+02
     -4.560  0.2021E+02  0.9200E+02
     -4.509  0.2095E+02  0.9306E+02
     -4.459  0.1879E+02  0.9401E+02
     -4.408  0.1752E+02  0.9489E+02
     -4.358  0.1640E+02  0.9572E+02
     -4.307  0.1657E+02  0.9656E+02
     -4.257  0.1592E+02  0.9736E+02
     -4.206  0.1537E+02  0.9814E+02
     -4.156  0.1489E+02  0.9889E+02
     -4.105  0.1480E+02  0.9964E+02
     -4.055  0.1517E+02  0.1004E+03
     -4.005  0.1335E+02  0.1011E+03
     -3.954  0.1228E+02  0.1017E+03
     -3.904  0.1353E+02  0.1024E+03
     -3.853  0.1266E+02  0.1030E+03
     -3.803  0.1223E+02  0.1036E+03
     -3.752  0.1295E+02  0.1043E+03
     -3.702  0.1138E+02  0.1049E+03
     -3.651  0.1083E+02  0.1054E+03
     -3.601  0.1173E+02  0.1060E+03
     -3.550  0.1197E+02  0.1066E+03
     -3.500  0.1031E+02  0.1071E+03
     -3.449  0.9338E+01  0.1076E+03
     -3.399  0.9720E+01  0.1081E+03
     -3.348  0.1090E+02  0.1086E+03
     -3.298  0.1031E+02  0.1092E+03
     -3.247  0.8780E+01  0.1096E+03
     -3.197  0.8411E+01  0.1100E+03
     -3.146  0.8817E+01  0.1105E+03
     -3.096  0.9478E+01  0.1110E+03
     -3.045  0.9548E+01  0.1114E+03
     -2.995  0.9088E+01  0.1119E+03
     -2.944  0.7862E+01  0.1123E+03
     -2.894  0.7769E+01  0.1127E+03
     -2.843  0.7618E+01  0.1131E+03
     -2.793  0.8698E+01  0.1135E+03
     -2.742  0.9166E+01  0.1140E+03
     -2.692  0.8621E+01  0.1144E+03
     -2.641  0.6820E+01  0.1147E+03
     -2.591  0.5898E+01  0.1150E+03
     -2.541  0.6182E+01  0.1154E+03
     -2.490  0.6392E+01  0.1157E+03
     -2.440  0.6389E+01  0.1160E+03
     -2.389  0.5549E+01  0.1163E+03
     -2.339  0.4934E+01  0.1165E+03
     -2.288  0.4638E+01  0.1168E+03
     -2.238  0.5185E+01  0.1170E+03
     -2.187  0.5817E+01  0.1173E+03
     -2.137  0.5534E+01  0.1176E+03
     -2.086  0.6056E+01  0.1179E+03
     -2.036  0.5412E+01  0.1182E+03
     -1.985  0.4638E+01  0.1184E+03
     -1.935  0.4804E+01  0.1187E+03
     -1.884  0.6278E+01  0.1190E+03
     -1.834  0.6850E+01  0.1193E+03
     -1.783  0.5653E+01  0.1196E+03
     -1.733  0.5840E+01  0.1199E+03
     -1.682  0.5621E+01  0.1202E+03
     -1.632  0.5284E+01  0.1204E+03
     -1.581  0.5290E+01  0.1207E+03
     -1.531  0.6276E+01  0.1210E+03
     -1.480  0.7134E+01  0.1214E+03
     -1.430  0.6880E+01  0.1217E+03
     -1.379  0.5695E+01  0.1220E+03
     -1.329  0.5707E+01  0.1223E+03
     -1.278  0.5895E+01  0.1226E+03
     -1.228  0.6358E+01  0.1229E+03
     -1.177  0.6611E+01  0.1233E+03
     -1.127  0.6718E+01  0.1236E+03
     -1.077  0.7316E+01  0.1240E+03
     -1.026  0.7068E+01  0.1243E+03
     -0.976  0.5602E+01  0.1246E+03
     -0.925  0.6418E+01  0.1249E+03
     -0.875  0.7059E+01  0.1253E+03
     -0.824  0.7414E+01  0.1257E+03
     -0.774  0.7446E+01  0.1260E+03
     -0.723  0.7051E+01  0.1264E+03
     -0.673  0.7825E+01  0.1268E+03
     -0.622  0.7365E+01  0.1272E+03
     -0.572  0.6441E+01  0.1275E+03
     -0.521  0.7498E+01  0.1279E+03
     -0.471  0.8326E+01  0.1283E+03
     -0.420  0.8745E+01  0.1287E+03
     -0.370  0.8414E+01  0.1292E+03
     -0.319  0.8766E+01  0.1296E+03
     -0.269  0.8773E+01  0.1300E+03
     -0.218  0.7833E+01  0.1304E+03
     -0.168  0.8131E+01  0.1309E+03
     -0.117  0.1030E+02  0.1314E+03
     -0.067  0.1162E+02  0.1320E+03
     -0.016  0.1337E+02  0.1326E+03
      0.034  0.1564E+02  0.1334E+03
      0.085  0.1710E+02  0.1343E+03
      0.135  0.1888E+02  0.1352E+03
      0.186  0.3028E+02  0.1368E+03
      0.236  0.6048E+02  0.1398E+03
      0.287  0.7853E+02  0.1438E+03
      0.337  0.6233E+02  0.1469E+03
      0.387  0.4047E+02  0.1490E+03
      0.438  0.2649E+02  0.1503E+03
      0.488  0.1617E+02  0.1511E+03
      0.539  0.9121E+01  0.1516E+03
      0.589  0.5066E+01  0.1518E+03
      0.640  0.2140E+01  0.1520E+03
      0.690  0.7457E+00  0.1520E+03
      0.741  0.1687E+00  0.1520E+03
      0.791  0.9017E-02  0.1520E+03
      0.842  0.7728E-04  0.1520E+03
      0.892  0.9585E-07  0.1520E+03
      0.943  0.1649E-10  0.1520E+03
      0.993  0.4164E-15  0.1520E+03
      1.044  0.0000E+00  0.1520E+03
      1.094  0.0000E+00  0.1520E+03
      1.145  0.0000E+00  0.1520E+03
      1.195  0.0000E+00  0.1520E+03
      1.246  0.0000E+00  0.1520E+03
      1.296  0.0000E+00  0.1520E+03
      1.347  0.0000E+00  0.1520E+03
