   3   3   0   0
  0.8374985E+02  0.2506240E-09  0.2506240E-09  0.4000000E-08  0.5000000E-15
  1.000000000000000E-004
  CAR 
 Convergence                             
     21.16582929    -14.08703016  301     -2.22179995      1.00000000
    -14.087  0.0000E+00  0.0000E+00
    -13.970  0.0000E+00  0.0000E+00
    -13.852  0.0000E+00  0.0000E+00
    -13.735  0.0000E+00  0.0000E+00
    -13.617  0.0000E+00  0.0000E+00
    -13.499  0.0000E+00  0.0000E+00
    -13.382  0.0000E+00  0.0000E+00
    -13.264  0.0000E+00  0.0000E+00
    -13.147  0.0000E+00  0.0000E+00
    -13.029  0.0000E+00  0.0000E+00
    -12.912  0.0000E+00  0.0000E+00
    -12.794  0.0000E+00  0.0000E+00
    -12.677  0.5098E-09  0.5990E-10
    -12.559  0.6705E-03  0.7879E-04
    -12.442  0.1359E+00  0.1605E-01
    -12.324  0.3517E+00  0.5738E-01
    -12.207  0.3558E+00  0.9919E-01
    -12.089  0.3557E+00  0.1410E+00
    -11.972  0.3641E+00  0.1838E+00
    -11.854  0.3803E+00  0.2285E+00
    -11.737  0.3380E+00  0.2682E+00
    -11.619  0.3613E+00  0.3106E+00
    -11.502  0.3727E+00  0.3544E+00
    -11.384  0.3100E+00  0.3909E+00
    -11.267  0.4223E+00  0.4405E+00
    -11.149  0.3127E+00  0.4772E+00
    -11.032  0.3870E+00  0.5227E+00
    -10.914  0.3477E+00  0.5636E+00
    -10.797  0.3615E+00  0.6060E+00
    -10.679  0.3648E+00  0.6489E+00
    -10.562  0.3176E+00  0.6862E+00
    -10.444  0.4074E+00  0.7341E+00
    -10.327  0.3554E+00  0.7759E+00
    -10.209  0.3351E+00  0.8152E+00
    -10.092  0.4398E+00  0.8669E+00
     -9.974  0.2387E+00  0.8950E+00
     -9.857  0.4510E+00  0.9480E+00
     -9.739  0.3469E+00  0.9887E+00
     -9.622  0.3452E+00  0.1029E+01
     -9.504  0.3691E+00  0.1073E+01
     -9.387  0.4128E+00  0.1121E+01
     -9.269  0.3033E+00  0.1157E+01
     -9.152  0.4080E+00  0.1205E+01
     -9.034  0.3956E+00  0.1251E+01
     -8.917  0.2998E+00  0.1286E+01
     -8.799  0.5146E+00  0.1347E+01
     -8.682  0.6859E+00  0.1428E+01
     -8.564  0.7711E+00  0.1518E+01
     -8.447  0.8293E+00  0.1616E+01
     -8.329  0.7197E+00  0.1700E+01
     -8.212  0.7694E+00  0.1791E+01
     -8.094  0.5500E+00  0.1855E+01
     -7.977  0.6777E+00  0.1935E+01
     -7.859  0.6129E+00  0.2007E+01
     -7.742  0.5579E+00  0.2072E+01
     -7.624  0.6753E+00  0.2152E+01
     -7.506  0.7273E+00  0.2237E+01
     -7.389  0.7256E+00  0.2323E+01
     -7.271  0.7129E+00  0.2406E+01
     -7.154  0.8003E+00  0.2500E+01
     -7.036  0.8021E+00  0.2595E+01
     -6.919  0.6403E+00  0.2670E+01
     -6.801  0.8004E+00  0.2764E+01
     -6.684  0.8193E+00  0.2860E+01
     -6.566  0.8639E+00  0.2962E+01
     -6.449  0.5664E+00  0.3028E+01
     -6.331  0.9507E+00  0.3140E+01
     -6.214  0.7763E+00  0.3231E+01
     -6.096  0.9221E+00  0.3340E+01
     -5.979  0.7134E+00  0.3423E+01
     -5.861  0.9436E+00  0.3534E+01
     -5.744  0.9254E+00  0.3643E+01
     -5.626  0.1178E+01  0.3781E+01
     -5.509  0.9373E+00  0.3892E+01
     -5.391  0.9453E+00  0.4003E+01
     -5.274  0.1163E+01  0.4139E+01
     -5.156  0.9234E+00  0.4248E+01
     -5.039  0.1103E+01  0.4377E+01
     -4.921  0.9339E+00  0.4487E+01
     -4.804  0.1226E+01  0.4631E+01
     -4.686  0.9506E+00  0.4743E+01
     -4.569  0.8944E+00  0.4848E+01
     -4.451  0.1194E+01  0.4988E+01
     -4.334  0.8988E+00  0.5094E+01
     -4.216  0.1401E+01  0.5259E+01
     -4.099  0.9452E+00  0.5370E+01
     -3.981  0.6147E+00  0.5442E+01
     -3.864  0.8795E+00  0.5545E+01
     -3.746  0.5120E+00  0.5606E+01
     -3.629  0.3348E+00  0.5645E+01
     -3.511  0.5811E+00  0.5713E+01
     -3.394  0.3790E+00  0.5758E+01
     -3.276  0.2282E+00  0.5785E+01
     -3.159  0.3371E+00  0.5824E+01
     -3.041  0.2206E+00  0.5850E+01
     -2.924  0.1530E+00  0.5868E+01
     -2.806  0.1788E+00  0.5889E+01
     -2.689  0.9378E-01  0.5900E+01
     -2.571  0.1002E+00  0.5912E+01
     -2.454  0.1955E+00  0.5935E+01
     -2.336  0.2215E+00  0.5961E+01
     -2.219  0.3554E+00  0.6003E+01
     -2.101  0.1477E+01  0.6176E+01
     -1.984  0.1769E+01  0.6384E+01
     -1.866  0.1274E+01  0.6534E+01
     -1.749  0.1827E+01  0.6748E+01
     -1.631  0.1356E+01  0.6908E+01
     -1.514  0.1344E+01  0.7066E+01
     -1.396  0.1419E+01  0.7232E+01
     -1.278  0.1648E+01  0.7426E+01
     -1.161  0.1598E+01  0.7614E+01
     -1.043  0.1698E+01  0.7813E+01
     -0.926  0.1849E+01  0.8030E+01
     -0.808  0.1772E+01  0.8239E+01
     -0.691  0.2202E+01  0.8497E+01
     -0.573  0.1947E+01  0.8726E+01
     -0.456  0.1663E+01  0.8922E+01
     -0.338  0.1309E+01  0.9075E+01
     -0.221  0.1270E+01  0.9225E+01
     -0.103  0.9095E+00  0.9332E+01
      0.014  0.1144E+01  0.9466E+01
      0.132  0.7836E+00  0.9558E+01
      0.249  0.5182E+00  0.9619E+01
      0.367  0.4725E+00  0.9674E+01
      0.484  0.4215E+00  0.9724E+01
      0.602  0.5135E+00  0.9784E+01
      0.719  0.1609E+00  0.9803E+01
      0.837  0.4104E+00  0.9851E+01
      0.954  0.5612E+00  0.9917E+01
      1.072  0.7126E+00  0.1000E+02
      1.189  0.7576E+00  0.1009E+02
      1.307  0.7115E+00  0.1017E+02
      1.424  0.1082E+01  0.1030E+02
      1.542  0.1821E+01  0.1051E+02
      1.659  0.2226E+01  0.1078E+02
      1.777  0.3541E+01  0.1119E+02
      1.894  0.2748E+01  0.1152E+02
      2.012  0.3050E+01  0.1187E+02
      2.129  0.3208E+01  0.1225E+02
      2.247  0.2833E+01  0.1258E+02
      2.364  0.3121E+01  0.1295E+02
      2.482  0.3540E+01  0.1337E+02
      2.599  0.2805E+01  0.1370E+02
      2.717  0.3504E+01  0.1411E+02
      2.834  0.4255E+01  0.1461E+02
      2.952  0.3103E+01  0.1497E+02
      3.069  0.4108E+01  0.1546E+02
      3.187  0.4145E+01  0.1594E+02
      3.304  0.3476E+01  0.1635E+02
      3.422  0.3764E+01  0.1679E+02
      3.539  0.3839E+01  0.1724E+02
      3.657  0.3643E+01  0.1767E+02
      3.774  0.3880E+01  0.1813E+02
      3.892  0.4063E+01  0.1861E+02
      4.009  0.3559E+01  0.1902E+02
      4.127  0.3726E+01  0.1946E+02
      4.244  0.4225E+01  0.1996E+02
      4.362  0.3757E+01  0.2040E+02
      4.479  0.3690E+01  0.2083E+02
      4.597  0.3669E+01  0.2126E+02
      4.714  0.4051E+01  0.2174E+02
      4.832  0.4206E+01  0.2223E+02
      4.950  0.3861E+01  0.2269E+02
      5.067  0.4249E+01  0.2319E+02
      5.185  0.4338E+01  0.2370E+02
      5.302  0.4410E+01  0.2422E+02
      5.420  0.4858E+01  0.2479E+02
      5.537  0.4345E+01  0.2530E+02
      5.655  0.4444E+01  0.2582E+02
      5.772  0.4837E+01  0.2639E+02
      5.890  0.4149E+01  0.2687E+02
      6.007  0.4119E+01  0.2736E+02
      6.125  0.5048E+01  0.2795E+02
      6.242  0.4661E+01  0.2850E+02
      6.360  0.3874E+01  0.2896E+02
      6.477  0.4306E+01  0.2946E+02
      6.595  0.5106E+01  0.3006E+02
      6.712  0.4104E+01  0.3054E+02
      6.830  0.5218E+01  0.3116E+02
      6.947  0.4674E+01  0.3171E+02
      7.065  0.5728E+01  0.3238E+02
      7.182  0.5608E+01  0.3304E+02
      7.300  0.5344E+01  0.3367E+02
      7.417  0.5110E+01  0.3427E+02
      7.535  0.4795E+01  0.3483E+02
      7.652  0.5418E+01  0.3547E+02
      7.770  0.6144E+01  0.3619E+02
      7.887  0.5719E+01  0.3686E+02
      8.005  0.5151E+01  0.3747E+02
      8.122  0.5242E+01  0.3808E+02
      8.240  0.5514E+01  0.3873E+02
      8.357  0.5916E+01  0.3942E+02
      8.475  0.6298E+01  0.4016E+02
      8.592  0.5352E+01  0.4079E+02
      8.710  0.5537E+01  0.4144E+02
      8.827  0.6195E+01  0.4217E+02
      8.945  0.5536E+01  0.4282E+02
      9.062  0.5752E+01  0.4350E+02
      9.180  0.6140E+01  0.4422E+02
      9.297  0.5547E+01  0.4487E+02
      9.415  0.5394E+01  0.4551E+02
      9.532  0.5467E+01  0.4615E+02
      9.650  0.5788E+01  0.4683E+02
      9.767  0.6746E+01  0.4762E+02
      9.885  0.5901E+01  0.4831E+02
     10.002  0.5076E+01  0.4891E+02
     10.120  0.5952E+01  0.4961E+02
     10.237  0.5554E+01  0.5026E+02
     10.355  0.5250E+01  0.5088E+02
     10.472  0.5617E+01  0.5154E+02
     10.590  0.6997E+01  0.5236E+02
     10.707  0.5756E+01  0.5304E+02
     10.825  0.5629E+01  0.5370E+02
     10.943  0.5672E+01  0.5437E+02
     11.060  0.5733E+01  0.5504E+02
     11.178  0.6206E+01  0.5577E+02
     11.295  0.6476E+01  0.5653E+02
     11.413  0.6201E+01  0.5726E+02
     11.530  0.5841E+01  0.5795E+02
     11.648  0.5566E+01  0.5860E+02
     11.765  0.6119E+01  0.5932E+02
     11.883  0.5407E+01  0.5995E+02
     12.000  0.5431E+01  0.6059E+02
     12.118  0.7098E+01  0.6143E+02
     12.235  0.6169E+01  0.6215E+02
     12.353  0.5895E+01  0.6284E+02
     12.470  0.6259E+01  0.6358E+02
     12.588  0.6052E+01  0.6429E+02
     12.705  0.6640E+01  0.6507E+02
     12.823  0.7471E+01  0.6595E+02
     12.940  0.7073E+01  0.6678E+02
     13.058  0.6197E+01  0.6751E+02
     13.175  0.5540E+01  0.6816E+02
     13.293  0.6797E+01  0.6896E+02
     13.410  0.6453E+01  0.6972E+02
     13.528  0.6418E+01  0.7047E+02
     13.645  0.7081E+01  0.7130E+02
     13.763  0.6712E+01  0.7209E+02
     13.880  0.5849E+01  0.7278E+02
     13.998  0.5970E+01  0.7348E+02
     14.115  0.5621E+01  0.7414E+02
     14.233  0.6323E+01  0.7488E+02
     14.350  0.5656E+01  0.7555E+02
     14.468  0.5240E+01  0.7616E+02
     14.585  0.5504E+01  0.7681E+02
     14.703  0.4689E+01  0.7736E+02
     14.820  0.4132E+01  0.7785E+02
     14.938  0.4566E+01  0.7838E+02
     15.055  0.3550E+01  0.7880E+02
     15.173  0.3005E+01  0.7915E+02
     15.290  0.3531E+01  0.7957E+02
     15.408  0.3032E+01  0.7993E+02
     15.525  0.2330E+01  0.8020E+02
     15.643  0.2624E+01  0.8051E+02
     15.760  0.2061E+01  0.8075E+02
     15.878  0.2375E+01  0.8103E+02
     15.995  0.2580E+01  0.8133E+02
     16.113  0.1802E+01  0.8154E+02
     16.230  0.1477E+01  0.8172E+02
     16.348  0.1633E+01  0.8191E+02
     16.465  0.1684E+01  0.8211E+02
     16.583  0.2116E+01  0.8236E+02
     16.700  0.2189E+01  0.8261E+02
     16.818  0.8057E+00  0.8271E+02
     16.935  0.5810E+00  0.8278E+02
     17.053  0.7786E+00  0.8287E+02
     17.171  0.9456E+00  0.8298E+02
     17.288  0.1141E+01  0.8311E+02
     17.406  0.9485E+00  0.8322E+02
     17.523  0.3863E+00  0.8327E+02
     17.641  0.8689E+00  0.8337E+02
     17.758  0.7880E+00  0.8346E+02
     17.876  0.6683E+00  0.8354E+02
     17.993  0.2275E+00  0.8357E+02
     18.111  0.2966E+00  0.8360E+02
     18.228  0.3167E+00  0.8364E+02
     18.346  0.9973E+00  0.8376E+02
     18.463  0.5310E+00  0.8382E+02
     18.581  0.1464E+00  0.8384E+02
     18.698  0.1630E+00  0.8386E+02
     18.816  0.7126E-01  0.8387E+02
     18.933  0.2011E+00  0.8389E+02
     19.051  0.8013E-01  0.8390E+02
     19.168  0.6028E-01  0.8391E+02
     19.286  0.1109E+00  0.8392E+02
     19.403  0.1990E+00  0.8394E+02
     19.521  0.2910E+00  0.8398E+02
     19.638  0.1993E+00  0.8400E+02
     19.756  0.1001E-02  0.8400E+02
     19.873  0.1228E-08  0.8400E+02
     19.991  0.0000E+00  0.8400E+02
     20.108  0.0000E+00  0.8400E+02
     20.226  0.0000E+00  0.8400E+02
     20.343  0.0000E+00  0.8400E+02
     20.461  0.0000E+00  0.8400E+02
     20.578  0.0000E+00  0.8400E+02
     20.696  0.0000E+00  0.8400E+02
     20.813  0.0000E+00  0.8400E+02
     20.931  0.0000E+00  0.8400E+02
     21.048  0.0000E+00  0.8400E+02
     21.166  0.0000E+00  0.8400E+02
