       N       E                     dE             d eps       ncg     rms          rms(c)
DAV:   1     0.187140367578E+01    0.18714E+01   -0.24898E+03 17640   0.104E+02
DAV:   2    -0.109422799814E+02   -0.12814E+02   -0.12280E+02 26208   0.163E+01
DAV:   3    -0.109896025088E+02   -0.47323E-01   -0.47274E-01 18984   0.109E+00
DAV:   4    -0.109897287420E+02   -0.12623E-03   -0.12623E-03 33012   0.619E-02
DAV:   5    -0.109897287783E+02   -0.36337E-07   -0.36473E-07 18984   0.522E-04    0.298E+00
DAV:   6    -0.984779418974E+01    0.11419E+01   -0.33137E+00 23520   0.116E+00    0.124E+00
DAV:   7    -0.963972224216E+01    0.20807E+00   -0.81454E-01 28392   0.528E-01    0.505E-01
DAV:   8    -0.960568479553E+01    0.34037E-01   -0.38137E-02 28938   0.175E-01    0.138E-01
DAV:   9    -0.959817846791E+01    0.75063E-02   -0.14303E-02 29316   0.667E-02    0.102E-01
DAV:  10    -0.959812265157E+01    0.55816E-04   -0.11577E-03 29106   0.321E-02    0.387E-02
DAV:  11    -0.959966686446E+01   -0.15442E-02   -0.15547E-03 24066   0.262E-02    0.148E-02
DAV:  12    -0.960004768676E+01   -0.38082E-03   -0.92287E-05 24192   0.942E-03    0.998E-03
DAV:  13    -0.960058287660E+01   -0.53519E-03   -0.81019E-05 23940   0.637E-03    0.392E-03
DAV:  14    -0.960082152648E+01   -0.23865E-03   -0.22050E-05 23856   0.289E-03    0.156E-03
DAV:  15    -0.960084406364E+01   -0.22537E-04   -0.43617E-07 20958   0.562E-04    0.107E-03
DAV:  16    -0.960090287473E+01   -0.58811E-04   -0.75884E-06 23268   0.113E-03    0.429E-04
DAV:  17    -0.960091718998E+01   -0.14315E-04   -0.25124E-06 23394   0.830E-04    0.280E-04
DAV:  18    -0.960091841734E+01   -0.12274E-05   -0.30729E-07 24024   0.318E-04    0.121E-04
DAV:  19    -0.960092035000E+01   -0.19327E-05   -0.53701E-07 21588   0.424E-04    0.466E-05
DAV:  20    -0.960092066250E+01   -0.31250E-06   -0.18924E-08 26964   0.100E-04
   1 F= -.96009207E+01 E0= -.96004301E+01  d E =-.981061E-03
