       N       E                     dE             d eps       ncg     rms          rms(c)
DAV:   1     0.579106499768E+01    0.57911E+01   -0.65726E+02 78428   0.159E+01
DAV:   2    -0.324591270029E+01   -0.90370E+01   -0.85362E+01 94570   0.621E+00
DAV:   3    -0.343136796145E+01   -0.18546E+00   -0.18461E+00 96194   0.730E-01
DAV:   4    -0.343161858605E+01   -0.25062E-03   -0.25060E-03 91406   0.253E-02
DAV:   5    -0.343161904595E+01   -0.45990E-06   -0.46028E-06 92680   0.106E-03    0.232E+00
DAV:   6    -0.312999575433E+01    0.30162E+00   -0.10584E-01 98812   0.923E-02    0.124E+00
DAV:   7    -0.297894396003E+01    0.15105E+00   -0.16273E-01 99372   0.101E-01    0.171E-01
DAV:   8    -0.297328260072E+01    0.56614E-02   -0.35697E-03 95088   0.217E-02    0.777E-02
DAV:   9    -0.297140780287E+01    0.18748E-02   -0.74479E-04 96754   0.801E-03    0.442E-02
DAV:  10    -0.297207363377E+01   -0.66583E-03   -0.16267E-03 93240   0.913E-03    0.248E-02
DAV:  11    -0.297236229960E+01   -0.28867E-03   -0.10178E-04 91854   0.387E-03    0.175E-02
DAV:  12    -0.297270447143E+01   -0.34217E-03   -0.75670E-05 91154   0.183E-03    0.624E-03
DAV:  13    -0.297295030945E+01   -0.24584E-03   -0.84185E-05 88144   0.186E-03    0.847E-03
DAV:  14    -0.297309351824E+01   -0.14321E-03   -0.12032E-05 88326   0.116E-03    0.131E-03
DAV:  15    -0.297315698792E+01   -0.63470E-04   -0.45504E-06 88480   0.381E-04    0.127E-03
DAV:  16    -0.297317264850E+01   -0.15661E-04   -0.15420E-06 87990   0.200E-04    0.455E-04
DAV:  17    -0.297318012264E+01   -0.74741E-05   -0.24307E-07 88522   0.869E-05    0.181E-04
DAV:  18    -0.297318091703E+01   -0.79439E-06   -0.22756E-09 90692   0.156E-05
   1 F= -.29731809E+01 E0= -.29731739E+01  d E =-.139383E-04
 imaginary and real dielectric function
