   3   3   0   0
  0.8374985E+02  0.2506240E-09  0.2506240E-09  0.4000000E-08  0.5000000E-15
  1.000000000000000E-004
  CAR 
 Convergence                             
     21.17484873    -14.08286007  301     -2.23888462      1.00000000
    -14.083  0.0000E+00  0.0000E+00
    -13.965  0.0000E+00  0.0000E+00
    -13.848  0.0000E+00  0.0000E+00
    -13.730  0.0000E+00  0.0000E+00
    -13.613  0.0000E+00  0.0000E+00
    -13.495  0.0000E+00  0.0000E+00
    -13.378  0.0000E+00  0.0000E+00
    -13.260  0.0000E+00  0.0000E+00
    -13.143  0.0000E+00  0.0000E+00
    -13.025  0.0000E+00  0.0000E+00
    -12.908  0.0000E+00  0.0000E+00
    -12.790  0.0000E+00  0.0000E+00
    -12.673  0.5140E-09  0.6041E-10
    -12.555  0.6697E-03  0.7870E-04
    -12.438  0.1360E+00  0.1606E-01
    -12.320  0.3528E+00  0.5752E-01
    -12.202  0.3562E+00  0.9939E-01
    -12.085  0.3632E+00  0.1421E+00
    -11.967  0.3696E+00  0.1855E+00
    -11.850  0.3298E+00  0.2243E+00
    -11.732  0.3658E+00  0.2673E+00
    -11.615  0.3870E+00  0.3127E+00
    -11.497  0.3288E+00  0.3514E+00
    -11.380  0.3945E+00  0.3978E+00
    -11.262  0.2954E+00  0.4325E+00
    -11.145  0.4304E+00  0.4831E+00
    -11.027  0.3107E+00  0.5196E+00
    -10.910  0.3597E+00  0.5618E+00
    -10.792  0.4116E+00  0.6102E+00
    -10.675  0.2622E+00  0.6410E+00
    -10.557  0.4847E+00  0.6980E+00
    -10.440  0.2807E+00  0.7310E+00
    -10.322  0.3553E+00  0.7728E+00
    -10.205  0.3890E+00  0.8185E+00
    -10.087  0.3684E+00  0.8618E+00
     -9.969  0.3163E+00  0.8989E+00
     -9.852  0.4579E+00  0.9528E+00
     -9.734  0.2653E+00  0.9839E+00
     -9.617  0.3844E+00  0.1029E+01
     -9.499  0.4412E+00  0.1081E+01
     -9.382  0.2836E+00  0.1114E+01
     -9.264  0.3690E+00  0.1158E+01
     -9.147  0.4162E+00  0.1207E+01
     -9.029  0.3829E+00  0.1252E+01
     -8.912  0.3046E+00  0.1287E+01
     -8.794  0.5020E+00  0.1346E+01
     -8.677  0.7457E+00  0.1434E+01
     -8.559  0.6855E+00  0.1515E+01
     -8.442  0.8823E+00  0.1618E+01
     -8.324  0.7568E+00  0.1707E+01
     -8.207  0.6241E+00  0.1781E+01
     -8.089  0.7144E+00  0.1865E+01
     -7.972  0.6050E+00  0.1936E+01
     -7.854  0.5925E+00  0.2005E+01
     -7.736  0.6205E+00  0.2078E+01
     -7.619  0.5647E+00  0.2145E+01
     -7.501  0.8576E+00  0.2245E+01
     -7.384  0.6843E+00  0.2326E+01
     -7.266  0.6478E+00  0.2402E+01
     -7.149  0.9115E+00  0.2509E+01
     -7.031  0.7241E+00  0.2594E+01
     -6.914  0.6918E+00  0.2675E+01
     -6.796  0.7035E+00  0.2758E+01
     -6.679  0.9225E+00  0.2867E+01
     -6.561  0.7124E+00  0.2950E+01
     -6.444  0.8532E+00  0.3051E+01
     -6.326  0.6856E+00  0.3131E+01
     -6.209  0.8096E+00  0.3226E+01
     -6.091  0.1040E+01  0.3348E+01
     -5.974  0.6164E+00  0.3421E+01
     -5.856  0.1049E+01  0.3544E+01
     -5.739  0.7277E+00  0.3630E+01
     -5.621  0.1286E+01  0.3781E+01
     -5.503  0.1074E+01  0.3907E+01
     -5.386  0.8352E+00  0.4005E+01
     -5.268  0.1079E+01  0.4132E+01
     -5.151  0.1042E+01  0.4254E+01
     -5.033  0.1030E+01  0.4376E+01
     -4.916  0.1111E+01  0.4506E+01
     -4.798  0.9151E+00  0.4614E+01
     -4.681  0.1165E+01  0.4751E+01
     -4.563  0.9531E+00  0.4863E+01
     -4.446  0.9336E+00  0.4972E+01
     -4.328  0.1195E+01  0.5113E+01
     -4.211  0.1133E+01  0.5246E+01
     -4.093  0.1080E+01  0.5373E+01
     -3.976  0.8201E+00  0.5469E+01
     -3.858  0.4764E+00  0.5525E+01
     -3.741  0.5944E+00  0.5595E+01
     -3.623  0.6988E+00  0.5677E+01
     -3.506  0.1644E+00  0.5696E+01
     -3.388  0.4497E+00  0.5749E+01
     -3.270  0.4046E+00  0.5797E+01
     -3.153  0.2372E+00  0.5825E+01
     -3.035  0.1420E+00  0.5841E+01
     -2.918  0.2785E+00  0.5874E+01
     -2.800  0.1256E+00  0.5889E+01
     -2.683  0.6641E-01  0.5897E+01
     -2.565  0.1681E+00  0.5916E+01
     -2.448  0.1832E+00  0.5938E+01
     -2.330  0.7583E-01  0.5947E+01
     -2.213  0.6281E+00  0.6021E+01
     -2.095  0.1394E+01  0.6185E+01
     -1.978  0.1486E+01  0.6359E+01
     -1.860  0.1930E+01  0.6586E+01
     -1.743  0.1197E+01  0.6727E+01
     -1.625  0.1397E+01  0.6891E+01
     -1.508  0.1625E+01  0.7082E+01
     -1.390  0.1580E+01  0.7267E+01
     -1.273  0.1356E+01  0.7427E+01
     -1.155  0.1378E+01  0.7589E+01
     -1.038  0.1881E+01  0.7810E+01
     -0.920  0.2071E+01  0.8053E+01
     -0.802  0.1885E+01  0.8275E+01
     -0.685  0.1949E+01  0.8504E+01
     -0.567  0.1708E+01  0.8704E+01
     -0.450  0.1760E+01  0.8911E+01
     -0.332  0.1453E+01  0.9082E+01
     -0.215  0.1455E+01  0.9253E+01
     -0.097  0.8354E+00  0.9351E+01
      0.020  0.8402E+00  0.9450E+01
      0.138  0.6759E+00  0.9530E+01
      0.255  0.7726E+00  0.9620E+01
      0.373  0.6632E+00  0.9698E+01
      0.490  0.3740E+00  0.9742E+01
      0.608  0.2503E+00  0.9772E+01
      0.725  0.2354E+00  0.9799E+01
      0.843  0.3361E+00  0.9839E+01
      0.960  0.8109E+00  0.9934E+01
      1.078  0.6558E+00  0.1001E+02
      1.195  0.6859E+00  0.1009E+02
      1.313  0.6964E+00  0.1017E+02
      1.431  0.1287E+01  0.1032E+02
      1.548  0.1748E+01  0.1053E+02
      1.666  0.2105E+01  0.1078E+02
      1.783  0.3544E+01  0.1119E+02
      1.901  0.3040E+01  0.1155E+02
      2.018  0.3033E+01  0.1191E+02
      2.136  0.2662E+01  0.1222E+02
      2.253  0.3518E+01  0.1263E+02
      2.371  0.3005E+01  0.1299E+02
      2.488  0.3000E+01  0.1334E+02
      2.606  0.3429E+01  0.1374E+02
      2.723  0.3489E+01  0.1415E+02
      2.841  0.3547E+01  0.1457E+02
      2.958  0.3936E+01  0.1503E+02
      3.076  0.4079E+01  0.1551E+02
      3.193  0.3574E+01  0.1593E+02
      3.311  0.3834E+01  0.1638E+02
      3.428  0.3567E+01  0.1680E+02
      3.546  0.4067E+01  0.1728E+02
      3.664  0.3778E+01  0.1772E+02
      3.781  0.3558E+01  0.1814E+02
      3.899  0.4115E+01  0.1863E+02
      4.016  0.3580E+01  0.1905E+02
      4.134  0.3790E+01  0.1949E+02
      4.251  0.4278E+01  0.1999E+02
      4.369  0.3477E+01  0.2040E+02
      4.486  0.4180E+01  0.2089E+02
      4.604  0.3594E+01  0.2132E+02
      4.721  0.3543E+01  0.2173E+02
      4.839  0.4406E+01  0.2225E+02
      4.956  0.4258E+01  0.2275E+02
      5.074  0.3937E+01  0.2321E+02
      5.191  0.4503E+01  0.2374E+02
      5.309  0.4327E+01  0.2425E+02
      5.426  0.4513E+01  0.2478E+02
      5.544  0.4605E+01  0.2532E+02
      5.661  0.4882E+01  0.2590E+02
      5.779  0.4295E+01  0.2640E+02
      5.897  0.3938E+01  0.2686E+02
      6.014  0.4986E+01  0.2745E+02
      6.132  0.4458E+01  0.2797E+02
      6.249  0.4596E+01  0.2851E+02
      6.367  0.3866E+01  0.2897E+02
      6.484  0.4692E+01  0.2952E+02
      6.602  0.4635E+01  0.3007E+02
      6.719  0.4955E+01  0.3065E+02
      6.837  0.4462E+01  0.3117E+02
      6.954  0.4465E+01  0.3170E+02
      7.072  0.6025E+01  0.3240E+02
      7.189  0.6193E+01  0.3313E+02
      7.307  0.5013E+01  0.3372E+02
      7.424  0.4784E+01  0.3428E+02
      7.542  0.4854E+01  0.3485E+02
      7.659  0.5994E+01  0.3556E+02
      7.777  0.5411E+01  0.3619E+02
      7.894  0.5809E+01  0.3688E+02
      8.012  0.5369E+01  0.3751E+02
      8.129  0.5410E+01  0.3814E+02
      8.247  0.5661E+01  0.3881E+02
      8.365  0.5381E+01  0.3944E+02
      8.482  0.6256E+01  0.4018E+02
      8.600  0.5603E+01  0.4084E+02
      8.717  0.5595E+01  0.4149E+02
      8.835  0.6142E+01  0.4222E+02
      8.952  0.5850E+01  0.4290E+02
      9.070  0.5390E+01  0.4354E+02
      9.187  0.6252E+01  0.4427E+02
      9.305  0.5102E+01  0.4487E+02
      9.422  0.5368E+01  0.4550E+02
      9.540  0.6519E+01  0.4627E+02
      9.657  0.6008E+01  0.4697E+02
      9.775  0.4973E+01  0.4756E+02
      9.892  0.6372E+01  0.4831E+02
     10.010  0.6280E+01  0.4905E+02
     10.127  0.4885E+01  0.4962E+02
     10.245  0.5791E+01  0.5030E+02
     10.362  0.5709E+01  0.5097E+02
     10.480  0.5906E+01  0.5166E+02
     10.598  0.5840E+01  0.5235E+02
     10.715  0.5486E+01  0.5300E+02
     10.833  0.6490E+01  0.5376E+02
     10.950  0.5877E+01  0.5445E+02
     11.068  0.6152E+01  0.5517E+02
     11.185  0.5658E+01  0.5584E+02
     11.303  0.6111E+01  0.5656E+02
     11.420  0.5668E+01  0.5722E+02
     11.538  0.6226E+01  0.5795E+02
     11.655  0.6551E+01  0.5872E+02
     11.773  0.6045E+01  0.5943E+02
     11.890  0.4732E+01  0.5999E+02
     12.008  0.5990E+01  0.6069E+02
     12.125  0.5896E+01  0.6139E+02
     12.243  0.6361E+01  0.6213E+02
     12.360  0.6347E+01  0.6288E+02
     12.478  0.6695E+01  0.6367E+02
     12.595  0.6753E+01  0.6446E+02
     12.713  0.6301E+01  0.6520E+02
     12.831  0.6369E+01  0.6595E+02
     12.948  0.6314E+01  0.6669E+02
     13.066  0.6976E+01  0.6751E+02
     13.183  0.6615E+01  0.6829E+02
     13.301  0.6750E+01  0.6908E+02
     13.418  0.6192E+01  0.6981E+02
     13.536  0.6435E+01  0.7057E+02
     13.653  0.6271E+01  0.7130E+02
     13.771  0.6272E+01  0.7204E+02
     13.888  0.6837E+01  0.7284E+02
     14.006  0.5886E+01  0.7354E+02
     14.123  0.6466E+01  0.7430E+02
     14.241  0.5579E+01  0.7495E+02
     14.358  0.5451E+01  0.7559E+02
     14.476  0.4867E+01  0.7616E+02
     14.593  0.5452E+01  0.7681E+02
     14.711  0.5330E+01  0.7743E+02
     14.828  0.4392E+01  0.7795E+02
     14.946  0.3977E+01  0.7842E+02
     15.064  0.3712E+01  0.7885E+02
     15.181  0.2814E+01  0.7918E+02
     15.299  0.3482E+01  0.7959E+02
     15.416  0.2745E+01  0.7991E+02
     15.534  0.3312E+01  0.8030E+02
     15.651  0.1955E+01  0.8053E+02
     15.769  0.1471E+01  0.8071E+02
     15.886  0.2417E+01  0.8099E+02
     16.004  0.3097E+01  0.8135E+02
     16.121  0.1648E+01  0.8155E+02
     16.239  0.2068E+01  0.8179E+02
     16.356  0.1464E+01  0.8196E+02
     16.474  0.1196E+01  0.8210E+02
     16.591  0.2268E+01  0.8237E+02
     16.709  0.1756E+01  0.8258E+02
     16.826  0.8663E+00  0.8268E+02
     16.944  0.8046E+00  0.8277E+02
     17.061  0.9515E+00  0.8288E+02
     17.179  0.1254E+01  0.8303E+02
     17.297  0.8222E+00  0.8313E+02
     17.414  0.6610E+00  0.8321E+02
     17.532  0.7378E+00  0.8329E+02
     17.649  0.7030E+00  0.8338E+02
     17.767  0.6167E+00  0.8345E+02
     17.884  0.4911E+00  0.8351E+02
     18.002  0.5102E+00  0.8357E+02
     18.119  0.4122E+00  0.8361E+02
     18.237  0.5315E+00  0.8368E+02
     18.354  0.9307E+00  0.8379E+02
     18.472  0.2598E+00  0.8382E+02
     18.589  0.1448E+00  0.8383E+02
     18.707  0.1281E+00  0.8385E+02
     18.824  0.2397E+00  0.8388E+02
     18.942  0.9555E-01  0.8389E+02
     19.059  0.8460E-01  0.8390E+02
     19.177  0.4471E-01  0.8390E+02
     19.294  0.2231E+00  0.8393E+02
     19.412  0.1083E+00  0.8394E+02
     19.529  0.3415E+00  0.8398E+02
     19.647  0.1529E+00  0.8400E+02
     19.765  0.8843E-03  0.8400E+02
     19.882  0.1329E-08  0.8400E+02
     20.000  0.0000E+00  0.8400E+02
     20.117  0.0000E+00  0.8400E+02
     20.235  0.0000E+00  0.8400E+02
     20.352  0.0000E+00  0.8400E+02
     20.470  0.0000E+00  0.8400E+02
     20.587  0.0000E+00  0.8400E+02
     20.705  0.0000E+00  0.8400E+02
     20.822  0.0000E+00  0.8400E+02
     20.940  0.0000E+00  0.8400E+02
     21.057  0.0000E+00  0.8400E+02
     21.175  0.0000E+00  0.8400E+02
