       N       E                     dE             d eps       ncg     rms          ort
DAV:   1    -0.660823439897E+01   -0.66082E+01   -0.33452E+03 64680   0.126E+02
DAV:   2    -0.739270217780E+01   -0.78447E+00   -0.77221E+00 64680   0.550E+00
DAV:   3    -0.739276014616E+01   -0.57968E-04   -0.57969E-04 64680   0.546E-02
DAV:   4    -0.739276014782E+01   -0.16535E-08   -0.10059E-08 64680   0.185E-04
DAV:   5    -0.739276014762E+01    0.19615E-09   -0.84340E-14 64680   0.554E-08
SDA:   6    -0.733120863099E+01    0.61552E-01   -0.84340E-14 64680   0.302E-02 0.000E+00
CGA:   7    -0.733253545710E+01   -0.13268E-02   -0.13457E-02 64680   0.612E-03-0.710E-04
CGA:   8    -0.733306408080E+01   -0.52862E-03   -0.51909E-03 64680   0.145E-04 0.142E-04
CGA:   9    -0.733307082376E+01   -0.67430E-05   -0.65785E-05 64680   0.102E-05 0.821E-06
CGA:  10    -0.733307139540E+01   -0.57164E-06   -0.76374E-06 64680   0.242E-06-0.426E-06
   1 F= -.73330714E+01 E0= -.73328862E+01  d E =-.370345E-03
