  20  20   0   0
  0.4951695E+02  0.1298018E-08  0.2081904E-09  0.4000000E-08  0.5000000E-15
  1.000000000000000E-004
  CAR 
 Frozen phonon                           
      4.75387170    -14.53008152  301     -3.11204038      1.00000000
    -14.530  0.0000E+00  0.0000E+00
    -14.466  0.0000E+00  0.0000E+00
    -14.402  0.0000E+00  0.0000E+00
    -14.337  0.0000E+00  0.0000E+00
    -14.273  0.0000E+00  0.0000E+00
    -14.209  0.0000E+00  0.0000E+00
    -14.144  0.0000E+00  0.0000E+00
    -14.080  0.0000E+00  0.0000E+00
    -14.016  0.0000E+00  0.0000E+00
    -13.952  0.0000E+00  0.0000E+00
    -13.887  0.0000E+00  0.0000E+00
    -13.823  0.0000E+00  0.0000E+00
    -13.759  0.2042E-14  0.1313E-15
    -13.694  0.1698E-03  0.1091E-04
    -13.630  0.5107E+00  0.3284E-01
    -13.566  0.1381E+01  0.1216E+00
    -13.502  0.1393E+01  0.2112E+00
    -13.437  0.1382E+01  0.3000E+00
    -13.373  0.1414E+01  0.3909E+00
    -13.309  0.1410E+01  0.4815E+00
    -13.244  0.1401E+01  0.5716E+00
    -13.180  0.1409E+01  0.6622E+00
    -13.116  0.1398E+01  0.7520E+00
    -13.052  0.1379E+01  0.8407E+00
    -12.987  0.1353E+01  0.9276E+00
    -12.923  0.1422E+01  0.1019E+01
    -12.859  0.1500E+01  0.1115E+01
    -12.795  0.1348E+01  0.1202E+01
    -12.730  0.1354E+01  0.1289E+01
    -12.666  0.1412E+01  0.1380E+01
    -12.602  0.1422E+01  0.1471E+01
    -12.537  0.1422E+01  0.1563E+01
    -12.473  0.1409E+01  0.1653E+01
    -12.409  0.1458E+01  0.1747E+01
    -12.345  0.1424E+01  0.1839E+01
    -12.280  0.1447E+01  0.1932E+01
    -12.216  0.1478E+01  0.2027E+01
    -12.152  0.1693E+01  0.2135E+01
    -12.087  0.2885E+01  0.2321E+01
    -12.023  0.2832E+01  0.2503E+01
    -11.959  0.3139E+01  0.2705E+01
    -11.895  0.2415E+01  0.2860E+01
    -11.830  0.2622E+01  0.3028E+01
    -11.766  0.2762E+01  0.3206E+01
    -11.702  0.2703E+01  0.3380E+01
    -11.637  0.2718E+01  0.3554E+01
    -11.573  0.2780E+01  0.3733E+01
    -11.509  0.2948E+01  0.3923E+01
    -11.445  0.2867E+01  0.4107E+01
    -11.380  0.2859E+01  0.4291E+01
    -11.316  0.2907E+01  0.4478E+01
    -11.252  0.2746E+01  0.4654E+01
    -11.188  0.2984E+01  0.4846E+01
    -11.123  0.2741E+01  0.5022E+01
    -11.059  0.3094E+01  0.5221E+01
    -10.995  0.2856E+01  0.5405E+01
    -10.930  0.2859E+01  0.5588E+01
    -10.866  0.2898E+01  0.5775E+01
    -10.802  0.2956E+01  0.5965E+01
    -10.738  0.3045E+01  0.6160E+01
    -10.673  0.2934E+01  0.6349E+01
    -10.609  0.3029E+01  0.6544E+01
    -10.545  0.3063E+01  0.6740E+01
    -10.480  0.2955E+01  0.6930E+01
    -10.416  0.3033E+01  0.7125E+01
    -10.352  0.3043E+01  0.7321E+01
    -10.288  0.2974E+01  0.7512E+01
    -10.223  0.3125E+01  0.7713E+01
    -10.159  0.3130E+01  0.7914E+01
    -10.095  0.3064E+01  0.8111E+01
    -10.030  0.3157E+01  0.8314E+01
     -9.966  0.3171E+01  0.8518E+01
     -9.902  0.3122E+01  0.8719E+01
     -9.838  0.3211E+01  0.8925E+01
     -9.773  0.3264E+01  0.9135E+01
     -9.709  0.3258E+01  0.9344E+01
     -9.645  0.3285E+01  0.9556E+01
     -9.581  0.3433E+01  0.9776E+01
     -9.516  0.3137E+01  0.9978E+01
     -9.452  0.3539E+01  0.1021E+02
     -9.388  0.3484E+01  0.1043E+02
     -9.323  0.3217E+01  0.1064E+02
     -9.259  0.3798E+01  0.1088E+02
     -9.195  0.3565E+01  0.1111E+02
     -9.131  0.3546E+01  0.1134E+02
     -9.066  0.3786E+01  0.1158E+02
     -9.002  0.3965E+01  0.1184E+02
     -8.938  0.3941E+01  0.1209E+02
     -8.873  0.5593E+01  0.1245E+02
     -8.809  0.5219E+01  0.1278E+02
     -8.745  0.5942E+01  0.1317E+02
     -8.681  0.6307E+01  0.1357E+02
     -8.616  0.5617E+01  0.1393E+02
     -8.552  0.5721E+01  0.1430E+02
     -8.488  0.5408E+01  0.1465E+02
     -8.423  0.5757E+01  0.1502E+02
     -8.359  0.5517E+01  0.1537E+02
     -8.295  0.6830E+01  0.1581E+02
     -8.231  0.5268E+01  0.1615E+02
     -8.166  0.6151E+01  0.1655E+02
     -8.102  0.4905E+01  0.1686E+02
     -8.038  0.5655E+01  0.1722E+02
     -7.974  0.4782E+01  0.1753E+02
     -7.909  0.5267E+01  0.1787E+02
     -7.845  0.4877E+01  0.1818E+02
     -7.781  0.5263E+01  0.1852E+02
     -7.716  0.5240E+01  0.1886E+02
     -7.652  0.5382E+01  0.1920E+02
     -7.588  0.5012E+01  0.1953E+02
     -7.524  0.5313E+01  0.1987E+02
     -7.459  0.5285E+01  0.2021E+02
     -7.395  0.6074E+01  0.2060E+02
     -7.331  0.6181E+01  0.2100E+02
     -7.266  0.4585E+01  0.2129E+02
     -7.202  0.4815E+01  0.2160E+02
     -7.138  0.4929E+01  0.2192E+02
     -7.074  0.5163E+01  0.2225E+02
     -7.009  0.5807E+01  0.2262E+02
     -6.945  0.6198E+01  0.2302E+02
     -6.881  0.4622E+01  0.2332E+02
     -6.817  0.2806E+01  0.2350E+02
     -6.752  0.2577E+01  0.2366E+02
     -6.688  0.2576E+01  0.2383E+02
     -6.624  0.2292E+01  0.2398E+02
     -6.559  0.2368E+01  0.2413E+02
     -6.495  0.2124E+01  0.2427E+02
     -6.431  0.2023E+01  0.2440E+02
     -6.367  0.2280E+01  0.2454E+02
     -6.302  0.2013E+01  0.2467E+02
     -6.238  0.1818E+01  0.2479E+02
     -6.174  0.2214E+01  0.2493E+02
     -6.109  0.1785E+01  0.2504E+02
     -6.045  0.1875E+01  0.2517E+02
     -5.981  0.1995E+01  0.2529E+02
     -5.917  0.1817E+01  0.2541E+02
     -5.852  0.1672E+01  0.2552E+02
     -5.788  0.1915E+01  0.2564E+02
     -5.724  0.1939E+01  0.2577E+02
     -5.659  0.1508E+01  0.2586E+02
     -5.595  0.1849E+01  0.2598E+02
     -5.531  0.1880E+01  0.2610E+02
     -5.467  0.1704E+01  0.2621E+02
     -5.402  0.1352E+01  0.2630E+02
     -5.338  0.2185E+01  0.2644E+02
     -5.274  0.1422E+01  0.2653E+02
     -5.210  0.1724E+01  0.2664E+02
     -5.145  0.1674E+01  0.2675E+02
     -5.081  0.1688E+01  0.2686E+02
     -5.017  0.1856E+01  0.2698E+02
     -4.952  0.1237E+01  0.2706E+02
     -4.888  0.1764E+01  0.2717E+02
     -4.824  0.1914E+01  0.2729E+02
     -4.760  0.1300E+01  0.2738E+02
     -4.695  0.1720E+01  0.2749E+02
     -4.631  0.1782E+01  0.2760E+02
     -4.567  0.1405E+01  0.2769E+02
     -4.502  0.1685E+01  0.2780E+02
     -4.438  0.1758E+01  0.2791E+02
     -4.374  0.1434E+01  0.2801E+02
     -4.310  0.1648E+01  0.2811E+02
     -4.245  0.1455E+01  0.2820E+02
     -4.181  0.1887E+01  0.2833E+02
     -4.117  0.1503E+01  0.2842E+02
     -4.052  0.1499E+01  0.2852E+02
     -3.988  0.1566E+01  0.2862E+02
     -3.924  0.1868E+01  0.2874E+02
     -3.860  0.1599E+01  0.2884E+02
     -3.795  0.1561E+01  0.2894E+02
     -3.731  0.1332E+01  0.2903E+02
     -3.667  0.2250E+01  0.2917E+02
     -3.603  0.1815E+01  0.2929E+02
     -3.538  0.1018E+01  0.2936E+02
     -3.474  0.1365E+01  0.2944E+02
     -3.410  0.2253E+01  0.2959E+02
     -3.345  0.1211E+01  0.2967E+02
     -3.281  0.1190E+01  0.2974E+02
     -3.217  0.1563E+01  0.2984E+02
     -3.153  0.1501E+01  0.2994E+02
     -3.088  0.1382E+01  0.3003E+02
     -3.024  0.1619E+01  0.3013E+02
     -2.960  0.1140E+01  0.3021E+02
     -2.895  0.1371E+01  0.3029E+02
     -2.831  0.1631E+01  0.3040E+02
     -2.767  0.1598E+01  0.3050E+02
     -2.703  0.1104E+01  0.3057E+02
     -2.638  0.1688E+01  0.3068E+02
     -2.574  0.2097E+01  0.3082E+02
     -2.510  0.1256E+01  0.3090E+02
     -2.445  0.1610E+01  0.3100E+02
     -2.381  0.1781E+01  0.3111E+02
     -2.317  0.1757E+01  0.3123E+02
     -2.253  0.1611E+01  0.3133E+02
     -2.188  0.1637E+01  0.3144E+02
     -2.124  0.1806E+01  0.3155E+02
     -2.060  0.1764E+01  0.3167E+02
     -1.996  0.1826E+01  0.3178E+02
     -1.931  0.1639E+01  0.3189E+02
     -1.867  0.2186E+01  0.3203E+02
     -1.803  0.1799E+01  0.3214E+02
     -1.738  0.2211E+01  0.3229E+02
     -1.674  0.2300E+01  0.3243E+02
     -1.610  0.2862E+01  0.3262E+02
     -1.546  0.2059E+01  0.3275E+02
     -1.481  0.2479E+01  0.3291E+02
     -1.417  0.2816E+01  0.3309E+02
     -1.353  0.1592E+01  0.3319E+02
     -1.288  0.1619E+01  0.3330E+02
     -1.224  0.2019E+01  0.3343E+02
     -1.160  0.1427E+01  0.3352E+02
     -1.096  0.1437E+01  0.3361E+02
     -1.031  0.1115E+01  0.3368E+02
     -0.967  0.1561E+01  0.3378E+02
     -0.903  0.1047E+01  0.3385E+02
     -0.838  0.7937E+00  0.3390E+02
     -0.774  0.7094E+00  0.3395E+02
     -0.710  0.6662E+00  0.3399E+02
     -0.646  0.1303E+01  0.3407E+02
     -0.581  0.2780E+01  0.3425E+02
     -0.517  0.2679E+01  0.3442E+02
     -0.453  0.2822E+01  0.3461E+02
     -0.389  0.6446E+01  0.3502E+02
     -0.324  0.7733E+01  0.3552E+02
     -0.260  0.4874E+01  0.3583E+02
     -0.196  0.5840E+01  0.3621E+02
     -0.131  0.6738E+01  0.3664E+02
     -0.067  0.6132E+01  0.3703E+02
     -0.003  0.4447E+01  0.3732E+02
      0.061  0.5146E+01  0.3765E+02
      0.126  0.4784E+01  0.3796E+02
      0.190  0.4406E+01  0.3824E+02
      0.254  0.4546E+01  0.3853E+02
      0.319  0.4339E+01  0.3881E+02
      0.383  0.4533E+01  0.3910E+02
      0.447  0.4235E+01  0.3938E+02
      0.511  0.3703E+01  0.3961E+02
      0.576  0.4592E+01  0.3991E+02
      0.640  0.4638E+01  0.4021E+02
      0.704  0.5021E+01  0.4053E+02
      0.769  0.5667E+01  0.4089E+02
      0.833  0.5123E+01  0.4122E+02
      0.897  0.6367E+01  0.4163E+02
      0.961  0.5923E+01  0.4201E+02
      1.026  0.7324E+01  0.4248E+02
      1.090  0.6757E+01  0.4292E+02
      1.154  0.6676E+01  0.4335E+02
      1.218  0.7722E+01  0.4384E+02
      1.283  0.8587E+01  0.4440E+02
      1.347  0.7943E+01  0.4491E+02
      1.411  0.9005E+01  0.4548E+02
      1.476  0.8263E+01  0.4602E+02
      1.540  0.8337E+01  0.4655E+02
      1.604  0.6950E+01  0.4700E+02
      1.668  0.6214E+01  0.4740E+02
      1.733  0.6277E+01  0.4780E+02
      1.797  0.7130E+01  0.4826E+02
      1.861  0.8082E+01  0.4878E+02
      1.926  0.7397E+01  0.4925E+02
      1.990  0.6698E+01  0.4969E+02
      2.054  0.7805E+01  0.5019E+02
      2.118  0.7162E+01  0.5065E+02
      2.183  0.8892E+01  0.5122E+02
      2.247  0.6867E+01  0.5166E+02
      2.311  0.6119E+01  0.5205E+02
      2.376  0.6247E+01  0.5246E+02
      2.440  0.5677E+01  0.5282E+02
      2.504  0.5815E+01  0.5319E+02
      2.568  0.4529E+01  0.5349E+02
      2.633  0.4230E+01  0.5376E+02
      2.697  0.3318E+01  0.5397E+02
      2.761  0.2350E+01  0.5412E+02
      2.825  0.2785E+01  0.5430E+02
      2.890  0.2458E+01  0.5446E+02
      2.954  0.2494E+01  0.5462E+02
      3.018  0.2115E+01  0.5475E+02
      3.083  0.1935E+01  0.5488E+02
      3.147  0.1679E+01  0.5499E+02
      3.211  0.1933E+01  0.5511E+02
      3.275  0.1971E+01  0.5524E+02
      3.340  0.2228E+01  0.5538E+02
      3.404  0.1562E+01  0.5548E+02
      3.468  0.1730E+01  0.5559E+02
      3.533  0.1515E+01  0.5569E+02
      3.597  0.1162E+01  0.5577E+02
      3.661  0.1083E+01  0.5583E+02
      3.725  0.1042E+01  0.5590E+02
      3.790  0.1026E+01  0.5597E+02
      3.854  0.4371E+00  0.5600E+02
      3.918  0.6657E-01  0.5600E+02
      3.983  0.7732E-04  0.5600E+02
      4.047  0.0000E+00  0.5600E+02
      4.111  0.0000E+00  0.5600E+02
      4.175  0.0000E+00  0.5600E+02
      4.240  0.0000E+00  0.5600E+02
      4.304  0.0000E+00  0.5600E+02
      4.368  0.0000E+00  0.5600E+02
      4.432  0.0000E+00  0.5600E+02
      4.497  0.0000E+00  0.5600E+02
      4.561  0.0000E+00  0.5600E+02
      4.625  0.0000E+00  0.5600E+02
      4.690  0.0000E+00  0.5600E+02
      4.754  0.0000E+00  0.5600E+02
