       N       E                     dE             d eps       ncg     rms          rms(c)
DAV:   1     0.927240094889E+00    0.92724E+00   -0.16129E+03 12852   0.685E+01
DAV:   2    -0.684771124160E+01   -0.77750E+01   -0.69871E+01 18984   0.974E+00
DAV:   3    -0.686991691147E+01   -0.22206E-01   -0.22206E-01 13440   0.597E-01
DAV:   4    -0.686996994093E+01   -0.53029E-04   -0.53029E-04 24150   0.318E-02
DAV:   5    -0.686996994499E+01   -0.40570E-08   -0.39696E-08 13650   0.223E-04    0.267E+00
DAV:   6    -0.617560311803E+01    0.69437E+00   -0.10235E+00 18438   0.493E-01    0.132E+00
DAV:   7    -0.592197195358E+01    0.25363E+00   -0.10004E+00 18816   0.476E-01    0.349E-01
DAV:   8    -0.590952894717E+01    0.12443E-01   -0.41509E-03 20958   0.634E-02    0.104E-01
DAV:   9    -0.590475096379E+01    0.47780E-02   -0.82282E-03 21294   0.413E-02    0.748E-02
DAV:  10    -0.590494953042E+01   -0.19857E-03   -0.32504E-03 20832   0.315E-02    0.303E-02
DAV:  11    -0.590557721238E+01   -0.62768E-03   -0.32200E-04 21126   0.122E-02    0.257E-02
DAV:  12    -0.590661311651E+01   -0.10359E-02   -0.55654E-04 18144   0.151E-02    0.104E-02
DAV:  13    -0.590686217186E+01   -0.24906E-03   -0.15460E-04 18522   0.510E-03    0.563E-03
DAV:  14    -0.590709408843E+01   -0.23192E-03   -0.38071E-05 16842   0.315E-03    0.302E-03
DAV:  15    -0.590722709878E+01   -0.13301E-03   -0.26899E-05 17430   0.188E-03    0.747E-04
DAV:  16    -0.590723874558E+01   -0.11647E-04   -0.24206E-07 16464   0.268E-04    0.533E-04
DAV:  17    -0.590726075566E+01   -0.22010E-04   -0.33089E-06 17472   0.483E-04    0.184E-04
DAV:  18    -0.590726449133E+01   -0.37357E-05   -0.15513E-07 18102   0.102E-04    0.138E-04
DAV:  19    -0.590726550265E+01   -0.10113E-05   -0.89278E-08 17052   0.116E-04    0.709E-05
DAV:  20    -0.590726613329E+01   -0.63064E-06   -0.11435E-08 17472   0.460E-05
   1 F= -.59072661E+01 E0= -.59069916E+01  d E =-.548988E-03
