       N       E                     dE             d eps       ncg     rms          rms(c)
DAV:   1     0.963401941426E+03    0.96340E+03   -0.41415E+04  3432   0.807E+02
DAV:   2    -0.213928738354E+03   -0.11773E+04   -0.11332E+04  5424   0.172E+02
DAV:   3    -0.359419106342E+03   -0.14549E+03   -0.14332E+03  4380   0.655E+01
DAV:   4    -0.363320391919E+03   -0.39013E+01   -0.38892E+01  4452   0.124E+01
DAV:   5    -0.363407195162E+03   -0.86803E-01   -0.86697E-01  4968   0.163E+00    0.210E+01
DAV:   6    -0.352169484531E+03    0.11238E+02   -0.41984E+00  3732   0.389E+00    0.121E+01
DAV:   7    -0.344986234085E+03    0.71833E+01   -0.96402E+00  3792   0.561E+00    0.143E+00
DAV:   8    -0.344561901723E+03    0.42433E+00   -0.10227E+00  4320   0.198E+00    0.872E-01
DAV:   9    -0.344486599176E+03    0.75303E-01   -0.14105E-01  4476   0.721E-01    0.633E-01
DAV:  10    -0.344448891221E+03    0.37708E-01   -0.53424E-02  4080   0.520E-01    0.230E-01
DAV:  11    -0.344444552274E+03    0.43389E-02   -0.23649E-02  4080   0.295E-01    0.239E-01
DAV:  12    -0.344455728505E+03   -0.11176E-01   -0.23293E-02  3864   0.249E-01    0.829E-02
DAV:  13    -0.344472595330E+03   -0.16867E-01   -0.85100E-03  3984   0.175E-01    0.130E-01
DAV:  14    -0.344486149975E+03   -0.13555E-01   -0.60982E-03  3744   0.161E-01    0.550E-02
DAV:  15    -0.344488498896E+03   -0.23489E-02   -0.64667E-04  4404   0.490E-02    0.530E-02
DAV:  16    -0.344491741650E+03   -0.32428E-02   -0.51320E-04  3792   0.485E-02    0.238E-02
DAV:  17    -0.344492602026E+03   -0.86038E-03   -0.12468E-04  4092   0.236E-02    0.586E-03
DAV:  18    -0.344493200218E+03   -0.59819E-03   -0.26545E-05  3876   0.833E-03    0.673E-03
DAV:  19    -0.344493311548E+03   -0.11133E-03   -0.21630E-06  4452   0.273E-03    0.230E-03
DAV:  20    -0.344493423255E+03   -0.11171E-03   -0.11583E-06  3684   0.187E-03    0.197E-03
DAV:  21    -0.344493446364E+03   -0.23109E-04   -0.69003E-08  3996   0.569E-04    0.185E-03
DAV:  22    -0.344493479860E+03   -0.33495E-04   -0.30112E-07  3504   0.105E-03    0.188E-04
DAV:  23    -0.344493486377E+03   -0.65177E-05   -0.80973E-08  4080   0.573E-04    0.690E-04
DAV:  24    -0.344493490749E+03   -0.43716E-05   -0.26804E-08  3696   0.400E-04    0.173E-04
DAV:  25    -0.344493491618E+03   -0.86948E-06    0.29111E-10  2952   0.197E-04    0.890E-05
DAV:  26    -0.344493492352E+03   -0.73364E-06    0.54467E-09  2688   0.889E-05    0.299E-05
DAV:  27    -0.344493492521E+03   -0.16956E-06    0.65487E-09  2880   0.482E-05    0.435E-05
DAV:  28    -0.344493492589E+03   -0.67968E-07    0.69024E-09  2724   0.299E-05    0.206E-05
DAV:  29    -0.344493492616E+03   -0.26999E-07    0.70705E-09  2544   0.172E-05    0.365E-06
DAV:  30    -0.344493492626E+03   -0.93132E-08    0.70950E-09  2664   0.974E-06
   1 F= -.35683502E+03 E0= -.35679987E+03  d E =-.702893E-01
