   2   2   0   0
  0.1256248E+03  0.2506240E-09  0.2506240E-09  0.4000000E-08  0.5000000E-15
  1.000000000000000E-004
  CAR 
 Convergence                             
     23.31315934    -12.81480868  301     -2.75316788      1.00000000
    -12.815  0.0000E+00  0.0000E+00
    -12.694  0.0000E+00  0.0000E+00
    -12.574  0.0000E+00  0.0000E+00
    -12.454  0.0000E+00  0.0000E+00
    -12.333  0.0000E+00  0.0000E+00
    -12.213  0.0000E+00  0.0000E+00
    -12.092  0.0000E+00  0.0000E+00
    -11.972  0.0000E+00  0.0000E+00
    -11.851  0.0000E+00  0.0000E+00
    -11.731  0.0000E+00  0.0000E+00
    -11.611  0.0000E+00  0.0000E+00
    -11.490  0.0000E+00  0.0000E+00
    -11.370  0.8087E-09  0.9739E-10
    -11.249  0.9841E-03  0.1185E-03
    -11.129  0.1190E+00  0.1445E-01
    -11.008  0.4024E+00  0.6292E-01
    -10.888  0.2346E+00  0.9117E-01
    -10.768  0.5802E+00  0.1610E+00
    -10.647  0.7975E-01  0.1706E+00
    -10.527  0.4455E+00  0.2243E+00
    -10.406  0.5284E+00  0.2879E+00
    -10.286  0.1902E+00  0.3108E+00
    -10.165  0.3382E+00  0.3516E+00
    -10.045  0.2325E+00  0.3796E+00
     -9.925  0.6678E+00  0.4600E+00
     -9.804  0.3065E+00  0.4969E+00
     -9.684  0.3493E+00  0.5390E+00
     -9.563  0.1083E-02  0.5391E+00
     -9.443  0.4068E+00  0.5881E+00
     -9.322  0.8571E+00  0.6913E+00
     -9.202  0.1203E+00  0.7058E+00
     -9.082  0.4283E+00  0.7574E+00
     -8.961  0.1266E+00  0.7726E+00
     -8.841  0.2925E+00  0.8078E+00
     -8.720  0.4180E+00  0.8582E+00
     -8.600  0.5853E+00  0.9287E+00
     -8.479  0.1551E+00  0.9473E+00
     -8.359  0.6341E+00  0.1024E+01
     -8.239  0.3862E+00  0.1070E+01
     -8.118  0.4614E-01  0.1076E+01
     -7.998  0.4632E+00  0.1132E+01
     -7.877  0.1796E-01  0.1134E+01
     -7.757  0.4610E+00  0.1189E+01
     -7.636  0.6310E+00  0.1265E+01
     -7.516  0.8039E+00  0.1362E+01
     -7.396  0.1725E+00  0.1383E+01
     -7.275  0.4631E-02  0.1383E+01
     -7.155  0.4364E+00  0.1436E+01
     -7.034  0.1521E+00  0.1454E+01
     -6.914  0.4407E+00  0.1507E+01
     -6.793  0.2628E+00  0.1539E+01
     -6.673  0.9933E+00  0.1659E+01
     -6.553  0.2247E+00  0.1686E+01
     -6.432  0.3669E+00  0.1730E+01
     -6.312  0.3531E+00  0.1772E+01
     -6.191  0.8343E+00  0.1873E+01
     -6.071  0.1020E+01  0.1996E+01
     -5.950  0.4231E+00  0.2047E+01
     -5.830  0.1142E+00  0.2060E+01
     -5.710  0.1371E+01  0.2225E+01
     -5.589  0.8517E+00  0.2328E+01
     -5.469  0.8485E+00  0.2430E+01
     -5.348  0.7225E+00  0.2517E+01
     -5.228  0.5575E+00  0.2584E+01
     -5.108  0.1157E+01  0.2724E+01
     -4.987  0.4843E+00  0.2782E+01
     -4.867  0.7940E+00  0.2878E+01
     -4.746  0.1238E+01  0.3027E+01
     -4.626  0.1152E+01  0.3165E+01
     -4.505  0.1272E+01  0.3319E+01
     -4.385  0.3377E+00  0.3359E+01
     -4.265  0.6077E-01  0.3367E+01
     -4.144  0.1380E+01  0.3533E+01
     -4.024  0.7269E+00  0.3620E+01
     -3.903  0.3486E+00  0.3662E+01
     -3.783  0.6848E+00  0.3745E+01
     -3.662  0.4094E+00  0.3794E+01
     -3.542  0.1578E+00  0.3813E+01
     -3.422  0.4431E+00  0.3867E+01
     -3.301  0.1965E+00  0.3890E+01
     -3.181  0.6349E+00  0.3967E+01
     -3.060  0.1747E-01  0.3969E+01
     -2.940  0.3320E-03  0.3969E+01
     -2.819  0.6592E-01  0.3977E+01
     -2.699  0.4871E+00  0.4035E+01
     -2.579  0.2991E+00  0.4071E+01
     -2.458  0.8389E+00  0.4172E+01
     -2.338  0.1278E+01  0.4326E+01
     -2.217  0.3061E+00  0.4363E+01
     -2.097  0.7601E+00  0.4455E+01
     -1.976  0.1585E+01  0.4646E+01
     -1.856  0.2175E+01  0.4907E+01
     -1.736  0.1681E+01  0.5110E+01
     -1.615  0.4501E+00  0.5164E+01
     -1.495  0.4992E+00  0.5224E+01
     -1.374  0.7628E+00  0.5316E+01
     -1.254  0.2952E+00  0.5352E+01
     -1.133  0.1285E+01  0.5506E+01
     -1.013  0.9933E+00  0.5626E+01
     -0.893  0.1573E+00  0.5645E+01
     -0.772  0.9079E+00  0.5754E+01
     -0.652  0.2241E+01  0.6024E+01
     -0.531  0.1216E+01  0.6171E+01
     -0.411  0.7182E+00  0.6257E+01
     -0.290  0.3276E+00  0.6297E+01
     -0.170  0.1504E+01  0.6478E+01
     -0.050  0.1355E+01  0.6641E+01
      0.071  0.8464E+00  0.6743E+01
      0.191  0.3834E+00  0.6789E+01
      0.312  0.1327E+00  0.6805E+01
      0.432  0.1439E+01  0.6978E+01
      0.553  0.1351E+01  0.7141E+01
      0.673  0.6736E+00  0.7222E+01
      0.793  0.1670E+01  0.7423E+01
      0.914  0.1493E+01  0.7603E+01
      1.034  0.1605E+01  0.7796E+01
      1.155  0.1543E+01  0.7982E+01
      1.275  0.1760E+01  0.8194E+01
      1.396  0.1622E+01  0.8389E+01
      1.516  0.1844E+01  0.8611E+01
      1.636  0.2145E+01  0.8870E+01
      1.757  0.1409E+01  0.9039E+01
      1.877  0.2517E+01  0.9342E+01
      1.998  0.1653E+01  0.9542E+01
      2.118  0.2109E+01  0.9795E+01
      2.239  0.2827E+01  0.1014E+02
      2.359  0.2908E+01  0.1049E+02
      2.479  0.3529E+01  0.1091E+02
      2.600  0.2187E+01  0.1117E+02
      2.720  0.2999E+01  0.1154E+02
      2.841  0.4119E+01  0.1203E+02
      2.961  0.3628E+01  0.1247E+02
      3.081  0.4285E+01  0.1298E+02
      3.202  0.4218E+01  0.1349E+02
      3.322  0.2679E+01  0.1382E+02
      3.443  0.2801E+01  0.1415E+02
      3.563  0.3670E+01  0.1459E+02
      3.684  0.3988E+01  0.1507E+02
      3.804  0.3913E+01  0.1555E+02
      3.924  0.4116E+01  0.1604E+02
      4.045  0.5371E+01  0.1669E+02
      4.165  0.3238E+01  0.1708E+02
      4.286  0.4653E+01  0.1764E+02
      4.406  0.3526E+01  0.1806E+02
      4.527  0.3880E+01  0.1853E+02
      4.647  0.6042E+01  0.1926E+02
      4.767  0.4018E+01  0.1974E+02
      4.888  0.2846E+01  0.2008E+02
      5.008  0.2952E+01  0.2044E+02
      5.129  0.5170E+01  0.2106E+02
      5.249  0.4277E+01  0.2158E+02
      5.370  0.5069E+01  0.2219E+02
      5.490  0.6036E+01  0.2292E+02
      5.610  0.5154E+01  0.2354E+02
      5.731  0.4020E+01  0.2402E+02
      5.851  0.2322E+01  0.2430E+02
      5.972  0.4253E+01  0.2481E+02
      6.092  0.5795E+01  0.2551E+02
      6.213  0.3774E+01  0.2596E+02
      6.333  0.5577E+01  0.2664E+02
      6.453  0.3880E+01  0.2710E+02
      6.574  0.5536E+01  0.2777E+02
      6.694  0.3549E+01  0.2820E+02
      6.815  0.5559E+01  0.2887E+02
      6.935  0.5468E+01  0.2953E+02
      7.056  0.3467E+01  0.2994E+02
      7.176  0.4299E+01  0.3046E+02
      7.296  0.5467E+01  0.3112E+02
      7.417  0.4679E+01  0.3168E+02
      7.537  0.5930E+01  0.3240E+02
      7.658  0.4845E+01  0.3298E+02
      7.778  0.5241E+01  0.3361E+02
      7.899  0.4786E+01  0.3419E+02
      8.019  0.7172E+01  0.3505E+02
      8.139  0.4654E+01  0.3561E+02
      8.260  0.4989E+01  0.3621E+02
      8.380  0.3661E+01  0.3665E+02
      8.501  0.4026E+01  0.3714E+02
      8.621  0.4470E+01  0.3768E+02
      8.742  0.6438E+01  0.3845E+02
      8.862  0.7673E+01  0.3938E+02
      8.982  0.6415E+01  0.4015E+02
      9.103  0.5271E+01  0.4078E+02
      9.223  0.5420E+01  0.4144E+02
      9.344  0.5694E+01  0.4212E+02
      9.464  0.3799E+01  0.4258E+02
      9.585  0.6391E+01  0.4335E+02
      9.705  0.5885E+01  0.4406E+02
      9.825  0.5556E+01  0.4473E+02
      9.946  0.3487E+01  0.4515E+02
     10.066  0.5462E+01  0.4580E+02
     10.187  0.6354E+01  0.4657E+02
     10.307  0.7795E+01  0.4751E+02
     10.428  0.5017E+01  0.4811E+02
     10.548  0.5177E+01  0.4874E+02
     10.668  0.6486E+01  0.4952E+02
     10.789  0.8127E+01  0.5050E+02
     10.909  0.5908E+01  0.5121E+02
     11.030  0.3980E+01  0.5169E+02
     11.150  0.6355E+01  0.5245E+02
     11.271  0.7194E+01  0.5332E+02
     11.391  0.5522E+01  0.5398E+02
     11.511  0.6828E+01  0.5481E+02
     11.632  0.5837E+01  0.5551E+02
     11.752  0.7189E+01  0.5637E+02
     11.873  0.5969E+01  0.5709E+02
     11.993  0.7296E+01  0.5797E+02
     12.113  0.3251E+01  0.5836E+02
     12.234  0.5817E+01  0.5906E+02
     12.354  0.6445E+01  0.5984E+02
     12.475  0.5550E+01  0.6051E+02
     12.595  0.6818E+01  0.6133E+02
     12.716  0.5227E+01  0.6196E+02
     12.836  0.6643E+01  0.6276E+02
     12.956  0.7834E+01  0.6370E+02
     13.077  0.7183E+01  0.6457E+02
     13.197  0.5103E+01  0.6518E+02
     13.318  0.5403E+01  0.6583E+02
     13.438  0.8246E+01  0.6682E+02
     13.559  0.6131E+01  0.6756E+02
     13.679  0.7140E+01  0.6842E+02
     13.799  0.4989E+01  0.6902E+02
     13.920  0.4193E+01  0.6953E+02
     14.040  0.5579E+01  0.7020E+02
     14.161  0.8184E+01  0.7119E+02
     14.281  0.6510E+01  0.7197E+02
     14.402  0.6181E+01  0.7271E+02
     14.522  0.6359E+01  0.7348E+02
     14.642  0.6280E+01  0.7424E+02
     14.763  0.8094E+01  0.7521E+02
     14.883  0.4949E+01  0.7581E+02
     15.004  0.5798E+01  0.7651E+02
     15.124  0.4081E+01  0.7700E+02
     15.245  0.4743E+01  0.7757E+02
     15.365  0.4431E+01  0.7810E+02
     15.485  0.3449E+01  0.7852E+02
     15.606  0.2757E+01  0.7885E+02
     15.726  0.2033E+01  0.7909E+02
     15.847  0.2638E+01  0.7941E+02
     15.967  0.2744E+01  0.7974E+02
     16.088  0.3191E+01  0.8013E+02
     16.208  0.9394E+00  0.8024E+02
     16.328  0.1436E+01  0.8041E+02
     16.449  0.1965E+01  0.8065E+02
     16.569  0.2618E+01  0.8096E+02
     16.690  0.1740E+01  0.8117E+02
     16.810  0.1189E+01  0.8132E+02
     16.931  0.1769E+01  0.8153E+02
     17.051  0.1993E+01  0.8177E+02
     17.171  0.2160E+01  0.8203E+02
     17.292  0.5681E+00  0.8210E+02
     17.412  0.1037E+01  0.8222E+02
     17.533  0.2279E+01  0.8250E+02
     17.653  0.1578E+00  0.8252E+02
     17.774  0.2942E+00  0.8255E+02
     17.894  0.1465E+01  0.8273E+02
     18.014  0.1326E+01  0.8289E+02
     18.135  0.7414E+00  0.8298E+02
     18.255  0.5779E+00  0.8305E+02
     18.376  0.1797E+00  0.8307E+02
     18.496  0.2063E+00  0.8309E+02
     18.617  0.5243E+00  0.8316E+02
     18.737  0.1215E+01  0.8330E+02
     18.857  0.1477E+00  0.8332E+02
     18.978  0.1881E+00  0.8334E+02
     19.098  0.5308E+00  0.8341E+02
     19.219  0.1083E+01  0.8354E+02
     19.339  0.1204E+01  0.8368E+02
     19.460  0.4977E+00  0.8374E+02
     19.580  0.5635E-01  0.8375E+02
     19.700  0.1345E-05  0.8375E+02
     19.821  0.6968E-11  0.8375E+02
     19.941  0.2089E-03  0.8375E+02
     20.062  0.1555E+00  0.8377E+02
     20.182  0.3015E+00  0.8381E+02
     20.302  0.3829E+00  0.8385E+02
     20.423  0.2192E-01  0.8385E+02
     20.543  0.2350E+00  0.8388E+02
     20.664  0.6320E-01  0.8389E+02
     20.784  0.7803E-02  0.8389E+02
     20.905  0.1623E+00  0.8391E+02
     21.025  0.9692E-01  0.8392E+02
     21.145  0.8730E-02  0.8392E+02
     21.266  0.2358E+00  0.8395E+02
     21.386  0.8975E-01  0.8396E+02
     21.507  0.1841E+00  0.8398E+02
     21.627  0.1455E-01  0.8399E+02
     21.748  0.1138E+00  0.8400E+02
     21.868  0.1959E-02  0.8400E+02
     21.988  0.1617E-08  0.8400E+02
     22.109  0.0000E+00  0.8400E+02
     22.229  0.0000E+00  0.8400E+02
     22.350  0.0000E+00  0.8400E+02
     22.470  0.0000E+00  0.8400E+02
     22.591  0.0000E+00  0.8400E+02
     22.711  0.0000E+00  0.8400E+02
     22.831  0.0000E+00  0.8400E+02
     22.952  0.0000E+00  0.8400E+02
     23.072  0.0000E+00  0.8400E+02
     23.193  0.0000E+00  0.8400E+02
     23.313  0.0000E+00  0.8400E+02
