 running   42 mpi-ranks, on    1 nodes
 distrk:  each k-point on   42 cores,    1 groups
 distr:  one band on    6 cores,    7 groups
 vasp.6.5.0 16Dec24 (build Jan 08 2025 16:17:04) complex                        
  
 POSCAR found type information on POSCAR Be
 POSCAR found :  1 types and       2 ions
 Reading from existing POTCAR
 scaLAPACK will be used
 Reading from existing POTCAR
 LDA part: xc-table for (Slater+PW92), standard interpolation
 -----------------------------------------------------------------------------
|                                                                             |
|           W    W    AA    RRRRR   N    N  II  N    N   GGGG   !!!           |
|           W    W   A  A   R    R  NN   N  II  NN   N  G    G  !!!           |
|           W    W  A    A  R    R  N N  N  II  N N  N  G       !!!           |
|           W WW W  AAAAAA  RRRRR   N  N N  II  N  N N  G  GGG   !            |
|           WW  WW  A    A  R   R   N   NN  II  N   NN  G    G                |
|           W    W  A    A  R    R  N    N  II  N    N   GGGG   !!!           |
|                                                                             |
|     The number of bands has been changed from the values supplied in        |
|     the INCAR file. This is a result of running the parallel version.       |
|     The orbitals not found in the WAVECAR file will be initialized with     |
|     random numbers, which is usually adequate. For correlated               |
|     calculations, however, you should redo the groundstate calculation.     |
|     I found NBANDS = 96. Now, NBANDS = 98.                                  |
|                                                                             |
 -----------------------------------------------------------------------------

 POSCAR, INCAR and KPOINTS ok, starting setup
 FFT: planning ... GRIDC
 FFT: planning ... GRID_SOFT
 FFT: planning ... GRID
 WAVECAR not read
 entering main loop
       N       E                     dE             d eps       ncg     rms          rms(c)
DAV:   1     0.118066582930E+02    0.11807E+02   -0.12828E+03149198   0.319E+01
DAV:   2    -0.694039550881E+01   -0.18747E+02   -0.17994E+02180110   0.128E+01
DAV:   3    -0.732546753406E+01   -0.38507E+00   -0.38321E+00184506   0.145E+00
DAV:   4    -0.732619456896E+01   -0.72703E-03   -0.72696E-03174370   0.599E-02
DAV:   5    -0.732619654470E+01   -0.19757E-05   -0.19755E-05178472   0.303E-03    0.227E+00
DAV:   6    -0.684123704578E+01    0.48496E+00   -0.72261E-01182042   0.213E-01    0.120E+00
DAV:   7    -0.668173391984E+01    0.15950E+00   -0.35807E-01196364   0.154E-01    0.405E-01
DAV:   8    -0.666085525298E+01    0.20879E-01   -0.12781E-02182574   0.443E-02    0.123E-01
DAV:   9    -0.665347947181E+01    0.73758E-02   -0.79473E-03185668   0.233E-02    0.773E-02
DAV:  10    -0.665253278267E+01    0.94669E-03   -0.13492E-03182518   0.107E-02    0.382E-02
DAV:  11    -0.665325625950E+01   -0.72348E-03   -0.52421E-04176932   0.821E-03    0.217E-02
DAV:  12    -0.665383860926E+01   -0.58235E-03   -0.28692E-04174328   0.485E-03    0.139E-02
DAV:  13    -0.665416112738E+01   -0.32252E-03   -0.77093E-05170632   0.271E-03    0.461E-03
DAV:  14    -0.665435644890E+01   -0.19532E-03   -0.99055E-06164570   0.932E-04    0.462E-03
DAV:  15    -0.665448859818E+01   -0.13215E-03   -0.16993E-05167328   0.950E-04    0.116E-03
DAV:  16    -0.665452898232E+01   -0.40384E-04   -0.38115E-06165172   0.445E-04    0.167E-03
DAV:  17    -0.665454644035E+01   -0.17458E-04   -0.27894E-06168812   0.454E-04    0.710E-04
DAV:  18    -0.665455196895E+01   -0.55286E-05   -0.18372E-07169526   0.110E-04    0.139E-04
DAV:  19    -0.665455318438E+01   -0.12154E-05   -0.85410E-08171416   0.777E-05    0.251E-04
DAV:  20    -0.665455427311E+01   -0.10887E-05   -0.47507E-08165046   0.558E-05    0.968E-05
DAV:  21    -0.665455440848E+01   -0.13538E-06   -0.23091E-10180362   0.816E-06
   1 F= -.66545544E+01 E0= -.66545331E+01  d E =-.425457E-04
 writing wavefunctions
 optical routines
 imaginary and real dielectric function
 recalculating local potential from charge density
 direction            1
 direction            2
 direction            3
