generated by phonopy
   1.0
     4.5328477013921660   -7.8511225217830338    0.0000000000000000
     4.5328477013921660    7.8511225217830338    0.0000000000000000
     0.0000000000000000    0.0000000000000000   10.6826877333048706
Be
  96
Direct
  0.0840470609372220  0.1666666666666660  0.2507137276038880
  0.3333333333333339  0.1666666666666661  0.2500000000000000
  0.5833333333333339  0.1666666666666661  0.2500000000000000
  0.8333333333333339  0.1666666666666660  0.2500000000000000
  0.0833333333333339  0.4166666666666661  0.2500000000000000
  0.3333333333333339  0.4166666666666661  0.2500000000000000
  0.5833333333333339  0.4166666666666661  0.2500000000000000
  0.8333333333333339  0.4166666666666661  0.2500000000000000
  0.0833333333333339  0.6666666666666661  0.2500000000000000
  0.3333333333333339  0.6666666666666661  0.2500000000000000
  0.5833333333333339  0.6666666666666661  0.2500000000000000
  0.8333333333333339  0.6666666666666661  0.2500000000000000
  0.0833333333333339  0.9166666666666661  0.2500000000000000
  0.3333333333333339  0.9166666666666661  0.2500000000000000
  0.5833333333333339  0.9166666666666661  0.2500000000000000
  0.8333333333333339  0.9166666666666661  0.2500000000000000
  0.0833333333333339  0.1666666666666661  0.5833333333333333
  0.3333333333333339  0.1666666666666661  0.5833333333333333
  0.5833333333333339  0.1666666666666661  0.5833333333333333
  0.8333333333333339  0.1666666666666660  0.5833333333333333
  0.0833333333333339  0.4166666666666661  0.5833333333333333
  0.3333333333333339  0.4166666666666661  0.5833333333333333
  0.5833333333333339  0.4166666666666661  0.5833333333333333
  0.8333333333333339  0.4166666666666661  0.5833333333333333
  0.0833333333333339  0.6666666666666661  0.5833333333333333
  0.3333333333333339  0.6666666666666661  0.5833333333333333
  0.5833333333333339  0.6666666666666661  0.5833333333333333
  0.8333333333333339  0.6666666666666661  0.5833333333333333
  0.0833333333333339  0.9166666666666661  0.5833333333333333
  0.3333333333333339  0.9166666666666661  0.5833333333333333
  0.5833333333333339  0.9166666666666661  0.5833333333333333
  0.8333333333333339  0.9166666666666661  0.5833333333333333
  0.0833333333333339  0.1666666666666661  0.9166666666666666
  0.3333333333333339  0.1666666666666661  0.9166666666666666
  0.5833333333333339  0.1666666666666661  0.9166666666666666
  0.8333333333333339  0.1666666666666660  0.9166666666666666
  0.0833333333333339  0.4166666666666661  0.9166666666666666
  0.3333333333333339  0.4166666666666661  0.9166666666666666
  0.5833333333333339  0.4166666666666661  0.9166666666666666
  0.8333333333333339  0.4166666666666661  0.9166666666666666
  0.0833333333333339  0.6666666666666661  0.9166666666666666
  0.3333333333333339  0.6666666666666661  0.9166666666666666
  0.5833333333333339  0.6666666666666661  0.9166666666666666
  0.8333333333333339  0.6666666666666661  0.9166666666666666
  0.0833333333333339  0.9166666666666661  0.9166666666666666
  0.3333333333333339  0.9166666666666661  0.9166666666666666
  0.5833333333333339  0.9166666666666661  0.9166666666666666
  0.8333333333333339  0.9166666666666661  0.9166666666666666
  0.1666666666666661  0.0833333333333339  0.0833333333333333
  0.4166666666666661  0.0833333333333339  0.0833333333333333
  0.6666666666666661  0.0833333333333339  0.0833333333333333
  0.9166666666666661  0.0833333333333339  0.0833333333333333
  0.1666666666666661  0.3333333333333339  0.0833333333333333
  0.4166666666666661  0.3333333333333339  0.0833333333333333
  0.6666666666666661  0.3333333333333339  0.0833333333333333
  0.9166666666666661  0.3333333333333339  0.0833333333333333
  0.1666666666666661  0.5833333333333339  0.0833333333333333
  0.4166666666666661  0.5833333333333339  0.0833333333333333
  0.6666666666666662  0.5833333333333340  0.0833333333333333
  0.9166666666666661  0.5833333333333339  0.0833333333333333
  0.1666666666666661  0.8333333333333339  0.0833333333333333
  0.4166666666666662  0.8333333333333340  0.0833333333333333
  0.6666666666666661  0.8333333333333339  0.0833333333333333
  0.9166666666666661  0.8333333333333339  0.0833333333333333
  0.1666666666666661  0.0833333333333339  0.4166666666666666
  0.4166666666666661  0.0833333333333339  0.4166666666666666
  0.6666666666666661  0.0833333333333339  0.4166666666666666
  0.9166666666666661  0.0833333333333339  0.4166666666666666
  0.1666666666666661  0.3333333333333339  0.4166666666666666
  0.4166666666666661  0.3333333333333339  0.4166666666666666
  0.6666666666666661  0.3333333333333339  0.4166666666666666
  0.9166666666666661  0.3333333333333339  0.4166666666666666
  0.1666666666666661  0.5833333333333339  0.4166666666666666
  0.4166666666666661  0.5833333333333339  0.4166666666666666
  0.6666666666666662  0.5833333333333340  0.4166666666666666
  0.9166666666666661  0.5833333333333339  0.4166666666666666
  0.1666666666666661  0.8333333333333339  0.4166666666666666
  0.4166666666666662  0.8333333333333340  0.4166666666666666
  0.6666666666666661  0.8333333333333339  0.4166666666666666
  0.9166666666666661  0.8333333333333339  0.4166666666666666
  0.1666666666666661  0.0833333333333339  0.7499999999999999
  0.4166666666666661  0.0833333333333339  0.7499999999999999
  0.6666666666666661  0.0833333333333339  0.7499999999999999
  0.9166666666666661  0.0833333333333339  0.7499999999999999
  0.1666666666666661  0.3333333333333339  0.7499999999999999
  0.4166666666666661  0.3333333333333339  0.7499999999999999
  0.6666666666666661  0.3333333333333339  0.7499999999999999
  0.9166666666666661  0.3333333333333339  0.7499999999999999
  0.1666666666666661  0.5833333333333339  0.7499999999999999
  0.4166666666666661  0.5833333333333339  0.7499999999999999
  0.6666666666666662  0.5833333333333340  0.7499999999999999
  0.9166666666666661  0.5833333333333339  0.7499999999999999
  0.1666666666666661  0.8333333333333339  0.7499999999999999
  0.4166666666666662  0.8333333333333340  0.7499999999999999
  0.6666666666666661  0.8333333333333339  0.7499999999999999
  0.9166666666666661  0.8333333333333339  0.7499999999999999
