   2   2   0   0
  0.7938175E+01  0.2264783E-09  0.2264783E-09  0.3574103E-09  0.5000000E-15
  1.000000000000000E-004
  CAR 
 Convergence                             
    113.39152628     -9.94332972  301      6.91721091      1.00000000
     -9.943  0.0000E+00  0.0000E+00
     -9.532  0.0000E+00  0.0000E+00
     -9.121  0.0000E+00  0.0000E+00
     -8.710  0.0000E+00  0.0000E+00
     -8.299  0.0000E+00  0.0000E+00
     -7.888  0.0000E+00  0.0000E+00
     -7.477  0.0000E+00  0.0000E+00
     -7.066  0.0000E+00  0.0000E+00
     -6.654  0.0000E+00  0.0000E+00
     -6.243  0.0000E+00  0.0000E+00
     -5.832  0.0000E+00  0.0000E+00
     -5.421  0.0000E+00  0.0000E+00
     -5.010  0.0000E+00  0.0000E+00
     -4.599  0.2879E-16  0.1183E-16
     -4.188  0.1568E-01  0.6447E-02
     -3.777  0.1006E+00  0.4838E-01
     -3.365  0.1416E+00  0.1084E+00
     -2.954  0.1702E+00  0.1834E+00
     -2.543  0.2262E+00  0.2785E+00
     -2.132  0.2286E+00  0.3771E+00
     -1.721  0.2303E+00  0.4772E+00
     -1.310  0.2901E+00  0.6006E+00
     -0.899  0.2897E+00  0.7260E+00
     -0.488  0.3124E+00  0.8615E+00
     -0.077  0.3336E+00  0.1003E+01
      0.335  0.3645E+00  0.1158E+01
      0.746  0.3720E+00  0.1320E+01
      1.157  0.4093E+00  0.1495E+01
      1.568  0.4262E+00  0.1674E+01
      1.979  0.4695E+00  0.1876E+01
      2.390  0.4707E+00  0.2079E+01
      2.801  0.5173E+00  0.2307E+01
      3.212  0.4786E+00  0.2513E+01
      3.624  0.4521E+00  0.2706E+01
      4.035  0.5346E+00  0.2936E+01
      4.446  0.5316E+00  0.3171E+01
      4.857  0.4928E+00  0.3384E+01
      5.268  0.3312E+00  0.3538E+01
      5.679  0.4462E+00  0.3725E+01
      6.090  0.2446E+00  0.3837E+01
      6.501  0.1478E+00  0.3903E+01
      6.912  0.2163E+00  0.3999E+01
      7.324  0.6239E-01  0.4029E+01
      7.735  0.1196E+00  0.4080E+01
      8.146  0.1933E+00  0.4164E+01
      8.557  0.4812E+00  0.4366E+01
      8.968  0.9189E+00  0.4753E+01
      9.379  0.6795E+00  0.5048E+01
      9.790  0.5192E+00  0.5273E+01
     10.201  0.5020E+00  0.5487E+01
     10.612  0.4683E+00  0.5695E+01
     11.024  0.4174E+00  0.5873E+01
     11.435  0.5252E+00  0.6097E+01
     11.846  0.3246E+00  0.6237E+01
     12.257  0.4359E+00  0.6429E+01
     12.668  0.3550E+00  0.6588E+01
     13.079  0.6050E+00  0.6843E+01
     13.490  0.7736E+00  0.7186E+01
     13.901  0.6720E+00  0.7479E+01
     14.313  0.6597E+00  0.7762E+01
     14.724  0.5598E+00  0.8003E+01
     15.135  0.6376E+00  0.8278E+01
     15.546  0.5667E+00  0.8523E+01
     15.957  0.6007E+00  0.8777E+01
     16.368  0.5934E+00  0.9039E+01
     16.779  0.5799E+00  0.9287E+01
     17.190  0.6942E+00  0.9588E+01
     17.601  0.5462E+00  0.9829E+01
     18.013  0.6650E+00  0.1011E+02
     18.424  0.5355E+00  0.1034E+02
     18.835  0.5826E+00  0.1060E+02
     19.246  0.5353E+00  0.1083E+02
     19.657  0.5067E+00  0.1105E+02
     20.068  0.4420E+00  0.1124E+02
     20.479  0.8158E+00  0.1159E+02
     20.890  0.1047E+01  0.1204E+02
     21.302  0.1012E+01  0.1247E+02
     21.713  0.9974E+00  0.1290E+02
     22.124  0.1032E+01  0.1335E+02
     22.535  0.1069E+01  0.1382E+02
     22.946  0.1214E+01  0.1435E+02
     23.357  0.1005E+01  0.1478E+02
     23.768  0.7142E+00  0.1509E+02
     24.179  0.6276E+00  0.1536E+02
     24.590  0.4708E+00  0.1557E+02
     25.002  0.4369E+00  0.1576E+02
     25.413  0.4217E+00  0.1594E+02
     25.824  0.4363E+00  0.1612E+02
     26.235  0.3340E+00  0.1627E+02
     26.646  0.3968E+00  0.1644E+02
     27.057  0.4933E+00  0.1665E+02
     27.468  0.2855E+00  0.1677E+02
     27.879  0.5128E+00  0.1699E+02
     28.290  0.3628E+00  0.1715E+02
     28.702  0.3993E+00  0.1732E+02
     29.113  0.4722E+00  0.1752E+02
     29.524  0.7963E+00  0.1787E+02
     29.935  0.7257E+00  0.1818E+02
     30.346  0.7420E+00  0.1850E+02
     30.757  0.6964E+00  0.1880E+02
     31.168  0.8197E+00  0.1915E+02
     31.579  0.6602E+00  0.1945E+02
     31.991  0.4440E+00  0.1965E+02
     32.402  0.3864E+00  0.1982E+02
     32.813  0.4358E+00  0.2000E+02
     33.224  0.6586E+00  0.2028E+02
     33.635  0.5426E+00  0.2052E+02
     34.046  0.4260E+00  0.2070E+02
     34.457  0.5469E+00  0.2094E+02
     34.868  0.6511E+00  0.2122E+02
     35.279  0.7668E+00  0.2155E+02
     35.691  0.6975E+00  0.2185E+02
     36.102  0.8448E+00  0.2222E+02
     36.513  0.8081E+00  0.2258E+02
     36.924  0.6921E+00  0.2288E+02
     37.335  0.7180E+00  0.2318E+02
     37.746  0.7670E+00  0.2351E+02
     38.157  0.7104E+00  0.2381E+02
     38.568  0.5903E+00  0.2407E+02
     38.979  0.7125E+00  0.2437E+02
     39.391  0.7597E+00  0.2470E+02
     39.802  0.7345E+00  0.2502E+02
     40.213  0.9383E+00  0.2541E+02
     40.624  0.5647E+00  0.2566E+02
     41.035  0.6596E+00  0.2595E+02
     41.446  0.5104E+00  0.2617E+02
     41.857  0.7638E+00  0.2650E+02
     42.268  0.6458E+00  0.2678E+02
     42.680  0.8540E+00  0.2716E+02
     43.091  0.8956E+00  0.2755E+02
     43.502  0.8626E+00  0.2792E+02
     43.913  0.8596E+00  0.2829E+02
     44.324  0.9343E+00  0.2869E+02
     44.735  0.9250E+00  0.2910E+02
     45.146  0.8897E+00  0.2950E+02
     45.557  0.9391E+00  0.2990E+02
     45.968  0.7532E+00  0.3023E+02
     46.380  0.7725E+00  0.3057E+02
     46.791  0.6978E+00  0.3087E+02
     47.202  0.6829E+00  0.3116E+02
     47.613  0.7257E+00  0.3148E+02
     48.024  0.6832E+00  0.3177E+02
     48.435  0.7105E+00  0.3208E+02
     48.846  0.7200E+00  0.3240E+02
     49.257  0.7074E+00  0.3271E+02
     49.669  0.8110E+00  0.3307E+02
     50.080  0.7892E+00  0.3340E+02
     50.491  0.7729E+00  0.3374E+02
     50.902  0.8828E+00  0.3411E+02
     51.313  0.7105E+00  0.3443E+02
     51.724  0.8335E+00  0.3478E+02
     52.135  0.9463E+00  0.3520E+02
     52.546  0.7667E+00  0.3553E+02
     52.957  0.8460E+00  0.3590E+02
     53.369  0.9223E+00  0.3630E+02
     53.780  0.1052E+01  0.3675E+02
     54.191  0.1020E+01  0.3720E+02
     54.602  0.1147E+01  0.3769E+02
     55.013  0.1074E+01  0.3814E+02
     55.424  0.7744E+00  0.3849E+02
     55.835  0.7901E+00  0.3883E+02
     56.246  0.7235E+00  0.3915E+02
     56.657  0.9076E+00  0.3954E+02
     57.069  0.1049E+01  0.3999E+02
     57.480  0.1072E+01  0.4045E+02
     57.891  0.8007E+00  0.4080E+02
     58.302  0.9654E+00  0.4121E+02
     58.713  0.8127E+00  0.4156E+02
     59.124  0.9493E+00  0.4197E+02
     59.535  0.8339E+00  0.4233E+02
     59.946  0.9265E+00  0.4274E+02
     60.358  0.7630E+00  0.4307E+02
     60.769  0.6658E+00  0.4337E+02
     61.180  0.7894E+00  0.4370E+02
     61.591  0.8142E+00  0.4406E+02
     62.002  0.7775E+00  0.4440E+02
     62.413  0.8198E+00  0.4475E+02
     62.824  0.8734E+00  0.4513E+02
     63.235  0.8553E+00  0.4550E+02
     63.646  0.6905E+00  0.4581E+02
     64.058  0.7363E+00  0.4612E+02
     64.469  0.8551E+00  0.4649E+02
     64.880  0.9703E+00  0.4691E+02
     65.291  0.9819E+00  0.4733E+02
     65.702  0.9477E+00  0.4773E+02
     66.113  0.9659E+00  0.4815E+02
     66.524  0.8580E+00  0.4853E+02
     66.935  0.9336E+00  0.4893E+02
     67.347  0.8611E+00  0.4930E+02
     67.758  0.9289E+00  0.4971E+02
     68.169  0.1158E+01  0.5022E+02
     68.580  0.9313E+00  0.5062E+02
     68.991  0.9452E+00  0.5103E+02
     69.402  0.8721E+00  0.5141E+02
     69.813  0.9643E+00  0.5183E+02
     70.224  0.8798E+00  0.5222E+02
     70.635  0.8452E+00  0.5259E+02
     71.047  0.8238E+00  0.5294E+02
     71.458  0.8336E+00  0.5330E+02
     71.869  0.8440E+00  0.5367E+02
     72.280  0.9106E+00  0.5405E+02
     72.691  0.1003E+01  0.5449E+02
     73.102  0.9101E+00  0.5489E+02
     73.513  0.8810E+00  0.5527E+02
     73.924  0.9028E+00  0.5566E+02
     74.335  0.8745E+00  0.5604E+02
     74.747  0.8718E+00  0.5641E+02
     75.158  0.9436E+00  0.5682E+02
     75.569  0.9420E+00  0.5723E+02
     75.980  0.9316E+00  0.5764E+02
     76.391  0.9812E+00  0.5807E+02
     76.802  0.9764E+00  0.5850E+02
     77.213  0.9494E+00  0.5892E+02
     77.624  0.9786E+00  0.5935E+02
     78.036  0.9562E+00  0.5977E+02
     78.447  0.1126E+01  0.6025E+02
     78.858  0.9335E+00  0.6066E+02
     79.269  0.1003E+01  0.6109E+02
     79.680  0.9990E+00  0.6152E+02
     80.091  0.9693E+00  0.6194E+02
     80.502  0.1040E+01  0.6239E+02
     80.913  0.9319E+00  0.6279E+02
     81.324  0.9533E+00  0.6319E+02
     81.736  0.1048E+01  0.6365E+02
     82.147  0.9008E+00  0.6404E+02
     82.558  0.1021E+01  0.6449E+02
     82.969  0.9309E+00  0.6489E+02
     83.380  0.1179E+01  0.6540E+02
     83.791  0.1101E+01  0.6587E+02
     84.202  0.1095E+01  0.6634E+02
     84.613  0.1005E+01  0.6678E+02
     85.025  0.1111E+01  0.6727E+02
     85.436  0.9982E+00  0.6771E+02
     85.847  0.7797E+00  0.6804E+02
     86.258  0.9645E+00  0.6846E+02
     86.669  0.1060E+01  0.6891E+02
     87.080  0.1036E+01  0.6936E+02
     87.491  0.9897E+00  0.6979E+02
     87.902  0.1015E+01  0.7023E+02
     88.313  0.9361E+00  0.7064E+02
     88.725  0.9967E+00  0.7106E+02
     89.136  0.1067E+01  0.7152E+02
     89.547  0.1126E+01  0.7199E+02
     89.958  0.9883E+00  0.7242E+02
     90.369  0.9693E+00  0.7285E+02
     90.780  0.9811E+00  0.7326E+02
     91.191  0.1196E+01  0.7377E+02
     91.602  0.1168E+01  0.7427E+02
     92.013  0.1150E+01  0.7476E+02
     92.425  0.1072E+01  0.7523E+02
     92.836  0.1071E+01  0.7569E+02
     93.247  0.9709E+00  0.7612E+02
     93.658  0.1078E+01  0.7658E+02
     94.069  0.1022E+01  0.7703E+02
     94.480  0.1101E+01  0.7750E+02
     94.891  0.9894E+00  0.7792E+02
     95.302  0.9278E+00  0.7832E+02
     95.714  0.1062E+01  0.7877E+02
     96.125  0.9231E+00  0.7917E+02
     96.536  0.8907E+00  0.7955E+02
     96.947  0.9715E+00  0.7997E+02
     97.358  0.8309E+00  0.8033E+02
     97.769  0.8567E+00  0.8070E+02
     98.180  0.7390E+00  0.8102E+02
     98.591  0.6991E+00  0.8133E+02
     99.002  0.7225E+00  0.8164E+02
     99.414  0.6224E+00  0.8190E+02
     99.825  0.7004E+00  0.8220E+02
    100.236  0.6023E+00  0.8246E+02
    100.647  0.4868E+00  0.8268E+02
    101.058  0.4327E+00  0.8287E+02
    101.469  0.4582E+00  0.8307E+02
    101.880  0.4027E+00  0.8324E+02
    102.291  0.3430E+00  0.8339E+02
    102.703  0.2395E+00  0.8349E+02
    103.114  0.3001E+00  0.8362E+02
    103.525  0.2083E+00  0.8372E+02
    103.936  0.1401E+00  0.8378E+02
    104.347  0.1473E+00  0.8384E+02
    104.758  0.8017E-01  0.8388E+02
    105.169  0.1205E+00  0.8393E+02
    105.580  0.7475E-01  0.8396E+02
    105.991  0.1187E-01  0.8397E+02
    106.403  0.1984E-01  0.8398E+02
    106.814  0.9253E-02  0.8398E+02
    107.225  0.2062E-01  0.8399E+02
    107.636  0.1756E-01  0.8400E+02
    108.047  0.4021E-02  0.8400E+02
    108.458  0.0000E+00  0.8400E+02
    108.869  0.0000E+00  0.8400E+02
    109.280  0.0000E+00  0.8400E+02
    109.691  0.0000E+00  0.8400E+02
    110.103  0.0000E+00  0.8400E+02
    110.514  0.0000E+00  0.8400E+02
    110.925  0.0000E+00  0.8400E+02
    111.336  0.0000E+00  0.8400E+02
    111.747  0.0000E+00  0.8400E+02
    112.158  0.0000E+00  0.8400E+02
    112.569  0.0000E+00  0.8400E+02
    112.980  0.0000E+00  0.8400E+02
    113.392  0.0000E+00  0.8400E+02
