       N       E                     dE             d eps       ncg     rms          rms(c)
DAV:   1     0.382443433043E+02    0.38244E+02   -0.27062E+03  1064   0.341E+02
DAV:   2     0.107147402230E+01   -0.37173E+02   -0.36952E+02  1596   0.574E+01
DAV:   3     0.439313495165E+00   -0.63216E+00   -0.62689E+00  1652   0.106E+01
DAV:   4     0.438988906371E+00   -0.32459E-03   -0.32459E-03  1876   0.211E-01
DAV:   5     0.438988812590E+00   -0.93781E-07   -0.93497E-07  1652   0.275E-03
DAV:   6     0.438988812461E+00   -0.12867E-09    0.68107E-10  1764   0.534E-05
   1 F= 0.43898881E+00 E0= 0.43947096E+00  d E =-.964296E-03  mag=     0.0000    -0.0000     0.0000
