Phonopy                                 
           1
     9.382186    5.416808    0.000000
    -9.382186    5.416808    0.000000
     0.000000    0.000000   40.000000
   Be
    50
Direct configuration=     1
   0.06690797  0.13333333  0.12410964
   0.26666667  0.13333333  0.12386834
   0.46666667  0.13333333  0.12386834
   0.66666667  0.13333333  0.12386834
   0.86666667  0.13333333  0.12386834
   0.06666667  0.33333333  0.12386834
   0.26666667  0.33333333  0.12386834
   0.46666667  0.33333333  0.12386834
   0.66666667  0.33333333  0.12386834
   0.86666667  0.33333333  0.12386834
   0.06666667  0.53333333  0.12386834
   0.26666667  0.53333333  0.12386834
   0.46666667  0.53333333  0.12386834
   0.66666667  0.53333333  0.12386834
   0.86666667  0.53333333  0.12386834
   0.06666667  0.73333333  0.12386834
   0.26666667  0.73333333  0.12386834
   0.46666667  0.73333333  0.12386834
   0.66666667  0.73333333  0.12386834
   0.86666667  0.73333333  0.12386834
   0.06666667  0.93333333  0.12386834
   0.26666667  0.93333333  0.12386834
   0.46666667  0.93333333  0.12386834
   0.66666667  0.93333333  0.12386834
   0.86666667  0.93333333  0.12386834
   0.13333333  0.06666667  0.07613166
   0.33333333  0.06666667  0.07613166
   0.53333333  0.06666667  0.07613166
   0.73333333  0.06666667  0.07613166
   0.93333333  0.06666667  0.07613166
   0.13333333  0.26666667  0.07613166
   0.33333333  0.26666667  0.07613166
   0.53333333  0.26666667  0.07613166
   0.73333333  0.26666667  0.07613166
   0.93333333  0.26666667  0.07613166
   0.13333333  0.46666667  0.07613166
   0.33333333  0.46666667  0.07613166
   0.53333333  0.46666667  0.07613166
   0.73333333  0.46666667  0.07613166
   0.93333333  0.46666667  0.07613166
   0.13333333  0.66666667  0.07613166
   0.33333333  0.66666667  0.07613166
   0.53333333  0.66666667  0.07613166
   0.73333333  0.66666667  0.07613166
   0.93333333  0.66666667  0.07613166
   0.13333333  0.86666667  0.07613166
   0.33333333  0.86666667  0.07613166
   0.53333333  0.86666667  0.07613166
   0.73333333  0.86666667  0.07613166
   0.93333333  0.86666667  0.07613166
