  75  75   0   0
  0.6225983E+02  0.1161016E-08  0.1161016E-08  0.4000000E-08  0.5000000E-15
  1.000000000000000E-004
  CAR 
 Phonopy                                 
      2.69066474    -15.81748721  301     -5.69584162      1.00000000
    -15.817  0.0000E+00  0.0000E+00
    -15.756  0.0000E+00  0.0000E+00
    -15.694  0.0000E+00  0.0000E+00
    -15.632  0.0000E+00  0.0000E+00
    -15.571  0.0000E+00  0.0000E+00
    -15.509  0.0000E+00  0.0000E+00
    -15.447  0.0000E+00  0.0000E+00
    -15.386  0.0000E+00  0.0000E+00
    -15.324  0.0000E+00  0.0000E+00
    -15.262  0.1836E-15  0.1133E-16
    -15.201  0.7956E-10  0.4908E-11
    -15.139  0.1734E-05  0.1070E-06
    -15.077  0.2407E-02  0.1486E-03
    -15.015  0.2549E+00  0.1587E-01
    -14.954  0.2767E+01  0.1866E+00
    -14.892  0.6139E+01  0.5653E+00
    -14.830  0.6542E+01  0.9689E+00
    -14.769  0.6883E+01  0.1394E+01
    -14.707  0.6336E+01  0.1784E+01
    -14.645  0.7513E+01  0.2248E+01
    -14.584  0.5263E+01  0.2573E+01
    -14.522  0.8374E+01  0.3089E+01
    -14.460  0.6248E+01  0.3475E+01
    -14.399  0.5181E+01  0.3794E+01
    -14.337  0.8843E+01  0.4340E+01
    -14.275  0.7205E+01  0.4784E+01
    -14.213  0.3790E+01  0.5018E+01
    -14.152  0.8140E+01  0.5520E+01
    -14.090  0.8918E+01  0.6071E+01
    -14.028  0.5709E+01  0.6423E+01
    -13.967  0.4250E+01  0.6685E+01
    -13.905  0.7813E+01  0.7167E+01
    -13.843  0.1023E+02  0.7798E+01
    -13.782  0.5319E+01  0.8126E+01
    -13.720  0.4834E+01  0.8424E+01
    -13.658  0.5764E+01  0.8780E+01
    -13.597  0.9886E+01  0.9390E+01
    -13.535  0.8774E+01  0.9931E+01
    -13.473  0.5496E+01  0.1027E+02
    -13.411  0.3032E+01  0.1046E+02
    -13.350  0.7874E+01  0.1094E+02
    -13.288  0.9733E+01  0.1154E+02
    -13.226  0.8386E+01  0.1206E+02
    -13.165  0.6439E+01  0.1246E+02
    -13.103  0.4614E+01  0.1274E+02
    -13.041  0.3092E+01  0.1293E+02
    -12.980  0.1188E+02  0.1367E+02
    -12.918  0.9468E+01  0.1425E+02
    -12.856  0.6611E+01  0.1466E+02
    -12.794  0.5668E+01  0.1501E+02
    -12.733  0.5713E+01  0.1536E+02
    -12.671  0.3406E+01  0.1557E+02
    -12.609  0.1074E+02  0.1623E+02
    -12.548  0.1233E+02  0.1699E+02
    -12.486  0.5502E+01  0.1733E+02
    -12.424  0.5743E+01  0.1769E+02
    -12.363  0.4896E+01  0.1799E+02
    -12.301  0.6016E+01  0.1836E+02
    -12.239  0.7365E+01  0.1882E+02
    -12.178  0.1159E+02  0.1953E+02
    -12.116  0.1087E+02  0.2020E+02
    -12.054  0.4669E+01  0.2049E+02
    -11.992  0.5437E+01  0.2082E+02
    -11.931  0.4368E+01  0.2109E+02
    -11.869  0.7137E+01  0.2153E+02
    -11.807  0.1055E+02  0.2218E+02
    -11.746  0.9892E+01  0.2280E+02
    -11.684  0.1077E+02  0.2346E+02
    -11.622  0.5866E+01  0.2382E+02
    -11.561  0.4902E+01  0.2412E+02
    -11.499  0.4575E+01  0.2441E+02
    -11.437  0.6277E+01  0.2479E+02
    -11.376  0.1267E+02  0.2557E+02
    -11.314  0.1047E+02  0.2622E+02
    -11.252  0.9724E+01  0.2682E+02
    -11.190  0.9044E+01  0.2738E+02
    -11.129  0.4125E+01  0.2763E+02
    -11.067  0.5691E+01  0.2798E+02
    -11.005  0.5027E+01  0.2829E+02
    -10.944  0.1105E+02  0.2898E+02
    -10.882  0.1341E+02  0.2980E+02
    -10.820  0.1166E+02  0.3052E+02
    -10.759  0.1030E+02  0.3116E+02
    -10.697  0.5519E+01  0.3150E+02
    -10.635  0.6965E+01  0.3193E+02
    -10.574  0.5744E+01  0.3228E+02
    -10.512  0.6600E+01  0.3269E+02
    -10.450  0.1712E+02  0.3375E+02
    -10.388  0.2409E+02  0.3523E+02
    -10.327  0.1704E+02  0.3628E+02
    -10.265  0.1718E+02  0.3734E+02
    -10.203  0.1387E+02  0.3820E+02
    -10.142  0.1327E+02  0.3902E+02
    -10.080  0.1364E+02  0.3986E+02
    -10.018  0.2288E+02  0.4127E+02
     -9.957  0.3976E+02  0.4372E+02
     -9.895  0.1841E+02  0.4486E+02
     -9.833  0.6216E+01  0.4524E+02
     -9.771  0.9138E+01  0.4581E+02
     -9.710  0.1247E+02  0.4658E+02
     -9.648  0.1282E+02  0.4737E+02
     -9.586  0.1379E+02  0.4822E+02
     -9.525  0.1611E+02  0.4921E+02
     -9.463  0.1877E+02  0.5037E+02
     -9.401  0.1260E+02  0.5115E+02
     -9.340  0.8133E+01  0.5165E+02
     -9.278  0.6028E+01  0.5202E+02
     -9.216  0.7534E+01  0.5248E+02
     -9.155  0.1290E+02  0.5328E+02
     -9.093  0.1571E+02  0.5425E+02
     -9.031  0.1251E+02  0.5502E+02
     -8.969  0.9085E+01  0.5558E+02
     -8.908  0.6207E+01  0.5596E+02
     -8.846  0.1050E+02  0.5661E+02
     -8.784  0.1212E+02  0.5736E+02
     -8.723  0.6900E+01  0.5779E+02
     -8.661  0.8458E+01  0.5831E+02
     -8.599  0.5941E+01  0.5867E+02
     -8.538  0.1076E+02  0.5934E+02
     -8.476  0.1426E+02  0.6022E+02
     -8.414  0.8668E+01  0.6075E+02
     -8.353  0.6716E+01  0.6117E+02
     -8.291  0.5297E+01  0.6149E+02
     -8.229  0.6178E+01  0.6188E+02
     -8.167  0.6302E+01  0.6226E+02
     -8.106  0.1074E+02  0.6293E+02
     -8.044  0.1381E+02  0.6378E+02
     -7.982  0.6166E+01  0.6416E+02
     -7.921  0.5686E+01  0.6451E+02
     -7.859  0.4584E+01  0.6479E+02
     -7.797  0.6354E+01  0.6518E+02
     -7.736  0.5509E+01  0.6552E+02
     -7.674  0.9470E+01  0.6611E+02
     -7.612  0.1239E+02  0.6687E+02
     -7.551  0.5674E+01  0.6722E+02
     -7.489  0.5053E+01  0.6753E+02
     -7.427  0.4113E+01  0.6779E+02
     -7.365  0.5150E+01  0.6811E+02
     -7.304  0.7562E+01  0.6857E+02
     -7.242  0.1157E+02  0.6929E+02
     -7.180  0.1067E+02  0.6994E+02
     -7.119  0.9486E+01  0.7053E+02
     -7.057  0.4229E+01  0.7079E+02
     -6.995  0.6367E+01  0.7118E+02
     -6.934  0.6958E+01  0.7161E+02
     -6.872  0.1545E+02  0.7257E+02
     -6.810  0.1482E+02  0.7348E+02
     -6.748  0.7910E+01  0.7397E+02
     -6.687  0.1092E+02  0.7464E+02
     -6.625  0.9450E+01  0.7523E+02
     -6.563  0.1239E+02  0.7599E+02
     -6.502  0.1539E+02  0.7694E+02
     -6.440  0.2005E+02  0.7818E+02
     -6.378  0.1517E+02  0.7911E+02
     -6.317  0.1404E+02  0.7998E+02
     -6.255  0.2070E+02  0.8126E+02
     -6.193  0.2586E+02  0.8285E+02
     -6.132  0.3091E+02  0.8476E+02
     -6.070  0.3443E+02  0.8688E+02
     -6.008  0.7151E+02  0.9129E+02
     -5.946  0.9507E+02  0.9716E+02
     -5.885  0.4245E+02  0.9978E+02
     -5.823  0.3549E+01  0.1000E+03
     -5.761  0.3651E-01  0.1000E+03
     -5.700  0.2902E-04  0.1000E+03
     -5.638  0.1363E-08  0.1000E+03
     -5.576  0.3526E-14  0.1000E+03
     -5.515  0.0000E+00  0.1000E+03
     -5.453  0.0000E+00  0.1000E+03
     -5.391  0.0000E+00  0.1000E+03
     -5.330  0.0000E+00  0.1000E+03
     -5.268  0.0000E+00  0.1000E+03
     -5.206  0.0000E+00  0.1000E+03
     -5.144  0.0000E+00  0.1000E+03
     -5.083  0.0000E+00  0.1000E+03
     -5.021  0.0000E+00  0.1000E+03
     -4.959  0.0000E+00  0.1000E+03
     -4.898  0.0000E+00  0.1000E+03
     -4.836  0.0000E+00  0.1000E+03
     -4.774  0.0000E+00  0.1000E+03
     -4.713  0.0000E+00  0.1000E+03
     -4.651  0.0000E+00  0.1000E+03
     -4.589  0.0000E+00  0.1000E+03
     -4.528  0.0000E+00  0.1000E+03
     -4.466  0.0000E+00  0.1000E+03
     -4.404  0.0000E+00  0.1000E+03
     -4.342  0.0000E+00  0.1000E+03
     -4.281  0.0000E+00  0.1000E+03
     -4.219  0.0000E+00  0.1000E+03
     -4.157  0.0000E+00  0.1000E+03
     -4.096  0.0000E+00  0.1000E+03
     -4.034  0.0000E+00  0.1000E+03
     -3.972  0.0000E+00  0.1000E+03
     -3.911  0.0000E+00  0.1000E+03
     -3.849  0.0000E+00  0.1000E+03
     -3.787  0.0000E+00  0.1000E+03
     -3.725  0.0000E+00  0.1000E+03
     -3.664  0.0000E+00  0.1000E+03
     -3.602  0.0000E+00  0.1000E+03
     -3.540  0.0000E+00  0.1000E+03
     -3.479  0.0000E+00  0.1000E+03
     -3.417  0.0000E+00  0.1000E+03
     -3.355  0.0000E+00  0.1000E+03
     -3.294  0.0000E+00  0.1000E+03
     -3.232  0.0000E+00  0.1000E+03
     -3.170  0.0000E+00  0.1000E+03
     -3.109  0.0000E+00  0.1000E+03
     -3.047  0.0000E+00  0.1000E+03
     -2.985  0.0000E+00  0.1000E+03
     -2.923  0.0000E+00  0.1000E+03
     -2.862  0.0000E+00  0.1000E+03
     -2.800  0.0000E+00  0.1000E+03
     -2.738  0.0000E+00  0.1000E+03
     -2.677  0.0000E+00  0.1000E+03
     -2.615  0.0000E+00  0.1000E+03
     -2.553  0.0000E+00  0.1000E+03
     -2.492  0.0000E+00  0.1000E+03
     -2.430  0.0000E+00  0.1000E+03
     -2.368  0.0000E+00  0.1000E+03
     -2.307  0.0000E+00  0.1000E+03
     -2.245  0.0000E+00  0.1000E+03
     -2.183  0.0000E+00  0.1000E+03
     -2.121  0.0000E+00  0.1000E+03
     -2.060  0.0000E+00  0.1000E+03
     -1.998  0.0000E+00  0.1000E+03
     -1.936  0.0000E+00  0.1000E+03
     -1.875  0.0000E+00  0.1000E+03
     -1.813  0.0000E+00  0.1000E+03
     -1.751  0.0000E+00  0.1000E+03
     -1.690  0.0000E+00  0.1000E+03
     -1.628  0.0000E+00  0.1000E+03
     -1.566  0.0000E+00  0.1000E+03
     -1.505  0.0000E+00  0.1000E+03
     -1.443  0.0000E+00  0.1000E+03
     -1.381  0.0000E+00  0.1000E+03
     -1.319  0.1933E-10  0.1000E+03
     -1.258  0.8100E-06  0.1000E+03
     -1.196  0.1805E-02  0.1000E+03
     -1.134  0.2513E+00  0.1000E+03
     -1.073  0.3906E+01  0.1003E+03
     -1.011  0.1429E+02  0.1011E+03
     -0.949  0.1312E+02  0.1019E+03
     -0.888  0.1734E+02  0.1030E+03
     -0.826  0.1902E+02  0.1042E+03
     -0.764  0.1314E+02  0.1050E+03
     -0.702  0.1859E+02  0.1061E+03
     -0.641  0.1955E+02  0.1074E+03
     -0.579  0.2323E+02  0.1088E+03
     -0.517  0.2858E+02  0.1106E+03
     -0.456  0.2709E+02  0.1122E+03
     -0.394  0.2271E+02  0.1136E+03
     -0.332  0.2658E+02  0.1153E+03
     -0.271  0.2525E+02  0.1168E+03
     -0.209  0.3149E+02  0.1188E+03
     -0.147  0.3269E+02  0.1208E+03
     -0.086  0.2606E+02  0.1224E+03
     -0.024  0.1552E+02  0.1233E+03
      0.038  0.1143E+02  0.1241E+03
      0.100  0.1066E+02  0.1247E+03
      0.161  0.1298E+02  0.1255E+03
      0.223  0.2108E+02  0.1268E+03
      0.285  0.3422E+02  0.1289E+03
      0.346  0.2381E+02  0.1304E+03
      0.408  0.1107E+02  0.1311E+03
      0.470  0.1801E+02  0.1322E+03
      0.531  0.2453E+02  0.1337E+03
      0.593  0.1984E+02  0.1349E+03
      0.655  0.2432E+02  0.1364E+03
      0.716  0.2227E+02  0.1378E+03
      0.778  0.2451E+02  0.1393E+03
      0.840  0.3476E+02  0.1415E+03
      0.902  0.3334E+02  0.1435E+03
      0.963  0.3777E+02  0.1458E+03
      1.025  0.4369E+02  0.1485E+03
      1.087  0.3691E+02  0.1508E+03
      1.148  0.2965E+02  0.1526E+03
      1.210  0.3259E+02  0.1547E+03
      1.272  0.3892E+02  0.1571E+03
      1.333  0.5103E+02  0.1602E+03
      1.395  0.4332E+02  0.1629E+03
      1.457  0.4223E+02  0.1655E+03
      1.518  0.5096E+02  0.1686E+03
      1.580  0.4972E+02  0.1717E+03
      1.642  0.3269E+02  0.1737E+03
      1.704  0.2778E+02  0.1754E+03
      1.765  0.8317E+01  0.1759E+03
      1.827  0.5905E+00  0.1760E+03
      1.889  0.4014E+00  0.1760E+03
      1.950  0.8684E-01  0.1760E+03
      2.012  0.1420E-02  0.1760E+03
      2.074  0.1395E-05  0.1760E+03
      2.135  0.7342E-10  0.1760E+03
      2.197  0.1469E-15  0.1760E+03
      2.259  0.0000E+00  0.1760E+03
      2.321  0.0000E+00  0.1760E+03
      2.382  0.0000E+00  0.1760E+03
      2.444  0.0000E+00  0.1760E+03
      2.506  0.0000E+00  0.1760E+03
      2.567  0.0000E+00  0.1760E+03
      2.629  0.0000E+00  0.1760E+03
      2.691  0.0000E+00  0.1760E+03
