    2    2    1    1
  0.7871146E+01  0.2506240E-09  0.2506240E-09  0.2506240E-09  0.5000000E-15
  1.000000000000000E-004
  CAR 
 Convergence                             
      4     56     42
 
  0.1276756E-14  0.1276756E-14  0.1276756E-14  0.7513148E-03
      1         -4.314822   1.000000
      2         11.886826   0.000000
      3         11.886826   0.000000
      4         11.886826   0.000000
      5         17.725725   0.000000
      6         17.725725   0.000000
      7         26.243726   0.000000
      8         27.262552   0.000000
      9         27.262552   0.000000
     10         27.262552   0.000000
     11         38.619793   0.000000
     12         38.619793   0.000000
     13         38.619793   0.000000
     14         41.165257   0.000000
     15         41.165257   0.000000
     16         42.100391   0.000000
     17         42.100391   0.000000
     18         42.100391   0.000000
     19         55.009050   0.000000
     20         55.009050   0.000000
     21         55.009050   0.000000
     22         59.450408   0.000000
     23         61.498210   0.000000
     24         61.498210   0.000000
     25         61.498210   0.000000
     26         63.463273   0.000000
     27         76.416371   0.000000
     28         81.571948   0.000000
     29         81.571948   0.000000
     30         81.571948   0.000000
     31         84.724204   0.000000
     32         84.724204   0.000000
     33         93.610449   0.000000
     34         93.610449   0.000000
     35         93.610449   0.000000
     36         96.924059   0.000000
     37        103.213042   0.000000
     38        103.213042   0.000000
     39        107.006516   0.000000
     40        107.006528   0.000000
     41        107.006581   0.000000
     42        109.138348   0.000000
 
  0.9090909E-01  0.1276756E-14  0.1276756E-14  0.4507889E-02
      1         -4.169658   1.000000
      2         10.362990   0.000000
      3         12.071510   0.000000
      4         12.071510   0.000000
      5         17.923338   0.000000
      6         19.524149   0.000000
      7         26.270414   0.000000
      8         26.652689   0.000000
      9         26.652689   0.000000
     10         27.025676   0.000000
     11         37.461339   0.000000
     12         37.668504   0.000000
     13         37.668504   0.000000
     14         38.816919   0.000000
     15         41.812743   0.000000
     16         44.240596   0.000000
     17         44.240596   0.000000
     18         46.197580   0.000000
     19         53.138855   0.000000
     20         53.138855   0.000000
     21         55.203282   0.000000
     22         58.236879   0.000000
     23         59.010178   0.000000
     24         63.719011   0.000000
     25         63.719011   0.000000
     26         67.114721   0.000000
     27         75.848287   0.000000
     28         76.399097   0.000000
     29         81.735359   0.000000
     30         81.735359   0.000000
     31         84.919519   0.000000
     32         90.039146   0.000000
     33         91.939585   0.000000
     34         92.789585   0.000000
     35         92.789585   0.000000
     36         96.936809   0.000000
     37        101.138992   0.000000
     38        102.081163   0.000000
     39        102.081163   0.000000
     40        104.314456   0.000000
     41        106.033705   0.000000
     42        107.208482   0.000000
 
  0.1818182E+00  0.1276756E-14  0.1276756E-14  0.4507889E-02
      1         -3.733031   1.000000
      2          7.770453   0.991041
      3         12.624193   0.000000
      4         12.624193   0.000000
      5         18.516160   0.000000
      6         22.652501   0.000000
      7         25.008975   0.000000
      8         25.008975   0.000000
      9         26.453630   0.000000
     10         26.660681   0.000000
     11         33.721343   0.000000
     12         37.025050   0.000000
     13         37.025050   0.000000
     14         39.408258   0.000000
     15         43.591012   0.000000
     16         48.263312   0.000000
     17         48.263312   0.000000
     18         50.008362   0.000000
     19         50.008362   0.000000
     20         51.117028   0.000000
     21         54.549083   0.000000
     22         55.706460   0.000000
     23         57.400958   0.000000
     24         67.881281   0.000000
     25         67.881281   0.000000
     26         71.088811   0.000000
     27         71.972221   0.000000
     28         74.035258   0.000000
     29         82.215595   0.000000
     30         82.215595   0.000000
     31         85.505248   0.000000
     32         89.487272   0.000000
     33         89.590488   0.000000
     34         89.590493   0.000000
     35         93.213224   0.000000
     36         95.688382   0.000000
     37         96.869398   0.000000
     38         96.869426   0.000000
     39         99.822356   0.000000
     40        100.774873   0.000000
     41        103.909110   0.000000
     42        106.558767   0.000000
 
  0.2727273E+00  0.1276756E-14  0.1276756E-14  0.4507889E-02
      1         -3.001679   1.000000
      2          5.242766   1.000000
      3         13.540422   0.000000
      4         13.540422   0.000000
      5         19.504161   0.000000
      6         22.814175   0.000000
      7         22.814175   0.000000
      8         24.399988   0.000000
      9         25.802514   0.000000
     10         29.046095   0.000000
     11         30.367348   0.000000
     12         37.309410   0.000000
     13         37.309410   0.000000
     14         40.393716   0.000000
     15         46.134261   0.000000
     16         46.951498   0.000000
     17         46.951498   0.000000
     18         51.217592   0.000000
     19         53.060609   0.000000
     20         53.060609   0.000000
     21         54.118042   0.000000
     22         56.264483   0.000000
     23         56.435668   0.000000
     24         67.653653   0.000000
     25         71.124575   0.000000
     26         72.540654   0.000000
     27         72.540654   0.000000
     28         77.250889   0.000000
     29         82.973015   0.000000
     30         82.973015   0.000000
     31         83.894120   0.000000
     32         83.894120   0.000000
     33         86.481013   0.000000
     34         88.150992   0.000000
     35         88.626700   0.000000
     36         92.340070   0.000000
     37         93.794072   0.000000
     38         93.794072   0.000000
     39         97.213734   0.000000
     40        102.852585   0.000000
     41        103.596971   0.000000
     42        103.596971   0.000000
 
  0.3636364E+00  0.1276756E-14  0.1276756E-14  0.4507889E-02
      1         -1.970582   1.000000
      2          2.976261   1.000000
      3         14.811341   0.000000
      4         14.811341   0.000000
      5         20.509414   0.000000
      6         20.509414   0.000000
      7         20.887272   0.000000
      8         24.657454   0.000000
      9         25.255521   0.000000
     10         27.405859   0.000000
     11         33.395870   0.000000
     12         38.297984   0.000000
     13         38.297984   0.000000
     14         41.773086   0.000000
     15         44.195043   0.000000
     16         44.195043   0.000000
     17         48.067477   0.000000
     18         48.269891   0.000000
     19         50.503645   0.000000
     20         56.372800   0.000000
     21         58.403034   0.000000
     22         58.403034   0.000000
     23         62.144684   0.000000
     24         65.965335   0.000000
     25         68.009666   0.000000
     26         75.674720   0.000000
     27         75.674720   0.000000
     28         79.172677   0.000000
     29         79.172677   0.000000
     30         81.525847   0.000000
     31         82.918829   0.000000
     32         83.879393   0.000000
     33         83.879393   0.000000
     34         87.845899   0.000000
     35         87.948292   0.000000
     36         90.893389   0.000000
     37         91.719293   0.000000
     38         91.719293   0.000000
     39         94.268513   0.000000
     40         97.940766   0.000000
     41         97.940766   0.000000
     42        102.085604   0.000000
 
  0.4545455E+00  0.1276756E-14  0.1276756E-14  0.4507889E-02
      1         -0.633708   1.000000
      2          1.014529   1.000000
      3         16.420830   0.000000
      4         16.420830   0.000000
      5         18.339265   0.000000
      6         18.339265   0.000000
      7         22.665391   0.000000
      8         24.720781   0.000000
      9         24.838349   0.000000
     10         24.894125   0.000000
     11         38.390974   0.000000
     12         39.824886   0.000000
     13         39.824886   0.000000
     14         41.806220   0.000000
     15         41.806220   0.000000
     16         43.546031   0.000000
     17         43.634694   0.000000
     18         45.711977   0.000000
     19         52.793072   0.000000
     20         55.271779   0.000000
     21         64.184918   0.000000
     22         64.184918   0.000000
     23         65.376114   0.000000
     24         65.916534   0.000000
     25         68.238179   0.000000
     26         70.288466   0.000000
     27         70.288466   0.000000
     28         74.706235   0.000000
     29         82.574162   0.000000
     30         82.574162   0.000000
     31         84.397599   0.000000
     32         84.397599   0.000000
     33         88.497495   0.000000
     34         88.962014   0.000000
     35         89.537660   0.000000
     36         89.598768   0.000000
     37         90.755044   0.000000
     38         90.755044   0.000000
     39         91.738752   0.000000
     40         92.922737   0.000000
     41         92.922737   0.000000
     42         95.362479   0.000000
 
  0.9090909E-01  0.9090909E-01  0.1276756E-14  0.9015778E-02
      1         -4.024595   1.000000
      2          9.994755   0.000000
      3         11.186635   0.000000
      4         12.255688   0.000000
      5         18.980177   0.000000
      6         20.387371   0.000000
      7         25.809666   0.000000
      8         26.199084   0.000000
      9         26.275862   0.000000
     10         26.926787   0.000000
     11         35.689136   0.000000
     12         36.066390   0.000000
     13         39.368295   0.000000
     14         40.416095   0.000000
     15         40.445094   0.000000
     16         45.379573   0.000000
     17         45.444224   0.000000
     18         48.847253   0.000000
     19         50.989545   0.000000
     20         51.983226   0.000000
     21         55.319058   0.000000
     22         58.640668   0.000000
     23         59.919552   0.000000
     24         61.880944   0.000000
     25         65.269269   0.000000
     26         70.155422   0.000000
     27         74.966215   0.000000
     28         75.372114   0.000000
     29         78.472923   0.000000
     30         81.895861   0.000000
     31         88.208666   0.000000
     32         90.002605   0.000000
     33         91.963083   0.000000
     34         91.988567   0.000000
     35         92.231160   0.000000
     36         96.733615   0.000000
     37        100.464836   0.000000
     38        100.764129   0.000000
     39        100.766619   0.000000
     40        102.390223   0.000000
     41        103.454351   0.000000
     42        105.067551   0.000000
 
  0.1818182E+00  0.9090909E-01  0.1276756E-14  0.1803156E-01
      1         -3.588367   1.000000
      2          7.785512   0.973892
      3         11.421925   0.000000
      4         12.806726   0.000000
      5         19.834511   0.000000
      6         23.216776   0.000000
      7         23.936946   0.000000
      8         24.838334   0.000000
      9         26.422403   0.000000
     10         26.604568   0.000000
     11         33.777558   0.000000
     12         35.001979   0.000000
     13         37.816394   0.000000
     14         41.823763   0.000000
     15         42.824641   0.000000
     16         47.697641   0.000000
     17         48.378258   0.000000
     18         48.817272   0.000000
     19         49.486150   0.000000
     20         53.372720   0.000000
     21         55.802483   0.000000
     22         57.177826   0.000000
     23         57.252169   0.000000
     24         65.464219   0.000000
     25         68.613974   0.000000
     26         70.409149   0.000000
     27         73.865911   0.000000
     28         74.786168   0.000000
     29         78.111763   0.000000
     30         82.365689   0.000000
     31         86.938120   0.000000
     32         88.892280   0.000000
     33         89.172067   0.000000
     34         89.599096   0.000000
     35         94.398713   0.000000
     36         95.204319   0.000000
     37         96.352528   0.000000
     38         97.444514   0.000000
     39         99.562897   0.000000
     40         99.946701   0.000000
     41        102.098773   0.000000
     42        103.116570   0.000000
 
  0.2727273E+00  0.9090909E-01  0.1276756E-14  0.1803156E-01
      1         -2.858040   1.000000
      2          5.328571   1.000000
      3         12.297696   0.000000
      4         13.719727   0.000000
      5         20.832173   0.000000
      6         21.622848   0.000000
      7         22.829363   0.000000
      8         24.756815   0.000000
      9         25.784678   0.000000
     10         29.101578   0.000000
     11         31.217015   0.000000
     12         35.049638   0.000000
     13         37.650762   0.000000
     14         43.064334   0.000000
     15         44.571482   0.000000
     16         45.848417   0.000000
     17         46.771859   0.000000
     18         52.484084   0.000000
     19         53.409567   0.000000
     20         53.958594   0.000000
     21         54.277152   0.000000
     22         56.400476   0.000000
     23         58.562821   0.000000
     24         67.007141   0.000000
     25         70.063057   0.000000
     26         70.288341   0.000000
     27         73.722757   0.000000
     28         78.672389   0.000000
     29         79.709376   0.000000
     30         82.951821   0.000000
     31         83.096200   0.000000
     32         84.214798   0.000000
     33         85.230284   0.000000
     34         89.605550   0.000000
     35         90.520778   0.000000
     36         92.210132   0.000000
     37         93.354710   0.000000
     38         93.619739   0.000000
     39         99.063092   0.000000
     40        101.122855   0.000000
     41        101.314431   0.000000
     42        101.912087   0.000000
 
  0.3636364E+00  0.9090909E-01  0.1276756E-14  0.1803156E-01
      1         -1.829151   1.000000
      2          3.090843   1.000000
      3         13.555236   0.000000
      4         14.984866   0.000000
      5         19.268557   0.000000
      6         20.612382   0.000000
      7         22.161632   0.000000
      8         24.910905   0.000000
      9         25.223059   0.000000
     10         28.587736   0.000000
     11         33.502073   0.000000
     12         35.929896   0.000000
     13         38.470437   0.000000
     14         41.782070   0.000000
     15         44.244414   0.000000
     16         44.537018   0.000000
     17         48.441811   0.000000
     18         50.202853   0.000000
     19         51.055872   0.000000
     20         56.572001   0.000000
     21         57.711523   0.000000
     22         58.677878   0.000000
     23         64.047362   0.000000
     24         65.497753   0.000000
     25         67.199419   0.000000
     26         74.784854   0.000000
     27         75.172271   0.000000
     28         77.997779   0.000000
     29         79.378878   0.000000
     30         79.548028   0.000000
     31         83.505904   0.000000
     32         83.693227   0.000000
     33         83.919070   0.000000
     34         85.351147   0.000000
     35         89.497030   0.000000
     36         90.959129   0.000000
     37         91.935537   0.000000
     38         92.167293   0.000000
     39         95.563027   0.000000
     40         98.739815   0.000000
     41         99.608360   0.000000
     42        100.580776   0.000000
 
  0.4545455E+00  0.9090909E-01  0.1276756E-14  0.1803156E-01
      1         -0.496575   1.000000
      2          1.143720   1.000000
      3         15.159855   0.000000
      4         16.583921   0.000000
      5         17.081162   0.000000
      6         18.482566   0.000000
      7         23.746487   0.000000
      8         24.762138   0.000000
      9         25.065691   0.000000
     10         26.284867   0.000000
     11         37.412549   0.000000
     12         38.339388   0.000000
     13         39.382577   0.000000
     14         39.768868   0.000000
     15         42.162894   0.000000
     16         44.105396   0.000000
     17         46.344346   0.000000
     18         48.515164   0.000000
     19         52.805224   0.000000
     20         55.461167   0.000000
     21         62.813536   0.000000
     22         64.426135   0.000000
     23         64.923316   0.000000
     24         65.263692   0.000000
     25         69.705417   0.000000
     26         70.209935   0.000000
     27         70.500648   0.000000
     28         76.531591   0.000000
     29         80.630718   0.000000
     30         80.961927   0.000000
     31         81.694905   0.000000
     32         84.006685   0.000000
     33         84.119805   0.000000
     34         87.717543   0.000000
     35         88.835441   0.000000
     36         90.690713   0.000000
     37         90.741495   0.000000
     38         91.207876   0.000000
     39         92.957632   0.000000
     40         98.052941   0.000000
     41         98.107395   0.000000
     42         98.433078   0.000000
 
  0.1818182E+00  0.1818182E+00  0.1276756E-14  0.9015778E-02
      1         -3.153718   1.000000
      2          7.270753   1.000000
      3         10.022699   0.000000
      4         13.352395   0.000000
      5         21.518678   0.000000
      6         21.750367   0.000000
      7         24.161722   0.000000
      8         25.415388   0.000000
      9         26.023603   0.000000
     10         26.577396   0.000000
     11         33.060664   0.000000
     12         33.612140   0.000000
     13         38.803041   0.000000
     14         42.564304   0.000000
     15         44.340436   0.000000
     16         44.763314   0.000000
     17         48.076395   0.000000
     18         50.275906   0.000000
     19         50.821078   0.000000
     20         56.200596   0.000000
     21         56.209484   0.000000
     22         57.858725   0.000000
     23         60.617394   0.000000
     24         63.024067   0.000000
     25         67.773392   0.000000
     26         69.762886   0.000000
     27         73.762043   0.000000
     28         75.187475   0.000000
     29         79.222352   0.000000
     30         82.796854   0.000000
     31         82.803094   0.000000
     32         86.965175   0.000000
     33         89.031405   0.000000
     34         90.155557   0.000000
     35         91.351650   0.000000
     36         93.668673   0.000000
     37         96.761368   0.000000
     38         97.560161   0.000000
     39         98.248688   0.000000
     40        100.794297   0.000000
     41        100.987103   0.000000
     42        101.806080   0.000000
 
  0.2727273E+00  0.1818182E+00  0.1276756E-14  0.1803156E-01
      1         -2.427303   1.000000
      2          5.460479   1.000000
      3         10.276222   0.000000
      4         14.254770   0.000000
      5         19.300343   0.000000
      6         22.583374   0.000000
      7         22.764922   0.000000
      8         25.435624   0.000000
      9         26.283324   0.000000
     10         29.495139   0.000000
     11         32.391503   0.000000
     12         32.640114   0.000000
     13         38.639975   0.000000
     14         41.202193   0.000000
     15         45.181922   0.000000
     16         46.204620   0.000000
     17         46.924443   0.000000
     18         53.323371   0.000000
     19         54.399696   0.000000
     20         54.595234   0.000000
     21         56.837365   0.000000
     22         58.364979   0.000000
     23         62.562896   0.000000
     24         64.781368   0.000000
     25         66.987926   0.000000
     26         68.423015   0.000000
     27         74.446372   0.000000
     28         75.317000   0.000000
     29         79.204422   0.000000
     30         82.914212   0.000000
     31         83.075132   0.000000
     32         83.424825   0.000000
     33         85.819234   0.000000
     34         89.195691   0.000000
     35         89.527851   0.000000
     36         92.034317   0.000000
     37         94.199484   0.000000
     38         95.845527   0.000000
     39         96.810008   0.000000
     40         97.228985   0.000000
     41         97.609232   0.000000
     42        103.004073   0.000000
 
  0.3636364E+00  0.1818182E+00  0.1276756E-14  0.1803156E-01
      1         -1.406840   1.000000
      2          3.394906   1.000000
      3         11.363177   0.000000
      4         15.500538   0.000000
      5         16.920881   0.000000
      6         20.873613   0.000000
      7         23.433882   0.000000
      8         24.881825   0.000000
      9         26.581553   0.000000
     10         30.905827   0.000000
     11         32.887808   0.000000
     12         33.980327   0.000000
     13         38.427496   0.000000
     14         39.067076   0.000000
     15         44.298248   0.000000
     16         48.761961   0.000000
     17         48.866227   0.000000
     18         49.929264   0.000000
     19         55.516342   0.000000
     20         57.148991   0.000000
     21         57.862598   0.000000
     22         59.552579   0.000000
     23         63.281232   0.000000
     24         65.253831   0.000000
     25         68.137682   0.000000
     26         72.050761   0.000000
     27         74.477791   0.000000
     28         74.512235   0.000000
     29         77.100860   0.000000
     30         78.014257   0.000000
     31         80.719124   0.000000
     32         83.897302   0.000000
     33         87.546514   0.000000
     34         88.422156   0.000000
     35         88.431949   0.000000
     36         90.034120   0.000000
     37         92.387340   0.000000
     38         92.889036   0.000000
     39         94.733552   0.000000
     40         95.842623   0.000000
     41         96.514229   0.000000
     42         99.431155   0.000000
 
  0.4545455E+00  0.1818182E+00  0.1276756E-14  0.1803156E-01
      1         -0.091101   1.000000
      2          1.516213   1.000000
      3         12.886997   0.000000
      4         14.757907   0.000000
      5         17.063775   0.000000
      6         18.892213   0.000000
      7         24.022523   0.000000
      8         24.435662   0.000000
      9         27.506372   0.000000
     10         29.046881   0.000000
     11         34.188771   0.000000
     12         36.070565   0.000000
     13         38.508193   0.000000
     14         39.905443   0.000000
     15         42.913746   0.000000
     16         45.157145   0.000000
     17         50.721771   0.000000
     18         52.766059   0.000000
     19         52.959065   0.000000
     20         55.978134   0.000000
     21         61.293942   0.000000
     22         62.652628   0.000000
     23         64.535353   0.000000
     24         65.170895   0.000000
     25         69.345326   0.000000
     26         71.131609   0.000000
     27         73.672081   0.000000
     28         75.196682   0.000000
     29         75.607809   0.000000
     30         77.966265   0.000000
     31         80.091945   0.000000
     32         82.469802   0.000000
     33         84.202482   0.000000
     34         86.630419   0.000000
     35         88.917702   0.000000
     36         89.046104   0.000000
     37         92.053752   0.000000
     38         93.967921   0.000000
     39         94.536343   0.000000
     40         96.266602   0.000000
     41         97.113327   0.000000
     42         97.638884   0.000000
 
  0.2727273E+00  0.2727273E+00  0.1276756E-14  0.9015778E-02
      1         -1.710455   1.000000
      2          5.064460   1.000000
      3          9.113781   0.000000
      4         15.135666   0.000000
      5         16.828339   0.000000
      6         22.284141   0.000000
      7         23.307056   0.000000
      8         24.900688   0.000000
      9         28.211455   0.000000
     10         30.739136   0.000000
     11         31.442465   0.000000
     12         33.273169   0.000000
     13         38.083352   0.000000
     14         39.672143   0.000000
     15         45.277596   0.000000
     16         45.727997   0.000000
     17         50.423385   0.000000
     18         53.579842   0.000000
     19         56.181811   0.000000
     20         57.094219   0.000000
     21         57.492710   0.000000
     22         61.393108   0.000000
     23         62.191635   0.000000
     24         64.906114   0.000000
     25         66.178391   0.000000
     26         67.289097   0.000000
     27         72.226443   0.000000
     28         74.153778   0.000000
     29         76.396104   0.000000
     30         83.612166   0.000000
     31         83.754369   0.000000
     32         84.184634   0.000000
     33         84.275507   0.000000
     34         87.199547   0.000000
     35         88.611538   0.000000
     36         89.911777   0.000000
     37         93.692368   0.000000
     38         94.716156   0.000000
     39         95.337125   0.000000
     40         98.419660   0.000000
     41         99.026420   0.000000
     42         99.093324   0.000000
 
  0.3636364E+00  0.2727273E+00  0.1276756E-14  0.1803156E-01
      1         -0.710926   1.000000
      2          3.709835   1.000000
      3          9.465946   0.000000
      4         14.499224   0.000000
      5         16.340934   0.000000
      6         21.110335   0.000000
      7         23.596095   0.000000
      8         24.397272   0.000000
      9         29.304321   0.000000
     10         30.475807   0.000000
     11         32.823413   0.000000
     12         35.353984   0.000000
     13         35.354985   0.000000
     14         40.225704   0.000000
     15         44.196527   0.000000
     16         48.291428   0.000000
     17         51.068489   0.000000
     18         53.111807   0.000000
     19         57.923845   0.000000
     20         59.002667   0.000000
     21         60.345733   0.000000
     22         60.489732   0.000000
     23         61.233789   0.000000
     24         62.911646   0.000000
     25         69.064045   0.000000
     26         70.131427   0.000000
     27         70.732819   0.000000
     28         73.379614   0.000000
     29         75.012383   0.000000
     30         78.920716   0.000000
     31         81.536711   0.000000
     32         83.192197   0.000000
     33         86.341721   0.000000
     34         86.842169   0.000000
     35         87.657128   0.000000
     36         90.115076   0.000000
     37         92.207791   0.000000
     38         92.411444   0.000000
     39         93.815954   0.000000
     40         94.719880   0.000000
     41         95.968024   0.000000
     42         97.043556   0.000000
 
  0.4545455E+00  0.2727273E+00  0.1276756E-14  0.1803156E-01
      1          0.560616   1.000000
      2          2.071381   1.000000
      3         10.708533   0.000000
      4         12.431379   0.000000
      5         17.825515   0.000000
      6         19.490049   0.000000
      7         23.783320   0.000000
      8         24.024118   0.000000
      9         30.435591   0.000000
     10         31.388360   0.000000
     11         31.703585   0.000000
     12         33.088247   0.000000
     13         39.476674   0.000000
     14         40.712109   0.000000
     15         43.609710   0.000000
     16         46.244521   0.000000
     17         52.747348   0.000000
     18         55.423864   0.000000
     19         56.615497   0.000000
     20         57.794561   0.000000
     21         59.235249   0.000000
     22         60.021332   0.000000
     23         64.724512   0.000000
     24         66.504079   0.000000
     25         68.819403   0.000000
     26         69.750871   0.000000
     27         70.778425   0.000000
     28         72.068935   0.000000
     29         75.059594   0.000000
     30         78.709228   0.000000
     31         79.845242   0.000000
     32         82.500522   0.000000
     33         85.742876   0.000000
     34         86.135440   0.000000
     35         87.984154   0.000000
     36         88.653709   0.000000
     37         89.127881   0.000000
     38         90.667241   0.000000
     39         92.055614   0.000000
     40         93.067097   0.000000
     41         95.336618   0.000000
     42         96.896084   0.000000
 
  0.3636364E+00  0.3636364E+00  0.1276756E-14  0.9015778E-02
      1          0.240493   1.000000
      2          3.560658   1.000000
      3          8.566653   0.000000
      4         12.282951   0.000000
      5         17.465624   0.000000
      6         20.940776   0.000000
      7         23.544925   0.000000
      8         23.955162   0.000000
      9         29.179283   0.000000
     10         31.350507   0.000000
     11         32.716426   0.000000
     12         33.630697   0.000000
     13         38.233095   0.000000
     14         41.556722   0.000000
     15         43.925425   0.000000
     16         48.593091   0.000000
     17         51.998362   0.000000
     18         55.911974   0.000000
     19         56.998927   0.000000
     20         58.188999   0.000000
     21         60.435528   0.000000
     22         63.077351   0.000000
     23         64.185433   0.000000
     24         64.242347   0.000000
     25         66.059550   0.000000
     26         67.448895   0.000000
     27         67.881962   0.000000
     28         75.624492   0.000000
     29         78.249457   0.000000
     30         78.967830   0.000000
     31         79.706507   0.000000
     32         80.799532   0.000000
     33         81.569708   0.000000
     34         85.597092   0.000000
     35         87.379951   0.000000
     36         88.575786   0.000000
     37         89.483643   0.000000
     38         90.243761   0.000000
     39         91.753220   0.000000
     40         96.315507   0.000000
     41         97.292008   0.000000
     42         98.223413   0.000000
 
  0.4545455E+00  0.3636364E+00  0.1276756E-14  0.1803156E-01
      1          1.400803   1.000000
      2          2.635208   1.000000
      3          9.032448   0.000000
      4         10.403649   0.000000
      5         18.782109   0.000000
      6         20.075251   0.000000
      7         23.532176   0.000000
      8         23.657150   0.000000
      9         29.316488   0.000000
     10         30.629668   0.000000
     11         32.631340   0.000000
     12         33.441215   0.000000
     13         41.765387   0.000000
     14         42.318020   0.000000
     15         44.061830   0.000000
     16         47.238495   0.000000
     17         53.163778   0.000000
     18         55.671173   0.000000
     19         56.837214   0.000000
     20         57.175654   0.000000
     21         60.079122   0.000000
     22         62.689836   0.000000
     23         64.830906   0.000000
     24         65.782765   0.000000
     25         67.489336   0.000000
     26         68.657306   0.000000
     27         71.420308   0.000000
     28         72.083873   0.000000
     29         74.579198   0.000000
     30         76.744393   0.000000
     31         80.083631   0.000000
     32         82.835529   0.000000
     33         82.973538   0.000000
     34         84.234116   0.000000
     35         85.808696   0.000000
     36         85.840356   0.000000
     37         87.894584   0.000000
     38         90.102417   0.000000
     39         91.041633   0.000000
     40         91.391752   0.000000
     41         98.181118   0.000000
     42         98.942441   0.000000
 
  0.4545455E+00  0.4545455E+00  0.1276756E-14  0.9015778E-02
      1          2.273751   1.000000
      2          2.802507   1.000000
      3          8.325019   0.000000
      4          8.900976   0.000000
      5         19.724852   0.000000
      6         20.250134   0.000000
      7         23.393740   0.000000
      8         23.431963   0.000000
      9         28.397131   0.000000
     10         28.928886   0.000000
     11         33.777873   0.000000
     12         34.056085   0.000000
     13         43.678554   0.000000
     14         43.990268   0.000000
     15         45.497633   0.000000
     16         48.223469   0.000000
     17         52.069969   0.000000
     18         53.882630   0.000000
     19         54.483007   0.000000
     20         55.924364   0.000000
     21         63.262063   0.000000
     22         64.035964   0.000000
     23         64.077751   0.000000
     24         66.076778   0.000000
     25         70.198216   0.000000
     26         70.746546   0.000000
     27         72.076956   0.000000
     28         73.272992   0.000000
     29         74.582675   0.000000
     30         75.861383   0.000000
     31         76.685245   0.000000
     32         77.270857   0.000000
     33         79.316694   0.000000
     34         80.767035   0.000000
     35         85.515025   0.000000
     36         85.822354   0.000000
     37         90.573659   0.000000
     38         90.992903   0.000000
     39         91.005272   0.000000
     40         96.399108   0.000000
     41         96.467815   0.000000
     42         99.230033   0.000000
 
  0.9090909E-01  0.9090909E-01  0.9090909E-01  0.6010518E-02
      1         -3.879564   1.000000
      2         10.183335   0.000000
      3         10.183335   0.000000
      4         12.137051   0.000000
      5         20.580201   0.000000
      6         20.580201   0.000000
      7         25.297378   0.000000
      8         26.075088   0.000000
      9         26.075088   0.000000
     10         26.258542   0.000000
     11         35.171153   0.000000
     12         35.171153   0.000000
     13         40.551046   0.000000
     14         40.551046   0.000000
     15         41.823220   0.000000
     16         42.693641   0.000000
     17         48.726359   0.000000
     18         49.665892   0.000000
     19         49.665892   0.000000
     20         53.469635   0.000000
     21         53.469635   0.000000
     22         58.324012   0.000000
     23         60.395950   0.000000
     24         64.074926   0.000000
     25         64.074926   0.000000
     26         72.385352   0.000000
     27         75.128402   0.000000
     28         75.151476   0.000000
     29         75.151476   0.000000
     30         81.642185   0.000000
     31         89.091734   0.000000
     32         89.091734   0.000000
     33         92.146503   0.000000
     34         92.146503   0.000000
     35         93.314444   0.000000
     36         96.335458   0.000000
     37         98.650033   0.000000
     38         98.650033   0.000000
     39        101.004915   0.000000
     40        101.004915   0.000000
     41        101.135192   0.000000
     42        105.875519   0.000000
 
  0.1818182E+00  0.9090909E-01  0.9090909E-01  0.1803156E-01
      1         -3.443599   1.000000
      2          7.855328   0.486690
      3         10.748155   0.000000
      4         12.575648   0.000000
      5         21.157982   0.000000
      6         23.607167   0.000000
      7         23.862445   0.000000
      8         23.988739   0.000000
      9         25.825153   0.000000
     10         26.524633   0.000000
     11         33.915430   0.000000
     12         34.478677   0.000000
     13         38.785330   0.000000
     14         41.932686   0.000000
     15         43.906466   0.000000
     16         45.804201   0.000000
     17         45.925563   0.000000
     18         50.356158   0.000000
     19         52.064594   0.000000
     20         54.454549   0.000000
     21         54.481329   0.000000
     22         57.108336   0.000000
     23         59.029857   0.000000
     24         65.619959   0.000000
     25         68.194108   0.000000
     26         70.108485   0.000000
     27         73.198033   0.000000
     28         75.705078   0.000000
     29         77.161614   0.000000
     30         81.646163   0.000000
     31         85.965108   0.000000
     32         86.281759   0.000000
     33         91.175279   0.000000
     34         92.598882   0.000000
     35         92.820574   0.000000
     36         94.308594   0.000000
     37         96.280761   0.000000
     38         98.134070   0.000000
     39         98.473636   0.000000
     40         99.353547   0.000000
     41        100.091171   0.000000
     42        102.401381   0.000000
 
  0.2727273E+00  0.9090909E-01  0.9090909E-01  0.1803156E-01
      1         -2.714031   1.000000
      2          5.428860   1.000000
      3         11.686213   0.000000
      4         13.425509   0.000000
      5         21.458857   0.000000
      6         21.939152   0.000000
      7         22.118317   0.000000
      8         24.935418   0.000000
      9         25.478954   0.000000
     10         29.165120   0.000000
     11         31.956827   0.000000
     12         34.401842   0.000000
     13         38.124709   0.000000
     14         42.996912   0.000000
     15         43.676669   0.000000
     16         46.518888   0.000000
     17         47.310906   0.000000
     18         50.689335   0.000000
     19         53.938867   0.000000
     20         54.151094   0.000000
     21         56.103660   0.000000
     22         57.454918   0.000000
     23         59.686408   0.000000
     24         66.564667   0.000000
     25         68.427041   0.000000
     26         71.679021   0.000000
     27         72.727704   0.000000
     28         76.617810   0.000000
     29         81.356490   0.000000
     30         81.490509   0.000000
     31         81.739648   0.000000
     32         83.875585   0.000000
     33         86.095494   0.000000
     34         88.272114   0.000000
     35         91.758242   0.000000
     36         92.467132   0.000000
     37         93.230643   0.000000
     38         94.762857   0.000000
     39         97.492271   0.000000
     40        100.112562   0.000000
     41        102.070110   0.000000
     42        102.220579   0.000000
 
  0.3636364E+00  0.9090909E-01  0.9090909E-01  0.1803156E-01
      1         -1.686919   1.000000
      2          3.211216   1.000000
      3         12.991581   0.000000
      4         14.618585   0.000000
      5         18.948141   0.000000
      6         19.879900   0.000000
      7         23.456061   0.000000
      8         24.925756   0.000000
      9         25.139211   0.000000
     10         29.537775   0.000000
     11         33.583818   0.000000
     12         35.036094   0.000000
     13         38.818009   0.000000
     14         40.519502   0.000000
     15         44.566489   0.000000
     16         45.346199   0.000000
     17         49.336080   0.000000
     18         50.110212   0.000000
     19         52.112874   0.000000
     20         56.047089   0.000000
     21         57.124081   0.000000
     22         60.407039   0.000000
     23         65.056159   0.000000
     24         65.328685   0.000000
     25         66.502944   0.000000
     26         73.950746   0.000000
     27         74.550194   0.000000
     28         77.864834   0.000000
     29         78.416079   0.000000
     30         79.272006   0.000000
     31         81.868306   0.000000
     32         82.975630   0.000000
     33         84.736596   0.000000
     34         85.662446   0.000000
     35         87.360677   0.000000
     36         89.591022   0.000000
     37         93.376309   0.000000
     38         94.735133   0.000000
     39         97.619017   0.000000
     40         98.303033   0.000000
     41         99.296965   0.000000
     42        100.207827   0.000000
 
  0.4545455E+00  0.9090909E-01  0.9090909E-01  0.1803156E-01
      1         -0.357934   1.000000
      2          1.275742   1.000000
      3         14.653453   0.000000
      4         16.123903   0.000000
      5         16.651953   0.000000
      6         17.900641   0.000000
      7         24.855726   0.000000
      8         24.915950   0.000000
      9         25.160618   0.000000
     10         27.208326   0.000000
     11         36.242010   0.000000
     12         37.367265   0.000000
     13         39.538066   0.000000
     14         40.251256   0.000000
     15         42.195862   0.000000
     16         43.983763   0.000000
     17         47.836909   0.000000
     18         49.813645   0.000000
     19         53.158786   0.000000
     20         55.940333   0.000000
     21         61.852622   0.000000
     22         63.336579   0.000000
     23         64.262699   0.000000
     24         66.857934   0.000000
     25         67.990252   0.000000
     26         71.354884   0.000000
     27         72.130795   0.000000
     28         77.640484   0.000000
     29         79.359859   0.000000
     30         80.574659   0.000000
     31         80.619947   0.000000
     32         82.055754   0.000000
     33         82.419182   0.000000
     34         85.393591   0.000000
     35         86.228587   0.000000
     36         90.491110   0.000000
     37         91.961006   0.000000
     38         95.348448   0.000000
     39         96.239560   0.000000
     40         97.980235   0.000000
     41         98.460027   0.000000
     42         98.628368   0.000000
 
  0.1818182E+00  0.1818182E+00  0.9090909E-01  0.1803156E-01
      1         -3.008751   1.000000
      2          7.461834   1.000000
      3          9.564654   0.000000
      4         12.912032   0.000000
      5         21.826803   0.000000
      6         22.929283   0.000000
      7         23.554892   0.000000
      8         24.678372   0.000000
      9         25.602683   0.000000
     10         26.416168   0.000000
     11         33.670825   0.000000
     12         33.967732   0.000000
     13         39.953379   0.000000
     14         41.992876   0.000000
     15         43.075281   0.000000
     16         46.091417   0.000000
     17         46.732622   0.000000
     18         49.348799   0.000000
     19         54.431758   0.000000
     20         54.917786   0.000000
     21         56.308585   0.000000
     22         58.236688   0.000000
     23         60.800084   0.000000
     24         65.119132   0.000000
     25         67.966410   0.000000
     26         69.623080   0.000000
     27         72.729638   0.000000
     28         73.121927   0.000000
     29         81.035594   0.000000
     30         81.246820   0.000000
     31         82.276135   0.000000
     32         84.175860   0.000000
     33         89.810705   0.000000
     34         91.248511   0.000000
     35         92.237886   0.000000
     36         92.832548   0.000000
     37         95.644709   0.000000
     38         96.709837   0.000000
     39         97.299607   0.000000
     40        100.390423   0.000000
     41        100.769430   0.000000
     42        102.565959   0.000000
 
  0.2727273E+00  0.1818182E+00  0.9090909E-01  0.3606311E-01
      1         -2.282266   1.000000
      2          5.608711   1.000000
      3          9.993184   0.000000
      4         13.715551   0.000000
      5         19.357387   0.000000
      6         21.935661   0.000000
      7         23.849622   0.000000
      8         24.378524   0.000000
      9         26.178873   0.000000
     10         29.611256   0.000000
     11         33.246335   0.000000
     12         33.273439   0.000000
     13         39.264395   0.000000
     14         40.450275   0.000000
     15         44.358059   0.000000
     16         47.070169   0.000000
     17         48.313432   0.000000
     18         50.531945   0.000000
     19         54.283505   0.000000
     20         54.925058   0.000000
     21         58.293455   0.000000
     22         59.906124   0.000000
     23         63.074958   0.000000
     24         64.796719   0.000000
     25         66.902444   0.000000
     26         69.636897   0.000000
     27         72.989362   0.000000
     28         74.250923   0.000000
     29         78.917103   0.000000
     30         80.896203   0.000000
     31         80.993745   0.000000
     32         84.347048   0.000000
     33         86.089772   0.000000
     34         88.375487   0.000000
     35         90.202421   0.000000
     36         91.024010   0.000000
     37         94.906568   0.000000
     38         95.255181   0.000000
     39         96.208950   0.000000
     40         97.511840   0.000000
     41         99.967013   0.000000
     42        100.758675   0.000000
 
  0.3636364E+00  0.1818182E+00  0.9090909E-01  0.3606311E-01
      1         -1.262244   1.000000
      2          3.533838   1.000000
      3         11.170651   0.000000
      4         14.865502   0.000000
      5         16.921079   0.000000
      6         19.952702   0.000000
      7         24.353675   0.000000
      8         24.355851   0.000000
      9         26.655086   0.000000
     10         31.629411   0.000000
     11         33.479428   0.000000
     12         33.998674   0.000000
     13         38.239046   0.000000
     14         39.491637   0.000000
     15         44.773906   0.000000
     16         47.078569   0.000000
     17         49.763121   0.000000
     18         51.623240   0.000000
     19         54.239701   0.000000
     20         55.443187   0.000000
     21         58.871100   0.000000
     22         61.695492   0.000000
     23         63.915104   0.000000
     24         64.868919   0.000000
     25         68.643069   0.000000
     26         72.288385   0.000000
     27         72.967352   0.000000
     28         73.584020   0.000000
     29         77.430130   0.000000
     30         78.781212   0.000000
     31         80.682273   0.000000
     32         80.853277   0.000000
     33         85.428515   0.000000
     34         87.854986   0.000000
     35         88.025513   0.000000
     36         89.542551   0.000000
     37         91.047116   0.000000
     38         95.434014   0.000000
     39         96.328391   0.000000
     40         96.757864   0.000000
     41         97.172226   0.000000
     42         97.592781   0.000000
 
  0.4545455E+00  0.1818182E+00  0.9090909E-01  0.3606311E-01
      1          0.052133   1.000000
      2          1.657041   1.000000
      3         12.760054   0.000000
      4         14.694025   0.000000
      5         16.320703   0.000000
      6         18.038594   0.000000
      7         24.372095   0.000000
      8         24.419545   0.000000
      9         27.933093   0.000000
     10         29.693072   0.000000
     11         34.354253   0.000000
     12         35.658261   0.000000
     13         39.313133   0.000000
     14         40.483706   0.000000
     15         42.940387   0.000000
     16         44.951486   0.000000
     17         50.164279   0.000000
     18         52.385097   0.000000
     19         54.384359   0.000000
     20         57.478866   0.000000
     21         60.639250   0.000000
     22         62.280773   0.000000
     23         62.280918   0.000000
     24         67.100220   0.000000
     25         68.183627   0.000000
     26         73.387208   0.000000
     27         73.834316   0.000000
     28         75.004377   0.000000
     29         75.088064   0.000000
     30         79.011554   0.000000
     31         80.214539   0.000000
     32         80.886990   0.000000
     33         81.678619   0.000000
     34         83.440301   0.000000
     35         87.332800   0.000000
     36         90.976890   0.000000
     37         91.149522   0.000000
     38         93.403358   0.000000
     39         94.197519   0.000000
     40         96.186613   0.000000
     41         98.617376   0.000000
     42         99.999847   0.000000
 
  0.2727273E+00  0.2727273E+00  0.9090909E-01  0.1803156E-01
      1         -1.563857   1.000000
      2          5.256734   1.000000
      3          8.923251   0.000000
      4         14.491421   0.000000
      5         16.899171   0.000000
      6         21.791287   0.000000
      7         23.150622   0.000000
      8         24.145053   0.000000
      9         28.233306   0.000000
     10         31.621793   0.000000
     11         32.371653   0.000000
     12         33.913385   0.000000
     13         37.963829   0.000000
     14         40.295652   0.000000
     15         45.172200   0.000000
     16         45.982630   0.000000
     17         50.800993   0.000000
     18         52.664311   0.000000
     19         54.337882   0.000000
     20         55.883712   0.000000
     21         60.910399   0.000000
     22         61.703001   0.000000
     23         61.750920   0.000000
     24         66.689982   0.000000
     25         67.147323   0.000000
     26         67.629881   0.000000
     27         71.125762   0.000000
     28         74.250063   0.000000
     29         75.201752   0.000000
     30         80.647050   0.000000
     31         81.637986   0.000000
     32         81.964778   0.000000
     33         85.654196   0.000000
     34         88.447715   0.000000
     35         88.899390   0.000000
     36         89.862944   0.000000
     37         92.084323   0.000000
     38         94.079217   0.000000
     39         95.277576   0.000000
     40         97.397988   0.000000
     41         99.010932   0.000000
     42         99.212052   0.000000
 
  0.3636364E+00  0.2727273E+00  0.9090909E-01  0.3606311E-01
      1         -0.562375   1.000000
      2          3.880812   1.000000
      3          9.370930   0.000000
      4         14.551358   0.000000
      5         15.605337   0.000000
      6         20.385615   0.000000
      7         23.069099   0.000000
      8         23.994988   0.000000
      9         29.490340   0.000000
     10         32.044790   0.000000
     11         33.566587   0.000000
     12         35.105565   0.000000
     13         36.232379   0.000000
     14         40.654181   0.000000
     15         44.641443   0.000000
     16         47.923772   0.000000
     17         50.271060   0.000000
     18         54.730997   0.000000
     19         56.156323   0.000000
     20         56.769678   0.000000
     21         59.669903   0.000000
     22         60.961130   0.000000
     23         63.687991   0.000000
     24         64.997423   0.000000
     25         68.997980   0.000000
     26         69.537491   0.000000
     27         71.855202   0.000000
     28         73.234879   0.000000
     29         73.554553   0.000000
     30         79.157355   0.000000
     31         80.588018   0.000000
     32         81.494428   0.000000
     33         84.109079   0.000000
     34         85.483498   0.000000
     35         87.595644   0.000000
     36         90.306520   0.000000
     37         90.686422   0.000000
     38         92.516874   0.000000
     39         93.976728   0.000000
     40         94.715812   0.000000
     41         96.051755   0.000000
     42         97.920221   0.000000
 
  0.4545455E+00  0.2727273E+00  0.9090909E-01  0.3606311E-01
      1          0.711849   1.000000
      2          2.227928   1.000000
      3         10.679938   0.000000
      4         12.449189   0.000000
      5         17.006562   0.000000
      6         18.637610   0.000000
      7         23.372419   0.000000
      8         23.703099   0.000000
      9         30.724438   0.000000
     10         31.851686   0.000000
     11         33.065393   0.000000
     12         33.962825   0.000000
     13         39.898589   0.000000
     14         41.122367   0.000000
     15         43.756227   0.000000
     16         46.258058   0.000000
     17         51.616262   0.000000
     18         54.729789   0.000000
     19         56.767016   0.000000
     20         59.541932   0.000000
     21         59.636637   0.000000
     22         60.287737   0.000000
     23         61.952935   0.000000
     24         67.235025   0.000000
     25         68.862963   0.000000
     26         69.324178   0.000000
     27         70.054523   0.000000
     28         74.156078   0.000000
     29         76.980342   0.000000
     30         78.855926   0.000000
     31         80.077160   0.000000
     32         80.550804   0.000000
     33         81.263333   0.000000
     34         84.937580   0.000000
     35         85.835633   0.000000
     36         87.336408   0.000000
     37         89.504130   0.000000
     38         91.938080   0.000000
     39         92.709755   0.000000
     40         95.379005   0.000000
     41         95.384581   0.000000
     42         97.385733   0.000000
 
  0.3636364E+00  0.3636364E+00  0.9090909E-01  0.1803156E-01
      1          0.394900   1.000000
      2          3.753548   1.000000
      3          8.513619   0.000000
      4         12.339819   0.000000
      5         16.661769   0.000000
      6         20.547926   0.000000
      7         21.968973   0.000000
      8         23.450582   0.000000
      9         31.291855   0.000000
     10         31.293370   0.000000
     11         34.146301   0.000000
     12         34.345964   0.000000
     13         38.396029   0.000000
     14         41.966554   0.000000
     15         44.280770   0.000000
     16         48.558552   0.000000
     17         51.131544   0.000000
     18         56.106865   0.000000
     19         57.118230   0.000000
     20         58.328689   0.000000
     21         59.566473   0.000000
     22         59.744646   0.000000
     23         65.129191   0.000000
     24         65.304131   0.000000
     25         67.217423   0.000000
     26         68.125487   0.000000
     27         69.839834   0.000000
     28         73.528989   0.000000
     29         76.315393   0.000000
     30         78.442892   0.000000
     31         80.624204   0.000000
     32         81.551092   0.000000
     33         82.612216   0.000000
     34         83.273353   0.000000
     35         84.707863   0.000000
     36         85.235345   0.000000
     37         90.358742   0.000000
     38         92.387840   0.000000
     39         93.834442   0.000000
     40         93.969290   0.000000
     41         96.448085   0.000000
     42         97.472469   0.000000
 
  0.4545455E+00  0.3636364E+00  0.9090909E-01  0.3606311E-01
      1          1.564338   1.000000
      2          2.814085   1.000000
      3          9.031714   0.000000
      4         10.441724   0.000000
      5         17.966633   0.000000
      6         19.414450   0.000000
      7         22.191357   0.000000
      8         22.821605   0.000000
      9         31.190497   0.000000
     10         31.574045   0.000000
     11         33.752696   0.000000
     12         34.225154   0.000000
     13         41.997190   0.000000
     14         42.657253   0.000000
     15         44.282171   0.000000
     16         47.342505   0.000000
     17         52.575288   0.000000
     18         55.522161   0.000000
     19         56.039371   0.000000
     20         56.977939   0.000000
     21         61.039243   0.000000
     22         63.137227   0.000000
     23         63.946644   0.000000
     24         64.717967   0.000000
     25         65.581821   0.000000
     26         69.307034   0.000000
     27         72.337363   0.000000
     28         72.811686   0.000000
     29         77.379344   0.000000
     30         77.759403   0.000000
     31         77.780609   0.000000
     32         80.211567   0.000000
     33         81.861476   0.000000
     34         82.186650   0.000000
     35         84.675920   0.000000
     36         86.027759   0.000000
     37         89.442944   0.000000
     38         89.918917   0.000000
     39         92.237645   0.000000
     40         92.781518   0.000000
     41         94.165810   0.000000
     42         95.197772   0.000000
 
  0.4545455E+00  0.4545455E+00  0.9090909E-01  0.1803156E-01
      1          2.454660   1.000000
      2          2.995665   1.000000
      3          8.334086   0.000000
      4          8.929996   0.000000
      5         19.085040   0.000000
      6         19.907421   0.000000
      7         21.341844   0.000000
      8         21.886167   0.000000
      9         30.693431   0.000000
     10         30.888241   0.000000
     11         34.580825   0.000000
     12         34.797925   0.000000
     13         44.027166   0.000000
     14         44.311222   0.000000
     15         45.606951   0.000000
     16         48.260163   0.000000
     17         52.257505   0.000000
     18         53.905618   0.000000
     19         53.990521   0.000000
     20         55.568274   0.000000
     21         61.931709   0.000000
     22         62.560517   0.000000
     23         65.414125   0.000000
     24         66.718432   0.000000
     25         67.296896   0.000000
     26         71.559038   0.000000
     27         71.560712   0.000000
     28         72.984151   0.000000
     29         74.654697   0.000000
     30         75.720399   0.000000
     31         76.113377   0.000000
     32         80.109841   0.000000
     33         81.070520   0.000000
     34         81.526065   0.000000
     35         81.883448   0.000000
     36         84.592400   0.000000
     37         89.650091   0.000000
     38         91.550462   0.000000
     39         91.919892   0.000000
     40         92.212854   0.000000
     41         94.919209   0.000000
     42         96.744531   0.000000
 
  0.1818182E+00  0.1818182E+00  0.1818182E+00  0.6010518E-02
      1         -2.573576   1.000000
      2          8.034493   0.000000
      3          8.034493   0.000000
      4         12.743693   0.000000
      5         21.994896   0.000000
      6         21.994896   0.000000
      7         22.166026   0.000000
      8         25.961881   0.000000
      9         26.162563   0.000000
     10         26.162563   0.000000
     11         34.393343   0.000000
     12         34.393343   0.000000
     13         40.987387   0.000000
     14         42.266687   0.000000
     15         42.266687   0.000000
     16         44.473360   0.000000
     17         48.268736   0.000000
     18         51.378639   0.000000
     19         51.378639   0.000000
     20         56.152024   0.000000
     21         59.726336   0.000000
     22         59.726336   0.000000
     23         61.080242   0.000000
     24         68.546809   0.000000
     25         68.546809   0.000000
     26         69.045877   0.000000
     27         69.045877   0.000000
     28         71.624201   0.000000
     29         79.663415   0.000000
     30         80.556070   0.000000
     31         80.556070   0.000000
     32         84.415439   0.000000
     33         87.917276   0.000000
     34         87.917276   0.000000
     35         90.067888   0.000000
     36         93.054340   0.000000
     37         93.836163   0.000000
     38         97.952693   0.000000
     39         97.952693   0.000000
     40        100.255526   0.000000
     41        100.255664   0.000000
     42        103.361604   0.000000
 
  0.2727273E+00  0.1818182E+00  0.1818182E+00  0.1803156E-01
      1         -1.847634   1.000000
      2          5.969655   1.000000
      3          8.986843   0.000000
      4         13.255365   0.000000
      5         19.139798   0.000000
      6         20.351056   0.000000
      7         22.409895   0.000000
      8         25.355148   0.000000
      9         27.088002   0.000000
     10         30.169939   0.000000
     11         34.367187   0.000000
     12         34.483506   0.000000
     13         39.027788   0.000000
     14         40.972978   0.000000
     15         44.101705   0.000000
     16         48.127795   0.000000
     17         48.374982   0.000000
     18         50.256932   0.000000
     19         52.948913   0.000000
     20         55.074797   0.000000
     21         60.934831   0.000000
     22         62.331402   0.000000
     23         64.543305   0.000000
     24         64.943151   0.000000
     25         67.986081   0.000000
     26         69.526123   0.000000
     27         70.966357   0.000000
     28         72.745925   0.000000
     29         77.980902   0.000000
     30         78.267656   0.000000
     31         78.334255   0.000000
     32         82.609721   0.000000
     33         85.674393   0.000000
     34         86.850751   0.000000
     35         89.492068   0.000000
     36         90.849278   0.000000
     37         91.990197   0.000000
     38         96.601892   0.000000
     39         96.912182   0.000000
     40         98.058044   0.000000
     41         98.167950   0.000000
     42        100.320761   0.000000
 
  0.3636364E+00  0.1818182E+00  0.1818182E+00  0.1803156E-01
      1         -0.830578   1.000000
      2          3.917336   1.000000
      3         10.315204   0.000000
      4         14.189319   0.000000
      5         16.459721   0.000000
      6         18.577120   0.000000
      7         22.860859   0.000000
      8         24.671536   0.000000
      9         28.362875   0.000000
     10         33.487193   0.000000
     11         34.310317   0.000000
     12         34.322273   0.000000
     13         37.740070   0.000000
     14         40.587812   0.000000
     15         45.674967   0.000000
     16         46.594742   0.000000
     17         49.958659   0.000000
     18         53.288323   0.000000
     19         53.322716   0.000000
     20         54.623874   0.000000
     21         60.586660   0.000000
     22         61.852597   0.000000
     23         64.818115   0.000000
     24         66.702884   0.000000
     25         70.207556   0.000000
     26         70.784637   0.000000
     27         71.241239   0.000000
     28         72.036526   0.000000
     29         76.751081   0.000000
     30         77.048687   0.000000
     31         77.968473   0.000000
     32         81.433374   0.000000
     33         83.314085   0.000000
     34         85.354527   0.000000
     35         87.381273   0.000000
     36         90.018364   0.000000
     37         90.558641   0.000000
     38         92.403331   0.000000
     39         93.671504   0.000000
     40         94.895357   0.000000
     41         98.401365   0.000000
     42        101.082290   0.000000
 
  0.4545455E+00  0.1818182E+00  0.1818182E+00  0.1803156E-01
      1          0.476154   1.000000
      2          2.065807   1.000000
      3         12.013026   0.000000
      4         14.068602   0.000000
      5         15.428430   0.000000
      6         16.910381   0.000000
      7         23.395846   0.000000
      8         24.004366   0.000000
      9         29.949959   0.000000
     10         31.752677   0.000000
     11         34.630156   0.000000
     12         35.279875   0.000000
     13         40.339626   0.000000
     14         41.589429   0.000000
     15         43.375945   0.000000
     16         45.011395   0.000000
     17         50.086922   0.000000
     18         52.195548   0.000000
     19         57.096754   0.000000
     20         58.983342   0.000000
     21         60.343832   0.000000
     22         61.076845   0.000000
     23         61.081791   0.000000
     24         64.989415   0.000000
     25         71.330087   0.000000
     26         72.436404   0.000000
     27         73.952193   0.000000
     28         74.527418   0.000000
     29         75.765494   0.000000
     30         76.387444   0.000000
     31         76.750508   0.000000
     32         80.845203   0.000000
     33         83.004563   0.000000
     34         83.436296   0.000000
     35         86.067357   0.000000
     36         86.761363   0.000000
     37         89.266959   0.000000
     38         90.843967   0.000000
     39         92.292875   0.000000
     40         94.823951   0.000000
     41         96.824793   0.000000
     42         99.768610   0.000000
 
  0.2727273E+00  0.2727273E+00  0.1818182E+00  0.1803156E-01
      1         -1.125201   1.000000
      2          5.833138   1.000000
      3          8.185261   0.000000
      4         13.560883   0.000000
      5         17.071993   0.000000
      6         20.133839   0.000000
      7         20.679034   0.000000
      8         24.672343   0.000000
      9         29.639410   0.000000
     10         32.155037   0.000000
     11         34.750352   0.000000
     12         35.299332   0.000000
     13         37.660857   0.000000
     14         42.383458   0.000000
     15         44.550542   0.000000
     16         47.803925   0.000000
     17         49.280422   0.000000
     18         51.183574   0.000000
     19         52.981660   0.000000
     20         56.391426   0.000000
     21         60.959743   0.000000
     22         62.092687   0.000000
     23         65.987232   0.000000
     24         67.312460   0.000000
     25         69.110222   0.000000
     26         69.339201   0.000000
     27         69.558544   0.000000
     28         72.707817   0.000000
     29         74.799913   0.000000
     30         76.485440   0.000000
     31         78.823840   0.000000
     32         79.599433   0.000000
     33         82.397322   0.000000
     34         86.307921   0.000000
     35         88.551376   0.000000
     36         89.234823   0.000000
     37         91.646640   0.000000
     38         93.618876   0.000000
     39         94.488784   0.000000
     40         95.977422   0.000000
     41        100.399653   0.000000
     42        101.070636   0.000000
 
  0.3636364E+00  0.2727273E+00  0.1818182E+00  0.3606311E-01
      1         -0.119245   1.000000
      2          4.376297   1.000000
      3          8.968092   0.000000
      4         14.366184   0.000000
      5         14.647812   0.000000
      6         18.524701   0.000000
      7         21.055508   0.000000
      8         23.717344   0.000000
      9         31.158466   0.000000
     10         34.665969   0.000000
     11         35.293649   0.000000
     12         35.458325   0.000000
     13         37.208198   0.000000
     14         42.040804   0.000000
     15         45.946474   0.000000
     16         47.196493   0.000000
     17         50.001302   0.000000
     18         53.382958   0.000000
     19         53.741614   0.000000
     20         57.500745   0.000000
     21         60.249660   0.000000
     22         60.252475   0.000000
     23         66.328248   0.000000
     24         67.511355   0.000000
     25         68.704173   0.000000
     26         69.667306   0.000000
     27         70.368271   0.000000
     28         74.462689   0.000000
     29         74.534571   0.000000
     30         75.177857   0.000000
     31         76.304355   0.000000
     32         80.266977   0.000000
     33         83.097977   0.000000
     34         85.698544   0.000000
     35         85.707190   0.000000
     36         86.579239   0.000000
     37         87.600319   0.000000
     38         91.412338   0.000000
     39         93.533245   0.000000
     40         93.741463   0.000000
     41         97.855237   0.000000
     42         99.306630   0.000000
 
  0.4545455E+00  0.2727273E+00  0.1818182E+00  0.3606311E-01
      1          1.160023   1.000000
      2          2.686232   1.000000
      3         10.487989   0.000000
      4         12.412737   0.000000
      5         15.504253   0.000000
      6         16.905453   0.000000
      7         21.825874   0.000000
      8         22.734492   0.000000
      9         32.603486   0.000000
     10         33.997371   0.000000
     11         35.018309   0.000000
     12         35.351822   0.000000
     13         40.998106   0.000000
     14         42.380093   0.000000
     15         44.304963   0.000000
     16         46.235753   0.000000
     17         50.604095   0.000000
     18         53.086806   0.000000
     19         57.505232   0.000000
     20         58.919693   0.000000
     21         59.029107   0.000000
     22         61.437991   0.000000
     23         63.188955   0.000000
     24         64.786179   0.000000
     25         67.969070   0.000000
     26         68.518596   0.000000
     27         73.973990   0.000000
     28         73.977296   0.000000
     29         74.439020   0.000000
     30         77.400212   0.000000
     31         80.289067   0.000000
     32         80.342785   0.000000
     33         81.603122   0.000000
     34         81.927043   0.000000
     35         84.650412   0.000000
     36         85.806234   0.000000
     37         87.294503   0.000000
     38         88.811850   0.000000
     39         89.473220   0.000000
     40         93.562229   0.000000
     41         96.101542   0.000000
     42         99.297761   0.000000
 
  0.3636364E+00  0.3636364E+00  0.1818182E+00  0.1803156E-01
      1          0.854621   1.000000
      2          4.331875   1.000000
      3          8.287365   0.000000
      4         12.499224   0.000000
      5         15.103223   0.000000
      6         18.794851   0.000000
      7         19.635945   0.000000
      8         22.494870   0.000000
      9         33.073150   0.000000
     10         34.664356   0.000000
     11         36.144096   0.000000
     12         36.209018   0.000000
     13         38.872164   0.000000
     14         43.354857   0.000000
     15         45.446296   0.000000
     16         48.324443   0.000000
     17         50.030178   0.000000
     18         54.760594   0.000000
     19         56.005933   0.000000
     20         56.706020   0.000000
     21         58.791694   0.000000
     22         60.861793   0.000000
     23         64.751268   0.000000
     24         65.667938   0.000000
     25         66.985692   0.000000
     26         70.817383   0.000000
     27         72.263718   0.000000
     28         72.976187   0.000000
     29         74.552373   0.000000
     30         74.755103   0.000000
     31         77.280148   0.000000
     32         79.534203   0.000000
     33         81.584299   0.000000
     34         83.974399   0.000000
     35         84.470438   0.000000
     36         85.497164   0.000000
     37         88.339335   0.000000
     38         88.714502   0.000000
     39         89.150790   0.000000
     40         97.366123   0.000000
     41         97.986664   0.000000
     42         98.599822   0.000000
 
  0.4545455E+00  0.3636364E+00  0.1818182E+00  0.3606311E-01
      1          2.049626   1.000000
      2          3.344884   1.000000
      3          8.997929   0.000000
      4         10.541491   0.000000
      5         16.186420   0.000000
      6         17.524025   0.000000
      7         20.213817   0.000000
      8         21.282540   0.000000
      9         34.061419   0.000000
     10         34.483796   0.000000
     11         36.064716   0.000000
     12         36.213520   0.000000
     13         42.664719   0.000000
     14         43.766207   0.000000
     15         45.029500   0.000000
     16         47.570965   0.000000
     17         51.475185   0.000000
     18         54.475336   0.000000
     19         55.506671   0.000000
     20         56.518638   0.000000
     21         60.119135   0.000000
     22         62.592481   0.000000
     23         62.875658   0.000000
     24         65.274639   0.000000
     25         65.325637   0.000000
     26         67.362406   0.000000
     27         72.722976   0.000000
     28         74.450263   0.000000
     29         76.366346   0.000000
     30         76.824585   0.000000
     31         77.082829   0.000000
     32         77.516896   0.000000
     33         80.731873   0.000000
     34         82.294668   0.000000
     35         84.564910   0.000000
     36         85.204495   0.000000
     37         86.148977   0.000000
     38         89.603975   0.000000
     39         91.176316   0.000000
     40         93.548357   0.000000
     41         94.032106   0.000000
     42         95.662901   0.000000
 
  0.4545455E+00  0.4545455E+00  0.1818182E+00  0.1803156E-01
      1          2.993652   1.000000
      2          3.574833   1.000000
      3          8.350112   0.000000
      4          9.015320   0.000000
      5         17.189255   0.000000
      6         18.104865   0.000000
      7         19.098401   0.000000
      8         19.927831   0.000000
      9         34.357571   0.000000
     10         34.443478   0.000000
     11         36.683426   0.000000
     12         36.764832   0.000000
     13         45.169244   0.000000
     14         45.352234   0.000000
     15         45.886032   0.000000
     16         48.289648   0.000000
     17         52.816819   0.000000
     18         52.970579   0.000000
     19         53.847454   0.000000
     20         54.851240   0.000000
     21         59.912889   0.000000
     22         60.656565   0.000000
     23         63.688544   0.000000
     24         67.285887   0.000000
     25         67.442943   0.000000
     26         68.687717   0.000000
     27         69.155041   0.000000
     28         72.238521   0.000000
     29         75.204422   0.000000
     30         75.709206   0.000000
     31         76.055484   0.000000
     32         77.848496   0.000000
     33         80.804953   0.000000
     34         83.593136   0.000000
     35         84.140847   0.000000
     36         84.868507   0.000000
     37         85.899779   0.000000
     38         89.441569   0.000000
     39         90.409799   0.000000
     40         92.659252   0.000000
     41         96.229836   0.000000
     42         97.543223   0.000000
 
  0.2727273E+00  0.2727273E+00  0.2727273E+00  0.6010518E-02
      1         -0.398093   1.000000
      2          6.792316   1.000000
      3          6.792316   1.000000
      4         13.314555   0.000000
      5         17.123919   0.000000
      6         17.123919   0.000000
      7         19.655235   0.000000
      8         23.742418   0.000000
      9         33.024784   0.000000
     10         33.024784   0.000000
     11         36.362461   0.000000
     12         36.362462   0.000000
     13         37.319607   0.000000
     14         45.186835   0.000000
     15         45.186835   0.000000
     16         47.439360   0.000000
     17         50.082329   0.000000
     18         50.082329   0.000000
     19         51.111568   0.000000
     20         58.958611   0.000000
     21         60.362942   0.000000
     22         63.085074   0.000000
     23         63.085074   0.000000
     24         69.855422   0.000000
     25         69.855422   0.000000
     26         70.539811   0.000000
     27         71.226284   0.000000
     28         71.226284   0.000000
     29         73.477198   0.000000
     30         77.050658   0.000000
     31         77.050658   0.000000
     32         78.326883   0.000000
     33         78.326883   0.000000
     34         80.032721   0.000000
     35         88.367648   0.000000
     36         88.367656   0.000000
     37         88.735334   0.000000
     38         90.747646   0.000000
     39         96.880019   0.000000
     40         96.880019   0.000000
     41        101.363780   0.000000
     42        102.307624   0.000000
 
  0.3636364E+00  0.2727273E+00  0.2727273E+00  0.1803156E-01
      1          0.610094   1.000000
      2          5.085644   1.000000
      3          8.131655   0.000000
      4         13.709053   0.000000
      5         14.364905   0.000000
      6         16.538879   0.000000
      7         19.503748   0.000000
      8         22.442333   0.000000
      9         34.187223   0.000000
     10         36.354326   0.000000
     11         36.626747   0.000000
     12         37.099008   0.000000
     13         37.924199   0.000000
     14         44.261858   0.000000
     15         47.330950   0.000000
     16         47.498942   0.000000
     17         50.036421   0.000000
     18         51.438095   0.000000
     19         51.991554   0.000000
     20         58.861018   0.000000
     21         59.412770   0.000000
     22         61.949754   0.000000
     23         64.469781   0.000000
     24         67.221221   0.000000
     25         67.700597   0.000000
     26         69.523572   0.000000
     27         71.233421   0.000000
     28         72.614480   0.000000
     29         74.312718   0.000000
     30         76.190951   0.000000
     31         76.872760   0.000000
     32         78.260331   0.000000
     33         79.609008   0.000000
     34         82.336235   0.000000
     35         82.857623   0.000000
     36         85.489339   0.000000
     37         87.121440   0.000000
     38         88.870074   0.000000
     39         96.165347   0.000000
     40         96.368904   0.000000
     41         97.952771   0.000000
     42         99.893484   0.000000
 
  0.4545455E+00  0.2727273E+00  0.2727273E+00  0.1803156E-01
      1          1.885246   1.000000
      2          3.398530   1.000000
      3          9.846606   0.000000
      4         11.929223   0.000000
      5         14.492908   0.000000
      6         15.502155   0.000000
      7         20.158007   0.000000
      8         21.194156   0.000000
      9         35.527323   0.000000
     10         36.532231   0.000000
     11         36.554886   0.000000
     12         36.721348   0.000000
     13         42.157367   0.000000
     14         44.137072   0.000000
     15         45.410554   0.000000
     16         46.499937   0.000000
     17         50.652577   0.000000
     18         52.498087   0.000000
     19         56.845005   0.000000
     20         57.176530   0.000000
     21         57.684087   0.000000
     22         62.470634   0.000000
     23         64.432034   0.000000
     24         66.296843   0.000000
     25         66.708864   0.000000
     26         68.214208   0.000000
     27         68.756045   0.000000
     28         69.416153   0.000000
     29         76.241676   0.000000
     30         77.806757   0.000000
     31         79.019247   0.000000
     32         80.465938   0.000000
     33         81.021294   0.000000
     34         82.680049   0.000000
     35         83.242646   0.000000
     36         84.517488   0.000000
     37         84.815719   0.000000
     38         87.203022   0.000000
     39         89.762934   0.000000
     40         92.937957   0.000000
     41         98.941104   0.000000
     42        101.833584   0.000000
 
  0.3636364E+00  0.3636364E+00  0.2727273E+00  0.1803156E-01
      1          1.608129   1.000000
      2          5.294550   1.000000
      3          7.702477   0.999991
      4         12.720222   0.000000
      5         13.792817   0.000000
      6         15.713337   0.000000
      7         18.667376   0.000000
      8         20.984142   0.000000
      9         36.304773   0.000000
     10         37.558531   0.000000
     11         37.876088   0.000000
     12         38.231954   0.000000
     13         39.611919   0.000000
     14         46.072775   0.000000
     15         47.487317   0.000000
     16         48.130054   0.000000
     17         49.572094   0.000000
     18         52.203051   0.000000
     19         53.012947   0.000000
     20         57.685604   0.000000
     21         58.352257   0.000000
     22         62.053887   0.000000
     23         64.383097   0.000000
     24         64.967098   0.000000
     25         65.887702   0.000000
     26         69.192267   0.000000
     27         70.530865   0.000000
     28         70.846669   0.000000
     29         72.415899   0.000000
     30         77.076024   0.000000
     31         78.069476   0.000000
     32         78.490391   0.000000
     33         78.850583   0.000000
     34         81.081642   0.000000
     35         81.714860   0.000000
     36         84.907372   0.000000
     37         85.888033   0.000000
     38         91.140780   0.000000
     39         93.717558   0.000000
     40         97.460552   0.000000
     41         99.380312   0.000000
     42        100.430059   0.000000
 
  0.4545455E+00  0.3636364E+00  0.2727273E+00  0.3606311E-01
      1          2.837786   1.000000
      2          4.201677   1.000000
      3          8.821633   0.000000
      4         10.637714   0.000000
      5         14.336017   0.000000
      6         15.073646   0.000000
      7         18.822431   0.000000
      8         19.706177   0.000000
      9         37.172334   0.000000
     10         37.596172   0.000000
     11         38.459852   0.000000
     12         38.682199   0.000000
     13         43.552825   0.000000
     14         45.818932   0.000000
     15         46.540939   0.000000
     16         47.642319   0.000000
     17         51.119806   0.000000
     18         53.062391   0.000000
     19         55.563540   0.000000
     20         56.054985   0.000000
     21         57.354666   0.000000
     22         61.718147   0.000000
     23         62.202307   0.000000
     24         63.612658   0.000000
     25         67.514627   0.000000
     26         68.058082   0.000000
     27         68.426078   0.000000
     28         69.949344   0.000000
     29         71.844176   0.000000
     30         73.973681   0.000000
     31         77.375358   0.000000
     32         78.996750   0.000000
     33         80.600860   0.000000
     34         81.860900   0.000000
     35         83.871911   0.000000
     36         86.983118   0.000000
     37         87.037879   0.000000
     38         89.394466   0.000000
     39         93.895078   0.000000
     40         94.315364   0.000000
     41         95.670176   0.000000
     42         99.179206   0.000000
 
  0.4545455E+00  0.4545455E+00  0.2727273E+00  0.1803156E-01
      1          3.876514   1.000000
      2          4.539032   1.000000
      3          8.332450   0.000000
      4          9.154498   0.000000
      5         14.667369   0.000000
      6         14.994479   0.000000
      7         18.206850   0.000000
      8         18.593478   0.000000
      9         37.825438   0.000000
     10         38.040224   0.000000
     11         39.407963   0.000000
     12         39.480622   0.000000
     13         46.141115   0.000000
     14         47.325387   0.000000
     15         47.401071   0.000000
     16         48.051469   0.000000
     17         52.215294   0.000000
     18         53.442650   0.000000
     19         53.734959   0.000000
     20         54.417312   0.000000
     21         58.811335   0.000000
     22         59.073898   0.000000
     23         60.532829   0.000000
     24         64.492621   0.000000
     25         65.599077   0.000000
     26         68.695296   0.000000
     27         69.009803   0.000000
     28         69.373021   0.000000
     29         70.148330   0.000000
     30         71.209916   0.000000
     31         76.077522   0.000000
     32         76.772983   0.000000
     33         80.467320   0.000000
     34         81.726748   0.000000
     35         86.057982   0.000000
     36         89.838167   0.000000
     37         91.115038   0.000000
     38         91.667445   0.000000
     39         92.280807   0.000000
     40         94.647106   0.000000
     41         95.829802   0.000000
     42         98.961908   0.000000
 
  0.3636364E+00  0.3636364E+00  0.3636364E+00  0.6010518E-02
      1          2.632306   1.000000
      2          6.639495   1.000000
      3          6.639495   1.000000
      4         12.916747   0.000000
      5         12.916747   0.000000
      6         13.127125   0.000000
      7         18.004868   0.000000
      8         19.540879   0.000000
      9         38.699778   0.000000
     10         39.596650   0.000000
     11         39.596650   0.000000
     12         40.476857   0.000000
     13         40.476857   0.000000
     14         49.042016   0.000000
     15         49.241194   0.000000
     16         49.241194   0.000000
     17         49.987854   0.000000
     18         49.987854   0.000000
     19         51.591307   0.000000
     20         58.212664   0.000000
     21         59.097852   0.000000
     22         59.097852   0.000000
     23         63.015559   0.000000
     24         63.015559   0.000000
     25         65.211298   0.000000
     26         67.910734   0.000000
     27         69.163436   0.000000
     28         69.163436   0.000000
     29         71.153550   0.000000
     30         72.068889   0.000000
     31         75.472053   0.000000
     32         75.472053   0.000000
     33         83.734286   0.000000
     34         83.734286   0.000000
     35         83.898282   0.000000
     36         83.898282   0.000000
     37         86.359227   0.000000
     38         94.265794   0.000000
     39         97.846174   0.000000
     40         97.846176   0.000000
     41         98.382925   0.000000
     42         98.382926   0.000000
 
  0.4545455E+00  0.3636364E+00  0.3636364E+00  0.1803156E-01
      1          3.883399   1.000000
      2          5.275792   1.000000
      3          8.363114   0.000000
      4         10.459244   0.000000
      5         12.973446   0.000000
      6         12.988661   0.000000
      7         17.905962   0.000000
      8         18.454185   0.000000
      9         39.442519   0.000000
     10         39.832124   0.000000
     11         40.847540   0.000000
     12         41.096748   0.000000
     13         44.412002   0.000000
     14         47.522281   0.000000
     15         48.587946   0.000000
     16         48.591373   0.000000
     17         51.999563   0.000000
     18         52.353485   0.000000
     19         55.512618   0.000000
     20         55.718756   0.000000
     21         56.020805   0.000000
     22         60.241007   0.000000
     23         61.068311   0.000000
     24         62.629643   0.000000
     25         63.774566   0.000000
     26         64.327484   0.000000
     27         68.290184   0.000000
     28         70.000466   0.000000
     29         70.839131   0.000000
     30         71.358436   0.000000
     31         71.895666   0.000000
     32         73.114246   0.000000
     33         83.986865   0.000000
     34         85.228603   0.000000
     35         87.548161   0.000000
     36         88.719087   0.000000
     37         89.763964   0.000000
     38         91.675570   0.000000
     39         94.080671   0.000000
     40         96.601976   0.000000
     41         99.103109   0.000000
     42         99.993209   0.000000
 
  0.4545455E+00  0.4545455E+00  0.3636364E+00  0.1803156E-01
      1          5.063994   1.000000
      2          5.886403   1.000000
      3          8.175778   0.000000
      4          9.359116   0.000000
      5         12.182360   0.000000
      6         12.302379   0.000000
      7         17.504840   0.000000
      8         17.690179   0.000000
      9         40.624744   0.000000
     10         40.951604   0.000000
     11         41.961002   0.000000
     12         42.452284   0.000000
     13         45.940866   0.000000
     14         47.321109   0.000000
     15         50.239082   0.000000
     16         50.939063   0.000000
     17         52.409185   0.000000
     18         53.049857   0.000000
     19         54.976988   0.000000
     20         55.046839   0.000000
     21         57.981929   0.000000
     22         58.227064   0.000000
     23         58.667718   0.000000
     24         61.430254   0.000000
     25         63.235099   0.000000
     26         63.252766   0.000000
     27         64.513552   0.000000
     28         66.249626   0.000000
     29         69.085068   0.000000
     30         69.955709   0.000000
     31         72.206456   0.000000
     32         72.872210   0.000000
     33         85.154236   0.000000
     34         85.596646   0.000000
     35         90.965452   0.000000
     36         91.621640   0.000000
     37         92.926547   0.000000
     38         94.971581   0.000000
     39         95.918167   0.000000
     40         96.619275   0.000000
     41         98.241753   0.000000
     42        100.251546   0.000000
 
  0.4545455E+00  0.4545455E+00  0.4545455E+00  0.6010518E-02
      1          6.434458   1.000000
      2          7.613761   1.000000
      3          7.613761   1.000000
      4          9.715662   0.000000
      5          9.715662   0.000000
      6         10.564246   0.000000
      7         17.144423   0.000000
      8         17.200369   0.000000
      9         42.492973   0.000000
     10         43.186906   0.000000
     11         43.186906   0.000000
     12         44.904726   0.000000
     13         44.904726   0.000000
     14         46.318275   0.000000
     15         53.456307   0.000000
     16         53.456307   0.000000
     17         54.074246   0.000000
     18         54.074246   0.000000
     19         56.928649   0.000000
     20         57.177145   0.000000
     21         57.177145   0.000000
     22         57.237239   0.000000
     23         58.159605   0.000000
     24         58.159605   0.000000
     25         59.479671   0.000000
     26         61.785834   0.000000
     27         61.785834   0.000000
     28         63.450214   0.000000
     29         64.087068   0.000000
     30         64.087068   0.000000
     31         73.688375   0.000000
     32         73.934733   0.000000
     33         88.461595   0.000000
     34         89.823677   0.000000
     35         89.823677   0.000000
     36         94.001602   0.000000
     37         94.001602   0.000000
     38         96.095662   0.000000
     39         98.276353   0.000000
     40         98.276353   0.000000
     41        102.007982   0.000000
     42        102.008005   0.000000
