 running   42 mpi-ranks, on    1 nodes
 distrk:  each k-point on   42 cores,    1 groups
 distr:  one band on    1 cores,   42 groups
 vasp.6.5.0 16Dec24 (build Jan 08 2025 16:17:04) complex                        
  
 POSCAR found type information on POSCAR Be
 POSCAR found :  1 types and       2 ions
 Reading from existing POTCAR
 scaLAPACK will be used
 -----------------------------------------------------------------------------
|                                                                             |
|           W    W    AA    RRRRR   N    N  II  N    N   GGGG   !!!           |
|           W    W   A  A   R    R  NN   N  II  NN   N  G    G  !!!           |
|           W    W  A    A  R    R  N N  N  II  N N  N  G       !!!           |
|           W WW W  AAAAAA  RRRRR   N  N N  II  N  N N  G  GGG   !            |
|           WW  WW  A    A  R   R   N   NN  II  N   NN  G    G                |
|           W    W  A    A  R    R  N    N  II  N    N   GGGG   !!!           |
|                                                                             |
|     For optimal performance we recommend to set                             |
|       NCORE = 2 up to number-of-cores-per-socket                            |
|     NCORE specifies how many cores store one orbital (NPAR=cpu/NCORE).      |
|     This setting can greatly improve the performance of VASP for DFT.       |
|     The default, NCORE=1 might be grossly inefficient on modern             |
|     multi-core architectures or massively parallel machines. Do your        |
|     own testing! More info at https://www.vasp.at/wiki/index.php/NCORE      |
|     Unfortunately you need to use the default for GW and RPA                |
|     calculations (for HF NCORE is supported but not extensively tested      |
|     yet).                                                                   |
|                                                                             |
 -----------------------------------------------------------------------------

 Reading from existing POTCAR
 LDA part: xc-table for (Slater+PW92), standard interpolation
 POSCAR, INCAR and KPOINTS ok, starting setup
 FFT: planning ... GRIDC
 FFT: planning ... GRID_SOFT
 FFT: planning ... GRID
 WAVECAR not read
 entering main loop
       N       E                     dE             d eps       ncg     rms          ort
DAV:   1     0.382846452941E+01    0.38285E+01   -0.17646E+03  3570   0.867E+01
DAV:   2    -0.354471341588E+01   -0.73732E+01   -0.70152E+01  3570   0.757E+00
DAV:   3    -0.358659642040E+01   -0.41883E-01   -0.41856E-01  3570   0.744E-01
DAV:   4    -0.358672544442E+01   -0.12902E-03   -0.12902E-03  3570   0.453E-02
DAV:   5    -0.358672546758E+01   -0.23159E-07   -0.22611E-07  3570   0.449E-04
 gam= 0.000 g(H,U,f)=  0.758E-01 0.899E-01 0.116E+00 ort(H,U,f) = 0.000E+00 0.000E+00 0.000E+00
SDA:   6    -0.308663839449E+01    0.50009E+00   -0.22611E-07  3570   0.282E+00 0.000E+00
 gam= 0.000 trial= 0.400  step= 0.727 mean= 0.400
 gam= 0.266 g(H,U,f)=  0.770E-02 0.276E-01 0.399E-01 ort(H,U,f) =-0.145E-01 0.537E-01 0.773E-01
CGA:   7    -0.321315343037E+01   -0.12652E+00   -0.10254E+00  3570   0.752E-01 0.116E+00
 gam= 0.266 trial= 0.416  step= 0.880 mean= 0.416
 gam= 0.155 g(H,U,f)=  0.103E-01 0.671E-03 0.656E-03 ort(H,U,f) =-0.332E-02 0.683E-02 0.824E-02
CGA:   8    -0.326446893005E+01   -0.51315E-01   -0.46714E-01  3570   0.116E-01 0.117E-01
 gam= 0.155 trial= 0.440  step= 0.768 mean= 0.440
 gam= 0.094 g(H,U,f)=  0.103E-02 0.378E-04 0.302E-04 ort(H,U,f) = 0.100E-02-0.153E-03-0.363E-03
CGA:   9    -0.326973100092E+01   -0.52621E-02   -0.51698E-02  3570   0.110E-02 0.484E-03
 gam= 0.094 trial= 0.456  step= 0.814 mean= 0.456
 gam= 0.118 g(H,U,f)=  0.864E-04 0.205E-04 0.231E-04 ort(H,U,f) =-0.189E-04 0.104E-04-0.356E-05
CGA:  10    -0.327019508125E+01   -0.46408E-03   -0.46615E-03  3570   0.130E-03-0.121E-04
 gam= 0.118 trial= 0.474  step= 0.919 mean= 0.474
 gam= 0.239 g(H,U,f)=  0.216E-04 0.473E-05 0.469E-05 ort(H,U,f) =-0.252E-04 0.106E-04 0.103E-04
CGA:  11    -0.327025321781E+01   -0.58137E-04   -0.59145E-04  3570   0.310E-04-0.431E-05
 gam= 0.239 trial= 0.496  step= 0.956 mean= 0.496
 final diagonalization
   1 F= -.32702532E+01 E0= -.32692391E+01  d E =-.202815E-02
