   2   2   0   0
  0.2748765E+03  0.3983717E-09  0.3983717E-09  0.4000000E-08  0.5000000E-15
  1.000000000000000E-004
  CAR 
 Convergence                             
     13.71977387     -9.89238442  301     -3.83795990      1.00000000
     -9.892  0.0000E+00  0.0000E+00
     -9.814  0.0000E+00  0.0000E+00
     -9.735  0.0000E+00  0.0000E+00
     -9.656  0.0000E+00  0.0000E+00
     -9.578  0.0000E+00  0.0000E+00
     -9.499  0.0000E+00  0.0000E+00
     -9.420  0.0000E+00  0.0000E+00
     -9.341  0.0000E+00  0.0000E+00
     -9.263  0.0000E+00  0.0000E+00
     -9.184  0.0000E+00  0.0000E+00
     -9.105  0.1102E-15  0.8674E-17
     -9.027  0.8703E-09  0.6850E-10
     -8.948  0.5353E-04  0.4213E-05
     -8.869  0.3103E-01  0.2447E-02
     -8.790  0.2835E+00  0.2476E-01
     -8.712  0.3280E+00  0.5058E-01
     -8.633  0.1737E+01  0.1873E+00
     -8.554  0.3979E+00  0.2186E+00
     -8.476  0.3751E-02  0.2189E+00
     -8.397  0.4313E+00  0.2529E+00
     -8.318  0.1730E+01  0.3890E+00
     -8.240  0.7918E+00  0.4513E+00
     -8.161  0.1657E+01  0.5817E+00
     -8.082  0.1524E+00  0.5937E+00
     -8.003  0.2126E-03  0.5937E+00
     -7.925  0.2462E-04  0.5938E+00
     -7.846  0.6898E-01  0.5992E+00
     -7.767  0.2394E+01  0.7876E+00
     -7.689  0.2246E+01  0.9644E+00
     -7.610  0.5571E-01  0.9688E+00
     -7.531  0.1511E+00  0.9807E+00
     -7.452  0.1655E+01  0.1111E+01
     -7.374  0.5722E+00  0.1156E+01
     -7.295  0.4084E-02  0.1156E+01
     -7.216  0.2712E-05  0.1156E+01
     -7.138  0.1377E-01  0.1157E+01
     -7.059  0.8974E+00  0.1228E+01
     -6.980  0.1602E+01  0.1354E+01
     -6.902  0.3140E+01  0.1601E+01
     -6.823  0.1478E+01  0.1718E+01
     -6.744  0.7841E-01  0.1724E+01
     -6.665  0.8039E+00  0.1787E+01
     -6.587  0.3219E+00  0.1812E+01
     -6.508  0.2761E-02  0.1812E+01
     -6.429  0.1561E-04  0.1813E+01
     -6.351  0.3894E-01  0.1816E+01
     -6.272  0.1238E+01  0.1913E+01
     -6.193  0.1178E+01  0.2006E+01
     -6.114  0.8769E+00  0.2075E+01
     -6.036  0.2401E+00  0.2094E+01
     -5.957  0.4639E-02  0.2094E+01
     -5.878  0.5261E+00  0.2135E+01
     -5.800  0.1682E+01  0.2268E+01
     -5.721  0.3905E+00  0.2299E+01
     -5.642  0.3145E+01  0.2546E+01
     -5.563  0.1387E+01  0.2655E+01
     -5.485  0.1342E-01  0.2656E+01
     -5.406  0.1405E-05  0.2656E+01
     -5.327  0.1538E-08  0.2656E+01
     -5.249  0.1452E-03  0.2656E+01
     -5.170  0.1280E+00  0.2666E+01
     -5.091  0.2025E+01  0.2826E+01
     -5.013  0.2372E+01  0.3012E+01
     -4.934  0.2393E+00  0.3031E+01
     -4.855  0.5204E-03  0.3031E+01
     -4.776  0.7799E-05  0.3031E+01
     -4.698  0.2678E-01  0.3033E+01
     -4.619  0.1111E+01  0.3121E+01
     -4.540  0.1208E+01  0.3216E+01
     -4.462  0.1379E+00  0.3227E+01
     -4.383  0.2665E+01  0.3437E+01
     -4.304  0.2547E+01  0.3637E+01
     -4.225  0.1691E+01  0.3770E+01
     -4.147  0.3543E+00  0.3798E+01
     -4.068  0.1889E+00  0.3813E+01
     -3.989  0.7886E+00  0.3875E+01
     -3.911  0.1502E+01  0.3993E+01
     -3.832  0.8669E-01  0.4000E+01
     -3.753  0.1740E+00  0.4014E+01
     -3.675  0.2008E+01  0.4172E+01
     -3.596  0.5004E+01  0.4566E+01
     -3.517  0.2407E+01  0.4755E+01
     -3.438  0.1567E+01  0.4878E+01
     -3.360  0.8214E+00  0.4943E+01
     -3.281  0.2485E+01  0.5139E+01
     -3.202  0.2552E+01  0.5339E+01
     -3.124  0.2254E+01  0.5517E+01
     -3.045  0.1002E+01  0.5596E+01
     -2.966  0.2883E+01  0.5823E+01
     -2.887  0.4059E+01  0.6142E+01
     -2.809  0.1796E+00  0.6156E+01
     -2.730  0.2633E-01  0.6158E+01
     -2.651  0.1683E+01  0.6291E+01
     -2.573  0.3583E+01  0.6573E+01
     -2.494  0.1743E+01  0.6710E+01
     -2.415  0.2076E+00  0.6726E+01
     -2.336  0.1535E+01  0.6847E+01
     -2.258  0.7530E+00  0.6906E+01
     -2.179  0.8427E+00  0.6973E+01
     -2.100  0.2921E+01  0.7203E+01
     -2.022  0.4051E+01  0.7522E+01
     -1.943  0.2631E+01  0.7729E+01
     -1.864  0.2714E+00  0.7750E+01
     -1.786  0.6237E-02  0.7750E+01
     -1.707  0.3189E+00  0.7776E+01
     -1.628  0.4513E+00  0.7811E+01
     -1.549  0.2068E-01  0.7813E+01
     -1.471  0.4618E+00  0.7849E+01
     -1.392  0.1713E+01  0.7984E+01
     -1.313  0.2044E+00  0.8000E+01
     -1.235  0.3906E-03  0.8000E+01
     -1.156  0.7078E-08  0.8000E+01
     -1.077  0.1058E-14  0.8000E+01
     -0.998  0.0000E+00  0.8000E+01
     -0.920  0.1404E-12  0.8000E+01
     -0.841  0.2466E-06  0.8000E+01
     -0.762  0.3585E-02  0.8000E+01
     -0.684  0.5431E+00  0.8043E+01
     -0.605  0.1672E+01  0.8175E+01
     -0.526  0.2336E+00  0.8193E+01
     -0.448  0.8189E+00  0.8257E+01
     -0.369  0.2999E+00  0.8281E+01
     -0.290  0.8286E-02  0.8282E+01
     -0.211  0.1042E+01  0.8364E+01
     -0.133  0.3677E+01  0.8653E+01
     -0.054  0.4624E+00  0.8690E+01
      0.025  0.1109E+01  0.8777E+01
      0.103  0.1635E+01  0.8906E+01
      0.182  0.1769E+01  0.9045E+01
      0.261  0.4052E+00  0.9077E+01
      0.340  0.3447E+00  0.9104E+01
      0.418  0.2196E+01  0.9277E+01
      0.497  0.4583E+01  0.9637E+01
      0.576  0.2816E+01  0.9859E+01
      0.654  0.2932E+01  0.1009E+02
      0.733  0.7727E+00  0.1015E+02
      0.812  0.2294E+01  0.1033E+02
      0.891  0.3772E+01  0.1063E+02
      0.969  0.2237E+01  0.1080E+02
      1.048  0.2493E+01  0.1100E+02
      1.127  0.5203E+01  0.1141E+02
      1.205  0.9038E+01  0.1212E+02
      1.284  0.4430E+01  0.1247E+02
      1.363  0.3401E+01  0.1274E+02
      1.441  0.3518E+01  0.1301E+02
      1.520  0.2485E+01  0.1321E+02
      1.599  0.3296E+01  0.1347E+02
      1.678  0.5703E+01  0.1392E+02
      1.756  0.6215E+01  0.1441E+02
      1.835  0.4897E+01  0.1479E+02
      1.914  0.3382E+01  0.1506E+02
      1.992  0.7228E+01  0.1563E+02
      2.071  0.1188E+02  0.1656E+02
      2.150  0.5590E+01  0.1700E+02
      2.229  0.3360E+01  0.1727E+02
      2.307  0.2846E+01  0.1749E+02
      2.386  0.1023E+02  0.1830E+02
      2.465  0.1060E+02  0.1913E+02
      2.543  0.8733E+01  0.1982E+02
      2.622  0.1056E+02  0.2065E+02
      2.701  0.6097E+01  0.2113E+02
      2.779  0.7679E+01  0.2173E+02
      2.858  0.4727E+01  0.2211E+02
      2.937  0.7693E+01  0.2271E+02
      3.016  0.6870E+01  0.2325E+02
      3.094  0.5197E+01  0.2366E+02
      3.173  0.9424E+01  0.2440E+02
      3.252  0.6986E+01  0.2495E+02
      3.330  0.6732E+01  0.2548E+02
      3.409  0.9755E+01  0.2625E+02
      3.488  0.5296E+01  0.2667E+02
      3.567  0.1134E+02  0.2756E+02
      3.645  0.6222E+01  0.2805E+02
      3.724  0.5979E+01  0.2852E+02
      3.803  0.1466E+02  0.2967E+02
      3.881  0.5877E+01  0.3014E+02
      3.960  0.4822E+01  0.3052E+02
      4.039  0.5857E+01  0.3098E+02
      4.117  0.9266E+01  0.3171E+02
      4.196  0.6773E+01  0.3224E+02
      4.275  0.4821E+01  0.3262E+02
      4.354  0.1674E+02  0.3394E+02
      4.432  0.1465E+02  0.3509E+02
      4.511  0.9936E+01  0.3587E+02
      4.590  0.7773E+01  0.3648E+02
      4.668  0.7134E+01  0.3704E+02
      4.747  0.8922E+01  0.3775E+02
      4.826  0.1007E+02  0.3854E+02
      4.905  0.9800E+01  0.3931E+02
      4.983  0.6524E+01  0.3982E+02
      5.062  0.1932E+01  0.3998E+02
      5.141  0.4127E+01  0.4030E+02
      5.219  0.4870E+01  0.4068E+02
      5.298  0.1066E+02  0.4152E+02
      5.377  0.8172E+01  0.4217E+02
      5.456  0.1351E+02  0.4323E+02
      5.534  0.1759E+02  0.4461E+02
      5.613  0.9874E+01  0.4539E+02
      5.692  0.6131E+01  0.4587E+02
      5.770  0.5889E+01  0.4634E+02
      5.849  0.6000E+01  0.4681E+02
      5.928  0.1561E+02  0.4804E+02
      6.006  0.1181E+02  0.4897E+02
      6.085  0.9611E+01  0.4972E+02
      6.164  0.6009E+01  0.5020E+02
      6.243  0.5206E+01  0.5061E+02
      6.321  0.7371E+01  0.5119E+02
      6.400  0.1038E+02  0.5200E+02
      6.479  0.1492E+02  0.5318E+02
      6.557  0.1256E+02  0.5417E+02
      6.636  0.1198E+02  0.5511E+02
      6.715  0.1211E+02  0.5606E+02
      6.794  0.1316E+02  0.5710E+02
      6.872  0.1311E+02  0.5813E+02
      6.951  0.5669E+01  0.5858E+02
      7.030  0.5371E+01  0.5900E+02
      7.108  0.7083E+01  0.5956E+02
      7.187  0.1132E+02  0.6045E+02
      7.266  0.1327E+02  0.6149E+02
      7.344  0.6284E+01  0.6199E+02
      7.423  0.1259E+02  0.6298E+02
      7.502  0.1024E+02  0.6378E+02
      7.581  0.7416E+01  0.6437E+02
      7.659  0.9754E+01  0.6514E+02
      7.738  0.1472E+02  0.6629E+02
      7.817  0.1421E+02  0.6741E+02
      7.895  0.1309E+02  0.6844E+02
      7.974  0.9051E+01  0.6916E+02
      8.053  0.9434E+01  0.6990E+02
      8.132  0.1319E+02  0.7094E+02
      8.210  0.1278E+02  0.7194E+02
      8.289  0.6850E+01  0.7248E+02
      8.368  0.1596E+02  0.7374E+02
      8.446  0.9559E+01  0.7449E+02
      8.525  0.3173E+01  0.7474E+02
      8.604  0.4434E+01  0.7509E+02
      8.683  0.4701E+01  0.7546E+02
      8.761  0.3549E+01  0.7574E+02
      8.840  0.3722E+01  0.7603E+02
      8.919  0.7412E+01  0.7661E+02
      8.997  0.1281E+02  0.7762E+02
      9.076  0.7246E+01  0.7819E+02
      9.155  0.4165E+01  0.7852E+02
      9.233  0.5977E+01  0.7899E+02
      9.312  0.5854E+01  0.7945E+02
      9.391  0.5538E+01  0.7989E+02
      9.470  0.2710E+01  0.8010E+02
      9.548  0.3655E+01  0.8039E+02
      9.627  0.2742E+01  0.8060E+02
      9.706  0.3487E+01  0.8088E+02
      9.784  0.1728E+01  0.8101E+02
      9.863  0.2200E+01  0.8119E+02
      9.942  0.3124E+01  0.8143E+02
     10.021  0.2549E+01  0.8163E+02
     10.099  0.4733E+01  0.8201E+02
     10.178  0.1876E+01  0.8215E+02
     10.257  0.6958E-01  0.8216E+02
     10.335  0.2088E+01  0.8232E+02
     10.414  0.2570E+01  0.8253E+02
     10.493  0.5690E+00  0.8257E+02
     10.571  0.2842E+00  0.8259E+02
     10.650  0.1334E+00  0.8260E+02
     10.729  0.1739E+01  0.8274E+02
     10.808  0.2219E+01  0.8292E+02
     10.886  0.4400E+01  0.8326E+02
     10.965  0.3240E+01  0.8352E+02
     11.044  0.5866E+00  0.8356E+02
     11.122  0.2434E+00  0.8358E+02
     11.201  0.9783E+00  0.8366E+02
     11.280  0.1473E+01  0.8378E+02
     11.359  0.7827E-01  0.8378E+02
     11.437  0.5692E-04  0.8378E+02
     11.516  0.3724E-09  0.8378E+02
     11.595  0.0000E+00  0.8378E+02
     11.673  0.0000E+00  0.8378E+02
     11.752  0.3394E-14  0.8378E+02
     11.831  0.1252E-07  0.8378E+02
     11.910  0.3750E-03  0.8378E+02
     11.988  0.1108E+00  0.8379E+02
     12.067  0.5829E+00  0.8384E+02
     12.146  0.9971E-01  0.8384E+02
     12.224  0.2527E-02  0.8384E+02
     12.303  0.2309E+00  0.8386E+02
     12.382  0.5246E+00  0.8390E+02
     12.460  0.1046E+00  0.8391E+02
     12.539  0.4225E+00  0.8394E+02
     12.618  0.3723E+00  0.8397E+02
     12.697  0.2970E+00  0.8400E+02
     12.775  0.3104E-01  0.8400E+02
     12.854  0.5353E-04  0.8400E+02
     12.933  0.8703E-09  0.8400E+02
     13.011  0.8816E-16  0.8400E+02
     13.090  0.0000E+00  0.8400E+02
     13.169  0.0000E+00  0.8400E+02
     13.248  0.0000E+00  0.8400E+02
     13.326  0.0000E+00  0.8400E+02
     13.405  0.0000E+00  0.8400E+02
     13.484  0.0000E+00  0.8400E+02
     13.562  0.0000E+00  0.8400E+02
     13.641  0.0000E+00  0.8400E+02
     13.720  0.0000E+00  0.8400E+02
