  14  14   0   0
  0.5449994E+02  0.4367491E-09  0.4367491E-09  0.4000000E-08  0.5000000E-15
  1.000000000000000E-004
  CAR 
 Geometry                                
      3.61764739    -14.55476184  301     -3.52384394      1.00000000
    -14.555  0.0000E+00  0.0000E+00
    -14.494  0.0000E+00  0.0000E+00
    -14.434  0.0000E+00  0.0000E+00
    -14.373  0.0000E+00  0.0000E+00
    -14.312  0.0000E+00  0.0000E+00
    -14.252  0.0000E+00  0.0000E+00
    -14.191  0.0000E+00  0.0000E+00
    -14.131  0.0000E+00  0.0000E+00
    -14.070  0.0000E+00  0.0000E+00
    -14.010  0.8548E-18  0.5178E-19
    -13.949  0.2439E-12  0.1477E-13
    -13.888  0.4362E-08  0.2642E-09
    -13.828  0.5129E-05  0.3110E-06
    -13.767  0.4724E-03  0.2892E-04
    -13.707  0.4884E-02  0.3248E-03
    -13.646  0.1061E-01  0.9672E-03
    -13.586  0.1167E-01  0.1674E-02
    -13.525  0.1172E-01  0.2384E-02
    -13.464  0.1163E-01  0.3089E-02
    -13.404  0.1167E-01  0.3795E-02
    -13.343  0.1188E-01  0.4515E-02
    -13.283  0.1130E-01  0.5199E-02
    -13.222  0.1217E-01  0.5936E-02
    -13.162  0.1114E-01  0.6611E-02
    -13.101  0.1223E-01  0.7352E-02
    -13.040  0.1121E-01  0.8031E-02
    -12.980  0.1183E-01  0.8748E-02
    -12.919  0.1204E-01  0.9477E-02
    -12.859  0.1080E-01  0.1013E-01
    -12.798  0.1254E-01  0.1089E-01
    -12.738  0.1163E-01  0.1160E-01
    -12.677  0.1035E-01  0.1222E-01
    -12.616  0.1380E-01  0.1306E-01
    -12.556  0.1032E-01  0.1368E-01
    -12.495  0.1126E-01  0.1437E-01
    -12.435  0.1309E-01  0.1516E-01
    -12.374  0.1138E-01  0.1585E-01
    -12.313  0.1015E-01  0.1646E-01
    -12.253  0.1256E-01  0.1722E-01
    -12.192  0.1319E-01  0.1802E-01
    -12.132  0.9036E-02  0.1857E-01
    -12.071  0.1213E-01  0.1930E-01
    -12.011  0.1372E-01  0.2014E-01
    -11.950  0.1024E-01  0.2076E-01
    -11.889  0.1104E-01  0.2142E-01
    -11.829  0.1181E-01  0.2214E-01
    -11.768  0.1321E-01  0.2294E-01
    -11.708  0.1155E-01  0.2364E-01
    -11.647  0.9239E-02  0.2420E-01
    -11.587  0.1247E-01  0.2495E-01
    -11.526  0.1449E-01  0.2583E-01
    -11.465  0.9976E-02  0.2644E-01
    -11.405  0.9672E-02  0.2702E-01
    -11.344  0.1314E-01  0.2782E-01
    -11.284  0.1301E-01  0.2861E-01
    -11.223  0.1120E-01  0.2928E-01
    -11.163  0.1112E-01  0.2996E-01
    -11.102  0.1031E-01  0.3058E-01
    -11.041  0.1276E-01  0.3136E-01
    -10.981  0.1405E-01  0.3221E-01
    -10.920  0.1112E-01  0.3288E-01
    -10.860  0.1131E-01  0.3356E-01
    -10.799  0.2229E-01  0.3491E-01
    -10.739  0.2637E-01  0.3651E-01
    -10.678  0.2363E-01  0.3794E-01
    -10.617  0.2121E-01  0.3923E-01
    -10.557  0.2381E-01  0.4067E-01
    -10.496  0.2206E-01  0.4201E-01
    -10.436  0.2490E-01  0.4352E-01
    -10.375  0.2422E-01  0.4498E-01
    -10.315  0.2376E-01  0.4642E-01
    -10.254  0.2177E-01  0.4774E-01
    -10.193  0.2220E-01  0.4908E-01
    -10.133  0.2772E-01  0.5076E-01
    -10.072  0.2579E-01  0.5233E-01
    -10.012  0.2167E-01  0.5364E-01
     -9.951  0.2193E-01  0.5497E-01
     -9.891  0.2492E-01  0.5648E-01
     -9.830  0.2880E-01  0.5822E-01
     -9.769  0.2641E-01  0.5982E-01
     -9.709  0.2348E-01  0.6124E-01
     -9.648  0.2396E-01  0.6269E-01
     -9.588  0.2279E-01  0.6407E-01
     -9.527  0.2427E-01  0.6554E-01
     -9.466  0.2264E-01  0.6692E-01
     -9.406  0.2209E-01  0.6825E-01
     -9.345  0.1890E-01  0.6940E-01
     -9.285  0.1731E-01  0.7045E-01
     -9.224  0.2604E-01  0.7202E-01
     -9.164  0.2527E-01  0.7355E-01
     -9.103  0.2593E-01  0.7513E-01
     -9.042  0.2469E-01  0.7662E-01
     -8.982  0.2250E-01  0.7798E-01
     -8.921  0.2660E-01  0.7960E-01
     -8.861  0.3068E-01  0.8145E-01
     -8.800  0.2694E-01  0.8309E-01
     -8.740  0.2452E-01  0.8457E-01
     -8.679  0.2521E-01  0.8610E-01
     -8.618  0.2613E-01  0.8768E-01
     -8.558  0.2479E-01  0.8918E-01
     -8.497  0.2121E-01  0.9047E-01
     -8.437  0.2347E-01  0.9189E-01
     -8.376  0.2225E-01  0.9324E-01
     -8.316  0.2283E-01  0.9462E-01
     -8.255  0.2415E-01  0.9608E-01
     -8.194  0.2185E-01  0.9741E-01
     -8.134  0.2262E-01  0.9878E-01
     -8.073  0.2870E-01  0.1005E+00
     -8.013  0.4247E-01  0.1031E+00
     -7.952  0.4285E-01  0.1057E+00
     -7.892  0.3207E-01  0.1076E+00
     -7.831  0.3419E-01  0.1097E+00
     -7.770  0.3904E-01  0.1121E+00
     -7.710  0.3423E-01  0.1141E+00
     -7.649  0.3088E-01  0.1160E+00
     -7.589  0.3228E-01  0.1180E+00
     -7.528  0.3699E-01  0.1202E+00
     -7.468  0.4739E-01  0.1231E+00
     -7.407  0.4905E-01  0.1260E+00
     -7.346  0.3544E-01  0.1282E+00
     -7.286  0.3318E-01  0.1302E+00
     -7.225  0.3900E-01  0.1326E+00
     -7.165  0.3911E-01  0.1349E+00
     -7.104  0.4106E-01  0.1374E+00
     -7.043  0.4489E-01  0.1401E+00
     -6.983  0.4864E-01  0.1431E+00
     -6.922  0.5474E-01  0.1464E+00
     -6.862  0.5192E-01  0.1495E+00
     -6.801  0.4449E-01  0.1522E+00
     -6.741  0.3807E-01  0.1545E+00
     -6.680  0.4342E-01  0.1572E+00
     -6.619  0.3318E-01  0.1592E+00
     -6.559  0.2966E-01  0.1610E+00
     -6.498  0.3314E-01  0.1630E+00
     -6.438  0.3025E-01  0.1648E+00
     -6.377  0.3816E-01  0.1671E+00
     -6.317  0.4601E-01  0.1699E+00
     -6.256  0.5169E-01  0.1731E+00
     -6.195  0.6199E-01  0.1768E+00
     -6.135  0.5901E-01  0.1804E+00
     -6.074  0.5525E-01  0.1837E+00
     -6.014  0.6096E-01  0.1874E+00
     -5.953  0.6995E-01  0.1917E+00
     -5.893  0.4373E-01  0.1943E+00
     -5.832  0.2066E-01  0.1956E+00
     -5.771  0.2902E-01  0.1973E+00
     -5.711  0.3016E-01  0.1991E+00
     -5.650  0.2069E-01  0.2004E+00
     -5.590  0.1992E-01  0.2016E+00
     -5.529  0.3478E-01  0.2037E+00
     -5.469  0.4452E-01  0.2064E+00
     -5.408  0.3094E-01  0.2083E+00
     -5.347  0.2289E-01  0.2097E+00
     -5.287  0.3366E-01  0.2117E+00
     -5.226  0.3621E-01  0.2139E+00
     -5.166  0.2075E-01  0.2152E+00
     -5.105  0.2316E-01  0.2166E+00
     -5.045  0.2921E-01  0.2183E+00
     -4.984  0.2718E-01  0.2200E+00
     -4.923  0.2858E-01  0.2217E+00
     -4.863  0.2414E-01  0.2232E+00
     -4.802  0.2228E-01  0.2245E+00
     -4.742  0.3512E-01  0.2266E+00
     -4.681  0.3311E-01  0.2287E+00
     -4.621  0.2453E-01  0.2301E+00
     -4.560  0.2604E-01  0.2317E+00
     -4.499  0.2641E-01  0.2333E+00
     -4.439  0.2994E-01  0.2351E+00
     -4.378  0.2213E-01  0.2365E+00
     -4.318  0.2219E-01  0.2378E+00
     -4.257  0.2461E-01  0.2393E+00
     -4.196  0.2543E-01  0.2408E+00
     -4.136  0.2206E-01  0.2422E+00
     -4.075  0.2402E-01  0.2436E+00
     -4.015  0.2359E-01  0.2451E+00
     -3.954  0.2503E-01  0.2466E+00
     -3.894  0.2219E-01  0.2479E+00
     -3.833  0.2656E-01  0.2495E+00
     -3.772  0.3793E-01  0.2518E+00
     -3.712  0.4224E-01  0.2544E+00
     -3.651  0.3759E-01  0.2567E+00
     -3.591  0.3299E-01  0.2587E+00
     -3.530  0.2042E-01  0.2599E+00
     -3.470  0.1829E-01  0.2610E+00
     -3.409  0.2876E-01  0.2628E+00
     -3.348  0.2278E-01  0.2641E+00
     -3.288  0.1890E-01  0.2653E+00
     -3.227  0.1274E-01  0.2660E+00
     -3.167  0.1063E-01  0.2667E+00
     -3.106  0.1746E-01  0.2678E+00
     -3.046  0.1666E-01  0.2688E+00
     -2.985  0.9405E-02  0.2693E+00
     -2.924  0.1080E-01  0.2700E+00
     -2.864  0.1353E-01  0.2708E+00
     -2.803  0.1769E-01  0.2719E+00
     -2.743  0.1948E-01  0.2731E+00
     -2.682  0.2769E-01  0.2747E+00
     -2.622  0.2864E-01  0.2765E+00
     -2.561  0.2721E-01  0.2781E+00
     -2.500  0.2362E-01  0.2795E+00
     -2.440  0.2341E-01  0.2810E+00
     -2.379  0.2681E-01  0.2826E+00
     -2.319  0.2521E-01  0.2841E+00
     -2.258  0.2836E-01  0.2858E+00
     -2.198  0.3313E-01  0.2878E+00
     -2.137  0.3961E-01  0.2902E+00
     -2.076  0.3756E-01  0.2925E+00
     -2.016  0.2615E-01  0.2941E+00
     -1.955  0.2156E-01  0.2954E+00
     -1.895  0.2513E-01  0.2969E+00
     -1.834  0.3497E-01  0.2990E+00
     -1.774  0.3709E-01  0.3013E+00
     -1.713  0.3695E-01  0.3035E+00
     -1.652  0.3866E-01  0.3059E+00
     -1.592  0.4066E-01  0.3083E+00
     -1.531  0.3503E-01  0.3105E+00
     -1.471  0.4271E-01  0.3130E+00
     -1.410  0.5030E-01  0.3161E+00
     -1.349  0.4835E-01  0.3190E+00
     -1.289  0.4852E-01  0.3220E+00
     -1.228  0.5720E-01  0.3254E+00
     -1.168  0.6403E-01  0.3293E+00
     -1.107  0.6927E-01  0.3335E+00
     -1.047  0.6161E-01  0.3372E+00
     -0.986  0.4827E-01  0.3402E+00
     -0.925  0.4407E-01  0.3428E+00
     -0.865  0.4002E-01  0.3452E+00
     -0.804  0.3336E-01  0.3473E+00
     -0.744  0.4397E-01  0.3499E+00
     -0.683  0.4935E-01  0.3529E+00
     -0.623  0.3968E-01  0.3553E+00
     -0.562  0.4169E-01  0.3579E+00
     -0.501  0.3624E-01  0.3600E+00
     -0.441  0.2118E-01  0.3613E+00
     -0.380  0.1963E-01  0.3625E+00
     -0.320  0.2425E-01  0.3640E+00
     -0.259  0.2750E-01  0.3657E+00
     -0.199  0.1985E-01  0.3669E+00
     -0.138  0.1873E-01  0.3680E+00
     -0.077  0.3214E-01  0.3699E+00
     -0.017  0.4610E-01  0.3727E+00
      0.044  0.6526E-01  0.3767E+00
      0.104  0.5423E-01  0.3800E+00
      0.165  0.4550E-01  0.3827E+00
      0.225  0.4969E-01  0.3857E+00
      0.286  0.3883E-01  0.3881E+00
      0.347  0.3609E-01  0.3903E+00
      0.407  0.3982E-01  0.3927E+00
      0.468  0.4579E-01  0.3955E+00
      0.528  0.4428E-01  0.3981E+00
      0.589  0.2819E-01  0.3998E+00
      0.649  0.2313E-01  0.4012E+00
      0.710  0.2390E-01  0.4027E+00
      0.771  0.2785E-01  0.4044E+00
      0.831  0.4224E-01  0.4069E+00
      0.892  0.5420E-01  0.4102E+00
      0.952  0.5216E-01  0.4134E+00
      1.013  0.4384E-01  0.4160E+00
      1.074  0.4266E-01  0.4186E+00
      1.134  0.4135E-01  0.4211E+00
      1.195  0.4250E-01  0.4237E+00
      1.255  0.4174E-01  0.4262E+00
      1.316  0.4262E-01  0.4288E+00
      1.376  0.3922E-01  0.4312E+00
      1.437  0.3420E-01  0.4333E+00
      1.498  0.4331E-01  0.4359E+00
      1.558  0.4335E-01  0.4385E+00
      1.619  0.4008E-01  0.4409E+00
      1.679  0.3609E-01  0.4431E+00
      1.740  0.3784E-01  0.4454E+00
      1.800  0.4309E-01  0.4480E+00
      1.861  0.4542E-01  0.4508E+00
      1.922  0.4630E-01  0.4536E+00
      1.982  0.4975E-01  0.4566E+00
      2.043  0.5149E-01  0.4597E+00
      2.103  0.4661E-01  0.4625E+00
      2.164  0.4828E-01  0.4655E+00
      2.224  0.5241E-01  0.4686E+00
      2.285  0.5129E-01  0.4717E+00
      2.346  0.3899E-01  0.4741E+00
      2.406  0.2705E-01  0.4757E+00
      2.467  0.1721E-01  0.4768E+00
      2.527  0.1841E-01  0.4779E+00
      2.588  0.1907E-01  0.4791E+00
      2.648  0.8612E-02  0.4796E+00
      2.709  0.3301E-02  0.4798E+00
      2.770  0.2041E-02  0.4799E+00
      2.830  0.1343E-02  0.4800E+00
      2.891  0.2499E-03  0.4800E+00
      2.951  0.4578E-05  0.4800E+00
      3.012  0.5684E-08  0.4800E+00
      3.072  0.4219E-12  0.4800E+00
      3.133  0.1810E-17  0.4800E+00
      3.194  0.0000E+00  0.4800E+00
      3.254  0.0000E+00  0.4800E+00
      3.315  0.0000E+00  0.4800E+00
      3.375  0.0000E+00  0.4800E+00
      3.436  0.0000E+00  0.4800E+00
      3.496  0.0000E+00  0.4800E+00
      3.557  0.0000E+00  0.4800E+00
      3.618  0.0000E+00  0.4800E+00
