cubic-beryllene trilayer full top-hollow
   1.00000000000000     
     2.2336588700871252    0.0000000000000000    0.0000000000000000
     0.0000000000000000    2.2336588700871265    0.0000000000000000
     0.0000000000000000    0.0000000000000000   40.0000000000000000
   Be    H
   3     2
Direct
     0.0000000000000000    0.0000000000000000    0.1412967306161161
     0.5000000000000000    0.5000000000000000    0.1017665979238662
     1.0000000000000000    1.0000000000000000    0.0599189320918973
     0.0000000000000000    1.0000000000000000    0.1760337251170233
     0.5000000000000000    0.5000000000000000    0.0409840142511073
