       N       E                     dE             d eps       ncg     rms          ort
DAV:   1     0.192677151657E+01    0.19268E+01   -0.27552E+03109242   0.130E+02
DAV:   2    -0.109434875731E+02   -0.12870E+02   -0.12399E+02109242   0.164E+01
DAV:   3    -0.109902780086E+02   -0.46790E-01   -0.46787E-01109242   0.109E+00
DAV:   4    -0.109904078240E+02   -0.12982E-03   -0.12982E-03109242   0.633E-02
DAV:   5    -0.109904078328E+02   -0.87675E-08   -0.88997E-08109242   0.435E-04
SDA:   6    -0.670950237768E+01    0.42809E+01   -0.88997E-08109242   0.676E+01 0.000E+00
CGA:   7    -0.881816685824E+01   -0.21087E+01   -0.35904E+01109242   0.257E+01-0.434E+01
CGA:   8    -0.957091900114E+01   -0.75275E+00   -0.76872E+00109242   0.918E-01-0.130E+00
CGA:   9    -0.959560375445E+01   -0.24685E-01   -0.24658E-01109242   0.844E-02 0.509E-03
CGA:  10    -0.959873409323E+01   -0.31303E-02   -0.31247E-02109242   0.206E-02 0.642E-04
CGA:  11    -0.959982510215E+01   -0.10910E-02   -0.10876E-02109242   0.610E-03 0.161E-06
CGA:  12    -0.960007041003E+01   -0.24531E-03   -0.24539E-03109242   0.884E-04-0.981E-06
CGA:  13    -0.960010865067E+01   -0.38241E-04   -0.38232E-04109242   0.185E-04 0.106E-06
CGA:  14    -0.960011737272E+01   -0.87221E-05   -0.87191E-05109242   0.347E-05 0.123E-07
CGA:  15    -0.960011892177E+01   -0.15490E-05   -0.15515E-05109242   0.608E-06-0.127E-07
CGA:  16    -0.960011921319E+01   -0.29142E-06   -0.29140E-06109242   0.110E-06 0.923E-09
   1 F= -.96001192E+01 E0= -.95994091E+01  d E =-.142019E-02
