       N       E                     dE             d eps       ncg     rms          rms(c)
DAV:   1    -0.114905318137E+02   -0.11491E+02   -0.86370E+00 44856   0.393E-01    0.303E+00
DAV:   2    -0.102281418892E+02    0.12624E+01   -0.47486E+00 44142   0.290E-01    0.121E+00
DAV:   3    -0.100666121077E+02    0.16153E+00   -0.29875E-01 48720   0.750E-02    0.593E-01
DAV:   4    -0.100131411343E+02    0.53471E-01   -0.83836E-02 46536   0.455E-02    0.174E-01
DAV:   5    -0.100075661779E+02    0.55750E-02   -0.80008E-03 48426   0.157E-02    0.864E-02
DAV:   6    -0.100053187858E+02    0.22474E-02   -0.10895E-02 47964   0.142E-02    0.475E-02
DAV:   7    -0.100062316453E+02   -0.91286E-03   -0.56634E-04 46074   0.403E-03    0.251E-02
DAV:   8    -0.100068795805E+02   -0.64794E-03   -0.69388E-04 46158   0.427E-03    0.146E-02
DAV:   9    -0.100074265141E+02   -0.54693E-03   -0.85383E-05 44478   0.193E-03    0.482E-03
DAV:  10    -0.100075533733E+02   -0.12686E-03   -0.12825E-05 44394   0.550E-04    0.369E-03
DAV:  11    -0.100076923081E+02   -0.13893E-03   -0.18871E-05 44436   0.606E-04    0.124E-03
DAV:  12    -0.100077305348E+02   -0.38227E-04   -0.29550E-06 42966   0.151E-04    0.665E-04
DAV:  13    -0.100077457848E+02   -0.15250E-04   -0.93938E-07 44058   0.104E-04    0.322E-04
DAV:  14    -0.100077536388E+02   -0.78540E-05   -0.32132E-07 44268   0.440E-05    0.129E-04
DAV:  15    -0.100077552758E+02   -0.16370E-05   -0.97421E-09 46284   0.123E-05    0.628E-05
DAV:  16    -0.100077557877E+02   -0.51189E-06   -0.76350E-09 45318   0.737E-06
   1 F= -.10007756E+02 E0= -.10007703E+02  d E =-.105020E-03
 imaginary and real dielectric function
