   2   2   0   0
  0.1256248E+03  0.2506240E-09  0.2506240E-09  0.4000000E-08  0.5000000E-15
  1.000000000000000E-004
  CAR 
 Convergence                             
     23.49656052    -12.76052436  301     -2.75365888      1.00000000
    -12.761  0.0000E+00  0.0000E+00
    -12.640  0.0000E+00  0.0000E+00
    -12.519  0.0000E+00  0.0000E+00
    -12.398  0.0000E+00  0.0000E+00
    -12.277  0.0000E+00  0.0000E+00
    -12.156  0.0000E+00  0.0000E+00
    -12.035  0.0000E+00  0.0000E+00
    -11.915  0.0000E+00  0.0000E+00
    -11.794  0.0000E+00  0.0000E+00
    -11.673  0.0000E+00  0.0000E+00
    -11.552  0.0000E+00  0.0000E+00
    -11.431  0.0000E+00  0.0000E+00
    -11.310  0.1998E-09  0.2414E-10
    -11.189  0.5433E-03  0.6566E-04
    -11.069  0.1337E+00  0.1623E-01
    -10.948  0.3477E+00  0.5824E-01
    -10.827  0.3493E+00  0.1005E+00
    -10.706  0.3532E+00  0.1431E+00
    -10.585  0.3702E+00  0.1879E+00
    -10.464  0.3657E+00  0.2321E+00
    -10.343  0.3161E+00  0.2703E+00
    -10.223  0.3829E+00  0.3166E+00
    -10.102  0.3314E+00  0.3566E+00
     -9.981  0.3792E+00  0.4024E+00
     -9.860  0.3551E+00  0.4454E+00
     -9.739  0.3406E+00  0.4865E+00
     -9.618  0.3423E+00  0.5279E+00
     -9.497  0.4067E+00  0.5770E+00
     -9.377  0.2649E+00  0.6090E+00
     -9.256  0.4693E+00  0.6658E+00
     -9.135  0.2767E+00  0.6992E+00
     -9.014  0.3995E+00  0.7475E+00
     -8.893  0.3534E+00  0.7902E+00
     -8.772  0.2960E+00  0.8260E+00
     -8.651  0.4120E+00  0.8758E+00
     -8.531  0.3910E+00  0.9230E+00
     -8.410  0.2558E+00  0.9539E+00
     -8.289  0.4569E+00  0.1009E+01
     -8.168  0.3128E+00  0.1047E+01
     -8.047  0.3562E+00  0.1090E+01
     -7.926  0.3783E+00  0.1136E+01
     -7.805  0.3999E+00  0.1184E+01
     -7.685  0.2922E+00  0.1219E+01
     -7.564  0.3953E+00  0.1267E+01
     -7.443  0.4014E+00  0.1316E+01
     -7.322  0.3054E+00  0.1353E+01
     -7.201  0.3473E+00  0.1395E+01
     -7.080  0.4295E+00  0.1446E+01
     -6.959  0.4146E+00  0.1497E+01
     -6.839  0.2620E+00  0.1528E+01
     -6.718  0.4001E+00  0.1577E+01
     -6.597  0.4673E+00  0.1633E+01
     -6.476  0.2744E+00  0.1666E+01
     -6.355  0.4215E+00  0.1717E+01
     -6.234  0.7721E+00  0.1810E+01
     -6.113  0.7134E+00  0.1897E+01
     -5.993  0.6881E+00  0.1980E+01
     -5.872  0.6701E+00  0.2061E+01
     -5.751  0.7822E+00  0.2155E+01
     -5.630  0.7690E+00  0.2248E+01
     -5.509  0.6902E+00  0.2332E+01
     -5.388  0.7547E+00  0.2423E+01
     -5.267  0.8711E+00  0.2528E+01
     -5.147  0.6118E+00  0.2602E+01
     -5.026  0.9869E+00  0.2721E+01
     -4.905  0.8102E+00  0.2819E+01
     -4.784  0.9736E+00  0.2937E+01
     -4.663  0.1168E+01  0.3078E+01
     -4.542  0.9060E+00  0.3188E+01
     -4.421  0.8484E+00  0.3290E+01
     -4.301  0.5958E+00  0.3362E+01
     -4.180  0.7887E+00  0.3458E+01
     -4.059  0.5665E+00  0.3526E+01
     -3.938  0.7526E+00  0.3617E+01
     -3.817  0.5732E+00  0.3686E+01
     -3.696  0.5259E+00  0.3750E+01
     -3.575  0.4354E+00  0.3802E+01
     -3.455  0.3139E+00  0.3840E+01
     -3.334  0.3627E+00  0.3884E+01
     -3.213  0.1925E+00  0.3907E+01
     -3.092  0.2558E+00  0.3938E+01
     -2.971  0.1524E+00  0.3957E+01
     -2.850  0.1763E+00  0.3978E+01
     -2.729  0.2610E+00  0.4010E+01
     -2.609  0.3436E+00  0.4051E+01
     -2.488  0.3448E+00  0.4093E+01
     -2.367  0.7371E+00  0.4182E+01
     -2.246  0.1051E+01  0.4309E+01
     -2.125  0.1355E+01  0.4473E+01
     -2.004  0.1208E+01  0.4619E+01
     -1.883  0.1199E+01  0.4764E+01
     -1.763  0.1286E+01  0.4919E+01
     -1.642  0.7311E+00  0.5007E+01
     -1.521  0.7745E+00  0.5101E+01
     -1.400  0.1257E+01  0.5253E+01
     -1.279  0.1037E+01  0.5378E+01
     -1.158  0.6595E+00  0.5458E+01
     -1.037  0.7566E+00  0.5549E+01
     -0.917  0.9666E+00  0.5666E+01
     -0.796  0.1195E+01  0.5811E+01
     -0.675  0.7609E+00  0.5903E+01
     -0.554  0.8691E+00  0.6008E+01
     -0.433  0.7647E+00  0.6100E+01
     -0.312  0.1041E+01  0.6226E+01
     -0.191  0.1391E+01  0.6394E+01
     -0.071  0.1108E+01  0.6528E+01
      0.050  0.8908E+00  0.6636E+01
      0.171  0.8106E+00  0.6734E+01
      0.292  0.8568E+00  0.6837E+01
      0.413  0.1121E+01  0.6973E+01
      0.534  0.1051E+01  0.7100E+01
      0.655  0.7418E+00  0.7189E+01
      0.775  0.1316E+01  0.7348E+01
      0.896  0.1679E+01  0.7551E+01
      1.017  0.1662E+01  0.7752E+01
      1.138  0.1355E+01  0.7916E+01
      1.259  0.1676E+01  0.8119E+01
      1.380  0.1554E+01  0.8306E+01
      1.501  0.2144E+01  0.8565E+01
      1.621  0.1980E+01  0.8805E+01
      1.742  0.2044E+01  0.9052E+01
      1.863  0.2227E+01  0.9321E+01
      1.984  0.1919E+01  0.9553E+01
      2.105  0.2271E+01  0.9827E+01
      2.226  0.2419E+01  0.1012E+02
      2.347  0.2602E+01  0.1043E+02
      2.467  0.2911E+01  0.1079E+02
      2.588  0.2967E+01  0.1114E+02
      2.709  0.2867E+01  0.1149E+02
      2.830  0.3853E+01  0.1196E+02
      2.951  0.3716E+01  0.1241E+02
      3.072  0.3492E+01  0.1283E+02
      3.193  0.4242E+01  0.1334E+02
      3.313  0.3527E+01  0.1377E+02
      3.434  0.3194E+01  0.1415E+02
      3.555  0.3944E+01  0.1463E+02
      3.676  0.3509E+01  0.1505E+02
      3.797  0.3964E+01  0.1553E+02
      3.918  0.4245E+01  0.1605E+02
      4.039  0.3743E+01  0.1650E+02
      4.159  0.4563E+01  0.1705E+02
      4.280  0.4239E+01  0.1756E+02
      4.401  0.3977E+01  0.1804E+02
      4.522  0.4441E+01  0.1858E+02
      4.643  0.4493E+01  0.1912E+02
      4.764  0.3974E+01  0.1960E+02
      4.885  0.3964E+01  0.2008E+02
      5.005  0.3892E+01  0.2055E+02
      5.126  0.4471E+01  0.2109E+02
      5.247  0.4662E+01  0.2166E+02
      5.368  0.4458E+01  0.2219E+02
      5.489  0.4374E+01  0.2272E+02
      5.610  0.4765E+01  0.2330E+02
      5.731  0.4764E+01  0.2387E+02
      5.851  0.4734E+01  0.2445E+02
      5.972  0.4499E+01  0.2499E+02
      6.093  0.4007E+01  0.2547E+02
      6.214  0.4916E+01  0.2607E+02
      6.335  0.4827E+01  0.2665E+02
      6.456  0.4540E+01  0.2720E+02
      6.577  0.4199E+01  0.2771E+02
      6.697  0.3890E+01  0.2818E+02
      6.818  0.5244E+01  0.2881E+02
      6.939  0.4660E+01  0.2938E+02
      7.060  0.5201E+01  0.3000E+02
      7.181  0.4806E+01  0.3058E+02
      7.302  0.5516E+01  0.3125E+02
      7.423  0.4728E+01  0.3182E+02
      7.543  0.4938E+01  0.3242E+02
      7.664  0.5337E+01  0.3306E+02
      7.785  0.4374E+01  0.3359E+02
      7.906  0.5402E+01  0.3425E+02
      8.027  0.4999E+01  0.3485E+02
      8.148  0.5857E+01  0.3556E+02
      8.269  0.4931E+01  0.3615E+02
      8.389  0.4993E+01  0.3676E+02
      8.510  0.5234E+01  0.3739E+02
      8.631  0.5044E+01  0.3800E+02
      8.752  0.6041E+01  0.3873E+02
      8.873  0.5700E+01  0.3942E+02
      8.994  0.5274E+01  0.4006E+02
      9.115  0.5463E+01  0.4072E+02
      9.235  0.5520E+01  0.4138E+02
      9.356  0.5128E+01  0.4200E+02
      9.477  0.6310E+01  0.4277E+02
      9.598  0.5669E+01  0.4345E+02
      9.719  0.4967E+01  0.4405E+02
      9.840  0.6028E+01  0.4478E+02
      9.961  0.5676E+01  0.4547E+02
     10.081  0.5760E+01  0.4616E+02
     10.202  0.5054E+01  0.4677E+02
     10.323  0.5784E+01  0.4747E+02
     10.444  0.6103E+01  0.4821E+02
     10.565  0.5869E+01  0.4892E+02
     10.686  0.5743E+01  0.4961E+02
     10.807  0.6543E+01  0.5040E+02
     10.927  0.6291E+01  0.5116E+02
     11.048  0.5864E+01  0.5187E+02
     11.169  0.6619E+01  0.5267E+02
     11.290  0.6049E+01  0.5340E+02
     11.411  0.6041E+01  0.5413E+02
     11.532  0.6527E+01  0.5492E+02
     11.653  0.6404E+01  0.5570E+02
     11.773  0.6620E+01  0.5650E+02
     11.894  0.5502E+01  0.5716E+02
     12.015  0.6188E+01  0.5791E+02
     12.136  0.6349E+01  0.5868E+02
     12.257  0.6138E+01  0.5942E+02
     12.378  0.5779E+01  0.6012E+02
     12.499  0.5511E+01  0.6078E+02
     12.619  0.6324E+01  0.6155E+02
     12.740  0.5761E+01  0.6224E+02
     12.861  0.6407E+01  0.6302E+02
     12.982  0.6225E+01  0.6377E+02
     13.103  0.6451E+01  0.6455E+02
     13.224  0.6214E+01  0.6530E+02
     13.345  0.6577E+01  0.6610E+02
     13.465  0.6565E+01  0.6689E+02
     13.586  0.6239E+01  0.6764E+02
     13.707  0.6639E+01  0.6845E+02
     13.828  0.5996E+01  0.6917E+02
     13.949  0.6184E+01  0.6992E+02
     14.070  0.6666E+01  0.7072E+02
     14.191  0.7312E+01  0.7161E+02
     14.311  0.5991E+01  0.7233E+02
     14.432  0.6059E+01  0.7306E+02
     14.553  0.6331E+01  0.7383E+02
     14.674  0.5289E+01  0.7447E+02
     14.795  0.5469E+01  0.7513E+02
     14.916  0.6081E+01  0.7586E+02
     15.037  0.5333E+01  0.7651E+02
     15.157  0.5355E+01  0.7716E+02
     15.278  0.4351E+01  0.7768E+02
     15.399  0.3767E+01  0.7814E+02
     15.520  0.2831E+01  0.7848E+02
     15.641  0.2998E+01  0.7884E+02
     15.762  0.3429E+01  0.7926E+02
     15.883  0.3086E+01  0.7963E+02
     16.003  0.2045E+01  0.7988E+02
     16.124  0.2096E+01  0.8013E+02
     16.245  0.1891E+01  0.8036E+02
     16.366  0.1487E+01  0.8054E+02
     16.487  0.2371E+01  0.8082E+02
     16.608  0.2213E+01  0.8109E+02
     16.729  0.1781E+01  0.8131E+02
     16.849  0.2183E+01  0.8157E+02
     16.970  0.1141E+01  0.8171E+02
     17.091  0.1122E+01  0.8184E+02
     17.212  0.1456E+01  0.8202E+02
     17.333  0.6724E+00  0.8210E+02
     17.454  0.1030E+01  0.8223E+02
     17.575  0.1120E+01  0.8236E+02
     17.695  0.7682E+00  0.8245E+02
     17.816  0.8810E+00  0.8256E+02
     17.937  0.7855E+00  0.8265E+02
     18.058  0.1452E+01  0.8283E+02
     18.179  0.1171E+01  0.8297E+02
     18.300  0.8938E+00  0.8308E+02
     18.421  0.8737E+00  0.8319E+02
     18.541  0.6765E+00  0.8327E+02
     18.662  0.5530E+00  0.8333E+02
     18.783  0.5951E+00  0.8341E+02
     18.904  0.5171E+00  0.8347E+02
     19.025  0.3805E+00  0.8351E+02
     19.146  0.5117E+00  0.8358E+02
     19.267  0.1716E+00  0.8360E+02
     19.387  0.1001E+00  0.8361E+02
     19.508  0.2479E-01  0.8361E+02
     19.629  0.1344E-01  0.8361E+02
     19.750  0.1610E+00  0.8363E+02
     19.871  0.3829E+00  0.8368E+02
     19.992  0.3696E+00  0.8372E+02
     20.113  0.3689E+00  0.8377E+02
     20.233  0.5848E+00  0.8384E+02
     20.354  0.1029E+00  0.8385E+02
     20.475  0.7547E-01  0.8386E+02
     20.596  0.1976E+00  0.8388E+02
     20.717  0.1616E+00  0.8390E+02
     20.838  0.1698E+00  0.8392E+02
     20.959  0.2656E+00  0.8396E+02
     21.079  0.1143E-01  0.8396E+02
     21.200  0.8538E-02  0.8396E+02
     21.321  0.3704E-01  0.8396E+02
     21.442  0.2676E-03  0.8396E+02
     21.563  0.1643E-01  0.8397E+02
     21.684  0.4241E-01  0.8397E+02
     21.805  0.1857E+00  0.8399E+02
     21.925  0.5275E-01  0.8400E+02
     22.046  0.6788E-03  0.8400E+02
     22.167  0.5096E-09  0.8400E+02
     22.288  0.0000E+00  0.8400E+02
     22.409  0.0000E+00  0.8400E+02
     22.530  0.0000E+00  0.8400E+02
     22.651  0.0000E+00  0.8400E+02
     22.771  0.0000E+00  0.8400E+02
     22.892  0.0000E+00  0.8400E+02
     23.013  0.0000E+00  0.8400E+02
     23.134  0.0000E+00  0.8400E+02
     23.255  0.0000E+00  0.8400E+02
     23.376  0.0000E+00  0.8400E+02
     23.497  0.0000E+00  0.8400E+02
