       N       E                     dE             d eps       ncg     rms          rms(c)
DAV:   1     0.169911498872E+02    0.16991E+02   -0.22899E+03  1064   0.306E+02
DAV:   2    -0.659639608457E+01   -0.23588E+02   -0.21566E+02  1456   0.416E+01
DAV:   3    -0.704325773205E+01   -0.44686E+00   -0.44661E+00  1736   0.881E+00
DAV:   4    -0.704391405810E+01   -0.65633E-03   -0.65633E-03  1512   0.269E-01
DAV:   5    -0.704391433596E+01   -0.27786E-06   -0.27752E-06  1764   0.688E-03
DAV:   6    -0.704391433631E+01   -0.34855E-09   -0.43257E-09  1540   0.190E-04
   1 F= -.70439143E+01 E0= -.70437645E+01  d E =-.299701E-03  mag=     0.0000    -0.0000     0.0000
