 running   42 mpi-ranks, on    1 nodes
 distrk:  each k-point on   42 cores,    1 groups
 distr:  one band on    1 cores,   42 groups
 vasp.6.5.0 16Dec24 (build Jan 08 2025 16:17:04) complex                        
  
 POSCAR found type information on POSCAR Be
 POSCAR found :  1 types and       4 ions
 Reading from existing POTCAR
 scaLAPACK will be used
 -----------------------------------------------------------------------------
|                                                                             |
|           W    W    AA    RRRRR   N    N  II  N    N   GGGG   !!!           |
|           W    W   A  A   R    R  NN   N  II  NN   N  G    G  !!!           |
|           W    W  A    A  R    R  N N  N  II  N N  N  G       !!!           |
|           W WW W  AAAAAA  RRRRR   N  N N  II  N  N N  G  GGG   !            |
|           WW  WW  A    A  R   R   N   NN  II  N   NN  G    G                |
|           W    W  A    A  R    R  N    N  II  N    N   GGGG   !!!           |
|                                                                             |
|     For optimal performance we recommend to set                             |
|       NCORE = 2 up to number-of-cores-per-socket                            |
|     NCORE specifies how many cores store one orbital (NPAR=cpu/NCORE).      |
|     This setting can greatly improve the performance of VASP for DFT.       |
|     The default, NCORE=1 might be grossly inefficient on modern             |
|     multi-core architectures or massively parallel machines. Do your        |
|     own testing! More info at https://www.vasp.at/wiki/index.php/NCORE      |
|     Unfortunately you need to use the default for GW and RPA                |
|     calculations (for HF NCORE is supported but not extensively tested      |
|     yet).                                                                   |
|                                                                             |
 -----------------------------------------------------------------------------

 Reading from existing POTCAR
 LDA part: xc-table for (Slater+PW92), standard interpolation
 POSCAR, INCAR and KPOINTS ok, starting setup
 FFT: planning ... GRIDC
 FFT: planning ... GRID_SOFT
 FFT: planning ... GRID
 WAVECAR not read
 entering main loop
       N       E                     dE             d eps       ncg     rms          rms(c)
DAV:   1    -0.640499990032E+01   -0.64050E+01   -0.35046E+03154224   0.170E+02
DAV:   2    -0.119012615458E+02   -0.54963E+01   -0.54581E+01231294   0.185E+01
DAV:   3    -0.119050974756E+02   -0.38359E-02   -0.38359E-02154560   0.530E-01
DAV:   4    -0.119050978432E+02   -0.36763E-06   -0.36769E-06301812   0.614E-03
DAV:   5    -0.119050978434E+02   -0.16745E-09   -0.16353E-12154392   0.172E-06    0.264E+00
DAV:   6    -0.115195644386E+02    0.38553E+00   -0.77935E-01204498   0.872E-01    0.119E+00
DAV:   7    -0.114534364829E+02    0.66128E-01   -0.27058E-01249228   0.483E-01    0.320E-01
DAV:   8    -0.114523571250E+02    0.10794E-02   -0.25690E-03188202   0.985E-02    0.287E-02
DAV:   9    -0.114523411994E+02    0.15926E-04   -0.15589E-04239736   0.128E-02    0.142E-02
DAV:  10    -0.114523398083E+02    0.13911E-05   -0.66961E-06201600   0.586E-03    0.124E-03
DAV:  11    -0.114523399304E+02   -0.12207E-06   -0.22147E-08195930   0.260E-04
   1 F= -.11452340E+02 E0= -.11451616E+02  d E =-.114523E+02
 curvature:   0.00 expect dE= 0.000E+00 dE for cont linesearch  0.000E+00
 trial: gam= 0.00000 g(F)=  0.202E-51 g(S)=  0.160E-03 ort = 0.000E+00 (trialstep = 0.100E+01)
 search vector abs. value=  0.160E-03
 bond charge predicted
       N       E                     dE             d eps       ncg     rms          rms(c)
DAV:   1    -0.114524425742E+02   -0.10277E-03   -0.59544E-04258762   0.418E-02    0.139E-02
DAV:   2    -0.114524325229E+02    0.10051E-04   -0.19261E-05162624   0.430E-03    0.611E-03
DAV:   3    -0.114524300270E+02    0.24959E-05   -0.59191E-06255276   0.209E-03    0.175E-03
DAV:   4    -0.114524293725E+02    0.65448E-06   -0.92364E-08106134   0.751E-04
   2 F= -.11452429E+02 E0= -.11451708E+02  d E =-.894421E-04
 trial-energy change:   -0.000089  1 .order   -0.000092   -0.000160   -0.000024
 step:   1.1739(harm=  1.1739)  dis= 0.00000  next Energy=   -11.452434 (dE=-0.937E-04)
 bond charge predicted
       N       E                     dE             d eps       ncg     rms          rms(c)
DAV:   1    -0.114524317788E+02   -0.17518E-05   -0.17982E-05260022   0.727E-03    0.240E-03
DAV:   2    -0.114524313650E+02    0.41373E-06   -0.58487E-07160524   0.751E-04
   3 F= -.11452431E+02 E0= -.11451710E+02  d E =-.914346E-04
 curvature:  -0.59 expect dE=-0.973E-08 dE for cont linesearch -0.973E-08
 trial: gam=-0.01008 g(F)=  0.393E-52 g(S)=  0.166E-07 ort = 0.163E-05 (trialstep = 0.103E+01)
 search vector abs. value=  0.102E-09
 reached required accuracy - stopping structural energy minimisation
