alpha-beryllene hollow-hollow staggered
1.0
        6.9660968781         0.0000000000         0.0000000000
       -3.4829986332         6.0328456168         0.0000000000
        0.0000000000         0.0000000000        40.0000000000
   Be    H
    9   18
Direct
     0.000000000         0.000000000         0.100000001
     0.000000000         0.333333343         0.100000001
     0.000000000         0.666666687         0.100000001
     0.333333343         0.000000000         0.100000001
     0.333333343         0.333333343         0.100000001
     0.333333343         0.666666687         0.100000001
     0.666666687         0.000000000         0.100000001
     0.666666687         0.333333343         0.100000001
     0.666666687         0.666666687         0.100000001
     0.222220659         0.111112677         0.078193597
     0.222220659         0.444445997         0.078193597
     0.222220659         0.777779341         0.078193597
     0.555553973         0.111112677         0.078193597
     0.555553973         0.444445997         0.078193597
     0.555553973         0.777779341         0.078193597
     0.888887346         0.111112677         0.078193597
     0.888887346         0.444445997         0.078193597
     0.888887346         0.777779341         0.078193597
     0.111112677         0.222220659         0.121806405
     0.111112677         0.555553973         0.121806405
     0.111112677         0.888887346         0.121806405
     0.444445997         0.222220659         0.121806405
     0.444445997         0.555553973         0.121806405
     0.444445997         0.888887346         0.121806405
     0.777779341         0.222220659         0.121806405
     0.777779341         0.555553973         0.121806405
     0.777779341         0.888887346         0.121806405
