  75  75   0   0
  0.5815946E+02  0.1161106E-08  0.1054012E-08  0.4000000E-08  0.5000000E-15
  1.000000000000000E-004
  CAR 
 Phonopy                                 
      2.59210036    -15.28175716  301     -3.62513889      1.00000000
    -15.282  0.0000E+00  0.0000E+00
    -15.222  0.0000E+00  0.0000E+00
    -15.163  0.0000E+00  0.0000E+00
    -15.103  0.0000E+00  0.0000E+00
    -15.043  0.0000E+00  0.0000E+00
    -14.984  0.0000E+00  0.0000E+00
    -14.924  0.0000E+00  0.0000E+00
    -14.865  0.7718E-16  0.4599E-17
    -14.805  0.6349E-13  0.3787E-14
    -14.746  0.2858E-10  0.1706E-11
    -14.686  0.6490E-08  0.3884E-09
    -14.626  0.7489E-06  0.4500E-07
    -14.567  0.4424E-04  0.2681E-05
    -14.507  0.1353E-02  0.8329E-04
    -14.448  0.2173E-01  0.1378E-02
    -14.388  0.1872E+00  0.1253E-01
    -14.328  0.8937E+00  0.6578E-01
    -14.269  0.2488E+01  0.2140E+00
    -14.209  0.4398E+01  0.4760E+00
    -14.150  0.5614E+01  0.8105E+00
    -14.090  0.6028E+01  0.1170E+01
    -14.031  0.6106E+01  0.1533E+01
    -13.971  0.6118E+01  0.1898E+01
    -13.911  0.6124E+01  0.2263E+01
    -13.852  0.6130E+01  0.2628E+01
    -13.792  0.6136E+01  0.2994E+01
    -13.733  0.6141E+01  0.3359E+01
    -13.673  0.6149E+01  0.3726E+01
    -13.614  0.6153E+01  0.4092E+01
    -13.554  0.6163E+01  0.4460E+01
    -13.494  0.6163E+01  0.4827E+01
    -13.435  0.6178E+01  0.5195E+01
    -13.375  0.6179E+01  0.5563E+01
    -13.316  0.6182E+01  0.5931E+01
    -13.256  0.6210E+01  0.6301E+01
    -13.196  0.6177E+01  0.6669E+01
    -13.137  0.6233E+01  0.7041E+01
    -13.077  0.6215E+01  0.7411E+01
    -13.018  0.6191E+01  0.7780E+01
    -12.958  0.6291E+01  0.8155E+01
    -12.899  0.6200E+01  0.8524E+01
    -12.839  0.6225E+01  0.8895E+01
    -12.779  0.6346E+01  0.9273E+01
    -12.720  0.6192E+01  0.9642E+01
    -12.660  0.6249E+01  0.1001E+02
    -12.601  0.6408E+01  0.1040E+02
    -12.541  0.6208E+01  0.1077E+02
    -12.482  0.6236E+01  0.1114E+02
    -12.422  0.6477E+01  0.1152E+02
    -12.362  0.6279E+01  0.1190E+02
    -12.303  0.6182E+01  0.1227E+02
    -12.243  0.6501E+01  0.1265E+02
    -12.184  0.6440E+01  0.1304E+02
    -12.124  0.6151E+01  0.1340E+02
    -12.064  0.6404E+01  0.1378E+02
    -12.005  0.6624E+01  0.1418E+02
    -11.945  0.6290E+01  0.1455E+02
    -11.886  0.6212E+01  0.1492E+02
    -11.826  0.6632E+01  0.1532E+02
    -11.767  0.6611E+01  0.1571E+02
    -11.707  0.6210E+01  0.1608E+02
    -11.647  0.6356E+01  0.1646E+02
    -11.588  0.6785E+01  0.1687E+02
    -11.528  0.6606E+01  0.1726E+02
    -11.469  0.6328E+01  0.1764E+02
    -11.409  0.7139E+01  0.1806E+02
    -11.350  0.8890E+01  0.1859E+02
    -11.290  0.1043E+02  0.1921E+02
    -11.230  0.1133E+02  0.1989E+02
    -11.171  0.1214E+02  0.2061E+02
    -11.111  0.1269E+02  0.2137E+02
    -11.052  0.1246E+02  0.2211E+02
    -10.992  0.1202E+02  0.2283E+02
    -10.932  0.1227E+02  0.2356E+02
    -10.873  0.1284E+02  0.2432E+02
    -10.813  0.1270E+02  0.2508E+02
    -10.754  0.1217E+02  0.2580E+02
    -10.694  0.1227E+02  0.2653E+02
    -10.635  0.1290E+02  0.2730E+02
    -10.575  0.1302E+02  0.2808E+02
    -10.515  0.1246E+02  0.2882E+02
    -10.456  0.1225E+02  0.2955E+02
    -10.396  0.1287E+02  0.3032E+02
    -10.337  0.1334E+02  0.3111E+02
    -10.277  0.1291E+02  0.3188E+02
    -10.217  0.1241E+02  0.3262E+02
    -10.158  0.1273E+02  0.3338E+02
    -10.098  0.1346E+02  0.3418E+02
    -10.039  0.1355E+02  0.3499E+02
     -9.979  0.1286E+02  0.3576E+02
     -9.920  0.1258E+02  0.3651E+02
     -9.860  0.1345E+02  0.3731E+02
     -9.800  0.1410E+02  0.3815E+02
     -9.741  0.1349E+02  0.3895E+02
     -9.681  0.1297E+02  0.3972E+02
     -9.622  0.1335E+02  0.4052E+02
     -9.562  0.1410E+02  0.4136E+02
     -9.503  0.1447E+02  0.4222E+02
     -9.443  0.1397E+02  0.4305E+02
     -9.383  0.1332E+02  0.4385E+02
     -9.324  0.1405E+02  0.4468E+02
     -9.264  0.1538E+02  0.4560E+02
     -9.205  0.1515E+02  0.4650E+02
     -9.145  0.1418E+02  0.4735E+02
     -9.085  0.1452E+02  0.4821E+02
     -9.026  0.1600E+02  0.4917E+02
     -8.966  0.1682E+02  0.5017E+02
     -8.907  0.1655E+02  0.5115E+02
     -8.847  0.1679E+02  0.5216E+02
     -8.788  0.1854E+02  0.5326E+02
     -8.728  0.1978E+02  0.5444E+02
     -8.668  0.1838E+02  0.5553E+02
     -8.609  0.1623E+02  0.5650E+02
     -8.549  0.1573E+02  0.5744E+02
     -8.490  0.1600E+02  0.5839E+02
     -8.430  0.1535E+02  0.5930E+02
     -8.371  0.1434E+02  0.6016E+02
     -8.311  0.1411E+02  0.6100E+02
     -8.251  0.1443E+02  0.6186E+02
     -8.192  0.1439E+02  0.6272E+02
     -8.132  0.1386E+02  0.6354E+02
     -8.073  0.1361E+02  0.6435E+02
     -8.013  0.1397E+02  0.6519E+02
     -7.953  0.1419E+02  0.6603E+02
     -7.894  0.1358E+02  0.6684E+02
     -7.834  0.1266E+02  0.6759E+02
     -7.775  0.1255E+02  0.6834E+02
     -7.715  0.1286E+02  0.6911E+02
     -7.656  0.1246E+02  0.6985E+02
     -7.596  0.1177E+02  0.7055E+02
     -7.536  0.1178E+02  0.7125E+02
     -7.477  0.1223E+02  0.7198E+02
     -7.417  0.1239E+02  0.7272E+02
     -7.358  0.1247E+02  0.7346E+02
     -7.298  0.1279E+02  0.7423E+02
     -7.239  0.1294E+02  0.7500E+02
     -7.179  0.1292E+02  0.7577E+02
     -7.119  0.1312E+02  0.7655E+02
     -7.060  0.1285E+02  0.7731E+02
     -7.000  0.1156E+02  0.7800E+02
     -6.941  0.1010E+02  0.7860E+02
     -6.881  0.9364E+01  0.7916E+02
     -6.821  0.9172E+01  0.7971E+02
     -6.762  0.8810E+01  0.8023E+02
     -6.702  0.8498E+01  0.8074E+02
     -6.643  0.9153E+01  0.8128E+02
     -6.583  0.1091E+02  0.8193E+02
     -6.524  0.1261E+02  0.8269E+02
     -6.464  0.1309E+02  0.8347E+02
     -6.404  0.1281E+02  0.8423E+02
     -6.345  0.1272E+02  0.8499E+02
     -6.285  0.1333E+02  0.8578E+02
     -6.226  0.1458E+02  0.8665E+02
     -6.166  0.1541E+02  0.8757E+02
     -6.107  0.1532E+02  0.8848E+02
     -6.047  0.1498E+02  0.8937E+02
     -5.987  0.1510E+02  0.9027E+02
     -5.928  0.1547E+02  0.9120E+02
     -5.868  0.1552E+02  0.9212E+02
     -5.809  0.1527E+02  0.9303E+02
     -5.749  0.1496E+02  0.9392E+02
     -5.689  0.1513E+02  0.9482E+02
     -5.630  0.1593E+02  0.9577E+02
     -5.570  0.1630E+02  0.9674E+02
     -5.511  0.1596E+02  0.9769E+02
     -5.451  0.1599E+02  0.9865E+02
     -5.392  0.1682E+02  0.9965E+02
     -5.332  0.1826E+02  0.1007E+03
     -5.272  0.1946E+02  0.1019E+03
     -5.213  0.1912E+02  0.1030E+03
     -5.153  0.1809E+02  0.1041E+03
     -5.094  0.1779E+02  0.1052E+03
     -5.034  0.1723E+02  0.1062E+03
     -4.974  0.1583E+02  0.1071E+03
     -4.915  0.1510E+02  0.1080E+03
     -4.855  0.1523E+02  0.1089E+03
     -4.796  0.1533E+02  0.1099E+03
     -4.736  0.1486E+02  0.1107E+03
     -4.677  0.1399E+02  0.1116E+03
     -4.617  0.1418E+02  0.1124E+03
     -4.557  0.1509E+02  0.1133E+03
     -4.498  0.1486E+02  0.1142E+03
     -4.438  0.1425E+02  0.1151E+03
     -4.379  0.1473E+02  0.1159E+03
     -4.319  0.1579E+02  0.1169E+03
     -4.260  0.1612E+02  0.1178E+03
     -4.200  0.1497E+02  0.1187E+03
     -4.140  0.1319E+02  0.1195E+03
     -4.081  0.1225E+02  0.1202E+03
     -4.021  0.1201E+02  0.1210E+03
     -3.962  0.1159E+02  0.1217E+03
     -3.902  0.1101E+02  0.1223E+03
     -3.842  0.1051E+02  0.1229E+03
     -3.783  0.9989E+01  0.1235E+03
     -3.723  0.9426E+01  0.1241E+03
     -3.664  0.9216E+01  0.1246E+03
     -3.604  0.9265E+01  0.1252E+03
     -3.545  0.8682E+01  0.1257E+03
     -3.485  0.7555E+01  0.1262E+03
     -3.425  0.6847E+01  0.1266E+03
     -3.366  0.6899E+01  0.1270E+03
     -3.306  0.7173E+01  0.1274E+03
     -3.247  0.6945E+01  0.1278E+03
     -3.187  0.6441E+01  0.1282E+03
     -3.128  0.6286E+01  0.1286E+03
     -3.068  0.6586E+01  0.1290E+03
     -3.008  0.6757E+01  0.1294E+03
     -2.949  0.6431E+01  0.1298E+03
     -2.889  0.6118E+01  0.1301E+03
     -2.830  0.6103E+01  0.1305E+03
     -2.770  0.6273E+01  0.1309E+03
     -2.710  0.6514E+01  0.1312E+03
     -2.651  0.6377E+01  0.1316E+03
     -2.591  0.5963E+01  0.1320E+03
     -2.532  0.5933E+01  0.1323E+03
     -2.472  0.6215E+01  0.1327E+03
     -2.413  0.6393E+01  0.1331E+03
     -2.353  0.6380E+01  0.1335E+03
     -2.293  0.6199E+01  0.1338E+03
     -2.234  0.5954E+01  0.1342E+03
     -2.174  0.5899E+01  0.1345E+03
     -2.115  0.6298E+01  0.1349E+03
     -2.055  0.6664E+01  0.1353E+03
     -1.996  0.6366E+01  0.1357E+03
     -1.936  0.5986E+01  0.1361E+03
     -1.876  0.6013E+01  0.1364E+03
     -1.817  0.6419E+01  0.1368E+03
     -1.757  0.6983E+01  0.1372E+03
     -1.698  0.7176E+01  0.1376E+03
     -1.638  0.7017E+01  0.1381E+03
     -1.578  0.7212E+01  0.1385E+03
     -1.519  0.9565E+01  0.1391E+03
     -1.459  0.1597E+02  0.1400E+03
     -1.400  0.2473E+02  0.1415E+03
     -1.340  0.2996E+02  0.1433E+03
     -1.281  0.2843E+02  0.1450E+03
     -1.221  0.2336E+02  0.1463E+03
     -1.161  0.1855E+02  0.1475E+03
     -1.102  0.1421E+02  0.1483E+03
     -1.042  0.1015E+02  0.1489E+03
     -0.983  0.7533E+01  0.1494E+03
     -0.923  0.7066E+01  0.1498E+03
     -0.864  0.8187E+01  0.1503E+03
     -0.804  0.9720E+01  0.1508E+03
     -0.744  0.1106E+02  0.1515E+03
     -0.685  0.1259E+02  0.1522E+03
     -0.625  0.1522E+02  0.1532E+03
     -0.566  0.1891E+02  0.1543E+03
     -0.506  0.2224E+02  0.1556E+03
     -0.446  0.2437E+02  0.1571E+03
     -0.387  0.2562E+02  0.1586E+03
     -0.327  0.2608E+02  0.1601E+03
     -0.268  0.2516E+02  0.1616E+03
     -0.208  0.2350E+02  0.1630E+03
     -0.149  0.2242E+02  0.1644E+03
     -0.089  0.2215E+02  0.1657E+03
     -0.029  0.2234E+02  0.1670E+03
      0.030  0.2252E+02  0.1684E+03
      0.090  0.2233E+02  0.1697E+03
      0.149  0.2243E+02  0.1710E+03
      0.209  0.2225E+02  0.1724E+03
      0.268  0.2093E+02  0.1736E+03
      0.328  0.1967E+02  0.1748E+03
      0.388  0.1941E+02  0.1759E+03
      0.447  0.1976E+02  0.1771E+03
      0.507  0.2010E+02  0.1783E+03
      0.566  0.1996E+02  0.1795E+03
      0.626  0.1967E+02  0.1807E+03
      0.686  0.1944E+02  0.1818E+03
      0.745  0.1931E+02  0.1830E+03
      0.805  0.2019E+02  0.1842E+03
      0.864  0.2278E+02  0.1855E+03
      0.924  0.2579E+02  0.1871E+03
      0.983  0.2747E+02  0.1887E+03
      1.043  0.2745E+02  0.1903E+03
      1.103  0.2672E+02  0.1919E+03
      1.162  0.2655E+02  0.1935E+03
      1.222  0.2702E+02  0.1951E+03
      1.281  0.2789E+02  0.1968E+03
      1.341  0.2970E+02  0.1986E+03
      1.401  0.3105E+02  0.2004E+03
      1.460  0.2777E+02  0.2021E+03
      1.520  0.1896E+02  0.2032E+03
      1.579  0.9312E+01  0.2038E+03
      1.639  0.3224E+01  0.2039E+03
      1.698  0.7856E+00  0.2040E+03
      1.758  0.1318E+00  0.2040E+03
      1.818  0.1418E-01  0.2040E+03
      1.877  0.8959E-03  0.2040E+03
      1.937  0.3103E-04  0.2040E+03
      1.996  0.5656E-06  0.2040E+03
      2.056  0.5301E-08  0.2040E+03
      2.115  0.2521E-10  0.2040E+03
      2.175  0.6038E-13  0.2040E+03
      2.235  0.0000E+00  0.2040E+03
      2.294  0.0000E+00  0.2040E+03
      2.354  0.0000E+00  0.2040E+03
      2.413  0.0000E+00  0.2040E+03
      2.473  0.0000E+00  0.2040E+03
      2.533  0.0000E+00  0.2040E+03
      2.592  0.0000E+00  0.2040E+03
