Geometry                                
           1
     4.367491    0.000000    0.000000
     0.000000    4.367491    0.000000
     0.000000    0.000000   40.000000
   Be   H 
    12     1
Direct configuration=     1
   0.00000000  0.00000000  0.12000000
   0.50000000  0.00000000  0.12000000
   0.00000000  0.50000000  0.12000000
   0.50000000  0.50000000  0.12000000
   0.25000000  0.25000000  0.08000000
   0.25000000  0.75000000  0.08000000
   0.75000000  0.25000000  0.08000000
   0.75000000  0.75000000  0.08000000
   0.00000000  0.00000000  0.04000000
   0.50000000  0.00000000  0.04000000
   0.00000000  0.50000000  0.04000000
   0.50000000  0.50000000  0.04000000
   0.00000000  0.00000000  0.16000000
Geometry                                
           1
     4.353600    0.000000    0.000000
     0.000000    4.353600    0.000000
     0.000000    0.000000   40.000000
   Be   H 
    12     1
Direct configuration=     2
   0.00000000  0.00000000  0.12154635
   0.50000000  1.00000000  0.11943657
   0.00000000  0.50000000  0.11943657
   0.50000000  0.50000000  0.11873775
   0.24960667  0.24960667  0.08016133
   0.24960667  0.75039333  0.08016133
   0.75039333  0.24960667  0.08016133
   0.75039333  0.75039333  0.08016133
   0.00000000  0.00000000  0.04029830
   0.50000000  1.00000000  0.04058457
   0.00000000  0.50000000  0.04058457
   0.50000000  0.50000000  0.04031917
   0.00000000  1.00000000  0.15841082
Geometry                                
           1
     4.341250    0.000000    0.000000
     0.000000    4.341250    0.000000
     0.000000    0.000000   40.000000
   Be   H 
    12     1
Direct configuration=     3
   0.00000000  0.00000000  0.12292106
   0.50000000  0.00000000  0.11893568
   0.00000000  0.50000000  0.11893568
   0.50000000  0.50000000  0.11761560
   0.24925588  0.24925588  0.08030476
   0.24925588  0.75074412  0.08030476
   0.75074412  0.24925588  0.08030476
   0.75074412  0.75074412  0.08030476
   0.00000000  0.00000000  0.04056348
   0.50000000  0.00000000  0.04110425
   0.00000000  0.50000000  0.04110425
   0.50000000  0.50000000  0.04060292
   0.00000000  0.00000000  0.15699803
Geometry                                
           1
     4.355312    0.000000    0.000000
     0.000000    4.355312    0.000000
     0.000000    0.000000   40.000000
   Be   H 
    12     1
Direct configuration=     4
   0.00000000  0.00000000  0.12249672
   0.50000000  1.00000000  0.11822953
   0.00000000  0.50000000  0.11822953
   0.50000000  0.50000000  0.11622559
   0.24756180  0.24756180  0.08052775
   0.24756180  0.75243820  0.08052775
   0.75243820  0.24756180  0.08052775
   0.75243820  0.75243820  0.08052775
   0.00000000  0.00000000  0.04103694
   0.50000000  1.00000000  0.04190820
   0.00000000  0.50000000  0.04190820
   0.50000000  0.50000000  0.04104861
   0.00000000  1.00000000  0.15680566
Geometry                                
           1
     4.377068    0.000000    0.000000
     0.000000    4.377068    0.000000
     0.000000    0.000000   40.000000
   Be   H 
    12     1
Direct configuration=     5
   0.00000000  0.00000000  0.12184024
   0.50000000  0.00000000  0.11713706
   0.00000000  0.50000000  0.11713706
   0.50000000  0.50000000  0.11407513
   0.24494940  0.24494940  0.08087275
   0.24494940  0.75505060  0.08087275
   0.75505060  0.24494940  0.08087275
   0.75505060  0.75505060  0.08087275
   0.00000000  0.00000000  0.04176942
   0.50000000  0.00000000  0.04315198
   0.00000000  0.50000000  0.04315198
   0.50000000  0.50000000  0.04173812
   0.00000000  0.00000000  0.15650804
Geometry                                
           1
     4.382045    0.000000    0.000000
     0.000000    4.382045    0.000000
     0.000000    0.000000   40.000000
   Be   H 
    12     1
Direct configuration=     6
   0.00000000  0.00000000  0.12169007
   0.50000000  1.00000000  0.11688715
   0.00000000  0.50000000  0.11688715
   0.50000000  0.50000000  0.11358319
   0.24435476  0.24435476  0.08095167
   0.24435476  0.75564524  0.08095167
   0.75564524  0.24435476  0.08095167
   0.75564524  0.75564524  0.08095167
   0.00000000  0.00000000  0.04193698
   0.50000000  1.00000000  0.04343650
   0.00000000  0.50000000  0.04343650
   0.50000000  0.50000000  0.04189585
   0.00000000  1.00000000  0.15643995
Geometry                                
           1
     4.423945    0.000000    0.000000
     0.000000    4.423945    0.000000
     0.000000    0.000000   40.000000
   Be   H 
    12     1
Direct configuration=     7
   0.00000000  0.00000000  0.12129812
   0.50000000  0.00000000  0.11664279
   0.00000000  0.50000000  0.11664279
   0.50000000  0.50000000  0.11365014
   0.24499046  0.24499046  0.08067960
   0.24499046  0.75500954  0.08067960
   0.75500954  0.24499046  0.08067960
   0.75500954  0.75500954  0.08067960
   0.00000000  0.00000000  0.04218742
   0.50000000  0.00000000  0.04382057
   0.00000000  0.50000000  0.04382057
   0.50000000  0.50000000  0.04273291
   0.00000000  0.00000000  0.15648629
Geometry                                
           1
     4.438384    0.000000    0.000000
     0.000000    4.438384    0.000000
     0.000000    0.000000   40.000000
   Be   H 
    12     1
Direct configuration=     8
   0.00000000  0.00000000  0.12116305
   0.50000000  1.00000000  0.11655859
   0.00000000  0.50000000  0.11655859
   0.50000000  0.50000000  0.11367321
   0.24520744  0.24520744  0.08058585
   0.24520744  0.75479256  0.08058585
   0.75479256  0.24520744  0.08058585
   0.75479256  0.75479256  0.08058585
   0.00000000  0.00000000  0.04227372
   0.50000000  1.00000000  0.04395291
   0.00000000  0.50000000  0.04395291
   0.50000000  0.50000000  0.04302135
   0.00000000  0.00000000  0.15650226
Geometry                                
           1
     4.437875    0.000000    0.000000
     0.000000    4.437875    0.000000
     0.000000    0.000000   40.000000
   Be   H 
    12     1
Direct configuration=     9
   0.00000000  0.00000000  0.12133076
   0.50000000  0.00000000  0.11622095
   0.00000000  0.50000000  0.11622095
   0.50000000  0.50000000  0.11381491
   0.24541556  0.24541556  0.08048372
   0.24541556  0.75458444  0.08048372
   0.75458444  0.24541556  0.08048372
   0.75458444  0.75458444  0.08048372
   0.00000000  0.00000000  0.04243527
   0.50000000  0.00000000  0.04410073
   0.00000000  0.50000000  0.04410073
   0.50000000  0.50000000  0.04372099
   0.00000000  0.00000000  0.15611980
Geometry                                
           1
     4.437808    0.000000    0.000000
     0.000000    4.437808    0.000000
     0.000000    0.000000   40.000000
   Be   H 
    12     1
Direct configuration=    10
   0.00000000  0.00000000  0.12135293
   0.50000000  0.00000000  0.11617632
   0.00000000  0.50000000  0.11617632
   0.50000000  0.50000000  0.11383364
   0.24544307  0.24544307  0.08047022
   0.24544307  0.75455693  0.08047022
   0.75455693  0.24544307  0.08047022
   0.75455693  0.75455693  0.08047022
   0.00000000  0.00000000  0.04245662
   0.50000000  0.00000000  0.04412027
   0.00000000  0.50000000  0.04412027
   0.50000000  0.50000000  0.04381348
   0.00000000  0.00000000  0.15606925
Geometry                                
           1
     4.434097    0.000000    0.000000
     0.000000    4.434097    0.000000
     0.000000    0.000000   40.000000
   Be   H 
    12     1
Direct configuration=    11
   0.00000000  1.00000000  0.12107312
   0.50000000  1.00000000  0.11590921
   0.00000000  0.50000000  0.11590921
   0.50000000  0.50000000  0.11383572
   0.24498481  0.24498481  0.08054240
   0.24498481  0.75501519  0.08054240
   0.75501519  0.24498481  0.08054240
   0.75501519  0.75501519  0.08054240
   0.00000000  1.00000000  0.04251875
   0.50000000  1.00000000  0.04417366
   0.00000000  0.50000000  0.04417366
   0.50000000  0.50000000  0.04417249
   0.00000000  1.00000000  0.15606458
Geometry                                
           1
     4.434490    0.000000    0.000000
     0.000000    4.434490    0.000000
     0.000000    0.000000   40.000000
   Be   H 
    12     1
Direct configuration=    12
   0.00000000  0.00000000  0.12110280
   0.50000000  0.00000000  0.11593754
   0.00000000  0.50000000  0.11593754
   0.50000000  0.50000000  0.11383550
   0.24503346  0.24503346  0.08053475
   0.24503346  0.75496654  0.08053475
   0.75496654  0.24503346  0.08053475
   0.75496654  0.75496654  0.08053475
   0.00000000  0.00000000  0.04251216
   0.50000000  0.00000000  0.04416800
   0.00000000  0.50000000  0.04416800
   0.50000000  0.50000000  0.04413441
   0.00000000  0.00000000  0.15606507
Geometry                                
           1
     4.439419    0.000000    0.000000
     0.000000    4.439419    0.000000
     0.000000    0.000000   40.000000
   Be   H 
    12     1
Direct configuration=    13
   0.00000000  1.00000000  0.12105304
   0.50000000  1.00000000  0.11588213
   0.00000000  0.50000000  0.11588213
   0.50000000  0.50000000  0.11374035
   0.24483602  0.24483602  0.08059253
   0.24483602  0.75516398  0.08059253
   0.75516398  0.24483602  0.08059253
   0.75516398  0.75516398  0.08059253
   0.00000000  1.00000000  0.04249660
   0.50000000  1.00000000  0.04419458
   0.00000000  0.50000000  0.04419458
   0.50000000  0.50000000  0.04421124
   0.00000000  1.00000000  0.15597524
Geometry                                
           1
     4.443061    0.000000    0.000000
     0.000000    4.443061    0.000000
     0.000000    0.000000   40.000000
   Be   H 
    12     1
Direct configuration=    14
   0.00000000  0.00000000  0.12101627
   0.50000000  0.00000000  0.11584119
   0.00000000  0.50000000  0.11584119
   0.50000000  0.50000000  0.11367004
   0.24469028  0.24469028  0.08063523
   0.24469028  0.75530972  0.08063523
   0.75530972  0.24469028  0.08063523
   0.75530972  0.75530972  0.08063523
   0.00000000  0.00000000  0.04248510
   0.50000000  0.00000000  0.04421422
   0.00000000  0.50000000  0.04421422
   0.50000000  0.50000000  0.04426801
   0.00000000  0.00000000  0.15590885
Geometry                                
           1
     4.445512    0.000000    0.000000
     0.000000    4.445512    0.000000
     0.000000    0.000000   40.000000
   Be   H 
    12     1
Direct configuration=    15
   0.00000000  1.00000000  0.12099269
   0.50000000  1.00000000  0.11583342
   0.00000000  0.50000000  0.11583342
   0.50000000  0.50000000  0.11355047
   0.24461980  0.24461980  0.08061660
   0.24461980  0.75538020  0.08061660
   0.75538020  0.24461980  0.08061660
   0.75538020  0.75538020  0.08061660
   0.00000000  1.00000000  0.04251932
   0.50000000  1.00000000  0.04430766
   0.00000000  0.50000000  0.04430766
   0.50000000  0.50000000  0.04436574
   0.00000000  1.00000000  0.15582325
Geometry                                
           1
     4.446620    0.000000    0.000000
     0.000000    4.446620    0.000000
     0.000000    0.000000   40.000000
   Be   H 
    12     1
Direct configuration=    16
   0.00000000  0.00000000  0.12098203
   0.50000000  0.00000000  0.11582991
   0.00000000  0.50000000  0.11582991
   0.50000000  0.50000000  0.11349642
   0.24458796  0.24458796  0.08060817
   0.24458796  0.75541204  0.08060817
   0.75541204  0.24458796  0.08060817
   0.75541204  0.75541204  0.08060817
   0.00000000  0.00000000  0.04253479
   0.50000000  0.00000000  0.04434989
   0.00000000  0.50000000  0.04434989
   0.50000000  0.50000000  0.04440992
   0.00000000  0.00000000  0.15578455
Geometry                                
           1
     4.445775    0.000000    0.000000
     0.000000    4.445775    0.000000
     0.000000    0.000000   40.000000
   Be   H 
    12     1
Direct configuration=    17
   0.00000000  1.00000000  0.12089728
   0.50000000  1.00000000  0.11580697
   0.00000000  0.50000000  0.11580697
   0.50000000  0.50000000  0.11346416
   0.24451143  0.24451143  0.08058867
   0.24451143  0.75548857  0.08058867
   0.75548857  0.24451143  0.08058867
   0.75548857  0.75548857  0.08058867
   0.00000000  1.00000000  0.04258558
   0.50000000  1.00000000  0.04439702
   0.00000000  0.50000000  0.04439702
   0.50000000  0.50000000  0.04446458
   0.00000000  1.00000000  0.15582573
Geometry                                
           1
     4.446156    0.000000    0.000000
     0.000000    4.446156    0.000000
     0.000000    0.000000   40.000000
   Be   H 
    12     1
Direct configuration=    18
   0.00000000  0.00000000  0.12093549
   0.50000000  0.00000000  0.11581731
   0.00000000  0.50000000  0.11581731
   0.50000000  0.50000000  0.11347870
   0.24454594  0.24454594  0.08059746
   0.24454594  0.75545406  0.08059746
   0.75545406  0.24454594  0.08059746
   0.75545406  0.75545406  0.08059746
   0.00000000  0.00000000  0.04256268
   0.50000000  0.00000000  0.04437578
   0.00000000  0.50000000  0.04437578
   0.50000000  0.50000000  0.04443993
   0.00000000  0.00000000  0.15580717
Geometry                                
           1
     4.446066    0.000000    0.000000
     0.000000    4.446066    0.000000
     0.000000    0.000000   40.000000
   Be   H 
    12     1
Direct configuration=    19
   0.00000000  1.00000000  0.12094510
   0.50000000  1.00000000  0.11579931
   0.00000000  0.50000000  0.11579931
   0.50000000  0.50000000  0.11347978
   0.24454745  0.24454745  0.08059298
   0.24454745  0.75545255  0.08059298
   0.75545255  0.24454745  0.08059298
   0.75545255  0.75545255  0.08059298
   0.00000000  1.00000000  0.04258442
   0.50000000  1.00000000  0.04438059
   0.00000000  0.50000000  0.04438059
   0.50000000  0.50000000  0.04445633
   0.00000000  1.00000000  0.15580268
Geometry                                
           1
     4.446052    0.000000    0.000000
     0.000000    4.446052    0.000000
     0.000000    0.000000   40.000000
   Be   H 
    12     1
Direct configuration=    20
   0.00000000  0.00000000  0.12094659
   0.50000000  0.00000000  0.11579652
   0.00000000  0.50000000  0.11579652
   0.50000000  0.50000000  0.11347994
   0.24454768  0.24454768  0.08059228
   0.24454768  0.75545232  0.08059228
   0.75545232  0.24454768  0.08059228
   0.75545232  0.75545232  0.08059228
   0.00000000  0.00000000  0.04258778
   0.50000000  0.00000000  0.04438133
   0.00000000  0.50000000  0.04438133
   0.50000000  0.50000000  0.04445887
   0.00000000  0.00000000  0.15580199
Geometry                                
           1
     4.446703    0.000000    0.000000
     0.000000    4.446703    0.000000
     0.000000    0.000000   40.000000
   Be   H 
    12     1
Direct configuration=    21
   0.00000000  1.00000000  0.12094777
   0.50000000  1.00000000  0.11578411
   0.00000000  0.50000000  0.11578411
   0.50000000  0.50000000  0.11348002
   0.24455280  0.24455280  0.08059371
   0.24455280  0.75544720  0.08059371
   0.75544720  0.24455280  0.08059371
   0.75544720  0.75544720  0.08059371
   0.00000000  1.00000000  0.04259519
   0.50000000  1.00000000  0.04438176
   0.00000000  0.50000000  0.04438176
   0.50000000  0.50000000  0.04446379
   0.00000000  1.00000000  0.15580665
Geometry                                
           1
     4.446897    0.000000    0.000000
     0.000000    4.446897    0.000000
     0.000000    0.000000   40.000000
   Be   H 
    12     1
Direct configuration=    22
   0.00000000  0.00000000  0.12094812
   0.50000000  0.00000000  0.11578041
   0.00000000  0.50000000  0.11578041
   0.50000000  0.50000000  0.11348004
   0.24455432  0.24455432  0.08059414
   0.24455432  0.75544568  0.08059414
   0.75544568  0.24455432  0.08059414
   0.75544568  0.75544568  0.08059414
   0.00000000  0.00000000  0.04259740
   0.50000000  0.00000000  0.04438189
   0.00000000  0.50000000  0.04438189
   0.50000000  0.50000000  0.04446526
   0.00000000  0.00000000  0.15580805
Geometry                                
           1
     4.446837    0.000000    0.000000
     0.000000    4.446837    0.000000
     0.000000    0.000000   40.000000
   Be   H 
    12     1
Direct configuration=    23
   0.00000000  0.00000000  0.12094801
   0.50000000  0.00000000  0.11578156
   0.00000000  0.50000000  0.11578156
   0.50000000  0.50000000  0.11348004
   0.24455385  0.24455385  0.08059400
   0.24455385  0.75544615  0.08059400
   0.75544615  0.24455385  0.08059400
   0.75544615  0.75544615  0.08059400
   0.00000000  0.00000000  0.04259671
   0.50000000  0.00000000  0.04438185
   0.00000000  0.50000000  0.04438185
   0.50000000  0.50000000  0.04446480
   0.00000000  0.00000000  0.15580761
Geometry                                
           1
     4.446798    0.000000    0.000000
     0.000000    4.446798    0.000000
     0.000000    0.000000   40.000000
   Be   H 
    12     1
Direct configuration=    24
   0.00000000  0.00000000  0.12094794
   0.50000000  0.00000000  0.11578229
   0.00000000  0.50000000  0.11578229
   0.50000000  0.50000000  0.11348003
   0.24455355  0.24455355  0.08059392
   0.24455355  0.75544645  0.08059392
   0.75544645  0.24455355  0.08059392
   0.75544645  0.75544645  0.08059392
   0.00000000  0.00000000  0.04259628
   0.50000000  0.00000000  0.04438182
   0.00000000  0.50000000  0.04438182
   0.50000000  0.50000000  0.04446452
   0.00000000  0.00000000  0.15580734
Geometry                                
           1
     4.446835    0.000000    0.000000
     0.000000    4.446835    0.000000
     0.000000    0.000000   40.000000
   Be   H 
    12     1
Direct configuration=    25
   0.00000000  0.00000000  0.12094827
   0.50000000  0.00000000  0.11577864
   0.00000000  0.50000000  0.11577864
   0.50000000  0.50000000  0.11347590
   0.24454763  0.24454763  0.08059447
   0.24454763  0.75545237  0.08059447
   0.75545237  0.24454763  0.08059447
   0.75545237  0.75545237  0.08059447
   0.00000000  0.00000000  0.04259526
   0.50000000  0.00000000  0.04438590
   0.00000000  0.50000000  0.04438590
   0.50000000  0.50000000  0.04446481
   0.00000000  0.00000000  0.15580880
