 100 100   0   0
  0.4951695E+02  0.1298018E-08  0.1298246E-08  0.4000000E-08  0.5000000E-15
  1.000000000000000E-004
  CAR 
 Phonopy                                 
      3.25750868    -14.65278009  301     -3.10491836      1.00000000
    -14.653  0.0000E+00  0.0000E+00
    -14.593  0.0000E+00  0.0000E+00
    -14.533  0.0000E+00  0.0000E+00
    -14.474  0.0000E+00  0.0000E+00
    -14.414  0.0000E+00  0.0000E+00
    -14.354  0.0000E+00  0.0000E+00
    -14.295  0.0000E+00  0.0000E+00
    -14.235  0.1488E-15  0.8882E-17
    -14.175  0.1070E-12  0.6399E-14
    -14.115  0.4461E-10  0.2670E-11
    -14.056  0.9414E-08  0.5647E-09
    -13.996  0.1016E-05  0.6124E-07
    -13.936  0.5689E-04  0.3457E-05
    -13.877  0.1675E-02  0.1034E-03
    -13.817  0.2632E-01  0.1675E-02
    -13.757  0.2242E+00  0.1506E-01
    -13.698  0.1059E+01  0.7827E-01
    -13.638  0.2898E+01  0.2513E+00
    -13.578  0.5043E+01  0.5523E+00
    -13.518  0.6422E+01  0.9357E+00
    -13.459  0.6885E+01  0.1347E+01
    -13.399  0.6917E+01  0.1760E+01
    -13.339  0.6836E+01  0.2168E+01
    -13.280  0.6858E+01  0.2577E+01
    -13.220  0.7321E+01  0.3014E+01
    -13.160  0.7286E+01  0.3449E+01
    -13.101  0.6375E+01  0.3830E+01
    -13.041  0.6162E+01  0.4198E+01
    -12.981  0.7367E+01  0.4638E+01
    -12.921  0.8516E+01  0.5146E+01
    -12.862  0.7614E+01  0.5601E+01
    -12.802  0.5460E+01  0.5927E+01
    -12.742  0.5025E+01  0.6227E+01
    -12.683  0.7164E+01  0.6654E+01
    -12.623  0.9279E+01  0.7208E+01
    -12.563  0.8797E+01  0.7734E+01
    -12.504  0.6960E+01  0.8149E+01
    -12.444  0.5485E+01  0.8476E+01
    -12.384  0.4512E+01  0.8746E+01
    -12.324  0.5868E+01  0.9096E+01
    -12.265  0.9382E+01  0.9656E+01
    -12.205  0.1149E+02  0.1034E+02
    -12.145  0.1121E+02  0.1101E+02
    -12.086  0.1065E+02  0.1165E+02
    -12.026  0.1131E+02  0.1232E+02
    -11.966  0.1260E+02  0.1307E+02
    -11.907  0.1349E+02  0.1388E+02
    -11.847  0.1416E+02  0.1473E+02
    -11.787  0.1542E+02  0.1565E+02
    -11.727  0.1714E+02  0.1667E+02
    -11.668  0.1594E+02  0.1762E+02
    -11.608  0.1190E+02  0.1833E+02
    -11.548  0.1024E+02  0.1894E+02
    -11.489  0.1293E+02  0.1971E+02
    -11.429  0.1676E+02  0.2071E+02
    -11.369  0.1699E+02  0.2173E+02
    -11.310  0.1359E+02  0.2254E+02
    -11.250  0.1205E+02  0.2326E+02
    -11.190  0.1472E+02  0.2414E+02
    -11.130  0.1703E+02  0.2516E+02
    -11.071  0.1543E+02  0.2608E+02
    -11.011  0.1274E+02  0.2684E+02
    -10.951  0.1270E+02  0.2759E+02
    -10.892  0.1434E+02  0.2845E+02
    -10.832  0.1575E+02  0.2939E+02
    -10.772  0.1612E+02  0.3035E+02
    -10.713  0.1556E+02  0.3128E+02
    -10.653  0.1480E+02  0.3217E+02
    -10.593  0.1359E+02  0.3298E+02
    -10.533  0.1307E+02  0.3376E+02
    -10.474  0.1510E+02  0.3466E+02
    -10.414  0.1744E+02  0.3570E+02
    -10.354  0.1703E+02  0.3672E+02
    -10.295  0.1489E+02  0.3761E+02
    -10.235  0.1419E+02  0.3845E+02
    -10.175  0.1487E+02  0.3934E+02
    -10.116  0.1456E+02  0.4021E+02
    -10.056  0.1553E+02  0.4114E+02
     -9.996  0.1775E+02  0.4220E+02
     -9.936  0.1683E+02  0.4320E+02
     -9.877  0.1414E+02  0.4405E+02
     -9.817  0.1404E+02  0.4488E+02
     -9.757  0.1606E+02  0.4584E+02
     -9.698  0.1731E+02  0.4688E+02
     -9.638  0.1852E+02  0.4798E+02
     -9.578  0.1960E+02  0.4915E+02
     -9.518  0.1759E+02  0.5020E+02
     -9.459  0.1474E+02  0.5108E+02
     -9.399  0.1470E+02  0.5196E+02
     -9.339  0.1577E+02  0.5290E+02
     -9.280  0.1552E+02  0.5383E+02
     -9.220  0.1567E+02  0.5476E+02
     -9.160  0.1907E+02  0.5590E+02
     -9.101  0.2391E+02  0.5733E+02
     -9.041  0.2547E+02  0.5885E+02
     -8.981  0.2325E+02  0.6024E+02
     -8.921  0.2028E+02  0.6145E+02
     -8.862  0.1944E+02  0.6261E+02
     -8.802  0.2175E+02  0.6391E+02
     -8.742  0.2678E+02  0.6551E+02
     -8.683  0.3155E+02  0.6739E+02
     -8.623  0.3259E+02  0.6934E+02
     -8.563  0.3115E+02  0.7120E+02
     -8.504  0.3010E+02  0.7299E+02
     -8.444  0.2978E+02  0.7477E+02
     -8.384  0.2826E+02  0.7646E+02
     -8.324  0.2669E+02  0.7805E+02
     -8.265  0.2711E+02  0.7967E+02
     -8.205  0.2833E+02  0.8136E+02
     -8.145  0.2860E+02  0.8307E+02
     -8.086  0.2761E+02  0.8472E+02
     -8.026  0.2619E+02  0.8628E+02
     -7.966  0.2543E+02  0.8780E+02
     -7.907  0.2571E+02  0.8933E+02
     -7.847  0.2632E+02  0.9090E+02
     -7.787  0.2539E+02  0.9242E+02
     -7.727  0.2326E+02  0.9381E+02
     -7.668  0.2234E+02  0.9514E+02
     -7.608  0.2375E+02  0.9656E+02
     -7.548  0.2682E+02  0.9816E+02
     -7.489  0.3141E+02  0.1000E+03
     -7.429  0.3466E+02  0.1021E+03
     -7.369  0.3182E+02  0.1040E+03
     -7.310  0.2701E+02  0.1056E+03
     -7.250  0.2515E+02  0.1071E+03
     -7.190  0.2490E+02  0.1086E+03
     -7.130  0.2654E+02  0.1102E+03
     -7.071  0.2990E+02  0.1120E+03
     -7.011  0.3090E+02  0.1138E+03
     -6.951  0.2682E+02  0.1154E+03
     -6.892  0.2078E+02  0.1167E+03
     -6.832  0.1706E+02  0.1177E+03
     -6.772  0.1497E+02  0.1186E+03
     -6.713  0.1202E+02  0.1193E+03
     -6.653  0.9332E+01  0.1198E+03
     -6.593  0.9033E+01  0.1204E+03
     -6.533  0.9611E+01  0.1210E+03
     -6.474  0.9786E+01  0.1215E+03
     -6.414  0.1060E+02  0.1222E+03
     -6.354  0.1173E+02  0.1229E+03
     -6.295  0.1249E+02  0.1236E+03
     -6.235  0.1279E+02  0.1244E+03
     -6.175  0.1188E+02  0.1251E+03
     -6.116  0.9052E+01  0.1256E+03
     -6.056  0.6427E+01  0.1260E+03
     -5.996  0.6014E+01  0.1264E+03
     -5.936  0.6337E+01  0.1268E+03
     -5.877  0.7154E+01  0.1272E+03
     -5.817  0.1022E+02  0.1278E+03
     -5.757  0.1315E+02  0.1286E+03
     -5.698  0.1115E+02  0.1292E+03
     -5.638  0.7729E+01  0.1297E+03
     -5.578  0.8096E+01  0.1302E+03
     -5.519  0.9504E+01  0.1308E+03
     -5.459  0.8703E+01  0.1313E+03
     -5.399  0.7010E+01  0.1317E+03
     -5.339  0.7188E+01  0.1321E+03
     -5.280  0.9421E+01  0.1327E+03
     -5.220  0.1083E+02  0.1333E+03
     -5.160  0.9451E+01  0.1339E+03
     -5.101  0.6800E+01  0.1343E+03
     -5.041  0.5498E+01  0.1346E+03
     -4.981  0.6286E+01  0.1350E+03
     -4.922  0.7262E+01  0.1354E+03
     -4.862  0.7275E+01  0.1359E+03
     -4.802  0.7373E+01  0.1363E+03
     -4.742  0.8830E+01  0.1368E+03
     -4.683  0.1126E+02  0.1375E+03
     -4.623  0.1291E+02  0.1383E+03
     -4.563  0.1187E+02  0.1390E+03
     -4.504  0.8157E+01  0.1395E+03
     -4.444  0.4917E+01  0.1398E+03
     -4.384  0.4801E+01  0.1401E+03
     -4.325  0.6170E+01  0.1404E+03
     -4.265  0.5999E+01  0.1408E+03
     -4.205  0.5307E+01  0.1411E+03
     -4.145  0.6413E+01  0.1415E+03
     -4.086  0.8118E+01  0.1420E+03
     -4.026  0.8225E+01  0.1425E+03
     -3.966  0.8433E+01  0.1430E+03
     -3.907  0.1050E+02  0.1436E+03
     -3.847  0.1157E+02  0.1443E+03
     -3.787  0.1025E+02  0.1449E+03
     -3.728  0.8936E+01  0.1454E+03
     -3.668  0.8685E+01  0.1459E+03
     -3.608  0.7999E+01  0.1464E+03
     -3.548  0.6065E+01  0.1468E+03
     -3.489  0.4322E+01  0.1470E+03
     -3.429  0.4050E+01  0.1473E+03
     -3.369  0.4997E+01  0.1476E+03
     -3.310  0.5691E+01  0.1479E+03
     -3.250  0.6416E+01  0.1483E+03
     -3.190  0.9209E+01  0.1489E+03
     -3.130  0.1301E+02  0.1496E+03
     -3.071  0.1374E+02  0.1505E+03
     -3.011  0.1024E+02  0.1511E+03
     -2.951  0.6112E+01  0.1514E+03
     -2.892  0.4610E+01  0.1517E+03
     -2.832  0.5618E+01  0.1520E+03
     -2.772  0.7868E+01  0.1525E+03
     -2.713  0.1006E+02  0.1531E+03
     -2.653  0.1010E+02  0.1537E+03
     -2.593  0.8202E+01  0.1542E+03
     -2.533  0.7015E+01  0.1546E+03
     -2.474  0.6654E+01  0.1550E+03
     -2.414  0.6086E+01  0.1554E+03
     -2.354  0.6278E+01  0.1558E+03
     -2.295  0.7551E+01  0.1562E+03
     -2.235  0.9097E+01  0.1568E+03
     -2.175  0.1069E+02  0.1574E+03
     -2.116  0.1126E+02  0.1581E+03
     -2.056  0.9770E+01  0.1586E+03
     -1.996  0.7887E+01  0.1591E+03
     -1.936  0.7335E+01  0.1596E+03
     -1.877  0.7562E+01  0.1600E+03
     -1.817  0.8988E+01  0.1605E+03
     -1.757  0.1191E+02  0.1613E+03
     -1.698  0.1420E+02  0.1621E+03
     -1.638  0.1535E+02  0.1630E+03
     -1.578  0.1556E+02  0.1639E+03
     -1.519  0.1367E+02  0.1648E+03
     -1.459  0.1040E+02  0.1654E+03
     -1.399  0.7418E+01  0.1658E+03
     -1.339  0.5292E+01  0.1661E+03
     -1.280  0.4396E+01  0.1664E+03
     -1.220  0.4589E+01  0.1667E+03
     -1.160  0.5740E+01  0.1670E+03
     -1.101  0.8312E+01  0.1675E+03
     -1.041  0.1097E+02  0.1682E+03
     -0.981  0.1060E+02  0.1688E+03
     -0.922  0.7847E+01  0.1693E+03
     -0.862  0.6352E+01  0.1697E+03
     -0.802  0.6099E+01  0.1700E+03
     -0.742  0.5187E+01  0.1703E+03
     -0.683  0.4444E+01  0.1706E+03
     -0.623  0.6018E+01  0.1710E+03
     -0.563  0.9857E+01  0.1715E+03
     -0.504  0.1418E+02  0.1724E+03
     -0.444  0.1797E+02  0.1735E+03
     -0.384  0.2210E+02  0.1748E+03
     -0.325  0.2711E+02  0.1764E+03
     -0.265  0.3103E+02  0.1783E+03
     -0.205  0.3195E+02  0.1802E+03
     -0.145  0.3171E+02  0.1821E+03
     -0.086  0.3220E+02  0.1840E+03
     -0.026  0.3158E+02  0.1859E+03
      0.034  0.2818E+02  0.1875E+03
      0.093  0.2457E+02  0.1890E+03
      0.153  0.2446E+02  0.1905E+03
      0.213  0.2569E+02  0.1920E+03
      0.272  0.2341E+02  0.1934E+03
      0.332  0.1788E+02  0.1945E+03
      0.392  0.1370E+02  0.1953E+03
      0.452  0.1489E+02  0.1962E+03
      0.511  0.2006E+02  0.1974E+03
      0.571  0.2426E+02  0.1988E+03
      0.631  0.2632E+02  0.2004E+03
      0.690  0.2665E+02  0.2020E+03
      0.750  0.2452E+02  0.2034E+03
      0.810  0.2252E+02  0.2048E+03
      0.869  0.2527E+02  0.2063E+03
      0.929  0.3217E+02  0.2082E+03
      0.989  0.3641E+02  0.2104E+03
      1.049  0.3655E+02  0.2126E+03
      1.108  0.3770E+02  0.2148E+03
      1.168  0.3986E+02  0.2172E+03
      1.228  0.3900E+02  0.2195E+03
      1.287  0.3749E+02  0.2218E+03
      1.347  0.3984E+02  0.2242E+03
      1.407  0.4522E+02  0.2269E+03
      1.466  0.5071E+02  0.2299E+03
      1.526  0.5263E+02  0.2330E+03
      1.586  0.5081E+02  0.2361E+03
      1.646  0.5001E+02  0.2390E+03
      1.705  0.5301E+02  0.2422E+03
      1.765  0.5633E+02  0.2456E+03
      1.825  0.5619E+02  0.2489E+03
      1.884  0.5371E+02  0.2521E+03
      1.944  0.4980E+02  0.2551E+03
      2.004  0.4428E+02  0.2577E+03
      2.063  0.3820E+02  0.2600E+03
      2.123  0.3027E+02  0.2618E+03
      2.183  0.1965E+02  0.2630E+03
      2.243  0.1020E+02  0.2636E+03
      2.302  0.4465E+01  0.2639E+03
      2.362  0.1551E+01  0.2640E+03
      2.422  0.3581E+00  0.2640E+03
      2.481  0.4770E-01  0.2640E+03
      2.541  0.3418E-02  0.2640E+03
      2.601  0.1275E-03  0.2640E+03
      2.660  0.2431E-05  0.2640E+03
      2.720  0.2346E-07  0.2640E+03
      2.780  0.1138E-09  0.2640E+03
      2.840  0.2755E-12  0.2640E+03
      2.899  0.2975E-15  0.2640E+03
      2.959  0.0000E+00  0.2640E+03
      3.019  0.0000E+00  0.2640E+03
      3.078  0.0000E+00  0.2640E+03
      3.138  0.0000E+00  0.2640E+03
      3.198  0.0000E+00  0.2640E+03
      3.258  0.0000E+00  0.2640E+03
