phonon_dispersion                       
           1
     8.690828    0.000000    0.000000
     0.000000    8.690828    0.000000
     0.000000    0.000000   40.000000
   Be
    64
Direct configuration=     1
   0.12500000  0.12500000  0.15872710
   0.12500000  0.37500000  0.15872710
   0.12500000  0.62500000  0.15872710
   0.12500000  0.87500000  0.15872710
   0.37500000  0.12500000  0.15872710
   0.37500000  0.37500000  0.15872710
   0.37500000  0.62500000  0.15872710
   0.37500000  0.87500000  0.15872710
   0.62500000  0.12500000  0.15872710
   0.62500000  0.37500000  0.15872710
   0.62500000  0.62500000  0.15872710
   0.62500000  0.87500000  0.15872710
   0.87500000  0.12500000  0.15872710
   0.87500000  0.37500000  0.15872710
   0.87500000  0.62500000  0.15872710
   0.87500000  0.87500000  0.15872710
   0.00000000  0.00000000  0.11950869
   0.00000000  0.25000000  0.11950869
   0.00000000  0.50000000  0.11950869
   0.00000000  0.75000000  0.11950869
   0.25000000  0.00000000  0.11950869
   0.25000000  0.25000000  0.11950869
   0.25000000  0.50000000  0.11950869
   0.25000000  0.75000000  0.11950869
   0.50000000  0.00000000  0.11950869
   0.50000000  0.25000000  0.11950869
   0.50000000  0.50000000  0.11950869
   0.50000000  0.75000000  0.11950869
   0.75000000  0.00000000  0.11950869
   0.75000000  0.25000000  0.11950869
   0.75000000  0.50000000  0.11950869
   0.75000000  0.75000000  0.11950869
   0.12500000  0.12500000  0.08049131
   0.12500000  0.37500000  0.08049131
   0.12500000  0.62500000  0.08049131
   0.12500000  0.87500000  0.08049131
   0.37500000  0.12500000  0.08049131
   0.37500000  0.37500000  0.08049131
   0.37500000  0.62500000  0.08049131
   0.37500000  0.87500000  0.08049131
   0.62500000  0.12500000  0.08049131
   0.62500000  0.37500000  0.08049131
   0.62500000  0.62500000  0.08049131
   0.62500000  0.87500000  0.08049131
   0.87500000  0.12500000  0.08049131
   0.87500000  0.37500000  0.08049131
   0.87500000  0.62500000  0.08049131
   0.87500000  0.87500000  0.08049131
   0.00000000  0.00000000  0.04127290
   0.00000000  0.25000000  0.04127290
   0.00000000  0.50000000  0.04127290
   0.00000000  0.75000000  0.04127290
   0.25000000  0.00000000  0.04127290
   0.25000000  0.25000000  0.04127290
   0.25000000  0.50000000  0.04127290
   0.25000000  0.75000000  0.04127290
   0.50000000  0.00000000  0.04127290
   0.50000000  0.25000000  0.04127290
   0.50000000  0.50000000  0.04127290
   0.50000000  0.75000000  0.04127290
   0.75000000  0.00000000  0.04127290
   0.75000000  0.25000000  0.04127290
   0.75000000  0.50000000  0.04127290
   0.75000000  0.75000000  0.04127290
Direct configuration=     2
   0.12672596  0.12500000  0.15872710
   0.12500000  0.37500000  0.15872710
   0.12500000  0.62500000  0.15872710
   0.12500000  0.87500000  0.15872710
   0.37500000  0.12500000  0.15872710
   0.37500000  0.37500000  0.15872710
   0.37500000  0.62500000  0.15872710
   0.37500000  0.87500000  0.15872710
   0.62500000  0.12500000  0.15872710
   0.62500000  0.37500000  0.15872710
   0.62500000  0.62500000  0.15872710
   0.62500000  0.87500000  0.15872710
   0.87500000  0.12500000  0.15872710
   0.87500000  0.37500000  0.15872710
   0.87500000  0.62500000  0.15872710
   0.87500000  0.87500000  0.15872710
   0.00000000  0.00000000  0.11950869
   0.00000000  0.25000000  0.11950869
   0.00000000  0.50000000  0.11950869
   0.00000000  0.75000000  0.11950869
   0.25000000  0.00000000  0.11950869
   0.25000000  0.25000000  0.11950869
   0.25000000  0.50000000  0.11950869
   0.25000000  0.75000000  0.11950869
   0.50000000  0.00000000  0.11950869
   0.50000000  0.25000000  0.11950869
   0.50000000  0.50000000  0.11950869
   0.50000000  0.75000000  0.11950869
   0.75000000  0.00000000  0.11950869
   0.75000000  0.25000000  0.11950869
   0.75000000  0.50000000  0.11950869
   0.75000000  0.75000000  0.11950869
   0.12500000  0.12500000  0.08049131
   0.12500000  0.37500000  0.08049131
   0.12500000  0.62500000  0.08049131
   0.12500000  0.87500000  0.08049131
   0.37500000  0.12500000  0.08049131
   0.37500000  0.37500000  0.08049131
   0.37500000  0.62500000  0.08049131
   0.37500000  0.87500000  0.08049131
   0.62500000  0.12500000  0.08049131
   0.62500000  0.37500000  0.08049131
   0.62500000  0.62500000  0.08049131
   0.62500000  0.87500000  0.08049131
   0.87500000  0.12500000  0.08049131
   0.87500000  0.37500000  0.08049131
   0.87500000  0.62500000  0.08049131
   0.87500000  0.87500000  0.08049131
   0.00000000  0.00000000  0.04127290
   0.00000000  0.25000000  0.04127290
   0.00000000  0.50000000  0.04127290
   0.00000000  0.75000000  0.04127290
   0.25000000  0.00000000  0.04127290
   0.25000000  0.25000000  0.04127290
   0.25000000  0.50000000  0.04127290
   0.25000000  0.75000000  0.04127290
   0.50000000  0.00000000  0.04127290
   0.50000000  0.25000000  0.04127290
   0.50000000  0.50000000  0.04127290
   0.50000000  0.75000000  0.04127290
   0.75000000  0.00000000  0.04127290
   0.75000000  0.25000000  0.04127290
   0.75000000  0.50000000  0.04127290
   0.75000000  0.75000000  0.04127290
Direct configuration=     3
   0.12327404  0.12500000  0.15872710
   0.12500000  0.37500000  0.15872710
   0.12500000  0.62500000  0.15872710
   0.12500000  0.87500000  0.15872710
   0.37500000  0.12500000  0.15872710
   0.37500000  0.37500000  0.15872710
   0.37500000  0.62500000  0.15872710
   0.37500000  0.87500000  0.15872710
   0.62500000  0.12500000  0.15872710
   0.62500000  0.37500000  0.15872710
   0.62500000  0.62500000  0.15872710
   0.62500000  0.87500000  0.15872710
   0.87500000  0.12500000  0.15872710
   0.87500000  0.37500000  0.15872710
   0.87500000  0.62500000  0.15872710
   0.87500000  0.87500000  0.15872710
   0.00000000  0.00000000  0.11950869
   0.00000000  0.25000000  0.11950869
   0.00000000  0.50000000  0.11950869
   0.00000000  0.75000000  0.11950869
   0.25000000  0.00000000  0.11950869
   0.25000000  0.25000000  0.11950869
   0.25000000  0.50000000  0.11950869
   0.25000000  0.75000000  0.11950869
   0.50000000  0.00000000  0.11950869
   0.50000000  0.25000000  0.11950869
   0.50000000  0.50000000  0.11950869
   0.50000000  0.75000000  0.11950869
   0.75000000  0.00000000  0.11950869
   0.75000000  0.25000000  0.11950869
   0.75000000  0.50000000  0.11950869
   0.75000000  0.75000000  0.11950869
   0.12500000  0.12500000  0.08049131
   0.12500000  0.37500000  0.08049131
   0.12500000  0.62500000  0.08049131
   0.12500000  0.87500000  0.08049131
   0.37500000  0.12500000  0.08049131
   0.37500000  0.37500000  0.08049131
   0.37500000  0.62500000  0.08049131
   0.37500000  0.87500000  0.08049131
   0.62500000  0.12500000  0.08049131
   0.62500000  0.37500000  0.08049131
   0.62500000  0.62500000  0.08049131
   0.62500000  0.87500000  0.08049131
   0.87500000  0.12500000  0.08049131
   0.87500000  0.37500000  0.08049131
   0.87500000  0.62500000  0.08049131
   0.87500000  0.87500000  0.08049131
   0.00000000  0.00000000  0.04127290
   0.00000000  0.25000000  0.04127290
   0.00000000  0.50000000  0.04127290
   0.00000000  0.75000000  0.04127290
   0.25000000  0.00000000  0.04127290
   0.25000000  0.25000000  0.04127290
   0.25000000  0.50000000  0.04127290
   0.25000000  0.75000000  0.04127290
   0.50000000  0.00000000  0.04127290
   0.50000000  0.25000000  0.04127290
   0.50000000  0.50000000  0.04127290
   0.50000000  0.75000000  0.04127290
   0.75000000  0.00000000  0.04127290
   0.75000000  0.25000000  0.04127290
   0.75000000  0.50000000  0.04127290
   0.75000000  0.75000000  0.04127290
Direct configuration=     4
   0.12500000  0.12500000  0.15910210
   0.12500000  0.37500000  0.15872710
   0.12500000  0.62500000  0.15872710
   0.12500000  0.87500000  0.15872710
   0.37500000  0.12500000  0.15872710
   0.37500000  0.37500000  0.15872710
   0.37500000  0.62500000  0.15872710
   0.37500000  0.87500000  0.15872710
   0.62500000  0.12500000  0.15872710
   0.62500000  0.37500000  0.15872710
   0.62500000  0.62500000  0.15872710
   0.62500000  0.87500000  0.15872710
   0.87500000  0.12500000  0.15872710
   0.87500000  0.37500000  0.15872710
   0.87500000  0.62500000  0.15872710
   0.87500000  0.87500000  0.15872710
   0.00000000  0.00000000  0.11950869
   0.00000000  0.25000000  0.11950869
   0.00000000  0.50000000  0.11950869
   0.00000000  0.75000000  0.11950869
   0.25000000  0.00000000  0.11950869
   0.25000000  0.25000000  0.11950869
   0.25000000  0.50000000  0.11950869
   0.25000000  0.75000000  0.11950869
   0.50000000  0.00000000  0.11950869
   0.50000000  0.25000000  0.11950869
   0.50000000  0.50000000  0.11950869
   0.50000000  0.75000000  0.11950869
   0.75000000  0.00000000  0.11950869
   0.75000000  0.25000000  0.11950869
   0.75000000  0.50000000  0.11950869
   0.75000000  0.75000000  0.11950869
   0.12500000  0.12500000  0.08049131
   0.12500000  0.37500000  0.08049131
   0.12500000  0.62500000  0.08049131
   0.12500000  0.87500000  0.08049131
   0.37500000  0.12500000  0.08049131
   0.37500000  0.37500000  0.08049131
   0.37500000  0.62500000  0.08049131
   0.37500000  0.87500000  0.08049131
   0.62500000  0.12500000  0.08049131
   0.62500000  0.37500000  0.08049131
   0.62500000  0.62500000  0.08049131
   0.62500000  0.87500000  0.08049131
   0.87500000  0.12500000  0.08049131
   0.87500000  0.37500000  0.08049131
   0.87500000  0.62500000  0.08049131
   0.87500000  0.87500000  0.08049131
   0.00000000  0.00000000  0.04127290
   0.00000000  0.25000000  0.04127290
   0.00000000  0.50000000  0.04127290
   0.00000000  0.75000000  0.04127290
   0.25000000  0.00000000  0.04127290
   0.25000000  0.25000000  0.04127290
   0.25000000  0.50000000  0.04127290
   0.25000000  0.75000000  0.04127290
   0.50000000  0.00000000  0.04127290
   0.50000000  0.25000000  0.04127290
   0.50000000  0.50000000  0.04127290
   0.50000000  0.75000000  0.04127290
   0.75000000  0.00000000  0.04127290
   0.75000000  0.25000000  0.04127290
   0.75000000  0.50000000  0.04127290
   0.75000000  0.75000000  0.04127290
Direct configuration=     5
   0.12500000  0.12500000  0.15835210
   0.12500000  0.37500000  0.15872710
   0.12500000  0.62500000  0.15872710
   0.12500000  0.87500000  0.15872710
   0.37500000  0.12500000  0.15872710
   0.37500000  0.37500000  0.15872710
   0.37500000  0.62500000  0.15872710
   0.37500000  0.87500000  0.15872710
   0.62500000  0.12500000  0.15872710
   0.62500000  0.37500000  0.15872710
   0.62500000  0.62500000  0.15872710
   0.62500000  0.87500000  0.15872710
   0.87500000  0.12500000  0.15872710
   0.87500000  0.37500000  0.15872710
   0.87500000  0.62500000  0.15872710
   0.87500000  0.87500000  0.15872710
   0.00000000  0.00000000  0.11950869
   0.00000000  0.25000000  0.11950869
   0.00000000  0.50000000  0.11950869
   0.00000000  0.75000000  0.11950869
   0.25000000  0.00000000  0.11950869
   0.25000000  0.25000000  0.11950869
   0.25000000  0.50000000  0.11950869
   0.25000000  0.75000000  0.11950869
   0.50000000  0.00000000  0.11950869
   0.50000000  0.25000000  0.11950869
   0.50000000  0.50000000  0.11950869
   0.50000000  0.75000000  0.11950869
   0.75000000  0.00000000  0.11950869
   0.75000000  0.25000000  0.11950869
   0.75000000  0.50000000  0.11950869
   0.75000000  0.75000000  0.11950869
   0.12500000  0.12500000  0.08049131
   0.12500000  0.37500000  0.08049131
   0.12500000  0.62500000  0.08049131
   0.12500000  0.87500000  0.08049131
   0.37500000  0.12500000  0.08049131
   0.37500000  0.37500000  0.08049131
   0.37500000  0.62500000  0.08049131
   0.37500000  0.87500000  0.08049131
   0.62500000  0.12500000  0.08049131
   0.62500000  0.37500000  0.08049131
   0.62500000  0.62500000  0.08049131
   0.62500000  0.87500000  0.08049131
   0.87500000  0.12500000  0.08049131
   0.87500000  0.37500000  0.08049131
   0.87500000  0.62500000  0.08049131
   0.87500000  0.87500000  0.08049131
   0.00000000  0.00000000  0.04127290
   0.00000000  0.25000000  0.04127290
   0.00000000  0.50000000  0.04127290
   0.00000000  0.75000000  0.04127290
   0.25000000  0.00000000  0.04127290
   0.25000000  0.25000000  0.04127290
   0.25000000  0.50000000  0.04127290
   0.25000000  0.75000000  0.04127290
   0.50000000  0.00000000  0.04127290
   0.50000000  0.25000000  0.04127290
   0.50000000  0.50000000  0.04127290
   0.50000000  0.75000000  0.04127290
   0.75000000  0.00000000  0.04127290
   0.75000000  0.25000000  0.04127290
   0.75000000  0.50000000  0.04127290
   0.75000000  0.75000000  0.04127290
Direct configuration=     6
   0.12500000  0.12500000  0.15872710
   0.12500000  0.37500000  0.15872710
   0.12500000  0.62500000  0.15872710
   0.12500000  0.87500000  0.15872710
   0.37500000  0.12500000  0.15872710
   0.37500000  0.37500000  0.15872710
   0.37500000  0.62500000  0.15872710
   0.37500000  0.87500000  0.15872710
   0.62500000  0.12500000  0.15872710
   0.62500000  0.37500000  0.15872710
   0.62500000  0.62500000  0.15872710
   0.62500000  0.87500000  0.15872710
   0.87500000  0.12500000  0.15872710
   0.87500000  0.37500000  0.15872710
   0.87500000  0.62500000  0.15872710
   0.87500000  0.87500000  0.15872710
   0.00172596  0.00000000  0.11950869
   0.00000000  0.25000000  0.11950869
   0.00000000  0.50000000  0.11950869
   0.00000000  0.75000000  0.11950869
   0.25000000  0.00000000  0.11950869
   0.25000000  0.25000000  0.11950869
   0.25000000  0.50000000  0.11950869
   0.25000000  0.75000000  0.11950869
   0.50000000  0.00000000  0.11950869
   0.50000000  0.25000000  0.11950869
   0.50000000  0.50000000  0.11950869
   0.50000000  0.75000000  0.11950869
   0.75000000  0.00000000  0.11950869
   0.75000000  0.25000000  0.11950869
   0.75000000  0.50000000  0.11950869
   0.75000000  0.75000000  0.11950869
   0.12500000  0.12500000  0.08049131
   0.12500000  0.37500000  0.08049131
   0.12500000  0.62500000  0.08049131
   0.12500000  0.87500000  0.08049131
   0.37500000  0.12500000  0.08049131
   0.37500000  0.37500000  0.08049131
   0.37500000  0.62500000  0.08049131
   0.37500000  0.87500000  0.08049131
   0.62500000  0.12500000  0.08049131
   0.62500000  0.37500000  0.08049131
   0.62500000  0.62500000  0.08049131
   0.62500000  0.87500000  0.08049131
   0.87500000  0.12500000  0.08049131
   0.87500000  0.37500000  0.08049131
   0.87500000  0.62500000  0.08049131
   0.87500000  0.87500000  0.08049131
   0.00000000  0.00000000  0.04127290
   0.00000000  0.25000000  0.04127290
   0.00000000  0.50000000  0.04127290
   0.00000000  0.75000000  0.04127290
   0.25000000  0.00000000  0.04127290
   0.25000000  0.25000000  0.04127290
   0.25000000  0.50000000  0.04127290
   0.25000000  0.75000000  0.04127290
   0.50000000  0.00000000  0.04127290
   0.50000000  0.25000000  0.04127290
   0.50000000  0.50000000  0.04127290
   0.50000000  0.75000000  0.04127290
   0.75000000  0.00000000  0.04127290
   0.75000000  0.25000000  0.04127290
   0.75000000  0.50000000  0.04127290
   0.75000000  0.75000000  0.04127290
Direct configuration=     7
   0.12500000  0.12500000  0.15872710
   0.12500000  0.37500000  0.15872710
   0.12500000  0.62500000  0.15872710
   0.12500000  0.87500000  0.15872710
   0.37500000  0.12500000  0.15872710
   0.37500000  0.37500000  0.15872710
   0.37500000  0.62500000  0.15872710
   0.37500000  0.87500000  0.15872710
   0.62500000  0.12500000  0.15872710
   0.62500000  0.37500000  0.15872710
   0.62500000  0.62500000  0.15872710
   0.62500000  0.87500000  0.15872710
   0.87500000  0.12500000  0.15872710
   0.87500000  0.37500000  0.15872710
   0.87500000  0.62500000  0.15872710
   0.87500000  0.87500000  0.15872710
  -0.00172596  0.00000000  0.11950869
   0.00000000  0.25000000  0.11950869
   0.00000000  0.50000000  0.11950869
   0.00000000  0.75000000  0.11950869
   0.25000000  0.00000000  0.11950869
   0.25000000  0.25000000  0.11950869
   0.25000000  0.50000000  0.11950869
   0.25000000  0.75000000  0.11950869
   0.50000000  0.00000000  0.11950869
   0.50000000  0.25000000  0.11950869
   0.50000000  0.50000000  0.11950869
   0.50000000  0.75000000  0.11950869
   0.75000000  0.00000000  0.11950869
   0.75000000  0.25000000  0.11950869
   0.75000000  0.50000000  0.11950869
   0.75000000  0.75000000  0.11950869
   0.12500000  0.12500000  0.08049131
   0.12500000  0.37500000  0.08049131
   0.12500000  0.62500000  0.08049131
   0.12500000  0.87500000  0.08049131
   0.37500000  0.12500000  0.08049131
   0.37500000  0.37500000  0.08049131
   0.37500000  0.62500000  0.08049131
   0.37500000  0.87500000  0.08049131
   0.62500000  0.12500000  0.08049131
   0.62500000  0.37500000  0.08049131
   0.62500000  0.62500000  0.08049131
   0.62500000  0.87500000  0.08049131
   0.87500000  0.12500000  0.08049131
   0.87500000  0.37500000  0.08049131
   0.87500000  0.62500000  0.08049131
   0.87500000  0.87500000  0.08049131
   0.00000000  0.00000000  0.04127290
   0.00000000  0.25000000  0.04127290
   0.00000000  0.50000000  0.04127290
   0.00000000  0.75000000  0.04127290
   0.25000000  0.00000000  0.04127290
   0.25000000  0.25000000  0.04127290
   0.25000000  0.50000000  0.04127290
   0.25000000  0.75000000  0.04127290
   0.50000000  0.00000000  0.04127290
   0.50000000  0.25000000  0.04127290
   0.50000000  0.50000000  0.04127290
   0.50000000  0.75000000  0.04127290
   0.75000000  0.00000000  0.04127290
   0.75000000  0.25000000  0.04127290
   0.75000000  0.50000000  0.04127290
   0.75000000  0.75000000  0.04127290
Direct configuration=     8
   0.12500000  0.12500000  0.15872710
   0.12500000  0.37500000  0.15872710
   0.12500000  0.62500000  0.15872710
   0.12500000  0.87500000  0.15872710
   0.37500000  0.12500000  0.15872710
   0.37500000  0.37500000  0.15872710
   0.37500000  0.62500000  0.15872710
   0.37500000  0.87500000  0.15872710
   0.62500000  0.12500000  0.15872710
   0.62500000  0.37500000  0.15872710
   0.62500000  0.62500000  0.15872710
   0.62500000  0.87500000  0.15872710
   0.87500000  0.12500000  0.15872710
   0.87500000  0.37500000  0.15872710
   0.87500000  0.62500000  0.15872710
   0.87500000  0.87500000  0.15872710
   0.00000000  0.00000000  0.11988369
   0.00000000  0.25000000  0.11950869
   0.00000000  0.50000000  0.11950869
   0.00000000  0.75000000  0.11950869
   0.25000000  0.00000000  0.11950869
   0.25000000  0.25000000  0.11950869
   0.25000000  0.50000000  0.11950869
   0.25000000  0.75000000  0.11950869
   0.50000000  0.00000000  0.11950869
   0.50000000  0.25000000  0.11950869
   0.50000000  0.50000000  0.11950869
   0.50000000  0.75000000  0.11950869
   0.75000000  0.00000000  0.11950869
   0.75000000  0.25000000  0.11950869
   0.75000000  0.50000000  0.11950869
   0.75000000  0.75000000  0.11950869
   0.12500000  0.12500000  0.08049131
   0.12500000  0.37500000  0.08049131
   0.12500000  0.62500000  0.08049131
   0.12500000  0.87500000  0.08049131
   0.37500000  0.12500000  0.08049131
   0.37500000  0.37500000  0.08049131
   0.37500000  0.62500000  0.08049131
   0.37500000  0.87500000  0.08049131
   0.62500000  0.12500000  0.08049131
   0.62500000  0.37500000  0.08049131
   0.62500000  0.62500000  0.08049131
   0.62500000  0.87500000  0.08049131
   0.87500000  0.12500000  0.08049131
   0.87500000  0.37500000  0.08049131
   0.87500000  0.62500000  0.08049131
   0.87500000  0.87500000  0.08049131
   0.00000000  0.00000000  0.04127290
   0.00000000  0.25000000  0.04127290
   0.00000000  0.50000000  0.04127290
   0.00000000  0.75000000  0.04127290
   0.25000000  0.00000000  0.04127290
   0.25000000  0.25000000  0.04127290
   0.25000000  0.50000000  0.04127290
   0.25000000  0.75000000  0.04127290
   0.50000000  0.00000000  0.04127290
   0.50000000  0.25000000  0.04127290
   0.50000000  0.50000000  0.04127290
   0.50000000  0.75000000  0.04127290
   0.75000000  0.00000000  0.04127290
   0.75000000  0.25000000  0.04127290
   0.75000000  0.50000000  0.04127290
   0.75000000  0.75000000  0.04127290
Direct configuration=     9
   0.12500000  0.12500000  0.15872710
   0.12500000  0.37500000  0.15872710
   0.12500000  0.62500000  0.15872710
   0.12500000  0.87500000  0.15872710
   0.37500000  0.12500000  0.15872710
   0.37500000  0.37500000  0.15872710
   0.37500000  0.62500000  0.15872710
   0.37500000  0.87500000  0.15872710
   0.62500000  0.12500000  0.15872710
   0.62500000  0.37500000  0.15872710
   0.62500000  0.62500000  0.15872710
   0.62500000  0.87500000  0.15872710
   0.87500000  0.12500000  0.15872710
   0.87500000  0.37500000  0.15872710
   0.87500000  0.62500000  0.15872710
   0.87500000  0.87500000  0.15872710
   0.00000000  0.00000000  0.11913369
   0.00000000  0.25000000  0.11950869
   0.00000000  0.50000000  0.11950869
   0.00000000  0.75000000  0.11950869
   0.25000000  0.00000000  0.11950869
   0.25000000  0.25000000  0.11950869
   0.25000000  0.50000000  0.11950869
   0.25000000  0.75000000  0.11950869
   0.50000000  0.00000000  0.11950869
   0.50000000  0.25000000  0.11950869
   0.50000000  0.50000000  0.11950869
   0.50000000  0.75000000  0.11950869
   0.75000000  0.00000000  0.11950869
   0.75000000  0.25000000  0.11950869
   0.75000000  0.50000000  0.11950869
   0.75000000  0.75000000  0.11950869
   0.12500000  0.12500000  0.08049131
   0.12500000  0.37500000  0.08049131
   0.12500000  0.62500000  0.08049131
   0.12500000  0.87500000  0.08049131
   0.37500000  0.12500000  0.08049131
   0.37500000  0.37500000  0.08049131
   0.37500000  0.62500000  0.08049131
   0.37500000  0.87500000  0.08049131
   0.62500000  0.12500000  0.08049131
   0.62500000  0.37500000  0.08049131
   0.62500000  0.62500000  0.08049131
   0.62500000  0.87500000  0.08049131
   0.87500000  0.12500000  0.08049131
   0.87500000  0.37500000  0.08049131
   0.87500000  0.62500000  0.08049131
   0.87500000  0.87500000  0.08049131
   0.00000000  0.00000000  0.04127290
   0.00000000  0.25000000  0.04127290
   0.00000000  0.50000000  0.04127290
   0.00000000  0.75000000  0.04127290
   0.25000000  0.00000000  0.04127290
   0.25000000  0.25000000  0.04127290
   0.25000000  0.50000000  0.04127290
   0.25000000  0.75000000  0.04127290
   0.50000000  0.00000000  0.04127290
   0.50000000  0.25000000  0.04127290
   0.50000000  0.50000000  0.04127290
   0.50000000  0.75000000  0.04127290
   0.75000000  0.00000000  0.04127290
   0.75000000  0.25000000  0.04127290
   0.75000000  0.50000000  0.04127290
   0.75000000  0.75000000  0.04127290
