       N       E                     dE             d eps       ncg     rms          rms(c)
DAV:   1     0.234538120754E+02    0.23454E+02   -0.24373E+03  1064   0.320E+02
DAV:   2    -0.405444063069E+01   -0.27508E+02   -0.25400E+02  1540   0.455E+01
DAV:   3    -0.454584997116E+01   -0.49141E+00   -0.49113E+00  1708   0.934E+00
DAV:   4    -0.454640648378E+01   -0.55651E-03   -0.55648E-03  1540   0.256E-01
DAV:   5    -0.454640690889E+01   -0.42511E-06   -0.42472E-06  1792   0.695E-03
DAV:   6    -0.454640690923E+01   -0.34102E-09   -0.12826E-09  1540   0.150E-04
   1 F= -.45464069E+01 E0= -.45462586E+01  d E =-.296612E-03  mag=     0.0000    -0.0000     0.0000
