   1   1   0   0
  0.1570082E+03  0.2128983E-09  0.2128983E-09  0.4000000E-08  0.5000000E-15
  1.000000000000000E-004
  CAR 
 SCF                                     
     34.41393149    -12.86760024  301     -4.26647451      1.00000000
    -12.868  0.0000E+00  0.0000E+00
    -12.710  0.0000E+00  0.0000E+00
    -12.552  0.0000E+00  0.0000E+00
    -12.395  0.0000E+00  0.0000E+00
    -12.237  0.0000E+00  0.0000E+00
    -12.080  0.0000E+00  0.0000E+00
    -11.922  0.0000E+00  0.0000E+00
    -11.764  0.0000E+00  0.0000E+00
    -11.607  0.0000E+00  0.0000E+00
    -11.449  0.0000E+00  0.0000E+00
    -11.292  0.4832E-17  0.7615E-18
    -11.134  0.4174E-10  0.6578E-11
    -10.976  0.3482E-05  0.5487E-06
    -10.819  0.3755E-02  0.5924E-03
    -10.661  0.9511E-01  0.1558E-01
    -10.504  0.2239E+00  0.5087E-01
    -10.346  0.2454E+00  0.8954E-01
    -10.188  0.2365E+00  0.1268E+00
    -10.031  0.2286E+00  0.1628E+00
     -9.873  0.2630E+00  0.2043E+00
     -9.715  0.2158E+00  0.2383E+00
     -9.558  0.2520E+00  0.2780E+00
     -9.400  0.2740E+00  0.3212E+00
     -9.243  0.1623E+00  0.3468E+00
     -9.085  0.3351E+00  0.3996E+00
     -8.927  0.2191E+00  0.4341E+00
     -8.770  0.1669E+00  0.4604E+00
     -8.612  0.3657E+00  0.5181E+00
     -8.455  0.2054E+00  0.5504E+00
     -8.297  0.1853E+00  0.5796E+00
     -8.139  0.3135E+00  0.6290E+00
     -7.982  0.3106E+00  0.6780E+00
     -7.824  0.1451E+00  0.7009E+00
     -7.667  0.2391E+00  0.7385E+00
     -7.509  0.3608E+00  0.7954E+00
     -7.351  0.2765E+00  0.8390E+00
     -7.194  0.1424E+00  0.8614E+00
     -7.036  0.2561E+00  0.9018E+00
     -6.879  0.3838E+00  0.9623E+00
     -6.721  0.2938E+00  0.1009E+01
     -6.563  0.1832E+00  0.1037E+01
     -6.406  0.1822E+00  0.1066E+01
     -6.248  0.4339E+00  0.1135E+01
     -6.091  0.3691E+00  0.1193E+01
     -5.933  0.2339E+00  0.1230E+01
     -5.775  0.1683E+00  0.1256E+01
     -5.618  0.3361E+00  0.1309E+01
     -5.460  0.7470E+00  0.1427E+01
     -5.303  0.5566E+00  0.1515E+01
     -5.145  0.4238E+00  0.1581E+01
     -4.987  0.5021E+00  0.1660E+01
     -4.830  0.8841E+00  0.1800E+01
     -4.672  0.4422E+00  0.1869E+01
     -4.515  0.2301E+00  0.1906E+01
     -4.357  0.3925E+00  0.1968E+01
     -4.199  0.3322E+00  0.2020E+01
     -4.042  0.4694E+00  0.2094E+01
     -3.884  0.3879E+00  0.2155E+01
     -3.727  0.2120E+00  0.2188E+01
     -3.569  0.2264E+00  0.2224E+01
     -3.411  0.2491E+00  0.2263E+01
     -3.254  0.4532E+00  0.2335E+01
     -3.096  0.2189E+00  0.2369E+01
     -2.938  0.2181E+00  0.2404E+01
     -2.781  0.1154E+00  0.2422E+01
     -2.623  0.3145E+00  0.2471E+01
     -2.466  0.3151E+00  0.2521E+01
     -2.308  0.1521E+00  0.2545E+01
     -2.150  0.1582E+00  0.2570E+01
     -1.993  0.1462E+00  0.2593E+01
     -1.835  0.2852E+00  0.2638E+01
     -1.678  0.1891E+00  0.2668E+01
     -1.520  0.1831E+00  0.2697E+01
     -1.362  0.5925E-01  0.2706E+01
     -1.205  0.2156E+00  0.2740E+01
     -1.047  0.2524E+00  0.2780E+01
     -0.890  0.2068E+00  0.2812E+01
     -0.732  0.1884E+00  0.2842E+01
     -0.574  0.3099E+00  0.2891E+01
     -0.417  0.4499E-01  0.2898E+01
     -0.259  0.2462E+00  0.2937E+01
     -0.102  0.5484E+00  0.3023E+01
      0.056  0.3297E+00  0.3075E+01
      0.214  0.4978E+00  0.3154E+01
      0.371  0.4794E+00  0.3229E+01
      0.529  0.6740E+00  0.3335E+01
      0.686  0.5806E+00  0.3427E+01
      0.844  0.1024E+01  0.3588E+01
      1.002  0.1336E+01  0.3799E+01
      1.159  0.1521E+01  0.4039E+01
      1.317  0.1617E+01  0.4294E+01
      1.474  0.1517E+01  0.4533E+01
      1.632  0.1665E+01  0.4795E+01
      1.790  0.1498E+01  0.5031E+01
      1.947  0.1729E+01  0.5303E+01
      2.105  0.2030E+01  0.5623E+01
      2.262  0.2008E+01  0.5940E+01
      2.420  0.1542E+01  0.6183E+01
      2.578  0.1976E+01  0.6494E+01
      2.735  0.1997E+01  0.6809E+01
      2.893  0.1643E+01  0.7068E+01
      3.051  0.2251E+01  0.7423E+01
      3.208  0.2434E+01  0.7806E+01
      3.366  0.2285E+01  0.8166E+01
      3.523  0.2066E+01  0.8492E+01
      3.681  0.2430E+01  0.8875E+01
      3.839  0.2495E+01  0.9268E+01
      3.996  0.2039E+01  0.9589E+01
      4.154  0.2478E+01  0.9980E+01
      4.311  0.3052E+01  0.1046E+02
      4.469  0.2249E+01  0.1082E+02
      4.627  0.2100E+01  0.1115E+02
      4.784  0.2091E+01  0.1148E+02
      4.942  0.2037E+01  0.1180E+02
      5.099  0.2515E+01  0.1219E+02
      5.257  0.2422E+01  0.1257E+02
      5.415  0.2191E+01  0.1292E+02
      5.572  0.2027E+01  0.1324E+02
      5.730  0.2300E+01  0.1360E+02
      5.887  0.3606E+01  0.1417E+02
      6.045  0.3003E+01  0.1464E+02
      6.203  0.2185E+01  0.1499E+02
      6.360  0.2808E+01  0.1543E+02
      6.518  0.2834E+01  0.1588E+02
      6.675  0.3189E+01  0.1638E+02
      6.833  0.3043E+01  0.1686E+02
      6.991  0.2789E+01  0.1730E+02
      7.148  0.3199E+01  0.1780E+02
      7.306  0.3137E+01  0.1830E+02
      7.463  0.3117E+01  0.1879E+02
      7.621  0.3338E+01  0.1932E+02
      7.779  0.3478E+01  0.1986E+02
      7.936  0.3048E+01  0.2034E+02
      8.094  0.2735E+01  0.2077E+02
      8.251  0.2627E+01  0.2119E+02
      8.409  0.3811E+01  0.2179E+02
      8.567  0.3653E+01  0.2237E+02
      8.724  0.3527E+01  0.2292E+02
      8.882  0.2995E+01  0.2339E+02
      9.040  0.2496E+01  0.2379E+02
      9.197  0.3687E+01  0.2437E+02
      9.355  0.3790E+01  0.2496E+02
      9.512  0.3813E+01  0.2557E+02
      9.670  0.3333E+01  0.2609E+02
      9.828  0.3668E+01  0.2667E+02
      9.985  0.3300E+01  0.2719E+02
     10.143  0.3483E+01  0.2774E+02
     10.300  0.3503E+01  0.2829E+02
     10.458  0.3664E+01  0.2887E+02
     10.616  0.3497E+01  0.2942E+02
     10.773  0.3887E+01  0.3003E+02
     10.931  0.4206E+01  0.3069E+02
     11.088  0.3218E+01  0.3120E+02
     11.246  0.3908E+01  0.3182E+02
     11.404  0.3277E+01  0.3233E+02
     11.561  0.4381E+01  0.3302E+02
     11.719  0.4941E+01  0.3380E+02
     11.876  0.3620E+01  0.3437E+02
     12.034  0.3350E+01  0.3490E+02
     12.192  0.3708E+01  0.3549E+02
     12.349  0.4955E+01  0.3627E+02
     12.507  0.4210E+01  0.3693E+02
     12.664  0.3495E+01  0.3748E+02
     12.822  0.3740E+01  0.3807E+02
     12.980  0.3418E+01  0.3861E+02
     13.137  0.4495E+01  0.3932E+02
     13.295  0.4538E+01  0.4003E+02
     13.452  0.4863E+01  0.4080E+02
     13.610  0.4364E+01  0.4149E+02
     13.768  0.3450E+01  0.4203E+02
     13.925  0.4077E+01  0.4267E+02
     14.083  0.4017E+01  0.4331E+02
     14.240  0.4118E+01  0.4396E+02
     14.398  0.3883E+01  0.4457E+02
     14.556  0.4764E+01  0.4532E+02
     14.713  0.4367E+01  0.4601E+02
     14.871  0.3616E+01  0.4658E+02
     15.029  0.4256E+01  0.4725E+02
     15.186  0.4377E+01  0.4794E+02
     15.344  0.4075E+01  0.4858E+02
     15.501  0.4207E+01  0.4924E+02
     15.659  0.4891E+01  0.5001E+02
     15.817  0.4608E+01  0.5074E+02
     15.974  0.4579E+01  0.5146E+02
     16.132  0.4562E+01  0.5218E+02
     16.289  0.4270E+01  0.5285E+02
     16.447  0.4075E+01  0.5350E+02
     16.605  0.4432E+01  0.5419E+02
     16.762  0.4079E+01  0.5484E+02
     16.920  0.4177E+01  0.5550E+02
     17.077  0.4213E+01  0.5616E+02
     17.235  0.4627E+01  0.5689E+02
     17.393  0.4931E+01  0.5767E+02
     17.550  0.4524E+01  0.5838E+02
     17.708  0.5264E+01  0.5921E+02
     17.865  0.5050E+01  0.6000E+02
     18.023  0.4440E+01  0.6070E+02
     18.181  0.4054E+01  0.6134E+02
     18.338  0.4041E+01  0.6198E+02
     18.496  0.4274E+01  0.6265E+02
     18.653  0.4451E+01  0.6335E+02
     18.811  0.4642E+01  0.6409E+02
     18.969  0.4782E+01  0.6484E+02
     19.126  0.5620E+01  0.6573E+02
     19.284  0.4286E+01  0.6640E+02
     19.441  0.3797E+01  0.6700E+02
     19.599  0.4820E+01  0.6776E+02
     19.757  0.4950E+01  0.6854E+02
     19.914  0.4393E+01  0.6923E+02
     20.072  0.3020E+01  0.6971E+02
     20.229  0.3068E+01  0.7019E+02
     20.387  0.3415E+01  0.7073E+02
     20.545  0.3617E+01  0.7130E+02
     20.702  0.3980E+01  0.7193E+02
     20.860  0.3577E+01  0.7249E+02
     21.017  0.3377E+01  0.7302E+02
     21.175  0.3300E+01  0.7354E+02
     21.333  0.2962E+01  0.7401E+02
     21.490  0.2105E+01  0.7434E+02
     21.648  0.2655E+01  0.7476E+02
     21.806  0.3005E+01  0.7523E+02
     21.963  0.2095E+01  0.7556E+02
     22.121  0.1600E+01  0.7582E+02
     22.278  0.1423E+01  0.7604E+02
     22.436  0.1603E+01  0.7629E+02
     22.594  0.1824E+01  0.7658E+02
     22.751  0.1997E+01  0.7690E+02
     22.909  0.2037E+01  0.7722E+02
     23.066  0.1204E+01  0.7741E+02
     23.224  0.1800E+01  0.7769E+02
     23.382  0.2122E+01  0.7802E+02
     23.539  0.1603E+01  0.7828E+02
     23.697  0.1159E+01  0.7846E+02
     23.854  0.1455E+01  0.7869E+02
     24.012  0.1952E+01  0.7900E+02
     24.170  0.1337E+01  0.7921E+02
     24.327  0.1219E+01  0.7940E+02
     24.485  0.1155E+01  0.7958E+02
     24.642  0.7985E+00  0.7971E+02
     24.800  0.1452E+01  0.7994E+02
     24.958  0.1304E+01  0.8014E+02
     25.115  0.1215E+01  0.8033E+02
     25.273  0.1590E+01  0.8058E+02
     25.430  0.1248E+01  0.8078E+02
     25.588  0.1176E+01  0.8097E+02
     25.746  0.8900E+00  0.8111E+02
     25.903  0.5924E+00  0.8120E+02
     26.061  0.1081E+01  0.8137E+02
     26.218  0.1006E+01  0.8153E+02
     26.376  0.1277E+01  0.8173E+02
     26.534  0.1035E+01  0.8189E+02
     26.691  0.5290E+00  0.8198E+02
     26.849  0.3312E+00  0.8203E+02
     27.006  0.2825E+00  0.8207E+02
     27.164  0.2889E+00  0.8212E+02
     27.322  0.5359E+00  0.8220E+02
     27.479  0.9909E+00  0.8236E+02
     27.637  0.9523E+00  0.8251E+02
     27.795  0.7773E+00  0.8263E+02
     27.952  0.4492E+00  0.8270E+02
     28.110  0.4189E+00  0.8277E+02
     28.267  0.3806E+00  0.8283E+02
     28.425  0.4765E+00  0.8290E+02
     28.583  0.4378E+00  0.8297E+02
     28.740  0.5442E+00  0.8306E+02
     28.898  0.2592E+00  0.8310E+02
     29.055  0.2279E+00  0.8313E+02
     29.213  0.4035E+00  0.8320E+02
     29.371  0.2085E+00  0.8323E+02
     29.528  0.5053E-01  0.8324E+02
     29.686  0.2101E+00  0.8327E+02
     29.843  0.4344E+00  0.8334E+02
     30.001  0.6760E+00  0.8345E+02
     30.159  0.4209E+00  0.8351E+02
     30.316  0.5280E+00  0.8360E+02
     30.474  0.3616E+00  0.8365E+02
     30.631  0.4091E+00  0.8372E+02
     30.789  0.4913E+00  0.8380E+02
     30.947  0.2306E+00  0.8383E+02
     31.104  0.1522E+00  0.8386E+02
     31.262  0.2118E+00  0.8389E+02
     31.419  0.6759E-01  0.8390E+02
     31.577  0.9561E-01  0.8391E+02
     31.735  0.2399E+00  0.8395E+02
     31.892  0.1353E+00  0.8397E+02
     32.050  0.5913E-01  0.8398E+02
     32.207  0.2320E-01  0.8399E+02
     32.365  0.7448E-01  0.8400E+02
     32.523  0.8129E-02  0.8400E+02
     32.680  0.1381E-04  0.8400E+02
     32.838  0.2187E-09  0.8400E+02
     32.995  0.2319E-16  0.8400E+02
     33.153  0.0000E+00  0.8400E+02
     33.311  0.0000E+00  0.8400E+02
     33.468  0.0000E+00  0.8400E+02
     33.626  0.0000E+00  0.8400E+02
     33.784  0.0000E+00  0.8400E+02
     33.941  0.0000E+00  0.8400E+02
     34.099  0.0000E+00  0.8400E+02
     34.256  0.0000E+00  0.8400E+02
     34.414  0.0000E+00  0.8400E+02
