 running   42 mpi-ranks, on    1 nodes
 distrk:  each k-point on   42 cores,    1 groups
 distr:  one band on    1 cores,   42 groups
 vasp.6.5.0 16Dec24 (build Jan 08 2025 16:17:04) complex                        
  
 POSCAR found type information on POSCAR Be
 POSCAR found :  1 types and       3 ions
 Reading from existing POTCAR
 scaLAPACK will be used
 -----------------------------------------------------------------------------
|                                                                             |
|           W    W    AA    RRRRR   N    N  II  N    N   GGGG   !!!           |
|           W    W   A  A   R    R  NN   N  II  NN   N  G    G  !!!           |
|           W    W  A    A  R    R  N N  N  II  N N  N  G       !!!           |
|           W WW W  AAAAAA  RRRRR   N  N N  II  N  N N  G  GGG   !            |
|           WW  WW  A    A  R   R   N   NN  II  N   NN  G    G                |
|           W    W  A    A  R    R  N    N  II  N    N   GGGG   !!!           |
|                                                                             |
|     For optimal performance we recommend to set                             |
|       NCORE = 2 up to number-of-cores-per-socket                            |
|     NCORE specifies how many cores store one orbital (NPAR=cpu/NCORE).      |
|     This setting can greatly improve the performance of VASP for DFT.       |
|     The default, NCORE=1 might be grossly inefficient on modern             |
|     multi-core architectures or massively parallel machines. Do your        |
|     own testing! More info at https://www.vasp.at/wiki/index.php/NCORE      |
|     Unfortunately you need to use the default for GW and RPA                |
|     calculations (for HF NCORE is supported but not extensively tested      |
|     yet).                                                                   |
|                                                                             |
 -----------------------------------------------------------------------------

 Reading from existing POTCAR
 LDA part: xc-table for (Slater+PW92), standard interpolation
 POSCAR, INCAR and KPOINTS ok, starting setup
 FFT: planning ... GRIDC
 FFT: planning ... GRID_SOFT
 FFT: planning ... GRID
 WAVECAR not read
 entering main loop
       N       E                     dE             d eps       ncg     rms          rms(c)
DAV:   1     0.190989391533E+01    0.19099E+01   -0.25047E+03  4620   0.105E+02
DAV:   2    -0.109478852685E+02   -0.12858E+02   -0.12338E+02  6930   0.164E+01
DAV:   3    -0.109917653759E+02   -0.43880E-01   -0.43880E-01  5040   0.107E+00
DAV:   4    -0.109918895701E+02   -0.12419E-03   -0.12419E-03  8736   0.618E-02
DAV:   5    -0.109918895761E+02   -0.59192E-08   -0.60775E-08  4998   0.404E-04    0.298E+00
DAV:   6    -0.984345599449E+01    0.11484E+01   -0.33152E+00  6006   0.117E+00    0.123E+00
DAV:   7    -0.964088924624E+01    0.20257E+00   -0.77987E-01  7476   0.516E-01    0.504E-01
DAV:   8    -0.960587302706E+01    0.35016E-01   -0.45214E-02  7602   0.172E-01    0.141E-01
DAV:   9    -0.959937125090E+01    0.65018E-02   -0.86472E-03  7896   0.604E-02    0.910E-02
DAV:  10    -0.959922730793E+01    0.14394E-03   -0.19853E-03  7896   0.350E-02    0.386E-02
DAV:  11    -0.960080707203E+01   -0.15798E-02   -0.13147E-03  6468   0.258E-02    0.149E-02
DAV:  12    -0.960112844638E+01   -0.32137E-03   -0.25909E-04  6678   0.118E-02    0.990E-03
DAV:  13    -0.960168968148E+01   -0.56124E-03   -0.10300E-04  6216   0.739E-03    0.380E-03
DAV:  14    -0.960190738072E+01   -0.21770E-03   -0.34507E-05  6384   0.340E-03    0.211E-03
DAV:  15    -0.960193555474E+01   -0.28174E-04   -0.20052E-06  5712   0.101E-03    0.109E-03
DAV:  16    -0.960199217733E+01   -0.56623E-04   -0.71137E-06  6048   0.115E-03    0.432E-04
DAV:  17    -0.960200332739E+01   -0.11150E-04   -0.14473E-06  6300   0.653E-04    0.318E-04
DAV:  18    -0.960200709604E+01   -0.37687E-05   -0.73066E-07  5754   0.476E-04    0.124E-04
DAV:  19    -0.960200892987E+01   -0.18338E-05   -0.46930E-07  5796   0.403E-04    0.518E-05
DAV:  20    -0.960200920372E+01   -0.27385E-06   -0.21812E-08  6678   0.110E-04
   1 F= -.96020092E+01 E0= -.96014715E+01  d E =-.107533E-02
