       N       E                     dE             d eps       ncg     rms          rms(c)
DAV:   1     0.205467609723E+01    0.20547E+01   -0.18662E+03   840   0.260E+02
DAV:   2    -0.126293262295E+02   -0.14684E+02   -0.13532E+02  1036   0.337E+01
DAV:   3    -0.129326490354E+02   -0.30332E+00   -0.30271E+00  1176   0.676E+00
DAV:   4    -0.129333347399E+02   -0.68570E-03   -0.68570E-03  1288   0.315E-01
DAV:   5    -0.129333356434E+02   -0.90344E-06   -0.90372E-06  1288   0.100E-02
DAV:   6    -0.129333356449E+02   -0.15479E-08   -0.15166E-08  1260   0.392E-04
   1 F= -.12933336E+02 E0= -.12933036E+02  d E =-.598805E-03  mag=     0.0000    -0.0000     0.0000
