cubic-beryllene with a=2.50624           
   1.00000000000000     
     2.5062400000000000    0.0000000000000000    0.0000000000000000
     0.0000000000000000    2.5062400000000000    0.0000000000000000
     0.0000000000000000    0.0000000000000000   40.0000000000000000
  Be            
     3
Direct
     0.0000000000000000    0.0000000000000000    0.1313280000000034
     0.5000000000000000    0.5000000000000000    0.1000000000000014
     0.0000000000000000    0.0000000000000000    0.0686719999999994
 
  0.00000000E+00  0.00000000E+00  0.00000000E+00
  0.00000000E+00  0.00000000E+00  0.00000000E+00
  0.00000000E+00  0.00000000E+00  0.00000000E+00
