    3    3    1    1
  0.6225983E+02  0.2322032E-09  0.2322032E-09  0.4000000E-08  0.5000000E-15
  1.000000000000000E-004
  CAR 
 alpha_2h SOC topology                   
      4      4     28
 
  0.0000000E+00  0.0000000E+00  0.0000000E+00  0.2500000E+00
      1        -14.977178   1.000000
      2        -14.977178   1.000000
      3        -10.475925   1.000000
      4        -10.475925   1.000000
      5         -0.685847   0.000000
      6         -0.685845   0.000000
      7          0.385298   0.000000
      8          0.385326   0.000000
      9          0.687463   0.000000
     10          0.687471   0.000000
     11          0.839621   0.000000
     12          0.839633   0.000000
     13          0.945785   0.000000
     14          0.945846   0.000000
     15          1.315582   0.000000
     16          1.315636   0.000000
     17          1.424520   0.000000
     18          1.424562   0.000000
     19          2.007773   0.000000
     20          2.007820   0.000000
     21          2.143534   0.000000
     22          2.143549   0.000000
     23          2.920911   0.000000
     24          2.920934   0.000000
     25          3.060557   0.000000
     26          3.060594   0.000000
     27          4.045383   0.000000
     28          4.045414   0.000000
 
  0.5000000E+00  0.0000000E+00  0.0000000E+00  0.2500000E+00
      1        -10.091751   1.000000
      2        -10.091751   1.000000
      3         -6.002649   1.000000
      4         -6.002649   1.000000
      5         -0.357918   0.000000
      6         -0.357918   0.000000
      7          0.287437   0.000000
      8          0.287437   0.000000
      9          6.973010   0.000000
     10          6.973011   0.000000
     11          7.212258   0.000000
     12          7.212258   0.000000
     13          8.701815   0.000000
     14          8.701818   0.000000
     15          9.644856   0.000000
     16          9.644880   0.000000
     17          9.692484   0.000000
     18          9.692513   0.000000
     19          9.976112   0.000000
     20          9.976131   0.000000
     21          9.987240   0.000000
     22          9.987249   0.000000
     23         10.133344   0.000000
     24         10.134108   0.000000
     25         10.135308   0.000000
     26         10.135713   0.000000
     27         10.163810   0.000000
     28         10.164272   0.000000
 
  0.0000000E+00  0.5000000E+00  0.0000000E+00  0.2500000E+00
      1        -10.091751   1.000000
      2        -10.091751   1.000000
      3         -6.002649   1.000000
      4         -6.002649   1.000000
      5         -0.357918   0.000000
      6         -0.357918   0.000000
      7          0.287437   0.000000
      8          0.287437   0.000000
      9          6.973009   0.000000
     10          6.973011   0.000000
     11          7.212258   0.000000
     12          7.212258   0.000000
     13          8.701815   0.000000
     14          8.701817   0.000000
     15          9.644856   0.000000
     16          9.644881   0.000000
     17          9.692484   0.000000
     18          9.692513   0.000000
     19          9.976125   0.000000
     20          9.976164   0.000000
     21          9.987239   0.000000
     22          9.987297   0.000000
     23         10.133354   0.000000
     24         10.133412   0.000000
     25         10.135253   0.000000
     26         10.135525   0.000000
     27         10.163609   0.000000
     28         10.164658   0.000000
 
  0.5000000E+00  0.5000000E+00  0.0000000E+00  0.2500000E+00
      1        -10.091558   1.000000
      2        -10.091558   1.000000
      3         -6.002735   1.000000
      4         -6.002734   1.000000
      5         -0.357966   0.000000
      6         -0.357966   0.000000
      7          0.287790   0.000000
      8          0.287791   0.000000
      9          6.972675   0.000000
     10          6.972676   0.000000
     11          7.212432   0.000000
     12          7.212432   0.000000
     13          8.701907   0.000000
     14          8.701909   0.000000
     15          9.644979   0.000000
     16          9.645004   0.000000
     17          9.692628   0.000000
     18          9.692657   0.000000
     19          9.976243   0.000000
     20          9.976260   0.000000
     21          9.987379   0.000000
     22          9.987399   0.000000
     23         10.133519   0.000000
     24         10.134397   0.000000
     25         10.135400   0.000000
     26         10.137848   0.000000
     27         10.164447   0.000000
     28         10.165110   0.000000
