 running   42 mpi-ranks, on    1 nodes
 distrk:  each k-point on   42 cores,    1 groups
 distr:  one band on    6 cores,    7 groups
 vasp.6.5.0 16Dec24 (build Jan 08 2025 16:17:04) complex                        
  
 POSCAR found type information on POSCAR Be
 POSCAR found :  1 types and       2 ions
 Reading from existing POTCAR
 scaLAPACK will be used
 Reading from existing POTCAR
 LDA part: xc-table for (Slater+PW92), standard interpolation
 -----------------------------------------------------------------------------
|                                                                             |
|           W    W    AA    RRRRR   N    N  II  N    N   GGGG   !!!           |
|           W    W   A  A   R    R  NN   N  II  NN   N  G    G  !!!           |
|           W    W  A    A  R    R  N N  N  II  N N  N  G       !!!           |
|           W WW W  AAAAAA  RRRRR   N  N N  II  N  N N  G  GGG   !            |
|           WW  WW  A    A  R   R   N   NN  II  N   NN  G    G                |
|           W    W  A    A  R    R  N    N  II  N    N   GGGG   !!!           |
|                                                                             |
|     The number of bands has been changed from the values supplied in        |
|     the INCAR file. This is a result of running the parallel version.       |
|     The orbitals not found in the WAVECAR file will be initialized with     |
|     random numbers, which is usually adequate. For correlated               |
|     calculations, however, you should redo the groundstate calculation.     |
|     I found NBANDS = 96. Now, NBANDS = 98.                                  |
|                                                                             |
 -----------------------------------------------------------------------------

 POSCAR, INCAR and KPOINTS ok, starting setup
 FFT: planning ... GRIDC
 FFT: planning ... GRID_SOFT
 FFT: planning ... GRID
 WAVECAR not read
 entering main loop
       N       E                     dE             d eps       ncg     rms          rms(c)
DAV:   1     0.116751745472E+02    0.11675E+02   -0.12896E+03 43316   0.318E+01
DAV:   2    -0.694569956650E+01   -0.18621E+02   -0.17843E+02 52430   0.127E+01
DAV:   3    -0.732508436932E+01   -0.37938E+00   -0.37758E+00 53256   0.144E+00
DAV:   4    -0.732579784313E+01   -0.71347E-03   -0.71340E-03 50666   0.593E-02
DAV:   5    -0.732579977567E+01   -0.19325E-05   -0.19326E-05 51828   0.300E-03    0.228E+00
DAV:   6    -0.684486382321E+01    0.48094E+00   -0.72863E-01 52934   0.213E-01    0.120E+00
DAV:   7    -0.668047961666E+01    0.16438E+00   -0.36568E-01 57190   0.155E-01    0.410E-01
DAV:   8    -0.665874610451E+01    0.21734E-01   -0.13412E-02 53074   0.451E-02    0.120E-01
DAV:   9    -0.665285040674E+01    0.58957E-02   -0.47559E-03 54208   0.186E-02    0.899E-02
DAV:  10    -0.665092920657E+01    0.19212E-02   -0.17919E-03 52654   0.132E-02    0.359E-02
DAV:  11    -0.665123996287E+01   -0.31076E-03   -0.75980E-04 51856   0.755E-03    0.247E-02
DAV:  12    -0.665209057361E+01   -0.85061E-03   -0.19340E-04 50134   0.546E-03    0.120E-02
DAV:  13    -0.665228702665E+01   -0.19645E-03   -0.20099E-05 50134   0.191E-03    0.729E-03
DAV:  14    -0.665265110250E+01   -0.36408E-03   -0.27322E-05 49238   0.147E-03    0.264E-03
DAV:  15    -0.665274354328E+01   -0.92441E-04   -0.26409E-06 47712   0.597E-04    0.173E-03
DAV:  16    -0.665281144945E+01   -0.67906E-04   -0.53302E-06 48594   0.501E-04    0.746E-04
DAV:  17    -0.665283571303E+01   -0.24264E-04   -0.87947E-07 48930   0.225E-04    0.353E-04
DAV:  18    -0.665284012181E+01   -0.44088E-05   -0.66534E-08 49546   0.797E-05    0.210E-04
DAV:  19    -0.665284341050E+01   -0.32887E-05   -0.24094E-08 48006   0.542E-05    0.915E-05
DAV:  20    -0.665284434053E+01   -0.93002E-06   -0.20463E-09 51310   0.151E-05
   1 F= -.66528443E+01 E0= -.66528239E+01  d E =-.409331E-04
 writing wavefunctions
 optical routines
 imaginary and real dielectric function
 recalculating local potential from charge density
 direction            1
 direction            2
 direction            3
