       N       E                     dE             d eps       ncg     rms          rms(c)
DAV:   1     0.581547000789E+01    0.58155E+01   -0.32492E+01    84   0.403E+00
DAV:   2     0.207758882175E+01   -0.37379E+01   -0.37379E+01    84   0.115E+00
DAV:   3    -0.438636295813E-03   -0.20780E+01   -0.20780E+01   126   0.129E+00
DAV:   4    -0.282949144354E-01   -0.27856E-01   -0.27856E-01   126   0.226E-01
DAV:   5    -0.283041170048E-01   -0.92026E-05   -0.92041E-05   168   0.384E-03    0.580E-03
DAV:   6    -0.283050254266E-01   -0.90842E-06   -0.51606E-07   126   0.118E-03
   1 F= -.28305025E-01 E0= -.14200286E-01  d E =-.282095E-01
