beta-Beryllene third hollow-hollow_1
   1.00000000000000
     3.2836579090957545    1.8864459730147807    0.0000000000000000
    -3.2836579090957545    1.8864459730147807    0.0000000000000000
     0.0000000000000000    0.0000000000000000   40.0000000000000000
   Be    H
   6     2
Direct
     0.9957750896164890    0.9957750896164890    0.1239332573373290
     0.6517880822689508    0.3231730401226710    0.1225780561481802
     0.3231730401226710    0.6517880822689508    0.1225780561481802
     0.3375582437168466    0.3375582437168466    0.0760667426626739
     0.6815452510643778    0.0101602932106647    0.0774219438518227
     0.0101602932106647    0.6815452510643778    0.0774219438518227
     0.3099085339759062    0.3099085339759062    0.1458768753293129
     0.0234247993574297    0.0234247993574297    0.0541231246706829
