 running   42 mpi-ranks, on    1 nodes
 distrk:  each k-point on   42 cores,    1 groups
 distr:  one band on    1 cores,   42 groups
 vasp.6.5.0 16Dec24 (build Jan 08 2025 16:17:04) complex                        
  
 POSCAR found type information on POSCAR Be
 POSCAR found :  1 types and       3 ions
 Reading from existing POTCAR
 scaLAPACK will be used
 -----------------------------------------------------------------------------
|                                                                             |
|           W    W    AA    RRRRR   N    N  II  N    N   GGGG   !!!           |
|           W    W   A  A   R    R  NN   N  II  NN   N  G    G  !!!           |
|           W    W  A    A  R    R  N N  N  II  N N  N  G       !!!           |
|           W WW W  AAAAAA  RRRRR   N  N N  II  N  N N  G  GGG   !            |
|           WW  WW  A    A  R   R   N   NN  II  N   NN  G    G                |
|           W    W  A    A  R    R  N    N  II  N    N   GGGG   !!!           |
|                                                                             |
|     For optimal performance we recommend to set                             |
|       NCORE = 2 up to number-of-cores-per-socket                            |
|     NCORE specifies how many cores store one orbital (NPAR=cpu/NCORE).      |
|     This setting can greatly improve the performance of VASP for DFT.       |
|     The default, NCORE=1 might be grossly inefficient on modern             |
|     multi-core architectures or massively parallel machines. Do your        |
|     own testing! More info at https://www.vasp.at/wiki/index.php/NCORE      |
|     Unfortunately you need to use the default for GW and RPA                |
|     calculations (for HF NCORE is supported but not extensively tested      |
|     yet).                                                                   |
|                                                                             |
 -----------------------------------------------------------------------------

 Reading from existing POTCAR
 LDA part: xc-table for (Slater+PW92), standard interpolation
 POSCAR, INCAR and KPOINTS ok, starting setup
 FFT: planning ... GRIDC
 FFT: planning ... GRID_SOFT
 FFT: planning ... GRID
 WAVECAR not read
 entering main loop
       N       E                     dE             d eps       ncg     rms          rms(c)
DAV:   1     0.199227836968E+01    0.19923E+01   -0.24840E+03 46200   0.104E+02
DAV:   2    -0.109437602121E+02   -0.12936E+02   -0.12442E+02 68628   0.164E+01
DAV:   3    -0.109906991507E+02   -0.46939E-01   -0.46934E-01 48972   0.109E+00
DAV:   4    -0.109908312521E+02   -0.13210E-03   -0.13210E-03 87402   0.639E-02
DAV:   5    -0.109908312605E+02   -0.84255E-08   -0.91327E-08 49014   0.445E-04    0.298E+00
DAV:   6    -0.985019785039E+01    0.11406E+01   -0.32968E+00 60396   0.116E+00    0.123E+00
DAV:   7    -0.964052353967E+01    0.20967E+00   -0.81102E-01 71442   0.532E-01    0.507E-01
DAV:   8    -0.960531060337E+01    0.35213E-01   -0.41064E-02 74802   0.183E-01    0.132E-01
DAV:   9    -0.959826719838E+01    0.70434E-02   -0.19821E-02 77952   0.751E-02    0.114E-01
DAV:  10    -0.959853321958E+01   -0.26602E-03   -0.18540E-03 75138   0.373E-02    0.412E-02
DAV:  11    -0.960008904871E+01   -0.15558E-02   -0.47690E-03 72954   0.397E-02    0.477E-02
DAV:  12    -0.960047049740E+01   -0.38145E-03   -0.18188E-03 63420   0.300E-02    0.128E-02
DAV:  13    -0.960102003397E+01   -0.54954E-03   -0.76177E-05 63336   0.717E-03    0.681E-03
DAV:  14    -0.960121423740E+01   -0.19420E-03   -0.25799E-05 64596   0.383E-03    0.283E-03
DAV:  15    -0.960135058978E+01   -0.13635E-03   -0.24834E-05 63126   0.271E-03    0.198E-03
DAV:  16    -0.960140513838E+01   -0.54549E-04   -0.74158E-06 67158   0.132E-03    0.677E-04
DAV:  17    -0.960141480624E+01   -0.96679E-05   -0.96223E-07 61152   0.608E-04    0.584E-04
DAV:  18    -0.960142410961E+01   -0.93034E-05   -0.68740E-07 62832   0.440E-04    0.153E-04
DAV:  19    -0.960142567656E+01   -0.15670E-05   -0.12100E-08 66738   0.652E-05    0.102E-04
DAV:  20    -0.960142659206E+01   -0.91550E-06   -0.18369E-08 61572   0.740E-05
   1 F= -.96014266E+01 E0= -.96004693E+01  d E =-.191468E-02
