   2   2   0   0
  0.7850411E+02  0.2128983E-09  0.2128983E-09  0.4000000E-08  0.5000000E-15
  1.000000000000000E-004
  CAR 
 Geometry                                
     14.78927941    -16.91002705  301     -3.58626440      1.00000000
    -16.910  0.0000E+00  0.0000E+00
    -16.804  0.0000E+00  0.0000E+00
    -16.699  0.0000E+00  0.0000E+00
    -16.593  0.0000E+00  0.0000E+00
    -16.487  0.0000E+00  0.0000E+00
    -16.382  0.0000E+00  0.0000E+00
    -16.276  0.0000E+00  0.0000E+00
    -16.170  0.0000E+00  0.0000E+00
    -16.065  0.0000E+00  0.0000E+00
    -15.959  0.0000E+00  0.0000E+00
    -15.853  0.0000E+00  0.0000E+00
    -15.748  0.4324E-18  0.4569E-19
    -15.642  0.1310E-09  0.1384E-10
    -15.536  0.8407E-05  0.8883E-06
    -15.431  0.8520E-03  0.9091E-04
    -15.325  0.1977E-02  0.2998E-03
    -15.219  0.2083E-02  0.5199E-03
    -15.114  0.2542E-02  0.7885E-03
    -15.008  0.1965E-02  0.9961E-03
    -14.902  0.1554E-02  0.1160E-02
    -14.797  0.3250E-02  0.1504E-02
    -14.691  0.1366E-02  0.1648E-02
    -14.585  0.1922E-02  0.1851E-02
    -14.480  0.3571E-02  0.2229E-02
    -14.374  0.1050E-02  0.2339E-02
    -14.268  0.1505E-02  0.2499E-02
    -14.163  0.3530E-02  0.2872E-02
    -14.057  0.2175E-02  0.3101E-02
    -13.951  0.2050E-02  0.3318E-02
    -13.846  0.3994E-03  0.3360E-02
    -13.740  0.3805E-02  0.3762E-02
    -13.634  0.3317E-02  0.4113E-02
    -13.529  0.1066E-02  0.4225E-02
    -13.423  0.2301E-02  0.4469E-02
    -13.317  0.2971E-03  0.4500E-02
    -13.212  0.4823E-02  0.5010E-02
    -13.106  0.2710E-02  0.5296E-02
    -13.000  0.1548E-02  0.5459E-02
    -12.895  0.1474E-02  0.5615E-02
    -12.789  0.1668E-02  0.5792E-02
    -12.683  0.2461E-02  0.6052E-02
    -12.578  0.4520E-02  0.6529E-02
    -12.472  0.1929E-02  0.6733E-02
    -12.366  0.1955E-02  0.6940E-02
    -12.261  0.3224E-03  0.6974E-02
    -12.155  0.2792E-02  0.7269E-02
    -12.049  0.3536E-02  0.7642E-02
    -11.944  0.2989E-02  0.7958E-02
    -11.838  0.2769E-02  0.8251E-02
    -11.732  0.2438E-02  0.8508E-02
    -11.627  0.7448E-03  0.8587E-02
    -11.521  0.6849E-03  0.8659E-02
    -11.415  0.4729E-02  0.9159E-02
    -11.310  0.3753E-02  0.9556E-02
    -11.204  0.2608E-02  0.9831E-02
    -11.098  0.2228E-02  0.1007E-01
    -10.993  0.2525E-02  0.1033E-01
    -10.887  0.6087E-03  0.1040E-01
    -10.781  0.1105E-02  0.1051E-01
    -10.676  0.6390E-02  0.1119E-01
    -10.570  0.3275E-02  0.1154E-01
    -10.465  0.2884E-02  0.1184E-01
    -10.359  0.2086E-02  0.1206E-01
    -10.253  0.2706E-02  0.1235E-01
    -10.148  0.3240E-03  0.1238E-01
    -10.042  0.3226E-02  0.1272E-01
     -9.936  0.6000E-02  0.1336E-01
     -9.831  0.4372E-02  0.1382E-01
     -9.725  0.3760E-02  0.1422E-01
     -9.619  0.2849E-02  0.1452E-01
     -9.514  0.2843E-02  0.1482E-01
     -9.408  0.1740E-02  0.1500E-01
     -9.302  0.6204E-02  0.1566E-01
     -9.197  0.1234E-01  0.1696E-01
     -9.091  0.5853E-03  0.1702E-01
     -8.985  0.1164E-02  0.1715E-01
     -8.880  0.1334E-02  0.1729E-01
     -8.774  0.2111E-02  0.1751E-01
     -8.668  0.3315E-02  0.1786E-01
     -8.563  0.5185E-02  0.1841E-01
     -8.457  0.2005E-02  0.1862E-01
     -8.351  0.8649E-04  0.1863E-01
     -8.246  0.1158E-02  0.1875E-01
     -8.140  0.3778E-02  0.1915E-01
     -8.034  0.4302E-02  0.1960E-01
     -7.929  0.3767E-02  0.2000E-01
     -7.823  0.3722E-02  0.2040E-01
     -7.717  0.2207E-02  0.2063E-01
     -7.612  0.2683E-02  0.2091E-01
     -7.506  0.5093E-02  0.2145E-01
     -7.400  0.1644E-02  0.2162E-01
     -7.295  0.1710E-02  0.2180E-01
     -7.189  0.3308E-02  0.2215E-01
     -7.083  0.1678E-02  0.2233E-01
     -6.978  0.9424E-03  0.2243E-01
     -6.872  0.2116E-02  0.2266E-01
     -6.766  0.3141E-02  0.2299E-01
     -6.661  0.2473E-02  0.2325E-01
     -6.555  0.6763E-03  0.2332E-01
     -6.449  0.7914E-03  0.2340E-01
     -6.344  0.3795E-02  0.2380E-01
     -6.238  0.3007E-02  0.2412E-01
     -6.132  0.7244E-03  0.2420E-01
     -6.027  0.2521E-02  0.2446E-01
     -5.921  0.9631E-04  0.2448E-01
     -5.815  0.2950E-02  0.2479E-01
     -5.710  0.3469E-02  0.2515E-01
     -5.604  0.2712E-02  0.2544E-01
     -5.498  0.2447E-03  0.2547E-01
     -5.393  0.2498E-02  0.2573E-01
     -5.287  0.6289E-03  0.2580E-01
     -5.181  0.2752E-02  0.2609E-01
     -5.076  0.4354E-02  0.2655E-01
     -4.970  0.1493E-02  0.2670E-01
     -4.864  0.2210E-02  0.2694E-01
     -4.759  0.8991E-04  0.2695E-01
     -4.653  0.2524E-02  0.2721E-01
     -4.547  0.1758E-02  0.2740E-01
     -4.442  0.3560E-02  0.2778E-01
     -4.336  0.3690E-02  0.2817E-01
     -4.230  0.1312E-02  0.2830E-01
     -4.125  0.2586E-02  0.2858E-01
     -4.019  0.1021E-03  0.2859E-01
     -3.913  0.2089E-02  0.2881E-01
     -3.808  0.3113E-02  0.2914E-01
     -3.702  0.3987E-02  0.2956E-01
     -3.596  0.3837E-02  0.2997E-01
     -3.491  0.1764E-02  0.3015E-01
     -3.385  0.2844E-02  0.3045E-01
     -3.279  0.5494E-02  0.3103E-01
     -3.174  0.9061E-02  0.3199E-01
     -3.068  0.1196E-01  0.3325E-01
     -2.962  0.2469E-01  0.3586E-01
     -2.857  0.7738E-02  0.3668E-01
     -2.751  0.5587E-02  0.3727E-01
     -2.645  0.3735E-02  0.3767E-01
     -2.540  0.5315E-02  0.3823E-01
     -2.434  0.9543E-02  0.3924E-01
     -2.328  0.2577E-02  0.3951E-01
     -2.223  0.2061E-02  0.3973E-01
     -2.117  0.2313E-02  0.3997E-01
     -2.011  0.2860E-03  0.4000E-01
     -1.906  0.7719E-07  0.4000E-01
     -1.800  0.4616E-14  0.4000E-01
     -1.694  0.0000E+00  0.4000E-01
     -1.589  0.1427E-17  0.4000E-01
     -1.483  0.2802E-09  0.4000E-01
     -1.377  0.1104E-04  0.4000E-01
     -1.272  0.7793E-03  0.4008E-01
     -1.166  0.1484E-02  0.4024E-01
     -1.060  0.2323E-02  0.4049E-01
     -0.955  0.8380E-03  0.4057E-01
     -0.849  0.2725E-02  0.4086E-01
     -0.743  0.1393E-02  0.4101E-01
     -0.638  0.1016E-02  0.4112E-01
     -0.532  0.3463E-02  0.4148E-01
     -0.426  0.8095E-03  0.4157E-01
     -0.321  0.1042E-02  0.4168E-01
     -0.215  0.2494E-02  0.4194E-01
     -0.109  0.2937E-02  0.4225E-01
     -0.004  0.7631E-03  0.4233E-01
      0.102  0.1255E-02  0.4247E-01
      0.208  0.3203E-02  0.4280E-01
      0.313  0.6596E-02  0.4350E-01
      0.419  0.1264E-01  0.4484E-01
      0.525  0.1812E-01  0.4675E-01
      0.630  0.1144E-01  0.4796E-01
      0.736  0.1830E-01  0.4989E-01
      0.842  0.1324E-01  0.5129E-01
      0.947  0.1281E-01  0.5265E-01
      1.053  0.7315E-02  0.5342E-01
      1.159  0.1830E-01  0.5535E-01
      1.264  0.1163E-01  0.5658E-01
      1.370  0.1170E-01  0.5782E-01
      1.476  0.2012E-01  0.5994E-01
      1.581  0.1497E-01  0.6153E-01
      1.687  0.1485E-01  0.6310E-01
      1.793  0.1303E-01  0.6447E-01
      1.898  0.1145E-01  0.6568E-01
      2.004  0.1561E-01  0.6733E-01
      2.110  0.1368E-01  0.6878E-01
      2.215  0.1438E-01  0.7030E-01
      2.321  0.1777E-01  0.7217E-01
      2.427  0.8742E-02  0.7310E-01
      2.532  0.1054E-01  0.7421E-01
      2.638  0.1210E-01  0.7549E-01
      2.744  0.1457E-01  0.7703E-01
      2.849  0.1728E-01  0.7885E-01
      2.955  0.1250E-01  0.8018E-01
      3.061  0.1294E-01  0.8154E-01
      3.166  0.8245E-02  0.8241E-01
      3.272  0.1551E-01  0.8405E-01
      3.378  0.1142E-01  0.8526E-01
      3.483  0.1248E-01  0.8658E-01
      3.589  0.1417E-01  0.8808E-01
      3.695  0.2047E-01  0.9024E-01
      3.800  0.1708E-01  0.9204E-01
      3.906  0.1381E-01  0.9350E-01
      4.012  0.2076E-01  0.9570E-01
      4.117  0.1028E-01  0.9678E-01
      4.223  0.1085E-01  0.9793E-01
      4.329  0.1152E-01  0.9915E-01
      4.434  0.1248E-01  0.1005E+00
      4.540  0.1524E-01  0.1021E+00
      4.646  0.1535E-01  0.1037E+00
      4.751  0.1812E-01  0.1056E+00
      4.857  0.1694E-01  0.1074E+00
      4.962  0.6549E-02  0.1081E+00
      5.068  0.1201E-01  0.1094E+00
      5.174  0.1680E-01  0.1111E+00
      5.279  0.4205E-02  0.1116E+00
      5.385  0.5016E-02  0.1121E+00
      5.491  0.7417E-02  0.1129E+00
      5.596  0.1492E-01  0.1145E+00
      5.702  0.2330E-01  0.1169E+00
      5.808  0.1704E-01  0.1187E+00
      5.913  0.1329E-01  0.1201E+00
      6.019  0.7017E-02  0.1209E+00
      6.125  0.1434E-01  0.1224E+00
      6.230  0.9406E-02  0.1234E+00
      6.336  0.3231E-02  0.1237E+00
      6.442  0.9066E-02  0.1247E+00
      6.547  0.1263E-01  0.1260E+00
      6.653  0.1111E-01  0.1272E+00
      6.759  0.1128E-01  0.1284E+00
      6.864  0.1269E-01  0.1297E+00
      6.970  0.5699E-02  0.1303E+00
      7.076  0.5525E-02  0.1309E+00
      7.181  0.9703E-02  0.1319E+00
      7.287  0.1157E-01  0.1332E+00
      7.393  0.5173E-02  0.1337E+00
      7.498  0.9824E-02  0.1347E+00
      7.604  0.1156E-01  0.1360E+00
      7.710  0.3620E-02  0.1364E+00
      7.815  0.4939E-02  0.1369E+00
      7.921  0.3186E-02  0.1372E+00
      8.027  0.6381E-02  0.1379E+00
      8.132  0.1099E-01  0.1390E+00
      8.238  0.1141E-01  0.1403E+00
      8.344  0.8613E-02  0.1412E+00
      8.449  0.5794E-02  0.1418E+00
      8.555  0.7260E-02  0.1425E+00
      8.661  0.6306E-02  0.1432E+00
      8.766  0.3030E-02  0.1435E+00
      8.872  0.7039E-02  0.1443E+00
      8.978  0.6389E-02  0.1449E+00
      9.083  0.9422E-02  0.1459E+00
      9.189  0.8519E-02  0.1468E+00
      9.295  0.1149E-01  0.1481E+00
      9.400  0.8861E-02  0.1490E+00
      9.506  0.6710E-02  0.1497E+00
      9.612  0.5544E-02  0.1503E+00
      9.717  0.4477E-02  0.1508E+00
      9.823  0.9520E-02  0.1518E+00
      9.929  0.4510E-02  0.1522E+00
     10.034  0.1386E-02  0.1524E+00
     10.140  0.6715E-02  0.1531E+00
     10.246  0.4980E-02  0.1536E+00
     10.351  0.8634E-02  0.1545E+00
     10.457  0.2861E-02  0.1548E+00
     10.563  0.5683E-02  0.1554E+00
     10.668  0.3939E-02  0.1559E+00
     10.774  0.9174E-02  0.1568E+00
     10.880  0.1818E-02  0.1570E+00
     10.985  0.4880E-02  0.1575E+00
     11.091  0.2040E-02  0.1577E+00
     11.197  0.9543E-04  0.1578E+00
     11.302  0.1343E-02  0.1579E+00
     11.408  0.1307E-03  0.1579E+00
     11.514  0.5035E-06  0.1579E+00
     11.619  0.7006E-03  0.1580E+00
     11.725  0.5862E-02  0.1586E+00
     11.831  0.3751E-02  0.1590E+00
     11.936  0.3680E-02  0.1594E+00
     12.042  0.2638E-04  0.1594E+00
     12.148  0.1370E-06  0.1594E+00
     12.253  0.3469E-03  0.1594E+00
     12.359  0.1191E-02  0.1596E+00
     12.465  0.2028E-04  0.1596E+00
     12.570  0.1437E-09  0.1596E+00
     12.676  0.1971E-10  0.1596E+00
     12.782  0.4399E-05  0.1596E+00
     12.887  0.3730E-03  0.1596E+00
     12.993  0.9201E-03  0.1597E+00
     13.099  0.2305E-02  0.1599E+00
     13.204  0.3225E-04  0.1599E+00
     13.310  0.7194E-04  0.1600E+00
     13.416  0.4325E-03  0.1600E+00
     13.521  0.1485E-04  0.1600E+00
     13.627  0.2611E-09  0.1600E+00
     13.733  0.8648E-18  0.1600E+00
     13.838  0.0000E+00  0.1600E+00
     13.944  0.0000E+00  0.1600E+00
     14.050  0.0000E+00  0.1600E+00
     14.155  0.0000E+00  0.1600E+00
     14.261  0.0000E+00  0.1600E+00
     14.367  0.0000E+00  0.1600E+00
     14.472  0.0000E+00  0.1600E+00
     14.578  0.0000E+00  0.1600E+00
     14.684  0.0000E+00  0.1600E+00
     14.789  0.0000E+00  0.1600E+00
