Geometry                                
           1
     1.843780    1.064445    0.000000
    -1.843780    1.064445    0.000000
     0.000000    0.000000   40.000000
   Be   H 
     1     1
Direct configuration=     1
   0.00000000  0.00000000  0.08000000
   0.66666667  0.33333333  0.12000000
Geometry                                
           1
     1.850675    1.068459    0.000000
    -1.850675    1.068459    0.000000
     0.000000    0.000000   40.000000
   Be   H 
     1     1
Direct configuration=     2
   0.00000046  0.99999954  0.08194897
   0.66666620  0.33333380  0.11805103
Geometry                                
           1
     1.871363    1.080498    0.000000
    -1.871363    1.080498    0.000000
     0.000000    0.000000   40.000000
   Be   H 
     1     1
Direct configuration=     3
   0.00000185  0.99999815  0.08779586
   0.66666482  0.33333518  0.11220414
Geometry                                
           1
     1.867280    1.078122    0.000000
    -1.867280    1.078122    0.000000
     0.000000    0.000000   40.000000
   Be   H 
     1     1
Direct configuration=     4
   0.00000158  0.99999842  0.08664207
   0.66666509  0.33333491  0.11335793
Geometry                                
           1
     1.868002    1.078542    0.000000
    -1.868002    1.078542    0.000000
     0.000000    0.000000   40.000000
   Be   H 
     1     1
Direct configuration=     5
   0.00000163  0.99999837  0.08684596
   0.66666504  0.33333496  0.11315404
Geometry                                
           1
     1.867891    1.078478    0.000000
    -1.867891    1.078478    0.000000
     0.000000    0.000000   40.000000
   Be   H 
     1     1
Direct configuration=     6
   0.00000162  0.99999838  0.08681479
   0.66666505  0.33333495  0.11318521
Geometry                                
           1
     1.854592    1.070769    0.000000
    -1.854592    1.070769    0.000000
     0.000000    0.000000   40.000000
   Be   H 
     1     1
Direct configuration=     7
   0.99999963  0.00000037  0.08685411
   0.66666703  0.33333297  0.11314589
Geometry                                
           1
     1.854515    1.070725    0.000000
    -1.854515    1.070725    0.000000
     0.000000    0.000000   40.000000
   Be   H 
     1     1
Direct configuration=     8
   0.99999962  0.00000038  0.08685434
   0.66666704  0.33333296  0.11314566
Geometry                                
           1
     1.853971    1.070399    0.000000
    -1.853971    1.070399    0.000000
     0.000000    0.000000   40.000000
   Be   H 
     1     1
Direct configuration=     9
   0.99999912  0.00000088  0.08681132
   0.66666755  0.33333245  0.11318868
Geometry                                
           1
     1.853849    1.070326    0.000000
    -1.853849    1.070326    0.000000
     0.000000    0.000000   40.000000
   Be   H 
     1     1
Direct configuration=    10
   0.99999901  0.00000099  0.08680169
   0.66666766  0.33333234  0.11319831
