       N       E                     dE             d eps       ncg     rms          rms(c)
DAV:   1    -0.791753465841E+00   -0.79175E+00   -0.17367E+03   616   0.247E+02
DAV:   2    -0.138549012869E+02   -0.13063E+02   -0.11330E+02   812   0.311E+01
DAV:   3    -0.141130635519E+02   -0.25816E+00   -0.25776E+00   924   0.634E+00
DAV:   4    -0.141136594690E+02   -0.59592E-03   -0.59592E-03  1008   0.289E-01
DAV:   5    -0.141136596683E+02   -0.19932E-06   -0.19938E-06   840   0.574E-03
DAV:   6    -0.141136596708E+02   -0.24634E-08   -0.21215E-08  1008   0.432E-04
   1 F= -.14113660E+02 E0= -.14113403E+02  d E =-.512699E-03  mag=     0.0000    -0.0000     0.0000
