       N       E                     dE             d eps       ncg     rms          rms(c)
DAV:   1     0.404471241443E+01    0.40447E+01   -0.10726E+03  5460   0.572E+01
DAV:   2    -0.321327827448E+01   -0.72580E+01   -0.69190E+01  7812   0.657E+00
DAV:   3    -0.328022788770E+01   -0.66950E-01   -0.66715E-01  6426   0.860E-01
DAV:   4    -0.328047482808E+01   -0.24694E-03   -0.24694E-03  9870   0.567E-02
DAV:   5    -0.328047490311E+01   -0.75034E-07   -0.74635E-07  6594   0.763E-04    0.179E+00
DAV:   6    -0.317743739958E+01    0.10304E+00   -0.36998E-02  8694   0.128E-01    0.106E+00
DAV:   7    -0.310834003748E+01    0.69097E-01   -0.84137E-02  8904   0.183E-01    0.152E-01
DAV:   8    -0.311047764712E+01   -0.21376E-02   -0.13039E-03  7518   0.437E-02    0.104E-01
DAV:   9    -0.310794537227E+01    0.25323E-02   -0.19520E-03  8862   0.278E-02    0.307E-02
DAV:  10    -0.310908721135E+01   -0.11418E-02   -0.10882E-03  7812   0.233E-02    0.213E-02
DAV:  11    -0.310938257611E+01   -0.29536E-03   -0.95803E-05  8064   0.924E-03    0.898E-03
DAV:  12    -0.311003560962E+01   -0.65303E-03   -0.67348E-05  7770   0.596E-03    0.429E-03
DAV:  13    -0.311028607701E+01   -0.25047E-03   -0.21801E-05  7770   0.219E-03    0.159E-03
DAV:  14    -0.311033275564E+01   -0.46679E-04   -0.50274E-06  8022   0.945E-04    0.111E-03
DAV:  15    -0.311040597537E+01   -0.73220E-04   -0.11617E-05  8232   0.966E-04    0.541E-04
DAV:  16    -0.311042197472E+01   -0.15999E-04   -0.23788E-06  8568   0.460E-04    0.303E-04
DAV:  17    -0.311042546215E+01   -0.34874E-05   -0.10617E-07  7560   0.157E-04    0.140E-04
DAV:  18    -0.311042755556E+01   -0.20934E-05   -0.51039E-08  7770   0.971E-05    0.621E-05
DAV:  19    -0.311042785002E+01   -0.29446E-06   -0.12282E-07  8610   0.281E-05
   1 F= -.31104279E+01 E0= -.31090434E+01  d E =-.276891E-02
