   3   3   0   0
  0.5431159E+02  0.2146950E-09  0.2186389E-09  0.4000000E-08  0.5000000E-15
  1.000000000000000E-004
  CAR 
 Geometry                                
     16.78456066    -15.74737006  301     -3.61756527      1.00000000
    -15.747  0.0000E+00  0.0000E+00
    -15.639  0.0000E+00  0.0000E+00
    -15.530  0.0000E+00  0.0000E+00
    -15.422  0.0000E+00  0.0000E+00
    -15.314  0.0000E+00  0.0000E+00
    -15.205  0.0000E+00  0.0000E+00
    -15.097  0.0000E+00  0.0000E+00
    -14.988  0.0000E+00  0.0000E+00
    -14.880  0.0000E+00  0.0000E+00
    -14.771  0.0000E+00  0.0000E+00
    -14.663  0.0000E+00  0.0000E+00
    -14.555  0.8426E-19  0.9138E-20
    -14.446  0.6626E-10  0.7186E-11
    -14.338  0.7901E-05  0.8567E-06
    -14.229  0.9605E-03  0.1050E-03
    -14.121  0.2453E-02  0.3710E-03
    -14.012  0.2062E-02  0.5947E-03
    -13.904  0.2994E-02  0.9194E-03
    -13.795  0.1798E-02  0.1114E-02
    -13.687  0.3329E-02  0.1475E-02
    -13.579  0.1606E-02  0.1650E-02
    -13.470  0.2878E-02  0.1962E-02
    -13.362  0.2873E-02  0.2273E-02
    -13.253  0.1386E-02  0.2424E-02
    -13.145  0.3252E-02  0.2776E-02
    -13.036  0.2688E-02  0.3068E-02
    -12.928  0.2161E-02  0.3302E-02
    -12.819  0.2097E-02  0.3529E-02
    -12.711  0.3029E-02  0.3858E-02
    -12.603  0.2878E-02  0.4170E-02
    -12.494  0.1516E-02  0.4334E-02
    -12.386  0.3120E-02  0.4673E-02
    -12.277  0.2557E-02  0.4950E-02
    -12.169  0.2747E-02  0.5248E-02
    -12.060  0.2417E-02  0.5510E-02
    -11.952  0.1331E-02  0.5654E-02
    -11.844  0.4364E-02  0.6128E-02
    -11.735  0.2045E-02  0.6349E-02
    -11.627  0.2317E-02  0.6601E-02
    -11.518  0.2938E-02  0.6919E-02
    -11.410  0.1526E-02  0.7085E-02
    -11.301  0.4633E-02  0.7587E-02
    -11.193  0.5053E-02  0.8135E-02
    -11.084  0.4427E-02  0.8615E-02
    -10.976  0.5173E-02  0.9176E-02
    -10.868  0.4274E-02  0.9639E-02
    -10.759  0.5519E-02  0.1024E-01
    -10.651  0.5137E-02  0.1080E-01
    -10.542  0.5660E-02  0.1141E-01
    -10.434  0.4366E-02  0.1188E-01
    -10.325  0.4835E-02  0.1241E-01
    -10.217  0.4641E-02  0.1291E-01
    -10.109  0.6975E-02  0.1367E-01
    -10.000  0.3797E-02  0.1408E-01
     -9.892  0.5710E-02  0.1470E-01
     -9.783  0.6684E-02  0.1542E-01
     -9.675  0.4222E-02  0.1588E-01
     -9.566  0.4137E-02  0.1633E-01
     -9.458  0.5226E-02  0.1690E-01
     -9.349  0.8605E-02  0.1783E-01
     -9.241  0.5630E-02  0.1844E-01
     -9.133  0.4679E-02  0.1895E-01
     -9.024  0.5679E-02  0.1956E-01
     -8.916  0.5980E-02  0.2021E-01
     -8.807  0.7600E-02  0.2103E-01
     -8.699  0.8673E-02  0.2197E-01
     -8.590  0.7733E-02  0.2281E-01
     -8.482  0.4334E-02  0.2328E-01
     -8.373  0.5781E-02  0.2391E-01
     -8.265  0.6503E-02  0.2462E-01
     -8.157  0.5597E-02  0.2522E-01
     -8.048  0.6456E-02  0.2592E-01
     -7.940  0.4331E-02  0.2639E-01
     -7.831  0.5175E-02  0.2695E-01
     -7.723  0.5373E-02  0.2754E-01
     -7.614  0.5758E-02  0.2816E-01
     -7.506  0.4302E-02  0.2863E-01
     -7.398  0.4209E-02  0.2908E-01
     -7.289  0.5392E-02  0.2967E-01
     -7.181  0.5833E-02  0.3030E-01
     -7.072  0.4504E-02  0.3079E-01
     -6.964  0.4849E-02  0.3131E-01
     -6.855  0.3863E-02  0.3173E-01
     -6.747  0.3690E-02  0.3213E-01
     -6.638  0.3576E-02  0.3252E-01
     -6.530  0.4594E-02  0.3302E-01
     -6.422  0.5483E-02  0.3361E-01
     -6.313  0.3245E-02  0.3397E-01
     -6.205  0.7790E-02  0.3481E-01
     -6.096  0.6309E-02  0.3550E-01
     -5.988  0.6209E-02  0.3617E-01
     -5.879  0.4599E-02  0.3667E-01
     -5.771  0.7385E-02  0.3747E-01
     -5.662  0.5004E-02  0.3801E-01
     -5.554  0.5649E-02  0.3862E-01
     -5.446  0.8756E-02  0.3957E-01
     -5.337  0.7404E-02  0.4038E-01
     -5.229  0.5038E-02  0.4092E-01
     -5.120  0.8881E-02  0.4189E-01
     -5.012  0.6974E-02  0.4264E-01
     -4.903  0.5582E-02  0.4325E-01
     -4.795  0.6415E-02  0.4394E-01
     -4.687  0.5669E-02  0.4456E-01
     -4.578  0.5323E-02  0.4513E-01
     -4.470  0.6749E-02  0.4587E-01
     -4.361  0.5278E-02  0.4644E-01
     -4.253  0.6901E-02  0.4719E-01
     -4.144  0.5292E-02  0.4776E-01
     -4.036  0.5235E-02  0.4833E-01
     -3.927  0.4588E-02  0.4883E-01
     -3.819  0.3679E-02  0.4922E-01
     -3.711  0.3578E-02  0.4961E-01
     -3.602  0.4072E-02  0.5005E-01
     -3.494  0.3763E-02  0.5046E-01
     -3.385  0.2790E-02  0.5076E-01
     -3.277  0.2654E-02  0.5105E-01
     -3.168  0.3290E-02  0.5141E-01
     -3.060  0.1495E-02  0.5157E-01
     -2.951  0.2414E-02  0.5183E-01
     -2.843  0.1314E-02  0.5198E-01
     -2.735  0.4785E-02  0.5249E-01
     -2.626  0.2687E-02  0.5279E-01
     -2.518  0.1300E-02  0.5293E-01
     -2.409  0.2692E-02  0.5322E-01
     -2.301  0.3844E-02  0.5364E-01
     -2.192  0.1454E-02  0.5379E-01
     -2.084  0.4281E-03  0.5384E-01
     -1.976  0.3465E-02  0.5422E-01
     -1.867  0.3734E-02  0.5462E-01
     -1.759  0.2468E-02  0.5489E-01
     -1.650  0.4381E-02  0.5536E-01
     -1.542  0.1029E-02  0.5547E-01
     -1.433  0.4413E-02  0.5595E-01
     -1.325  0.1139E-01  0.5719E-01
     -1.216  0.1195E-01  0.5848E-01
     -1.108  0.9526E-02  0.5952E-01
     -1.000  0.2597E-02  0.5980E-01
     -0.891  0.1293E-02  0.5994E-01
     -0.783  0.3178E-02  0.6028E-01
     -0.674  0.5061E-02  0.6083E-01
     -0.566  0.6403E-02  0.6153E-01
     -0.457  0.1235E-01  0.6287E-01
     -0.349  0.9161E-02  0.6386E-01
     -0.240  0.9057E-02  0.6484E-01
     -0.132  0.8646E-02  0.6578E-01
     -0.024  0.9800E-02  0.6684E-01
      0.085  0.7326E-02  0.6764E-01
      0.193  0.9790E-02  0.6870E-01
      0.302  0.9124E-02  0.6969E-01
      0.410  0.8496E-02  0.7061E-01
      0.519  0.7385E-02  0.7141E-01
      0.627  0.7520E-02  0.7223E-01
      0.735  0.6816E-02  0.7296E-01
      0.844  0.8336E-02  0.7387E-01
      0.952  0.1143E-01  0.7511E-01
      1.061  0.1047E-01  0.7624E-01
      1.169  0.1121E-01  0.7746E-01
      1.278  0.1289E-01  0.7886E-01
      1.386  0.1444E-01  0.8042E-01
      1.495  0.1586E-01  0.8214E-01
      1.603  0.1999E-01  0.8431E-01
      1.711  0.2074E-01  0.8656E-01
      1.820  0.1948E-01  0.8867E-01
      1.928  0.1753E-01  0.9057E-01
      2.037  0.1921E-01  0.9266E-01
      2.145  0.1939E-01  0.9476E-01
      2.254  0.1928E-01  0.9685E-01
      2.362  0.2398E-01  0.9945E-01
      2.471  0.1527E-01  0.1011E+00
      2.579  0.2278E-01  0.1036E+00
      2.687  0.1952E-01  0.1057E+00
      2.796  0.1755E-01  0.1076E+00
      2.904  0.1776E-01  0.1095E+00
      3.013  0.2350E-01  0.1121E+00
      3.121  0.2066E-01  0.1143E+00
      3.230  0.2068E-01  0.1166E+00
      3.338  0.2140E-01  0.1189E+00
      3.446  0.2330E-01  0.1214E+00
      3.555  0.2389E-01  0.1240E+00
      3.663  0.2321E-01  0.1265E+00
      3.772  0.2211E-01  0.1289E+00
      3.880  0.2540E-01  0.1317E+00
      3.989  0.2927E-01  0.1348E+00
      4.097  0.2815E-01  0.1379E+00
      4.206  0.3124E-01  0.1413E+00
      4.314  0.3389E-01  0.1449E+00
      4.422  0.2588E-01  0.1478E+00
      4.531  0.2839E-01  0.1508E+00
      4.639  0.2855E-01  0.1539E+00
      4.748  0.2929E-01  0.1571E+00
      4.856  0.3099E-01  0.1605E+00
      4.965  0.2905E-01  0.1636E+00
      5.073  0.2624E-01  0.1665E+00
      5.182  0.2959E-01  0.1697E+00
      5.290  0.3033E-01  0.1730E+00
      5.398  0.3119E-01  0.1763E+00
      5.507  0.3231E-01  0.1798E+00
      5.615  0.2970E-01  0.1831E+00
      5.724  0.2475E-01  0.1857E+00
      5.832  0.3344E-01  0.1894E+00
      5.941  0.3322E-01  0.1930E+00
      6.049  0.2986E-01  0.1962E+00
      6.157  0.3182E-01  0.1997E+00
      6.266  0.3005E-01  0.2029E+00
      6.374  0.3365E-01  0.2066E+00
      6.483  0.3241E-01  0.2101E+00
      6.591  0.2968E-01  0.2133E+00
      6.700  0.3058E-01  0.2166E+00
      6.808  0.3279E-01  0.2202E+00
      6.917  0.3858E-01  0.2244E+00
      7.025  0.3623E-01  0.2283E+00
      7.133  0.3533E-01  0.2321E+00
      7.242  0.3878E-01  0.2363E+00
      7.350  0.3559E-01  0.2402E+00
      7.459  0.3236E-01  0.2437E+00
      7.567  0.3264E-01  0.2472E+00
      7.676  0.3837E-01  0.2514E+00
      7.784  0.4090E-01  0.2558E+00
      7.892  0.3786E-01  0.2599E+00
      8.001  0.3468E-01  0.2637E+00
      8.109  0.3527E-01  0.2675E+00
      8.218  0.3726E-01  0.2716E+00
      8.326  0.3725E-01  0.2756E+00
      8.435  0.3473E-01  0.2794E+00
      8.543  0.3935E-01  0.2836E+00
      8.652  0.4377E-01  0.2884E+00
      8.760  0.4295E-01  0.2930E+00
      8.868  0.4530E-01  0.2980E+00
      8.977  0.3262E-01  0.3015E+00
      9.085  0.3498E-01  0.3053E+00
      9.194  0.4299E-01  0.3099E+00
      9.302  0.3528E-01  0.3138E+00
      9.411  0.4068E-01  0.3182E+00
      9.519  0.3889E-01  0.3224E+00
      9.628  0.4015E-01  0.3267E+00
      9.736  0.4067E-01  0.3312E+00
      9.844  0.4137E-01  0.3356E+00
      9.953  0.3763E-01  0.3397E+00
     10.061  0.3994E-01  0.3441E+00
     10.170  0.4273E-01  0.3487E+00
     10.278  0.4195E-01  0.3532E+00
     10.387  0.4023E-01  0.3576E+00
     10.495  0.3977E-01  0.3619E+00
     10.603  0.5150E-01  0.3675E+00
     10.712  0.4820E-01  0.3727E+00
     10.820  0.3627E-01  0.3767E+00
     10.929  0.3745E-01  0.3807E+00
     11.037  0.5470E-01  0.3867E+00
     11.146  0.4571E-01  0.3916E+00
     11.254  0.4477E-01  0.3965E+00
     11.363  0.3793E-01  0.4006E+00
     11.471  0.3379E-01  0.4042E+00
     11.579  0.4036E-01  0.4086E+00
     11.688  0.4151E-01  0.4131E+00
     11.796  0.3563E-01  0.4170E+00
     11.905  0.3483E-01  0.4208E+00
     12.013  0.3321E-01  0.4244E+00
     12.122  0.3268E-01  0.4279E+00
     12.230  0.3207E-01  0.4314E+00
     12.339  0.3402E-01  0.4351E+00
     12.447  0.2676E-01  0.4380E+00
     12.555  0.2767E-01  0.4410E+00
     12.664  0.2376E-01  0.4436E+00
     12.772  0.2837E-01  0.4466E+00
     12.881  0.2153E-01  0.4490E+00
     12.989  0.2615E-01  0.4518E+00
     13.098  0.2202E-01  0.4542E+00
     13.206  0.2466E-01  0.4569E+00
     13.314  0.2295E-01  0.4594E+00
     13.423  0.2110E-01  0.4616E+00
     13.531  0.1972E-01  0.4638E+00
     13.640  0.1660E-01  0.4656E+00
     13.748  0.1380E-01  0.4671E+00
     13.857  0.2014E-01  0.4693E+00
     13.965  0.1323E-01  0.4707E+00
     14.074  0.8853E-02  0.4717E+00
     14.182  0.1313E-01  0.4731E+00
     14.290  0.1362E-01  0.4746E+00
     14.399  0.8290E-02  0.4755E+00
     14.507  0.1139E-01  0.4767E+00
     14.616  0.6813E-02  0.4774E+00
     14.724  0.7679E-02  0.4783E+00
     14.833  0.6765E-02  0.4790E+00
     14.941  0.2318E-02  0.4792E+00
     15.050  0.3182E-02  0.4796E+00
     15.158  0.1462E-02  0.4797E+00
     15.266  0.6686E-03  0.4798E+00
     15.375  0.1630E-02  0.4800E+00
     15.483  0.3648E-04  0.4800E+00
     15.592  0.3003E-09  0.4800E+00
     15.700  0.2809E-18  0.4800E+00
     15.809  0.0000E+00  0.4800E+00
     15.917  0.0000E+00  0.4800E+00
     16.025  0.0000E+00  0.4800E+00
     16.134  0.0000E+00  0.4800E+00
     16.242  0.0000E+00  0.4800E+00
     16.351  0.0000E+00  0.4800E+00
     16.459  0.0000E+00  0.4800E+00
     16.568  0.0000E+00  0.4800E+00
     16.676  0.0000E+00  0.4800E+00
     16.785  0.0000E+00  0.4800E+00
