       N       E                     dE             d eps       ncg     rms          rms(c)
DAV:   1     0.219981614229E+02    0.21998E+02   -0.24134E+03  1288   0.317E+02
DAV:   2    -0.450564571959E+01   -0.26504E+02   -0.24868E+02  1904   0.452E+01
DAV:   3    -0.496104962213E+01   -0.45540E+00   -0.45517E+00  1988   0.896E+00
DAV:   4    -0.496173332024E+01   -0.68370E-03   -0.68370E-03  1960   0.286E-01
DAV:   5    -0.496173357895E+01   -0.25871E-06   -0.25844E-06  2044   0.594E-03
DAV:   6    -0.496173357917E+01   -0.22146E-09   -0.19498E-09  2016   0.165E-04
   1 F= -.49617336E+01 E0= -.49616110E+01  d E =-.245219E-03  mag=     0.0000    -0.0000     0.0000
