    2    2    1    1
  0.2748765E+03  0.3983717E-09  0.3983717E-09  0.4000000E-08  0.5000000E-15
  1.000000000000000E-004
  CAR 
 Convergence                             
      4     19     42
 
  0.1276756E-14  0.1276756E-14  0.1276756E-14  0.6944444E-02
      1         -8.734471   1.000000
      2         -4.077132   1.000000
      3         -1.580826   0.000000
      4         -1.580826   0.000000
      5         -0.146749   0.000000
      6          0.268108   0.000000
      7          0.355799   0.000000
      8          0.569946   0.000000
      9          0.653973   0.000000
     10          1.091148   0.000000
     11          1.220723   0.000000
     12          1.807188   0.000000
     13          1.980783   0.000000
     14          2.575882   0.000000
     15          2.575882   0.000000
     16          2.743628   0.000000
     17          2.961292   0.000000
     18          3.783774   0.000000
     19          3.880112   0.000000
     20          4.129186   0.000000
     21          4.187087   0.000000
     22          5.204586   0.000000
     23          5.494667   0.000000
     24          6.713913   0.000000
     25          7.049753   0.000000
     26          7.254715   0.000000
     27          8.373721   0.000000
     28          8.812210   0.000000
     29          9.174098   0.000000
     30          9.174099   0.000000
     31         10.040738   0.000000
     32         10.532091   0.000000
     33         10.532091   0.000000
     34         10.752583   0.000000
     35         11.138390   0.000000
     36         12.056645   0.000000
     37         12.056666   0.000000
     38         12.348518   0.000000
     39         12.348530   0.000000
     40         12.513109   0.000000
     41         12.560915   0.000000
     42         12.664086   0.000000
 
  0.8333333E-01  0.1276756E-14  0.1276756E-14  0.4166667E-01
      1         -8.666789   1.000000
      2         -3.998610   1.000000
      3         -1.899899   0.000000
      4         -1.731770   0.000000
      5         -0.061206   0.000000
      6          0.354765   0.000000
      7          0.443494   0.000000
      8          0.657078   0.000000
      9          0.741368   0.000000
     10          1.178068   0.000000
     11          1.307614   0.000000
     12          1.893479   0.000000
     13          2.066978   0.000000
     14          2.544718   0.000000
     15          2.829223   0.000000
     16          2.874415   0.000000
     17          3.048882   0.000000
     18          3.883291   0.000000
     19          3.964644   0.000000
     20          3.972240   0.000000
     21          4.216039   0.000000
     22          5.285477   0.000000
     23          5.581269   0.000000
     24          6.783929   0.000000
     25          7.141118   0.000000
     26          7.551859   0.000000
     27          8.311675   0.000000
     28          8.696733   0.000000
     29          8.768859   0.000000
     30          8.896437   0.000000
     31          9.900819   0.000000
     32         10.411207   0.000000
     33         10.616740   0.000000
     34         10.835941   0.000000
     35         10.972326   0.000000
     36         10.974243   0.000000
     37         11.156183   0.000000
     38         11.245125   0.000000
     39         11.247446   0.000000
     40         11.256726   0.000000
     41         11.599047   0.000000
     42         11.749452   0.000000
 
  0.1666667E+00  0.1290634E-14  0.1276756E-14  0.4166667E-01
      1         -8.464351   1.000000
      2         -3.764589   0.138592
      3         -2.663788   0.000000
      4         -2.074082   0.000000
      5          0.195355   0.000000
      6          0.614277   0.000000
      7          0.706579   0.000000
      8          0.918232   0.000000
      9          1.003553   0.000000
     10          1.438413   0.000000
     11          1.568226   0.000000
     12          2.151298   0.000000
     13          2.314257   0.000000
     14          2.383143   0.000000
     15          3.067841   0.000000
     16          3.134280   0.000000
     17          3.308488   0.000000
     18          3.659520   0.000000
     19          4.215548   0.000000
     20          4.471310   0.000000
     21          4.530372   0.000000
     22          5.519964   0.000000
     23          5.839141   0.000000
     24          6.906253   0.000000
     25          7.397583   0.000000
     26          7.575890   0.000000
     27          8.006311   0.000000
     28          8.162230   0.000000
     29          8.776816   0.000000
     30          8.826065   0.000000
     31          9.134453   0.000000
     32          9.152619   0.000000
     33          9.169766   0.000000
     34          9.441063   0.000000
     35          9.443943   0.000000
     36          9.910767   0.000000
     37         10.003280   0.000000
     38         10.293171   0.000000
     39         10.469060   0.000000
     40         10.727479   0.000000
     41         10.774682   0.000000
     42         10.794274   0.000000
 
  0.2500000E+00  0.1290634E-14  0.1276756E-14  0.4166667E-01
      1         -8.129279   1.000000
      2         -3.602094   0.000000
      3         -3.380774   0.000000
      4         -2.443716   0.000000
      5          0.622398   0.000000
      6          1.043145   0.000000
      7          1.145043   0.000000
      8          1.351077   0.000000
      9          1.440401   0.000000
     10          1.862535   0.000000
     11          1.998937   0.000000
     12          2.120854   0.000000
     13          2.122022   0.000000
     14          2.590301   0.000000
     15          2.762891   0.000000
     16          3.512930   0.000000
     17          3.739446   0.000000
     18          4.624398   0.000000
     19          4.749592   0.000000
     20          4.902270   0.000000
     21          5.163096   0.000000
     22          5.834927   0.000000
     23          6.265471   0.000000
     24          6.493787   0.000000
     25          7.114632   0.000000
     26          7.404590   0.000000
     27          7.429010   0.000000
     28          7.467806   0.000000
     29          7.593160   0.000000
     30          7.774694   0.000000
     31          7.817592   0.000000
     32          7.874462   0.000000
     33          8.314711   0.000000
     34          8.335978   0.000000
     35          8.955268   0.000000
     36          9.026722   0.000000
     37          9.355429   0.000000
     38          9.368306   0.000000
     39          9.608248   0.000000
     40          9.859246   0.000000
     41          9.897360   0.000000
     42         10.088165   0.000000
 
  0.3333333E+00  0.1249001E-14  0.1276756E-14  0.4166667E-01
      1         -7.666458   1.000000
      2         -4.559170   1.000000
      3         -2.863285   0.000000
      4         -2.746140   0.000000
      5          1.030953   0.000000
      6          1.218577   0.000000
      7          1.669403   0.000000
      8          1.758759   0.000000
      9          1.894261   0.000000
     10          1.968734   0.000000
     11          2.053151   0.000000
     12          2.483850   0.000000
     13          2.612179   0.000000
     14          3.185302   0.000000
     15          3.367810   0.000000
     16          4.097126   0.000000
     17          4.340920   0.000000
     18          5.012866   0.000000
     19          5.111481   0.000000
     20          5.501880   0.000000
     21          5.537148   0.000000
     22          5.958262   0.000000
     23          5.995823   0.000000
     24          6.057281   0.000000
     25          6.162891   0.000000
     26          6.316372   0.000000
     27          6.521992   0.000000
     28          6.632868   0.000000
     29          6.855297   0.000000
     30          6.987572   0.000000
     31          7.007839   0.000000
     32          7.065292   0.000000
     33          7.565576   0.000000
     34          7.743690   0.000000
     35          8.181398   0.000000
     36          8.388039   0.000000
     37          8.563359   0.000000
     38          8.662760   0.000000
     39          9.416246   0.000000
     40          9.507396   0.000000
     41          9.564776   0.000000
     42          9.787056   0.000000
 
  0.4166667E+00  0.1304512E-14  0.1276756E-14  0.4166667E-01
      1         -7.091250   1.000000
      2         -5.450227   1.000000
      3         -2.939562   0.000000
      4         -2.269937   0.000000
      5          0.097786   0.000000
      6          1.750317   0.000000
      7          1.982598   0.000000
      8          2.432581   0.000000
      9          2.548047   0.000000
     10          2.747332   0.000000
     11          2.837949   0.000000
     12          3.258231   0.000000
     13          3.391471   0.000000
     14          3.938914   0.000000
     15          3.964786   0.000000
     16          4.145572   0.000000
     17          4.403518   0.000000
     18          4.651225   0.000000
     19          4.772207   0.000000
     20          4.870362   0.000000
     21          4.923905   0.000000
     22          5.110759   0.000000
     23          5.269294   0.000000
     24          5.443506   0.000000
     25          5.685255   0.000000
     26          6.047403   0.000000
     27          6.157269   0.000000
     28          6.260951   0.000000
     29          6.506667   0.000000
     30          6.752979   0.000000
     31          7.013672   0.000000
     32          7.128901   0.000000
     33          7.201076   0.000000
     34          7.590499   0.000000
     35          7.598358   0.000000
     36          7.866704   0.000000
     37          8.301762   0.000000
     38          8.705802   0.000000
     39          9.017858   0.000000
     40          9.065684   0.000000
     41          9.129697   0.000000
     42          9.451215   0.000000
 
  0.5000000E+00  0.1360023E-14  0.1276756E-14  0.2083333E-01
      1         -6.599855   1.000000
      2         -6.051112   1.000000
      3         -3.005189   0.000000
      4         -1.899616   0.000000
      5         -0.392866   0.000000
      6          1.701455   0.000000
      7          2.867870   0.000000
      8          2.942650   0.000000
      9          3.344950   0.000000
     10          3.375806   0.000000
     11          3.511339   0.000000
     12          3.513414   0.000000
     13          3.686520   0.000000
     14          3.706402   0.000000
     15          3.792690   0.000000
     16          3.801094   0.000000
     17          4.165799   0.000000
     18          4.222068   0.000000
     19          4.333429   0.000000
     20          4.348499   0.000000
     21          4.762519   0.000000
     22          4.925505   0.000000
     23          5.077539   0.000000
     24          5.092715   0.000000
     25          5.504318   0.000000
     26          5.857884   0.000000
     27          6.025503   0.000000
     28          6.042610   0.000000
     29          6.343922   0.000000
     30          6.667800   0.000000
     31          6.989205   0.000000
     32          7.135547   0.000000
     33          7.159199   0.000000
     34          7.396188   0.000000
     35          7.819787   0.000000
     36          8.289057   0.000000
     37          8.314305   0.000000
     38          8.406702   0.000000
     39          8.650696   0.000000
     40          9.003704   0.000000
     41          9.124911   0.000000
     42          9.379053   0.000000
 
  0.8333333E-01  0.8333333E-01  0.1276756E-14  0.4166667E-01
      1         -8.531724   1.000000
      2         -3.842149   0.865867
      3         -2.383761   0.000000
      4         -2.035187   0.000000
      5          0.109892   0.000000
      6          0.527903   0.000000
      7          0.618886   0.000000
      8          0.831254   0.000000
      9          0.916173   0.000000
     10          1.351763   0.000000
     11          1.481451   0.000000
     12          2.065756   0.000000
     13          2.239437   0.000000
     14          2.620947   0.000000
     15          2.999822   0.000000
     16          3.148534   0.000000
     17          3.222768   0.000000
     18          3.363273   0.000000
     19          4.130858   0.000000
     20          4.388846   0.000000
     21          4.445522   0.000000
     22          5.440792   0.000000
     23          5.753367   0.000000
     24          6.859124   0.000000
     25          7.312827   0.000000
     26          7.522619   0.000000
     27          8.039738   0.000000
     28          8.695851   0.000000
     29          8.699827   0.000000
     30          9.065226   0.000000
     31          9.505754   0.000000
     32          9.716011   0.000000
     33          9.905427   0.000000
     34         10.094320   0.000000
     35         10.099798   0.000000
     36         10.104996   0.000000
     37         10.119839   0.000000
     38         10.369915   0.000000
     39         10.379877   0.000000
     40         10.380854   0.000000
     41         10.404803   0.000000
     42         10.753503   0.000000
 
  0.1666667E+00  0.8333333E-01  0.1276756E-14  0.8333333E-01
      1         -8.262943   1.000000
      2         -3.532964   0.000000
      3         -3.159921   0.000000
      4         -2.472597   0.000000
      5          0.451788   0.000000
      6          0.872985   0.000000
      7          0.969666   0.000000
      8          1.178971   0.000000
      9          1.265754   0.000000
     10          1.697967   0.000000
     11          1.828985   0.000000
     12          2.402626   0.000000
     13          2.525886   0.000000
     14          2.533737   0.000000
     15          2.603965   0.000000
     16          3.339052   0.000000
     17          3.566721   0.000000
     18          3.745954   0.000000
     19          4.454625   0.000000
     20          4.732775   0.000000
     21          5.293290   0.000000
     22          5.680271   0.000000
     23          6.095231   0.000000
     24          6.383004   0.000000
     25          7.410335   0.000000
     26          7.649290   0.000000
     27          7.820547   0.000000
     28          8.038528   0.000000
     29          8.338702   0.000000
     30          8.438546   0.000000
     31          8.578901   0.000000
     32          8.701397   0.000000
     33          8.728754   0.000000
     34          9.008603   0.000000
     35          9.125802   0.000000
     36          9.307344   0.000000
     37          9.340378   0.000000
     38          9.381705   0.000000
     39          9.394381   0.000000
     40          9.479678   0.000000
     41          9.642879   0.000000
     42          9.714495   0.000000
 
  0.2500000E+00  0.8333333E-01  0.1276756E-14  0.8333333E-01
      1         -7.863748   1.000000
      2         -4.073421   1.000000
      3         -3.079954   0.000000
      4         -2.848278   0.000000
      5          0.963523   0.000000
      6          1.359326   0.000000
      7          1.495813   0.000000
      8          1.544080   0.000000
      9          1.714140   0.000000
     10          1.789892   0.000000
     11          2.221837   0.000000
     12          2.321190   0.000000
     13          2.366392   0.000000
     14          2.923411   0.000000
     15          3.108773   0.000000
     16          3.836301   0.000000
     17          4.083122   0.000000
     18          4.613455   0.000000
     19          4.864589   0.000000
     20          5.246470   0.000000
     21          5.492552   0.000000
     22          5.878331   0.000000
     23          6.388139   0.000000
     24          6.602865   0.000000
     25          6.703706   0.000000
     26          6.750179   0.000000
     27          6.807854   0.000000
     28          6.994583   0.000000
     29          7.129031   0.000000
     30          7.458306   0.000000
     31          7.693442   0.000000
     32          7.798368   0.000000
     33          8.020101   0.000000
     34          8.143876   0.000000
     35          8.294802   0.000000
     36          8.444031   0.000000
     37          8.556542   0.000000
     38          8.858222   0.000000
     39          8.865959   0.000000
     40          9.124510   0.000000
     41          9.146856   0.000000
     42          9.245865   0.000000
 
  0.3333333E+00  0.8333333E-01  0.1276756E-14  0.8333333E-01
      1         -7.342343   1.000000
      2         -4.986008   1.000000
      3         -3.112363   0.000000
      4         -2.512309   0.000000
      5          0.532718   0.000000
      6          1.642983   0.000000
      7          2.084197   0.000000
      8          2.157633   0.000000
      9          2.197616   0.000000
     10          2.397287   0.000000
     11          2.489047   0.000000
     12          2.908260   0.000000
     13          3.045353   0.000000
     14          3.589778   0.000000
     15          3.798876   0.000000
     16          4.392670   0.000000
     17          4.523595   0.000000
     18          4.770533   0.000000
     19          4.817272   0.000000
     20          5.348103   0.000000
     21          5.375752   0.000000
     22          5.577793   0.000000
     23          5.586969   0.000000
     24          5.859261   0.000000
     25          5.911310   0.000000
     26          5.944141   0.000000
     27          6.174015   0.000000
     28          6.341578   0.000000
     29          6.804575   0.000000
     30          6.918511   0.000000
     31          7.066420   0.000000
     32          7.267943   0.000000
     33          7.559786   0.000000
     34          7.569796   0.000000
     35          7.968184   0.000000
     36          8.080636   0.000000
     37          8.281377   0.000000
     38          8.508994   0.000000
     39          8.516414   0.000000
     40          8.644121   0.000000
     41          8.760800   0.000000
     42          8.800648   0.000000
 
  0.4166667E+00  0.8333333E-01  0.1276756E-14  0.8333333E-01
      1         -6.740037   1.000000
      2         -5.796911   1.000000
      3         -3.247676   0.000000
      4         -1.954172   0.000000
      5         -0.248756   0.000000
      6          2.061684   0.000000
      7          2.485130   0.000000
      8          2.922914   0.000000
      9          3.073973   0.000000
     10          3.255917   0.000000
     11          3.359806   0.000000
     12          3.479282   0.000000
     13          3.723976   0.000000
     14          3.892670   0.000000
     15          3.910201   0.000000
     16          4.125627   0.000000
     17          4.251716   0.000000
     18          4.403872   0.000000
     19          4.410356   0.000000
     20          4.657691   0.000000
     21          4.722945   0.000000
     22          4.935122   0.000000
     23          5.049377   0.000000
     24          5.475800   0.000000
     25          5.612977   0.000000
     26          5.664695   0.000000
     27          5.770198   0.000000
     28          6.499779   0.000000
     29          6.546736   0.000000
     30          6.668980   0.000000
     31          6.744375   0.000000
     32          7.250973   0.000000
     33          7.434714   0.000000
     34          7.740284   0.000000
     35          7.755107   0.000000
     36          7.842134   0.000000
     37          8.065986   0.000000
     38          8.281503   0.000000
     39          8.334422   0.000000
     40          8.339581   0.000000
     41          8.605580   0.000000
     42          8.624297   0.000000
 
  0.1666667E+00  0.1666667E+00  0.1276756E-14  0.4166667E-01
      1         -7.929931   1.000000
      2         -3.750938   0.070408
      3         -3.153576   0.000000
      4         -3.080338   0.000000
      5          0.878422   0.000000
      6          1.301808   0.000000
      7          1.408133   0.000000
      8          1.612478   0.000000
      9          1.702676   0.000000
     10          1.750275   0.000000
     11          2.128902   0.000000
     12          2.263536   0.000000
     13          2.830159   0.000000
     14          3.001590   0.000000
     15          3.070345   0.000000
     16          3.696962   0.000000
     17          3.739293   0.000000
     18          3.998728   0.000000
     19          4.727337   0.000000
     20          5.160699   0.000000
     21          5.322169   0.000000
     22          6.221950   0.000000
     23          6.338783   0.000000
     24          6.518679   0.000000
     25          7.216496   0.000000
     26          7.436460   0.000000
     27          7.472151   0.000000
     28          7.677684   0.000000
     29          7.726774   0.000000
     30          7.734466   0.000000
     31          7.824167   0.000000
     32          7.874762   0.000000
     33          8.016588   0.000000
     34          8.049498   0.000000
     35          8.064283   0.000000
     36          8.064871   0.000000
     37          8.345435   0.000000
     38          8.560944   0.000000
     39          8.564173   0.000000
     40          8.619857   0.000000
     41          8.940614   0.000000
     42          9.260117   0.000000
 
  0.2500000E+00  0.1666667E+00  0.1276756E-14  0.8333333E-01
      1         -7.470853   1.000000
      2         -4.503726   1.000000
      3         -3.538921   0.000000
      4         -2.641269   0.000000
      5          0.892691   0.000000
      6          1.473368   0.000000
      7          1.895553   0.000000
      8          2.021933   0.000000
      9          2.215931   0.000000
     10          2.313970   0.000000
     11          2.722859   0.000000
     12          2.869754   0.000000
     13          3.071063   0.000000
     14          3.385332   0.000000
     15          3.626875   0.000000
     16          4.094607   0.000000
     17          4.296787   0.000000
     18          4.599475   0.000000
     19          4.624025   0.000000
     20          5.596120   0.000000
     21          5.754171   0.000000
     22          5.793969   0.000000
     23          6.175107   0.000000
     24          6.234635   0.000000
     25          6.449087   0.000000
     26          6.513298   0.000000
     27          6.711550   0.000000
     28          6.873064   0.000000
     29          6.938333   0.000000
     30          7.069417   0.000000
     31          7.101705   0.000000
     32          7.262890   0.000000
     33          7.286010   0.000000
     34          7.483329   0.000000
     35          7.544928   0.000000
     36          7.706239   0.000000
     37          7.715493   0.000000
     38          8.031023   0.000000
     39          8.047203   0.000000
     40          8.257293   0.000000
     41          8.406432   0.000000
     42          8.508858   0.000000
 
  0.3333333E+00  0.1666667E+00  0.1276756E-14  0.8333333E-01
      1         -6.902108   1.000000
      2         -5.317341   1.000000
      3         -3.786097   0.316212
      4         -2.046389   0.000000
      5          0.054100   0.000000
      6          2.232181   0.000000
      7          2.617792   0.000000
      8          2.810941   0.000000
      9          2.948955   0.000000
     10          2.973402   0.000000
     11          3.099352   0.000000
     12          3.404033   0.000000
     13          3.649380   0.000000
     14          3.778907   0.000000
     15          4.122931   0.000000
     16          4.334504   0.000000
     17          4.400628   0.000000
     18          4.885975   0.000000
     19          4.910590   0.000000
     20          5.122256   0.000000
     21          5.151691   0.000000
     22          5.305652   0.000000
     23          5.358773   0.000000
     24          5.556209   0.000000
     25          5.686939   0.000000
     26          6.030012   0.000000
     27          6.305907   0.000000
     28          6.417907   0.000000
     29          6.491347   0.000000
     30          6.504037   0.000000
     31          6.657342   0.000000
     32          6.956530   0.000000
     33          7.024750   0.000000
     34          7.197507   0.000000
     35          7.316782   0.000000
     36          7.359950   0.000000
     37          7.519243   0.000000
     38          7.639859   0.000000
     39          7.787458   0.000000
     40          7.856286   0.000000
     41          7.877310   0.000000
     42          8.313328   0.000000
 
  0.4166667E+00  0.1666667E+00  0.1276756E-14  0.4166667E-01
      1         -6.416025   1.000000
      2         -5.894431   1.000000
      3         -3.864649   0.959374
      4         -1.658014   0.000000
      5         -0.421835   0.000000
      6          2.902499   0.000000
      7          3.098871   0.000000
      8          3.103065   0.000000
      9          3.182424   0.000000
     10          3.636422   0.000000
     11          3.773912   0.000000
     12          3.776015   0.000000
     13          3.849257   0.000000
     14          3.968647   0.000000
     15          4.050993   0.000000
     16          4.059858   0.000000
     17          4.167991   0.000000
     18          4.483822   0.000000
     19          4.581737   0.000000
     20          4.599054   0.000000
     21          4.658770   0.000000
     22          5.186173   0.000000
     23          5.310044   0.000000
     24          5.333251   0.000000
     25          5.372180   0.000000
     26          6.117528   0.000000
     27          6.183991   0.000000
     28          6.242249   0.000000
     29          6.253054   0.000000
     30          6.438389   0.000000
     31          6.861187   0.000000
     32          6.894692   0.000000
     33          6.937207   0.000000
     34          7.119694   0.000000
     35          7.229399   0.000000
     36          7.246946   0.000000
     37          7.274924   0.000000
     38          7.420175   0.000000
     39          7.646877   0.000000
     40          7.739722   0.000000
     41          7.786053   0.000000
     42          8.198141   0.000000
 
  0.2500000E+00  0.2500000E+00  0.1276756E-14  0.4166667E-01
      1         -6.961048   1.000000
      2         -4.964794   1.000000
      3         -4.176983   1.000000
      4         -2.086205   0.000000
      5          0.223567   0.000000
      6          2.147535   0.000000
      7          2.485810   0.000000
      8          2.723287   0.000000
      9          2.868393   0.000000
     10          3.011672   0.000000
     11          3.255073   0.000000
     12          3.561351   0.000000
     13          3.635406   0.000000
     14          3.858590   0.000000
     15          4.145008   0.000000
     16          4.260442   0.000000
     17          4.314942   0.000000
     18          5.137027   0.000000
     19          5.275138   0.000000
     20          5.495843   0.000000
     21          5.582609   0.000000
     22          5.706297   0.000000
     23          5.884522   0.000000
     24          5.885613   0.000000
     25          5.890841   0.000000
     26          6.062082   0.000000
     27          6.122961   0.000000
     28          6.183885   0.000000
     29          6.206672   0.000000
     30          6.329704   0.000000
     31          6.412198   0.000000
     32          6.569425   0.000000
     33          6.732745   0.000000
     34          6.736357   0.000000
     35          6.782961   0.000000
     36          7.254362   0.000000
     37          7.396854   0.000000
     38          7.471401   0.000000
     39          7.524551   0.000000
     40          7.681027   0.000000
     41          7.702313   0.000000
     42          8.163757   0.000000
 
  0.3333333E+00  0.2500000E+00  0.1276756E-14  0.8333333E-01
      1         -6.375141   1.000000
      2         -5.563765   1.000000
      3         -4.481802   1.000000
      4         -1.502409   0.000000
      5         -0.421085   0.000000
      6          2.684236   0.000000
      7          2.972057   0.000000
      8          3.588834   0.000000
      9          3.599443   0.000000
     10          3.852297   0.000000
     11          3.853024   0.000000
     12          3.887078   0.000000
     13          3.892127   0.000000
     14          4.341842   0.000000
     15          4.418208   0.000000
     16          4.615182   0.000000
     17          4.647848   0.000000
     18          4.874154   0.000000
     19          4.893540   0.000000
     20          5.083828   0.000000
     21          5.149837   0.000000
     22          5.316953   0.000000
     23          5.386966   0.000000
     24          5.394499   0.000000
     25          5.657303   0.000000
     26          5.713661   0.000000
     27          5.816839   0.000000
     28          5.902590   0.000000
     29          5.995644   0.000000
     30          6.024845   0.000000
     31          6.067613   0.000000
     32          6.195130   0.000000
     33          6.420412   0.000000
     34          6.486738   0.000000
     35          6.596183   0.000000
     36          7.007873   0.000000
     37          7.014211   0.000000
     38          7.078444   0.000000
     39          7.312837   0.000000
     40          7.351758   0.000000
     41          7.362265   0.000000
     42          7.819174   0.000000
 
  0.3333333E+00  0.3333333E+00  0.1276756E-14  0.1388889E-01
      1         -5.867086   1.000000
      2         -5.867086   1.000000
      3         -4.835454   1.000000
      4         -0.940923   0.000000
      5         -0.940923   0.000000
      6          2.501083   0.000000
      7          3.753260   0.000000
      8          3.753266   0.000000
      9          3.864898   0.000000
     10          4.416434   0.000000
     11          4.416445   0.000000
     12          4.559296   0.000000
     13          4.559400   0.000000
     14          4.562185   0.000000
     15          4.605839   0.000000
     16          4.754786   0.000000
     17          4.754828   0.000000
     18          4.802838   0.000000
     19          4.802925   0.000000
     20          4.817996   0.000000
     21          4.915063   0.000000
     22          5.216863   0.000000
     23          5.216911   0.000000
     24          5.268059   0.000000
     25          5.268095   0.000000
     26          5.274324   0.000000
     27          5.448027   0.000000
     28          5.706547   0.000000
     29          5.706582   0.000000
     30          5.868160   0.000000
     31          5.966205   0.000000
     32          5.966256   0.000000
     33          6.225178   0.000000
     34          6.313389   0.000000
     35          6.313434   0.000000
     36          6.522335   0.000000
     37          6.893234   0.000000
     38          6.893283   0.000000
     39          7.193220   0.000000
     40          7.220999   0.000000
     41          7.221022   0.000000
     42          7.394942   0.000000
