cubic-beryllene trilayer full top-top   
   1.00000000000000     
     6.7532830237999999    0.0000000000000000    0.0000000000000000
     0.0000000000000000    6.7532830237999999    0.0000000000000000
     0.0000000000000000    0.0000000000000000   40.0000000000000000
  Be              H             
    27    18
Direct
     0.0000000000000000    0.0000000000000000    0.1431727410000008
     0.0000000000000000    0.3333333429999996    0.1431727410000008
     0.0000000000000000    0.6666666870000029    0.1431727410000008
     0.3333333429999996    0.0000000000000000    0.1431727410000008
     0.3333333429999996    0.3333333429999996    0.1431727410000008
     0.3333333429999996    0.6666666870000029    0.1431727410000008
     0.6666666870000029    0.0000000000000000    0.1431727410000008
     0.6666666870000029    0.3333333429999996    0.1431727410000008
     0.6666666870000029    0.6666666870000029    0.1431727410000008
     0.1666666719999981    0.1666666719999981    0.1040007169999981
     0.1666666719999981    0.5000000000000000    0.1040007169999981
     0.1666666719999981    0.8333333129999971    0.1040007169999981
     0.5000000000000000    0.1666666719999981    0.1040007169999981
     0.5000000000000000    0.5000000000000000    0.1040007169999981
     0.5000000000000000    0.8333333129999971    0.1040007169999981
     0.8333333129999971    0.1666666719999981    0.1040007169999981
     0.8333333129999971    0.5000000000000000    0.1040007169999981
     0.8333333129999971    0.8333333129999971    0.1040007169999981
     0.0000000000000000    0.0000000000000000    0.0648286340000013
     0.0000000000000000    0.3333333429999996    0.0648286340000013
     0.0000000000000000    0.6666666870000029    0.0648286340000013
     0.3333333429999996    0.0000000000000000    0.0648286340000013
     0.3333333429999996    0.3333333429999996    0.0648286340000013
     0.3333333429999996    0.6666666870000029    0.0648286340000013
     0.6666666870000029    0.0000000000000000    0.0648286340000013
     0.6666666870000029    0.3333333429999996    0.0648286340000013
     0.6666666870000029    0.6666666870000029    0.0648286340000013
     0.0000000000000000    0.0000000000000000    0.1777057669999973
     0.0000000000000000    0.3333333429999996    0.1780807669999973
     0.0000000000000000    0.6666666870000029    0.1780807669999973
     0.3333333429999996    0.0000000000000000    0.1780807669999973
     0.3333333429999996    0.3333333429999996    0.1780807669999973
     0.3333333429999996    0.6666666870000029    0.1780807669999973
     0.6666666870000029    0.0000000000000000    0.1780807669999973
     0.6666666870000029    0.3333333429999996    0.1780807669999973
     0.6666666870000029    0.6666666870000029    0.1780807669999973
     0.0000000000000000    0.0000000000000000    0.0299171360000017
     0.0000000000000000    0.3333333429999996    0.0299171360000017
     0.0000000000000000    0.6666666870000029    0.0299171360000017
     0.3333333429999996    0.0000000000000000    0.0299171360000017
     0.3333333429999996    0.3333333429999996    0.0299171360000017
     0.3333333429999996    0.6666666870000029    0.0299171360000017
     0.6666666870000029    0.0000000000000000    0.0299171360000017
     0.6666666870000029    0.3333333429999996    0.0299171360000017
     0.6666666870000029    0.6666666870000029    0.0299171360000017
 
  0.00000000E+00  0.00000000E+00  0.00000000E+00
  0.00000000E+00  0.00000000E+00  0.00000000E+00
  0.00000000E+00  0.00000000E+00  0.00000000E+00
  0.00000000E+00  0.00000000E+00  0.00000000E+00
  0.00000000E+00  0.00000000E+00  0.00000000E+00
  0.00000000E+00  0.00000000E+00  0.00000000E+00
  0.00000000E+00  0.00000000E+00  0.00000000E+00
  0.00000000E+00  0.00000000E+00  0.00000000E+00
  0.00000000E+00  0.00000000E+00  0.00000000E+00
  0.00000000E+00  0.00000000E+00  0.00000000E+00
  0.00000000E+00  0.00000000E+00  0.00000000E+00
  0.00000000E+00  0.00000000E+00  0.00000000E+00
  0.00000000E+00  0.00000000E+00  0.00000000E+00
  0.00000000E+00  0.00000000E+00  0.00000000E+00
  0.00000000E+00  0.00000000E+00  0.00000000E+00
  0.00000000E+00  0.00000000E+00  0.00000000E+00
  0.00000000E+00  0.00000000E+00  0.00000000E+00
  0.00000000E+00  0.00000000E+00  0.00000000E+00
  0.00000000E+00  0.00000000E+00  0.00000000E+00
  0.00000000E+00  0.00000000E+00  0.00000000E+00
  0.00000000E+00  0.00000000E+00  0.00000000E+00
  0.00000000E+00  0.00000000E+00  0.00000000E+00
  0.00000000E+00  0.00000000E+00  0.00000000E+00
  0.00000000E+00  0.00000000E+00  0.00000000E+00
  0.00000000E+00  0.00000000E+00  0.00000000E+00
  0.00000000E+00  0.00000000E+00  0.00000000E+00
  0.00000000E+00  0.00000000E+00  0.00000000E+00
  0.00000000E+00  0.00000000E+00  0.00000000E+00
  0.00000000E+00  0.00000000E+00  0.00000000E+00
  0.00000000E+00  0.00000000E+00  0.00000000E+00
  0.00000000E+00  0.00000000E+00  0.00000000E+00
  0.00000000E+00  0.00000000E+00  0.00000000E+00
  0.00000000E+00  0.00000000E+00  0.00000000E+00
  0.00000000E+00  0.00000000E+00  0.00000000E+00
  0.00000000E+00  0.00000000E+00  0.00000000E+00
  0.00000000E+00  0.00000000E+00  0.00000000E+00
  0.00000000E+00  0.00000000E+00  0.00000000E+00
  0.00000000E+00  0.00000000E+00  0.00000000E+00
  0.00000000E+00  0.00000000E+00  0.00000000E+00
  0.00000000E+00  0.00000000E+00  0.00000000E+00
  0.00000000E+00  0.00000000E+00  0.00000000E+00
  0.00000000E+00  0.00000000E+00  0.00000000E+00
  0.00000000E+00  0.00000000E+00  0.00000000E+00
  0.00000000E+00  0.00000000E+00  0.00000000E+00
  0.00000000E+00  0.00000000E+00  0.00000000E+00
