       N       E                     dE             d eps       ncg     rms          rms(c)
DAV:   1     0.946584560180E+02    0.94658E+02   -0.26271E+04  7056   0.316E+02
DAV:   2    -0.142309946049E+03   -0.23697E+03   -0.23647E+03 10080   0.496E+01
DAV:   3    -0.145512600404E+03   -0.32027E+01   -0.32022E+01 12768   0.737E+00
DAV:   4    -0.145515311303E+03   -0.27109E-02   -0.27109E-02  8904   0.199E-01
DAV:   5    -0.145515317201E+03   -0.58984E-05   -0.58947E-05 12600   0.109E-02    0.880E+00
DAV:   6    -0.143061272554E+03    0.24540E+01   -0.31969E+00 12096   0.141E+00    0.581E+00
DAV:   7    -0.141651961014E+03    0.14093E+01   -0.16652E+00 14112   0.124E+00    0.644E-01
DAV:   8    -0.141572709352E+03    0.79252E-01   -0.20360E-01 12600   0.269E-01    0.523E-01
DAV:   9    -0.141508556019E+03    0.64153E-01   -0.82294E-02 13440   0.216E-01    0.193E-01
DAV:  10    -0.141500212305E+03    0.83437E-02   -0.15668E-02 13104   0.942E-02    0.108E-01
DAV:  11    -0.141505843845E+03   -0.56315E-02   -0.37433E-03 11928   0.543E-02    0.615E-02
DAV:  12    -0.141509859621E+03   -0.40158E-02   -0.36388E-03 11424   0.389E-02    0.278E-02
DAV:  13    -0.141513331067E+03   -0.34714E-02   -0.34165E-04 11088   0.160E-02    0.140E-02
DAV:  14    -0.141515623053E+03   -0.22920E-02   -0.23188E-04 10920   0.115E-02    0.749E-03
DAV:  15    -0.141516756939E+03   -0.11339E-02   -0.11092E-04 11592   0.680E-03    0.316E-03
DAV:  16    -0.141517053712E+03   -0.29677E-03   -0.75410E-06 10920   0.209E-03    0.202E-03
DAV:  17    -0.141517219096E+03   -0.16538E-03   -0.92421E-06 11760   0.176E-03    0.952E-04
DAV:  18    -0.141517283819E+03   -0.64723E-04   -0.24136E-07 10752   0.502E-04    0.413E-04
DAV:  19    -0.141517294894E+03   -0.11075E-04   -0.34776E-07 11592   0.379E-04    0.250E-04
DAV:  20    -0.141517304187E+03   -0.92934E-05   -0.35685E-08 11088   0.200E-04    0.651E-05
DAV:  21    -0.141517305486E+03   -0.12992E-05    0.45108E-08 12096   0.489E-05    0.324E-05
DAV:  22    -0.141517305971E+03   -0.48456E-06    0.47625E-08 11928   0.311E-05
   1 F= -.14874111E+03 E0= -.14873492E+03  d E =-.123751E-01
 Found     6 degrees of freedom:
       N       E                     dE             d eps       ncg     rms          rms(c)
DAV:   1    -0.141516919441E+03    0.38605E-03   -0.49315E-02 14112   0.219E-01    0.672E-02
DAV:   2    -0.141517089857E+03   -0.17042E-03   -0.11949E-02 16968   0.688E-02    0.866E-02
DAV:   3    -0.141516591982E+03    0.49788E-03   -0.61047E-03 16296   0.481E-02    0.213E-02
DAV:   4    -0.141516569579E+03    0.22403E-04   -0.17240E-04 20832   0.996E-03    0.544E-03
DAV:   5    -0.141516570001E+03   -0.42178E-06   -0.48466E-06 22344   0.268E-03
   2 F= -.14874037E+03 E0= -.14873419E+03  d E =-.123748E-01
       N       E                     dE             d eps       ncg     rms          rms(c)
DAV:   1    -0.141517400205E+03   -0.83063E-03   -0.15821E-01 12096   0.388E-01    0.108E-01
DAV:   2    -0.141516686914E+03    0.71329E-03   -0.24386E-03 22848   0.397E-02    0.486E-02
DAV:   3    -0.141516573782E+03    0.11313E-03   -0.46237E-04 15792   0.157E-02    0.136E-02
DAV:   4    -0.141516571837E+03    0.19453E-05   -0.33012E-05 20160   0.505E-03    0.596E-03
DAV:   5    -0.141516573363E+03   -0.15256E-05   -0.55621E-05 17472   0.477E-03    0.621E-03
DAV:   6    -0.141516571312E+03    0.20508E-05   -0.27889E-05 18816   0.336E-03    0.127E-03
DAV:   7    -0.141516571440E+03   -0.12849E-06   -0.33159E-07 21000   0.801E-04
   3 F= -.14874037E+03 E0= -.14873419E+03  d E =-.123747E-01
       N       E                     dE             d eps       ncg     rms          rms(c)
DAV:   1    -0.141516440713E+03    0.13060E-03   -0.11574E-01  7392   0.337E-01    0.155E-01
DAV:   2    -0.141515580221E+03    0.86049E-03   -0.56509E-03  9240   0.485E-02    0.437E-02
DAV:   3    -0.141515628288E+03   -0.48067E-04   -0.40617E-03  9744   0.405E-02    0.537E-02
DAV:   4    -0.141515443074E+03    0.18521E-03   -0.20958E-03 10080   0.285E-02    0.162E-02
DAV:   5    -0.141515417698E+03    0.25375E-04   -0.84143E-05 10248   0.747E-03    0.679E-03
DAV:   6    -0.141515408763E+03    0.89349E-05   -0.28729E-05 12096   0.421E-03    0.168E-03
DAV:   7    -0.141515407594E+03    0.11698E-05   -0.32791E-06 11928   0.161E-03    0.793E-04
DAV:   8    -0.141515407308E+03    0.28511E-06   -0.11717E-06 11424   0.893E-04
   4 F= -.14873799E+03 E0= -.14873183E+03  d E =-.123146E-01
       N       E                     dE             d eps       ncg     rms          rms(c)
DAV:   1    -0.141519288329E+03   -0.38807E-02   -0.26283E-01  7392   0.487E-01    0.303E-01
DAV:   2    -0.141516263596E+03    0.30247E-02   -0.23636E-02  9744   0.920E-02    0.723E-02
DAV:   3    -0.141516565191E+03   -0.30159E-03   -0.14556E-02 10584   0.762E-02    0.970E-02
DAV:   4    -0.141515967827E+03    0.59736E-03   -0.68335E-03 10416   0.513E-02    0.223E-02
DAV:   5    -0.141515964043E+03    0.37847E-05   -0.11384E-04 10752   0.958E-03    0.962E-03
DAV:   6    -0.141515965263E+03   -0.12204E-05   -0.84337E-06 13104   0.307E-03    0.238E-03
DAV:   7    -0.141515965637E+03   -0.37360E-06   -0.49354E-07 11592   0.830E-04
   5 F= -.14874099E+03 E0= -.14873478E+03  d E =-.124242E-01
       N       E                     dE             d eps       ncg     rms          rms(c)
DAV:   1    -0.141517597072E+03   -0.16318E-02   -0.13068E-01 12768   0.348E-01    0.124E-01
DAV:   2    -0.141516599731E+03    0.99734E-03   -0.39072E-03 13944   0.486E-02    0.494E-02
DAV:   3    -0.141516392291E+03    0.20744E-03   -0.49153E-04 17136   0.182E-02    0.241E-02
DAV:   4    -0.141516320792E+03    0.71500E-04   -0.22915E-04 18984   0.113E-02    0.834E-03
DAV:   5    -0.141516316152E+03    0.46394E-05   -0.63514E-05 19320   0.631E-03    0.282E-03
DAV:   6    -0.141516327343E+03   -0.11191E-04   -0.19880E-05 19152   0.349E-03    0.101E-03
DAV:   7    -0.141516341212E+03   -0.13869E-04   -0.92593E-06 21000   0.225E-03    0.465E-04
DAV:   8    -0.141516353948E+03   -0.12736E-04   -0.52056E-06 19824   0.165E-03    0.263E-04
DAV:   9    -0.141516370509E+03   -0.16561E-04   -0.69715E-06 20328   0.177E-03    0.156E-04
DAV:  10    -0.141516388050E+03   -0.17541E-04   -0.64412E-06 18648   0.168E-03    0.886E-05
DAV:  11    -0.141516399983E+03   -0.11933E-04   -0.26373E-06 18816   0.116E-03    0.591E-05
DAV:  12    -0.141516406503E+03   -0.65194E-05   -0.74201E-07 18984   0.697E-04    0.294E-05
DAV:  13    -0.141516408336E+03   -0.18333E-05   -0.39060E-08 18648   0.312E-04    0.156E-05
DAV:  14    -0.141516408954E+03   -0.61811E-06    0.39575E-08 21336   0.988E-05
   6 F= -.14874021E+03 E0= -.14873403E+03  d E =-.123723E-01
       N       E                     dE             d eps       ncg     rms          rms(c)
DAV:   1    -0.141517879988E+03   -0.14717E-02   -0.18317E-01 12264   0.390E-01    0.133E-01
DAV:   2    -0.141516584889E+03    0.12951E-02   -0.53787E-03 21672   0.548E-02    0.545E-02
DAV:   3    -0.141516420693E+03    0.16420E-03   -0.57005E-04 15792   0.178E-02    0.177E-02
DAV:   4    -0.141516409818E+03    0.10874E-04   -0.45167E-05 18984   0.583E-03    0.545E-03
DAV:   5    -0.141516409308E+03    0.50991E-06   -0.36352E-06 21000   0.196E-03
   7 F= -.14874021E+03 E0= -.14873403E+03  d E =-.123724E-01
       N       E                     dE             d eps       ncg     rms          rms(c)
DAV:   1    -0.141517143560E+03   -0.73374E-03   -0.11884E-01  7224   0.332E-01    0.964E-02
DAV:   2    -0.141517396238E+03   -0.25268E-03   -0.27582E-02 10584   0.106E-01    0.129E-01
DAV:   3    -0.141516214557E+03    0.11817E-02   -0.13279E-02 10416   0.706E-02    0.332E-02
DAV:   4    -0.141516081010E+03    0.13355E-03   -0.34351E-04 10584   0.143E-02    0.134E-02
DAV:   5    -0.141516046785E+03    0.34224E-04   -0.66719E-05 12768   0.630E-03    0.538E-03
DAV:   6    -0.141516035189E+03    0.11597E-04   -0.31110E-05 12096   0.410E-03    0.209E-03
DAV:   7    -0.141516032817E+03    0.23714E-05   -0.94965E-06 11760   0.237E-03    0.690E-04
DAV:   8    -0.141516032622E+03    0.19518E-06   -0.20898E-06 13104   0.123E-03
   8 F= -.14873983E+03 E0= -.14873365E+03  d E =-.123687E-01
       N       E                     dE             d eps       ncg     rms          rms(c)
DAV:   1    -0.141517849739E+03   -0.18169E-02   -0.24481E-01  7224   0.469E-01    0.142E-01
DAV:   2    -0.141516716527E+03    0.11332E-02   -0.17757E-02  8736   0.907E-02    0.978E-02
DAV:   3    -0.141516430249E+03    0.28628E-03   -0.16447E-02  9072   0.789E-02    0.776E-02
DAV:   4    -0.141516037088E+03    0.39316E-03   -0.29902E-03  9744   0.356E-02    0.170E-02
DAV:   5    -0.141516032977E+03    0.41110E-05   -0.36376E-05 11928   0.748E-03    0.689E-03
DAV:   6    -0.141516032109E+03    0.86773E-06   -0.12137E-05 12096   0.259E-03    0.132E-03
DAV:   7    -0.141516032893E+03   -0.78442E-06   -0.46463E-07 11928   0.823E-04
   9 F= -.14873983E+03 E0= -.14873365E+03  d E =-.123687E-01
       N       E                     dE             d eps       ncg     rms          rms(c)
DAV:   1    -0.141517704609E+03   -0.16725E-02   -0.13201E-01 12768   0.416E-01    0.808E-02
DAV:   2    -0.141517454522E+03    0.25009E-03   -0.40722E-03 14448   0.465E-02    0.563E-02
DAV:   3    -0.141517383383E+03    0.71138E-04   -0.45815E-03 16296   0.420E-02    0.480E-02
DAV:   4    -0.141517233006E+03    0.15038E-03   -0.96029E-04 17136   0.206E-02    0.129E-02
DAV:   5    -0.141517218306E+03    0.14700E-04   -0.48920E-05 22176   0.651E-03    0.356E-03
DAV:   6    -0.141517215341E+03    0.29656E-05   -0.70429E-06 17976   0.235E-03    0.173E-03
DAV:   7    -0.141517214124E+03    0.12169E-05   -0.36871E-06 23184   0.147E-03    0.507E-04
DAV:   8    -0.141517213957E+03    0.16669E-06   -0.58376E-07 19320   0.685E-04
  10 F= -.14874102E+03 E0= -.14873483E+03  d E =-.123703E-01
       N       E                     dE             d eps       ncg     rms          rms(c)
DAV:   1    -0.141517375545E+03   -0.16142E-03   -0.23520E-01 12096   0.556E-01    0.108E-01
DAV:   2    -0.141517247969E+03    0.12758E-03   -0.33970E-04 23184   0.168E-02    0.604E-02
DAV:   3    -0.141517213943E+03    0.34026E-04   -0.14497E-04 18984   0.877E-03    0.134E-02
DAV:   4    -0.141517215128E+03   -0.11856E-05   -0.42120E-05 17976   0.438E-03    0.562E-03
DAV:   5    -0.141517214155E+03    0.97332E-06   -0.40458E-05 16632   0.399E-03    0.333E-03
DAV:   6    -0.141517213634E+03    0.52050E-06   -0.57197E-06 15288   0.162E-03
  11 F= -.14874102E+03 E0= -.14873483E+03  d E =-.123702E-01
       N       E                     dE             d eps       ncg     rms          rms(c)
DAV:   1    -0.141516535421E+03    0.67873E-03   -0.15639E-01  7056   0.450E-01    0.121E-01
DAV:   2    -0.141516185992E+03    0.34943E-03   -0.45752E-03  9744   0.423E-02    0.574E-02
DAV:   3    -0.141516259225E+03   -0.73234E-04   -0.47086E-03  8904   0.428E-02    0.583E-02
DAV:   4    -0.141516083590E+03    0.17564E-03   -0.23819E-03  9408   0.303E-02    0.225E-02
DAV:   5    -0.141516073276E+03    0.10314E-04   -0.93882E-05 10584   0.716E-03    0.341E-03
DAV:   6    -0.141516073027E+03    0.24910E-06   -0.22612E-06 11592   0.169E-03
  12 F= -.14873941E+03 E0= -.14873322E+03  d E =-.123886E-01
       N       E                     dE             d eps       ncg     rms          rms(c)
DAV:   1    -0.141517672722E+03   -0.15994E-02   -0.33412E-01  7056   0.620E-01    0.229E-01
DAV:   2    -0.141516296580E+03    0.13761E-02   -0.18171E-02  9576   0.849E-02    0.985E-02
DAV:   3    -0.141516598926E+03   -0.30235E-03   -0.18614E-02  9240   0.845E-02    0.109E-01
DAV:   4    -0.141515921743E+03    0.67718E-03   -0.80602E-03  9576   0.554E-02    0.344E-02
DAV:   5    -0.141515913997E+03    0.77455E-05   -0.16185E-04 11088   0.103E-02    0.620E-03
DAV:   6    -0.141515914911E+03   -0.91342E-06   -0.60113E-06 11760   0.250E-03
  13 F= -.14874019E+03 E0= -.14873402E+03  d E =-.123527E-01
