cubic-beryllene trilayer quarter top-top
   1.00000000000000     
     4.4143883191664797    0.0000000000000000    0.0000000000000000
     0.0000000000000000    4.4143883191664797    0.0000000000000000
     0.0000000000000000    0.0000000000000000   40.0000000000000000
  Be              H             
    12     2
Direct
     0.0000000000000000    0.0000000000000000    0.1409382298757599
     0.5000000000000000    0.0000000000000000    0.1363817416409842
     0.0000000000000000    0.5000000000000000    0.1363817416409842
     0.5000000000000000    0.5000000000000000    0.1367393200259232
     0.2500000000000000    0.2500000000000000    0.1000000000000014
     0.2500000000000000    0.7500000000000000    0.1000000000000014
     0.7500000000000000    0.2500000000000000    0.1000000000000014
     0.7500000000000000    0.7500000000000000    0.1000000000000014
     0.0000000000000000    0.0000000000000000    0.0632606799740796
     0.5000000000000000    0.0000000000000000    0.0636182583590187
     0.0000000000000000    0.5000000000000000    0.0636182583590187
     0.5000000000000000    0.5000000000000000    0.0590617701242429
     0.0000000000000000    0.0000000000000000    0.1758182353291497
     0.5000000000000000    0.5000000000000000    0.0241817646708532
 
  0.00000000E+00  0.00000000E+00  0.00000000E+00
  0.00000000E+00  0.00000000E+00  0.00000000E+00
  0.00000000E+00  0.00000000E+00  0.00000000E+00
  0.00000000E+00  0.00000000E+00  0.00000000E+00
  0.00000000E+00  0.00000000E+00  0.00000000E+00
  0.00000000E+00  0.00000000E+00  0.00000000E+00
  0.00000000E+00  0.00000000E+00  0.00000000E+00
  0.00000000E+00  0.00000000E+00  0.00000000E+00
  0.00000000E+00  0.00000000E+00  0.00000000E+00
  0.00000000E+00  0.00000000E+00  0.00000000E+00
  0.00000000E+00  0.00000000E+00  0.00000000E+00
  0.00000000E+00  0.00000000E+00  0.00000000E+00
  0.00000000E+00  0.00000000E+00  0.00000000E+00
  0.00000000E+00  0.00000000E+00  0.00000000E+00
