 running   24 mpi-ranks, on    1 nodes
 distrk:  each k-point on   24 cores,    1 groups
 distr:  one band on    1 cores,   24 groups
 vasp.6.5.0 16Dec24 (build Jan 08 2025 16:17:04) complex                        
  
 POSCAR found type information on POSCAR BeH 
 POSCAR found :  2 types and      14 ions
 Reading from existing POTCAR
 scaLAPACK will be used
 -----------------------------------------------------------------------------
|                                                                             |
|           W    W    AA    RRRRR   N    N  II  N    N   GGGG   !!!           |
|           W    W   A  A   R    R  NN   N  II  NN   N  G    G  !!!           |
|           W    W  A    A  R    R  N N  N  II  N N  N  G       !!!           |
|           W WW W  AAAAAA  RRRRR   N  N N  II  N  N N  G  GGG   !            |
|           WW  WW  A    A  R   R   N   NN  II  N   NN  G    G                |
|           W    W  A    A  R    R  N    N  II  N    N   GGGG   !!!           |
|                                                                             |
|     For optimal performance we recommend to set                             |
|       NCORE = 2 up to number-of-cores-per-socket                            |
|     NCORE specifies how many cores store one orbital (NPAR=cpu/NCORE).      |
|     This setting can greatly improve the performance of VASP for DFT.       |
|     The default, NCORE=1 might be grossly inefficient on modern             |
|     multi-core architectures or massively parallel machines. Do your        |
|     own testing! More info at https://www.vasp.at/wiki/index.php/NCORE      |
|     Unfortunately you need to use the default for GW and RPA                |
|     calculations (for HF NCORE is supported but not extensively tested      |
|     yet).                                                                   |
|                                                                             |
 -----------------------------------------------------------------------------

 Reading from existing POTCAR
 LDA part: xc-table for (Slater+PW92), standard interpolation
 POSCAR, INCAR and KPOINTS ok, starting setup
 FFT: planning ... GRIDC
 FFT: planning ... GRID_SOFT
 FFT: planning ... GRID
 WAVECAR not read
 entering main loop
       N       E                     dE             d eps       ncg     rms          rms(c)
DAV:   1     0.121551538359E+03    0.12155E+03   -0.83295E+03  5040   0.773E+02
DAV:   2    -0.449884748592E+02   -0.16654E+03   -0.16287E+03  8784   0.112E+02
DAV:   3    -0.497374640134E+02   -0.47490E+01   -0.47351E+01  7584   0.313E+01
DAV:   4    -0.497589679738E+02   -0.21504E-01   -0.21497E-01  9384   0.218E+00
DAV:   5    -0.497590174329E+02   -0.49459E-04   -0.49458E-04  7872   0.780E-02    0.559E+00
DAV:   6    -0.459671741838E+02    0.37918E+01   -0.17543E+01  6600   0.993E+00    0.289E+00
DAV:   7    -0.455483120822E+02    0.41886E+00   -0.75233E-01  9000   0.346E+00    0.154E+00
DAV:   8    -0.453483047890E+02    0.20001E+00   -0.36334E-01  9024   0.182E+00    0.346E-01
DAV:   9    -0.453324182829E+02    0.15887E-01   -0.35637E-02  9072   0.560E-01    0.241E-01
DAV:  10    -0.453284106367E+02    0.40076E-02   -0.85498E-03  8880   0.291E-01    0.112E-01
DAV:  11    -0.453265412898E+02    0.18693E-02   -0.86486E-03  9000   0.237E-01    0.659E-02
DAV:  12    -0.453287273641E+02   -0.21861E-02   -0.19016E-03  6528   0.144E-01    0.401E-02
DAV:  13    -0.453302983936E+02   -0.15710E-02   -0.12337E-03  6504   0.103E-01    0.162E-02
DAV:  14    -0.453314868129E+02   -0.11884E-02   -0.16408E-04  7128   0.429E-02    0.130E-02
DAV:  15    -0.453319276425E+02   -0.44083E-03   -0.82175E-05  8640   0.250E-02    0.429E-03
DAV:  16    -0.453322691024E+02   -0.34146E-03   -0.22835E-05  8112   0.128E-02    0.210E-03
DAV:  17    -0.453323455020E+02   -0.76400E-04   -0.21796E-06  9240   0.409E-03    0.143E-03
DAV:  18    -0.453324350555E+02   -0.89553E-04   -0.65824E-06  7104   0.540E-03    0.896E-04
DAV:  19    -0.453324590330E+02   -0.23978E-04   -0.10073E-06  8520   0.235E-03    0.350E-04
DAV:  20    -0.453324688745E+02   -0.98415E-05   -0.17299E-07  7992   0.113E-03    0.437E-04
DAV:  21    -0.453324723108E+02   -0.34363E-05   -0.12962E-07  8664   0.893E-04    0.194E-04
DAV:  22    -0.453324740219E+02   -0.17111E-05   -0.69828E-09  7152   0.348E-04    0.688E-05
DAV:  23    -0.453324747879E+02   -0.76598E-06    0.34165E-10  7320   0.221E-04
   1 F= -.45332475E+02 E0= -.45329271E+02  d E =-.453325E+02
 curvature:   0.00 expect dE= 0.000E+00 dE for cont linesearch  0.000E+00
 trial: gam= 0.00000 g(F)=  0.451E+00 g(S)=  0.629E-02 ort = 0.000E+00 (trialstep = 0.100E+01)
 search vector abs. value=  0.457E+00
 bond charge predicted
       N       E                     dE             d eps       ncg     rms          rms(c)
DAV:   1    -0.457116183459E+02   -0.37914E+00   -0.69056E+00  5040   0.111E+01    0.948E-01
DAV:   2    -0.456855257023E+02    0.26093E-01   -0.22056E-01  8784   0.174E+00    0.382E-01
DAV:   3    -0.456810179850E+02    0.45077E-02   -0.23791E-02  7776   0.547E-01    0.177E-01
DAV:   4    -0.456802343743E+02    0.78361E-03   -0.35455E-03  8760   0.202E-01    0.348E-02
DAV:   5    -0.456801899779E+02    0.44396E-04   -0.39635E-04  9024   0.723E-02    0.878E-03
DAV:   6    -0.456801895076E+02    0.47033E-06   -0.33929E-05  8688   0.217E-02    0.629E-03
DAV:   7    -0.456801948793E+02   -0.53718E-05   -0.38925E-06  7992   0.759E-03    0.207E-03
DAV:   8    -0.456802026545E+02   -0.77752E-05   -0.15363E-06  7656   0.387E-03    0.123E-03
DAV:   9    -0.456802181485E+02   -0.15494E-04   -0.25409E-06  7656   0.364E-03    0.648E-04
DAV:  10    -0.456802259964E+02   -0.78479E-05   -0.48102E-07  8616   0.154E-03    0.385E-04
DAV:  11    -0.456802322477E+02   -0.62513E-05   -0.42769E-07  7584   0.130E-03    0.213E-04
DAV:  12    -0.456802341867E+02   -0.19390E-05   -0.48280E-08  8904   0.550E-04    0.112E-04
DAV:  13    -0.456802360347E+02   -0.18480E-05   -0.33464E-08  7752   0.396E-04    0.629E-05
DAV:  14    -0.456802363807E+02   -0.34600E-06    0.51897E-09  9432   0.108E-04
   2 F= -.45680236E+02 E0= -.45676878E+02  d E =-.347762E+00
 trial-energy change:   -0.347762  1 .order   -0.335320   -0.456826   -0.213813
 step:   1.5910(harm=  1.8798)  dis= 0.11595  next Energy=   -45.745986 (dE=-0.414E+00)
 bond charge predicted
       N       E                     dE             d eps       ncg     rms          rms(c)
DAV:   1    -0.457602261011E+02   -0.79990E-01   -0.25617E+00  5040   0.674E+00    0.713E-01
DAV:   2    -0.457451776640E+02    0.15048E-01   -0.11233E-01  8760   0.115E+00    0.252E-01
DAV:   3    -0.457433683330E+02    0.18093E-02   -0.12749E-02  7608   0.403E-01    0.132E-01
DAV:   4    -0.457430776760E+02    0.29066E-03   -0.18068E-03  9192   0.151E-01    0.279E-02
DAV:   5    -0.457430677945E+02    0.98815E-05   -0.20233E-04  8904   0.534E-02    0.618E-03
DAV:   6    -0.457430690570E+02   -0.12625E-05   -0.83136E-06  8376   0.139E-02    0.338E-03
DAV:   7    -0.457430704119E+02   -0.13549E-05   -0.91262E-07  8112   0.414E-03    0.896E-04
DAV:   8    -0.457430717560E+02   -0.13441E-05   -0.20897E-07  9048   0.146E-03    0.605E-04
DAV:   9    -0.457430747872E+02   -0.30312E-05   -0.29366E-07  8976   0.134E-03    0.292E-04
DAV:  10    -0.457430772263E+02   -0.24392E-05   -0.15037E-07  8232   0.821E-04    0.199E-04
DAV:  11    -0.457430793338E+02   -0.21074E-05   -0.10983E-07  7896   0.679E-04    0.132E-04
DAV:  12    -0.457430799315E+02   -0.59775E-06   -0.54367E-09  9048   0.267E-04
   3 F= -.45743080E+02 E0= -.45739340E+02  d E =-.410605E+00
 curvature:  -0.84 expect dE=-0.221E-01 dE for cont linesearch -0.375E-03
 ZBRENT: interpolating
 opt :   1.5539  next Energy=   -45.743345 (dE=-0.411E+00)
 bond charge predicted
       N       E                     dE             d eps       ncg     rms          rms(c)
DAV:   1    -0.457433782495E+02   -0.29892E-03   -0.10295E-02  5112   0.429E-01    0.484E-02
DAV:   2    -0.457433078736E+02    0.70376E-04   -0.47286E-04  7848   0.753E-02    0.168E-02
DAV:   3    -0.457432986939E+02    0.91797E-05   -0.61704E-05  7896   0.277E-02    0.896E-03
DAV:   4    -0.457432965875E+02    0.21063E-05   -0.78641E-06  8832   0.101E-02    0.196E-03
DAV:   5    -0.457432962295E+02    0.35808E-06   -0.89344E-07  7800   0.367E-03
   4 F= -.45743296E+02 E0= -.45739574E+02  d E =-.410821E+00
 curvature:  -0.59 expect dE=-0.141E-01 dE for cont linesearch -0.749E-05
 trial: gam= 0.04704 g(F)=  0.236E-01 g(S)=  0.341E-03 ort = 0.240E-02 (trialstep = 0.111E+01)
 search vector abs. value=  0.251E-01
 bond charge predicted
       N       E                     dE             d eps       ncg     rms          rms(c)
DAV:   1    -0.457703387780E+02   -0.27042E-01   -0.39299E-01  5040   0.242E+00    0.232E-01
DAV:   2    -0.457665737101E+02    0.37651E-02   -0.33553E-02  8400   0.644E-01    0.583E-02
DAV:   3    -0.457665643076E+02    0.94025E-05   -0.81992E-04  7080   0.138E-01    0.326E-02
DAV:   4    -0.457665817509E+02   -0.17443E-04   -0.15868E-04  7200   0.516E-02    0.106E-02
DAV:   5    -0.457665848519E+02   -0.31010E-05   -0.11443E-05  8904   0.143E-02    0.345E-03
DAV:   6    -0.457665873892E+02   -0.25372E-05   -0.13701E-06  8592   0.497E-03    0.870E-04
DAV:   7    -0.457665879432E+02   -0.55404E-06   -0.21712E-07  9408   0.162E-03
   5 F= -.45766588E+02 E0= -.45762933E+02  d E =-.232917E-01
 trial-energy change:   -0.023292  1 .order   -0.023207   -0.026667   -0.019748
 step:   3.6651(harm=  4.2809)  dis= 0.05334  next Energy=   -45.790318 (dE=-0.470E-01)
 bond charge predicted
       N       E                     dE             d eps       ncg     rms          rms(c)
DAV:   1    -0.458108420502E+02   -0.44255E-01   -0.21204E+00  5040   0.560E+00    0.518E-01
DAV:   2    -0.457920203915E+02    0.18822E-01   -0.16057E-01  8664   0.148E+00    0.137E-01
DAV:   3    -0.457918639148E+02    0.15648E-03   -0.41724E-03  7464   0.304E-01    0.754E-02
DAV:   4    -0.457919133933E+02   -0.49479E-04   -0.85173E-04  8472   0.119E-01    0.262E-02
DAV:   5    -0.457919231596E+02   -0.97662E-05   -0.65054E-05  8856   0.334E-02    0.686E-03
DAV:   6    -0.457919295022E+02   -0.63427E-05   -0.70448E-06  9336   0.112E-02    0.213E-03
DAV:   7    -0.457919306882E+02   -0.11860E-05   -0.14230E-06  9192   0.413E-03    0.938E-04
DAV:   8    -0.457919313067E+02   -0.61842E-06   -0.31657E-07  9696   0.163E-03
   6 F= -.45791931E+02 E0= -.45788335E+02  d E =-.486351E-01
 curvature:  -2.16 expect dE=-0.340E-01 dE for cont linesearch -0.292E-03
 trial: gam= 0.60756 g(F)=  0.228E-02 g(S)=  0.135E-01 ort = 0.184E-02 (trialstep = 0.149E+01)
 search vector abs. value=  0.273E-01
 bond charge predicted
       N       E                     dE             d eps       ncg     rms          rms(c)
DAV:   1    -0.458162408657E+02   -0.24310E-01   -0.55364E-01  5256   0.316E+00    0.280E-01
DAV:   2    -0.458125835626E+02    0.36573E-02   -0.17339E-02  7584   0.586E-01    0.130E-01
DAV:   3    -0.458120622798E+02    0.52128E-03   -0.51610E-03  8472   0.224E-01    0.365E-02
DAV:   4    -0.458120532123E+02    0.90675E-05   -0.33443E-04  8040   0.826E-02    0.201E-02
DAV:   5    -0.458120507978E+02    0.24146E-05   -0.27775E-05  8688   0.250E-02    0.322E-03
DAV:   6    -0.458120535221E+02   -0.27244E-05   -0.26425E-06  7248   0.561E-03    0.186E-03
DAV:   7    -0.458120601172E+02   -0.65951E-05   -0.12764E-06  7152   0.369E-03    0.102E-03
DAV:   8    -0.458120666821E+02   -0.65649E-05   -0.88494E-07  8328   0.239E-03    0.747E-04
DAV:   9    -0.458120770084E+02   -0.10326E-04   -0.18114E-06  7512   0.303E-03    0.386E-04
DAV:  10    -0.458120807885E+02   -0.37801E-05   -0.44659E-07  8760   0.156E-03    0.219E-04
DAV:  11    -0.458120825823E+02   -0.17938E-05   -0.20440E-07  7800   0.101E-03    0.143E-04
DAV:  12    -0.458120829965E+02   -0.41422E-06   -0.16790E-08  8976   0.400E-04
   7 F= -.45812083E+02 E0= -.45808303E+02  d E =-.201517E-01
 trial-energy change:   -0.020152  1 .order   -0.020189   -0.025226   -0.015152
 step:   3.7397(harm=  3.7397)  dis= 0.04687  next Energy=   -45.823514 (dE=-0.316E-01)
 bond charge predicted
       N       E                     dE             d eps       ncg     rms          rms(c)
DAV:   1    -0.458307901102E+02   -0.18708E-01   -0.12495E+00  5304   0.472E+00    0.413E-01
DAV:   2    -0.458233292901E+02    0.74608E-02   -0.35987E-02  7848   0.862E-01    0.195E-01
DAV:   3    -0.458221667988E+02    0.11625E-02   -0.11269E-02  9024   0.331E-01    0.563E-02
DAV:   4    -0.458221576444E+02    0.91544E-05   -0.69834E-04  8040   0.121E-01    0.313E-02
DAV:   5    -0.458221550511E+02    0.25934E-05   -0.87981E-05  8760   0.400E-02    0.681E-03
DAV:   6    -0.458221597076E+02   -0.46565E-05   -0.90062E-06  6816   0.108E-02    0.290E-03
DAV:   7    -0.458221791396E+02   -0.19432E-04   -0.54246E-06  7104   0.709E-03    0.145E-03
DAV:   8    -0.458221982225E+02   -0.19083E-04   -0.25855E-06  8352   0.414E-03    0.901E-04
DAV:   9    -0.458222139407E+02   -0.15718E-04   -0.24351E-06  8064   0.348E-03    0.519E-04
DAV:  10    -0.458222193086E+02   -0.53679E-05   -0.49214E-07  8904   0.162E-03    0.303E-04
DAV:  11    -0.458222232292E+02   -0.39207E-05   -0.55659E-07  7488   0.157E-03    0.194E-04
DAV:  12    -0.458222238489E+02   -0.61970E-06   -0.21463E-08  9312   0.476E-04
   8 F= -.45822224E+02 E0= -.45818161E+02  d E =-.302925E-01
 curvature:  -3.02 expect dE=-0.147E-01 dE for cont linesearch -0.345E-04
 trial: gam= 0.43819 g(F)=  0.451E-02 g(S)=  0.363E-03 ort =-0.558E-03 (trialstep = 0.194E+01)
 search vector abs. value=  0.962E-02
 bond charge predicted
       N       E                     dE             d eps       ncg     rms          rms(c)
DAV:   1    -0.458307653070E+02   -0.85421E-02   -0.44065E-01  5064   0.264E+00    0.238E-01
DAV:   2    -0.458268482489E+02    0.39171E-02   -0.30356E-02  7752   0.596E-01    0.573E-02
DAV:   3    -0.458268845659E+02   -0.36317E-04   -0.75671E-04  7224   0.144E-01    0.327E-02
DAV:   4    -0.458269016464E+02   -0.17080E-04   -0.10185E-04  8592   0.396E-02    0.105E-02
DAV:   5    -0.458269034979E+02   -0.18515E-05   -0.13591E-05  8832   0.140E-02    0.306E-03
DAV:   6    -0.458269037652E+02   -0.26732E-06   -0.41276E-06  9000   0.632E-03
   9 F= -.45826904E+02 E0= -.45822977E+02  d E =-.467992E-02
 trial-energy change:   -0.004680  1 .order   -0.004658   -0.008995   -0.000322
 step:   2.0138(harm=  2.0149)  dis= 0.01822  next Energy=   -45.826910 (dE=-0.469E-02)
 bond charge predicted
       N       E                     dE             d eps       ncg     rms          rms(c)
DAV:   1    -0.458269132155E+02   -0.97176E-05   -0.57034E-04  5448   0.960E-02    0.826E-03
DAV:   2    -0.458269091757E+02    0.40398E-05   -0.35884E-05  8256   0.205E-02    0.207E-03
DAV:   3    -0.458269093786E+02   -0.20283E-06   -0.95728E-07  8448   0.487E-03
  10 F= -.45826909E+02 E0= -.45822995E+02  d E =-.468553E-02
 curvature:  -2.09 expect dE=-0.545E-02 dE for cont linesearch -0.596E-07
 trial: gam= 0.50597 g(F)=  0.240E-02 g(S)=  0.203E-03 ort =-0.166E-04 (trialstep = 0.196E+01)
 search vector abs. value=  0.505E-02
 bond charge predicted
       N       E                     dE             d eps       ncg     rms          rms(c)
DAV:   1    -0.458310862514E+02   -0.41771E-02   -0.25349E-01  5040   0.226E+00    0.120E-01
DAV:   2    -0.458304591570E+02    0.62709E-03   -0.50914E-03  8424   0.291E-01    0.585E-02
DAV:   3    -0.458304208069E+02    0.38350E-04   -0.38253E-04  9144   0.729E-02    0.236E-02
DAV:   4    -0.458304273279E+02   -0.65210E-05   -0.35729E-05  8496   0.241E-02    0.489E-03
DAV:   5    -0.458304297647E+02   -0.24368E-05   -0.54564E-06  9264   0.773E-03    0.166E-03
DAV:   6    -0.458304309420E+02   -0.11773E-05   -0.70837E-07  6672   0.300E-03    0.866E-04
DAV:   7    -0.458304327666E+02   -0.18246E-05   -0.24429E-07  7272   0.189E-03    0.269E-04
DAV:   8    -0.458304335237E+02   -0.75706E-06   -0.12409E-08  7752   0.420E-04
  11 F= -.45830434E+02 E0= -.45826651E+02  d E =-.352415E-02
 trial-energy change:   -0.003524  1 .order   -0.003489   -0.005081   -0.001897
 step:   3.0156(harm=  3.1230)  dis= 0.02286  next Energy=   -45.830952 (dE=-0.404E-02)
 bond charge predicted
       N       E                     dE             d eps       ncg     rms          rms(c)
DAV:   1    -0.458311606192E+02   -0.72785E-03   -0.74419E-02  5040   0.122E+00    0.639E-02
DAV:   2    -0.458309909932E+02    0.16963E-03   -0.14106E-03  7152   0.157E-01    0.318E-02
DAV:   3    -0.458309810175E+02    0.99758E-05   -0.12752E-04  8760   0.411E-02    0.122E-02
DAV:   4    -0.458309839353E+02   -0.29178E-05   -0.11661E-05  8328   0.136E-02    0.262E-03
DAV:   5    -0.458309849448E+02   -0.10095E-05   -0.18218E-06  9264   0.439E-03    0.921E-04
DAV:   6    -0.458309854202E+02   -0.47546E-06   -0.19815E-07  6768   0.164E-03
  12 F= -.45830985E+02 E0= -.45827238E+02  d E =-.407604E-02
 curvature:  -3.01 expect dE=-0.318E-02 dE for cont linesearch -0.160E-05
 trial: gam= 0.31342 g(F)=  0.938E-03 g(S)=  0.118E-03 ort = 0.518E-04 (trialstep = 0.217E+01)
 search vector abs. value=  0.158E-02
 bond charge predicted
       N       E                     dE             d eps       ncg     rms          rms(c)
DAV:   1    -0.458330774903E+02   -0.20925E-02   -0.87131E-02  5040   0.135E+00    0.695E-02
DAV:   2    -0.458329516862E+02    0.12580E-03   -0.90055E-04  7584   0.142E-01    0.364E-02
DAV:   3    -0.458329170819E+02    0.34604E-04   -0.16324E-04  8832   0.443E-02    0.949E-03
DAV:   4    -0.458329160129E+02    0.10689E-05   -0.55694E-06  8760   0.105E-02    0.300E-03
DAV:   5    -0.458329160801E+02   -0.67171E-07   -0.10137E-06  8136   0.362E-03
  13 F= -.45832916E+02 E0= -.45829187E+02  d E =-.193066E-02
 trial-energy change:   -0.001931  1 .order   -0.001938   -0.002326   -0.001550
 step:   7.5013(harm=  6.4997)  dis= 0.03247  next Energy=   -45.834717 (dE=-0.373E-02)
 bond charge predicted
       N       E                     dE             d eps       ncg     rms          rms(c)
DAV:   1    -0.458352917131E+02   -0.23757E-02   -0.52778E-01  5040   0.333E+00    0.171E-01
DAV:   2    -0.458345453393E+02    0.74637E-03   -0.55351E-03  7992   0.348E-01    0.894E-02
DAV:   3    -0.458343489076E+02    0.19643E-03   -0.92860E-04  8952   0.107E-01    0.239E-02
DAV:   4    -0.458343442451E+02    0.46625E-05   -0.31634E-05  9192   0.249E-02    0.744E-03
DAV:   5    -0.458343449569E+02   -0.71175E-06   -0.58388E-06  8016   0.904E-03
  14 F= -.45834345E+02 E0= -.45830622E+02  d E =-.335954E-02
 curvature:  -4.55 expect dE=-0.463E-02 dE for cont linesearch -0.831E-04
 trial: gam= 1.12481 g(F)=  0.309E-03 g(S)=  0.709E-03 ort =-0.170E-03 (trialstep = 0.194E+01)
 search vector abs. value=  0.264E-02
 bond charge predicted
       N       E                     dE             d eps       ncg     rms          rms(c)
DAV:   1    -0.458360506556E+02   -0.17064E-02   -0.11480E-01  5040   0.149E+00    0.148E-01
DAV:   2    -0.458350108606E+02    0.10398E-02   -0.66025E-03  7824   0.287E-01    0.404E-02
DAV:   3    -0.458349783655E+02    0.32495E-04   -0.34217E-04  8352   0.788E-02    0.143E-02
DAV:   4    -0.458349811662E+02   -0.28007E-05   -0.29683E-05  9144   0.216E-02    0.520E-03
DAV:   5    -0.458349873620E+02   -0.61959E-05   -0.46042E-06  7512   0.805E-03    0.175E-03
DAV:   6    -0.458349911448E+02   -0.37827E-05   -0.53266E-07  7608   0.268E-03    0.808E-04
DAV:   7    -0.458349965265E+02   -0.53818E-05   -0.49774E-07  6648   0.191E-03    0.435E-04
DAV:   8    -0.458350013957E+02   -0.48692E-05   -0.45641E-07  7152   0.149E-03    0.221E-04
DAV:   9    -0.458350027280E+02   -0.13323E-05   -0.31869E-08  8448   0.482E-04    0.129E-04
DAV:  10    -0.458350041128E+02   -0.13848E-05   -0.43763E-08  6768   0.423E-04    0.622E-05
DAV:  11    -0.458350046288E+02   -0.51598E-06   -0.40072E-09  7824   0.207E-04
  15 F= -.45835005E+02 E0= -.45831291E+02  d E =-.659672E-03
 trial-energy change:   -0.000660  1 .order   -0.000628   -0.001605    0.000349
 step:   1.6212(harm=  1.5955)  dis= 0.00944  next Energy=   -45.835033 (dE=-0.688E-03)
 bond charge predicted
       N       E                     dE             d eps       ncg     rms          rms(c)
DAV:   1    -0.458350641143E+02   -0.60001E-04   -0.31237E-03  5208   0.247E-01    0.240E-02
DAV:   2    -0.458350335813E+02    0.30533E-04   -0.17216E-04  8448   0.471E-02    0.680E-03
DAV:   3    -0.458350320129E+02    0.15684E-05   -0.90571E-06  8112   0.125E-02    0.227E-03
DAV:   4    -0.458350318777E+02    0.13517E-06   -0.77162E-07  8712   0.357E-03
  16 F= -.45835032E+02 E0= -.45831316E+02  d E =-.686921E-03
 curvature:  -2.53 expect dE=-0.494E-03 dE for cont linesearch -0.159E-06
 trial: gam=-0.04586 g(F)=  0.124E-03 g(S)=  0.707E-04 ort =-0.129E-04 (trialstep = 0.188E+01)
 search vector abs. value=  0.202E-03
 bond charge predicted
       N       E                     dE             d eps       ncg     rms          rms(c)
DAV:   1    -0.458351975693E+02   -0.16556E-03   -0.62905E-03  5472   0.356E-01    0.197E-02
DAV:   2    -0.458351936169E+02    0.39525E-05   -0.63155E-05  8832   0.428E-02    0.114E-02
DAV:   3    -0.458351945575E+02   -0.94067E-06   -0.14474E-05  8304   0.139E-02    0.226E-03
DAV:   4    -0.458351952422E+02   -0.68465E-06   -0.83829E-07  9336   0.428E-03
  17 F= -.45835195E+02 E0= -.45831487E+02  d E =-.163364E-03
 trial-energy change:   -0.000163  1 .order   -0.000155   -0.000367    0.000057
 step:   1.6493(harm=  1.6260)  dis= 0.00251  next Energy=   -45.835199 (dE=-0.167E-03)
 bond charge predicted
       N       E                     dE             d eps       ncg     rms          rms(c)
DAV:   1    -0.458351996449E+02   -0.50873E-05   -0.92829E-05  7536   0.432E-02    0.240E-03
DAV:   2    -0.458351992304E+02    0.41446E-06   -0.73962E-07  9576   0.433E-03
  18 F= -.45835199E+02 E0= -.45831490E+02  d E =-.167353E-03
 curvature:  -0.83 expect dE=-0.489E-04 dE for cont linesearch -0.416E-07
 trial: gam= 0.32204 g(F)=  0.567E-04 g(S)=  0.210E-05 ort =-0.318E-05 (trialstep = 0.183E+01)
 search vector abs. value=  0.776E-04
 bond charge predicted
       N       E                     dE             d eps       ncg     rms          rms(c)
DAV:   1    -0.458352673256E+02   -0.67681E-04   -0.33390E-03  5088   0.266E-01    0.232E-02
DAV:   2    -0.458352507730E+02    0.16553E-04   -0.12041E-04  7704   0.425E-02    0.935E-03
DAV:   3    -0.458352507454E+02    0.27579E-07   -0.93177E-06  8064   0.128E-02
  19 F= -.45835251E+02 E0= -.45831543E+02  d E =-.515150E-04
 trial-energy change:   -0.000052  1 .order   -0.000051   -0.000106    0.000004
 step:   1.7621(harm=  1.7621)  dis= 0.00172  next Energy=   -45.835250 (dE=-0.509E-04)
 bond charge predicted
       N       E                     dE             d eps       ncg     rms          rms(c)
DAV:   1    -0.458352514295E+02   -0.65649E-06   -0.68057E-06  8232   0.109E-02    0.927E-04
DAV:   2    -0.458352514475E+02   -0.17948E-07   -0.18763E-07  8496   0.151E-03
  20 F= -.45835251E+02 E0= -.45831544E+02  d E =-.522171E-04
 curvature:  -1.18 expect dE=-0.224E-04 dE for cont linesearch -0.561E-08
 trial: gam= 0.31098 g(F)=  0.111E-04 g(S)=  0.776E-05 ort =-0.606E-06 (trialstep = 0.182E+01)
 search vector abs. value=  0.260E-04
 bond charge predicted
       N       E                     dE             d eps       ncg     rms          rms(c)
DAV:   1    -0.458352805469E+02   -0.29117E-04   -0.10452E-03  5088   0.147E-01    0.964E-03
DAV:   2    -0.458352751799E+02    0.53670E-05   -0.30782E-05  7560   0.231E-02    0.386E-03
DAV:   3    -0.458352743935E+02    0.78642E-06   -0.18608E-06  8808   0.559E-03
  21 F= -.45835274E+02 E0= -.45831566E+02  d E =-.229460E-04
 trial-energy change:   -0.000023  1 .order   -0.000025   -0.000034   -0.000015
 step:   3.3028(harm=  3.3028)  dis= 0.00177  next Energy=   -45.835282 (dE=-0.309E-04)
 bond charge predicted
       N       E                     dE             d eps       ncg     rms          rms(c)
DAV:   1    -0.458352833958E+02   -0.82159E-05   -0.69259E-04  5136   0.120E-01    0.801E-03
DAV:   2    -0.458352792726E+02    0.41232E-05   -0.21034E-05  9024   0.189E-02    0.333E-03
DAV:   3    -0.458352786265E+02    0.64609E-06   -0.12083E-06  8712   0.451E-03
  22 F= -.45835279E+02 E0= -.45831570E+02  d E =-.271791E-04
 curvature:  -2.30 expect dE=-0.175E-04 dE for cont linesearch -0.771E-11
 trial: gam= 0.40191 g(F)=  0.542E-05 g(S)=  0.217E-05 ort = 0.935E-08 (trialstep = 0.212E+01)
 search vector abs. value=  0.118E-04
 bond charge predicted
       N       E                     dE             d eps       ncg     rms          rms(c)
DAV:   1    -0.458352938025E+02   -0.14530E-04   -0.61609E-04  6696   0.105E-01    0.846E-03
DAV:   2    -0.458352889683E+02    0.48342E-05   -0.30215E-05  8136   0.181E-02    0.228E-03
DAV:   3    -0.458352892395E+02   -0.27111E-06   -0.92931E-07  7848   0.462E-03
  23 F= -.45835289E+02 E0= -.45831583E+02  d E =-.106129E-04
 trial-energy change:   -0.000011  1 .order   -0.000011   -0.000016   -0.000006
 step:   3.4746(harm=  3.4746)  dis= 0.00155  next Energy=   -45.835292 (dE=-0.132E-04)
 bond charge predicted
       N       E                     dE             d eps       ncg     rms          rms(c)
DAV:   1    -0.458352933613E+02   -0.43929E-05   -0.25419E-04  7632   0.674E-02    0.561E-03
DAV:   2    -0.458352913607E+02    0.20006E-05   -0.12712E-05  7752   0.115E-02    0.156E-03
DAV:   3    -0.458352916384E+02   -0.27774E-06   -0.39501E-07  7488   0.306E-03
  24 F= -.45835292E+02 E0= -.45831587E+02  d E =-.130119E-04
 curvature:  -2.70 expect dE=-0.317E-04 dE for cont linesearch -0.195E-09
 trial: gam= 1.55697 g(F)=  0.106E-04 g(S)=  0.115E-05 ort =-0.292E-07 (trialstep = 0.700E+00)
 search vector abs. value=  0.403E-04
 bond charge predicted
       N       E                     dE             d eps       ncg     rms          rms(c)
DAV:   1    -0.458352993994E+02   -0.80387E-05   -0.23983E-04  7464   0.706E-02    0.409E-03
DAV:   2    -0.458352988759E+02    0.52350E-06   -0.32511E-06  7488   0.707E-03
  25 F= -.45835299E+02 E0= -.45831597E+02  d E =-.723744E-05
 trial-energy change:   -0.000007  1 .order   -0.000007   -0.000008   -0.000006
 step:   2.4716(harm=  2.4716)  dis= 0.00173  next Energy=   -45.835306 (dE=-0.145E-04)
 bond charge predicted
       N       E                     dE             d eps       ncg     rms          rms(c)
DAV:   1    -0.458353075183E+02   -0.81189E-05   -0.15144E-03  5040   0.178E-01    0.104E-02
DAV:   2    -0.458353043167E+02    0.32016E-05   -0.20685E-05  7944   0.204E-02    0.560E-03
DAV:   3    -0.458353042205E+02    0.96133E-07   -0.39597E-06  8064   0.637E-03
  26 F= -.45835304E+02 E0= -.45831607E+02  d E =-.125821E-04
 curvature:  -4.25 expect dE=-0.596E-05 dE for cont linesearch -0.575E-06
 ZBRENT: interpolating
 opt :   2.0859  next Energy=   -45.835305 (dE=-0.130E-04)
 bond charge predicted
       N       E                     dE             d eps       ncg     rms          rms(c)
DAV:   1    -0.458353051629E+02   -0.84618E-06   -0.72718E-05  7680   0.387E-02    0.209E-03
DAV:   2    -0.458353051553E+02    0.75813E-08   -0.92283E-07  9072   0.377E-03
  27 F= -.45835305E+02 E0= -.45831607E+02  d E =-.135168E-04
 curvature:  -3.33 expect dE=-0.293E-05 dE for cont linesearch -0.808E-08
 ZBRENT: interpolating
 opt :   2.0284  next Energy=   -45.835305 (dE=-0.135E-04)
 bond charge predicted
       N       E                     dE             d eps       ncg     rms          rms(c)
DAV:   1    -0.458353052539E+02   -0.91064E-07   -0.13099E-06  8808   0.574E-03    0.528E-04
DAV:   2    -0.458353053074E+02   -0.53504E-07   -0.49566E-09  8184   0.421E-04
  28 F= -.45835305E+02 E0= -.45831607E+02  d E =-.136690E-04
 curvature:  -3.84 expect dE=-0.318E-05 dE for cont linesearch -0.125E-07
 ZBRENT: interpolating
 opt :   2.0593  next Energy=   -45.835305 (dE=-0.135E-04)
 bond charge predicted
       N       E                     dE             d eps       ncg     rms          rms(c)
DAV:   1    -0.458353054047E+02   -0.15078E-06   -0.51963E-07  8472   0.315E-03    0.165E-04
DAV:   2    -0.458353054302E+02   -0.25489E-07    0.13498E-09  7680   0.352E-04
  29 F= -.45835305E+02 E0= -.45831607E+02  d E =-.137918E-04
 curvature:  -1.28 expect dE=-0.108E-05 dE for cont linesearch -0.234E-08
 ZBRENT: interpolating
 opt :   2.0717  next Energy=   -45.835305 (dE=-0.138E-04)
 bond charge predicted
       N       E                     dE             d eps       ncg     rms          rms(c)
DAV:   1    -0.458353054721E+02   -0.67439E-07   -0.59020E-08  7776   0.125E-03    0.870E-05
DAV:   2    -0.458353054906E+02   -0.18437E-07    0.81347E-09  7464   0.141E-04
  30 F= -.45835305E+02 E0= -.45831607E+02  d E =-.138522E-04
 curvature:  -0.92 expect dE=-0.780E-06 dE for cont linesearch -0.729E-09
 ZBRENT: bisectioning
 opt :   2.0788  next Energy=   -45.835305 (dE=-0.139E-04)
 bond charge predicted
       N       E                     dE             d eps       ncg     rms          rms(c)
DAV:   1    -0.458353055237E+02   -0.51519E-07   -0.13656E-08  7560   0.727E-04    0.472E-05
DAV:   2    -0.458353055357E+02   -0.12020E-07    0.90007E-09  7296   0.817E-05
  31 F= -.45835306E+02 E0= -.45831607E+02  d E =-.138973E-04
 curvature:  -1.37 expect dE=-0.117E-05 dE for cont linesearch -0.618E-09
 trial: gam= 0.05087 g(F)=  0.420E-06 g(S)=  0.433E-06 ort = 0.135E-06 (trialstep = 0.975E+00)
 search vector abs. value=  0.971E-06
 bond charge predicted
       N       E                     dE             d eps       ncg     rms          rms(c)
DAV:   1    -0.458353062301E+02   -0.70649E-06   -0.10244E-05  7992   0.145E-02    0.993E-04
DAV:   2    -0.458353060024E+02    0.22778E-06   -0.42091E-07  7440   0.234E-03
  32 F= -.45835306E+02 E0= -.45831608E+02  d E =-.466681E-06
 trial-energy change:   -0.000000  1 .order   -0.000001   -0.000001   -0.000000
 step:   1.7919(harm=  1.7919)  dis= 0.00014  next Energy=   -45.835306 (dE=-0.770E-06)
 reached required accuracy - stopping structural energy minimisation
