  27  27   0   0
  0.7826839E+01  0.6499163E-09  0.6499163E-09  0.6499163E-09  0.1500000E-16
  1.000000000000000E-004
  CAR 
 phonon_dispersion                       
     24.14266557     -5.65390126  301      7.99968986      1.00000000
     -5.654  0.0000E+00  0.0000E+00
     -5.555  0.0000E+00  0.0000E+00
     -5.455  0.0000E+00  0.0000E+00
     -5.356  0.0000E+00  0.0000E+00
     -5.257  0.0000E+00  0.0000E+00
     -5.157  0.0000E+00  0.0000E+00
     -5.058  0.0000E+00  0.0000E+00
     -4.959  0.0000E+00  0.0000E+00
     -4.859  0.0000E+00  0.0000E+00
     -4.760  0.0000E+00  0.0000E+00
     -4.661  0.0000E+00  0.0000E+00
     -4.561  0.1211E-17  0.1202E-18
     -4.462  0.7199E-10  0.7150E-11
     -4.363  0.3378E-05  0.3355E-06
     -4.263  0.4042E-03  0.4048E-04
     -4.164  0.1777E-02  0.2170E-03
     -4.065  0.2713E-02  0.4865E-03
     -3.965  0.3368E-02  0.8210E-03
     -3.866  0.3909E-02  0.1209E-02
     -3.767  0.4457E-02  0.1652E-02
     -3.667  0.4902E-02  0.2139E-02
     -3.568  0.5133E-02  0.2649E-02
     -3.469  0.5709E-02  0.3216E-02
     -3.369  0.5893E-02  0.3801E-02
     -3.270  0.6406E-02  0.4437E-02
     -3.171  0.6409E-02  0.5074E-02
     -3.072  0.7079E-02  0.5777E-02
     -2.972  0.6850E-02  0.6457E-02
     -2.873  0.7885E-02  0.7240E-02
     -2.774  0.7143E-02  0.7950E-02
     -2.674  0.8514E-02  0.8795E-02
     -2.575  0.7896E-02  0.9580E-02
     -2.476  0.8559E-02  0.1043E-01
     -2.376  0.8700E-02  0.1129E-01
     -2.277  0.8738E-02  0.1216E-01
     -2.178  0.9491E-02  0.1310E-01
     -2.078  0.9092E-02  0.1401E-01
     -1.979  0.9515E-02  0.1495E-01
     -1.880  0.1002E-01  0.1595E-01
     -1.780  0.9747E-02  0.1692E-01
     -1.681  0.1004E-01  0.1791E-01
     -1.582  0.1064E-01  0.1897E-01
     -1.482  0.1070E-01  0.2003E-01
     -1.383  0.1062E-01  0.2109E-01
     -1.284  0.1062E-01  0.2214E-01
     -1.184  0.1214E-01  0.2335E-01
     -1.085  0.1044E-01  0.2438E-01
     -0.986  0.1176E-01  0.2555E-01
     -0.886  0.1191E-01  0.2674E-01
     -0.787  0.1204E-01  0.2793E-01
     -0.688  0.1123E-01  0.2905E-01
     -0.588  0.1311E-01  0.3035E-01
     -0.489  0.1264E-01  0.3160E-01
     -0.390  0.1178E-01  0.3277E-01
     -0.291  0.1289E-01  0.3405E-01
     -0.191  0.1346E-01  0.3539E-01
     -0.092  0.1352E-01  0.3673E-01
      0.007  0.1212E-01  0.3794E-01
      0.107  0.1399E-01  0.3933E-01
      0.206  0.1445E-01  0.4076E-01
      0.305  0.1359E-01  0.4211E-01
      0.405  0.1355E-01  0.4346E-01
      0.504  0.1403E-01  0.4485E-01
      0.603  0.1565E-01  0.4641E-01
      0.703  0.1348E-01  0.4775E-01
      0.802  0.1562E-01  0.4930E-01
      0.901  0.1393E-01  0.5068E-01
      1.001  0.1645E-01  0.5231E-01
      1.100  0.1509E-01  0.5381E-01
      1.199  0.1533E-01  0.5534E-01
      1.299  0.1604E-01  0.5693E-01
      1.398  0.1543E-01  0.5846E-01
      1.497  0.1728E-01  0.6018E-01
      1.597  0.1646E-01  0.6181E-01
      1.696  0.1687E-01  0.6349E-01
      1.795  0.1604E-01  0.6508E-01
      1.895  0.1782E-01  0.6685E-01
      1.994  0.1846E-01  0.6869E-01
      2.093  0.1784E-01  0.7046E-01
      2.193  0.1832E-01  0.7228E-01
      2.292  0.1765E-01  0.7403E-01
      2.391  0.2020E-01  0.7604E-01
      2.490  0.2093E-01  0.7812E-01
      2.590  0.2019E-01  0.8012E-01
      2.689  0.2124E-01  0.8223E-01
      2.788  0.2255E-01  0.8447E-01
      2.888  0.2595E-01  0.8705E-01
      2.987  0.2439E-01  0.8947E-01
      3.086  0.2179E-01  0.9163E-01
      3.186  0.2373E-01  0.9399E-01
      3.285  0.1851E-01  0.9583E-01
      3.384  0.2410E-01  0.9822E-01
      3.484  0.2381E-01  0.1006E+00
      3.583  0.1875E-01  0.1025E+00
      3.682  0.1851E-01  0.1043E+00
      3.782  0.1772E-01  0.1060E+00
      3.881  0.2229E-01  0.1083E+00
      3.980  0.2118E-01  0.1104E+00
      4.080  0.1620E-01  0.1120E+00
      4.179  0.1488E-01  0.1135E+00
      4.278  0.1710E-01  0.1152E+00
      4.378  0.1908E-01  0.1170E+00
      4.477  0.1820E-01  0.1189E+00
      4.576  0.1314E-01  0.1202E+00
      4.676  0.1499E-01  0.1216E+00
      4.775  0.1362E-01  0.1230E+00
      4.874  0.1463E-01  0.1245E+00
      4.974  0.1612E-01  0.1261E+00
      5.073  0.1377E-01  0.1274E+00
      5.172  0.1167E-01  0.1286E+00
      5.272  0.9323E-02  0.1295E+00
      5.371  0.1217E-01  0.1307E+00
      5.470  0.1551E-01  0.1323E+00
      5.569  0.1133E-01  0.1334E+00
      5.669  0.8210E-02  0.1342E+00
      5.768  0.7597E-02  0.1350E+00
      5.867  0.1028E-01  0.1360E+00
      5.967  0.1081E-01  0.1370E+00
      6.066  0.1062E-01  0.1381E+00
      6.165  0.6100E-02  0.1387E+00
      6.265  0.5154E-02  0.1392E+00
      6.364  0.7082E-02  0.1399E+00
      6.463  0.8534E-02  0.1408E+00
      6.563  0.7222E-02  0.1415E+00
      6.662  0.4885E-02  0.1420E+00
      6.761  0.3186E-02  0.1423E+00
      6.861  0.3491E-02  0.1426E+00
      6.960  0.7829E-02  0.1434E+00
      7.059  0.5496E-02  0.1440E+00
      7.159  0.4401E-02  0.1444E+00
      7.258  0.4201E-02  0.1448E+00
      7.357  0.2808E-02  0.1451E+00
      7.457  0.7137E-02  0.1458E+00
      7.556  0.7985E-02  0.1466E+00
      7.655  0.5755E-02  0.1472E+00
      7.755  0.5328E-02  0.1477E+00
      7.854  0.5387E-02  0.1482E+00
      7.953  0.7465E-02  0.1490E+00
      8.053  0.1292E-01  0.1503E+00
      8.152  0.9902E-02  0.1512E+00
      8.251  0.1019E-01  0.1522E+00
      8.350  0.1334E-01  0.1536E+00
      8.450  0.3087E-01  0.1566E+00
      8.549  0.4592E-01  0.1612E+00
      8.648  0.3327E-01  0.1645E+00
      8.748  0.3043E-01  0.1675E+00
      8.847  0.2447E-01  0.1700E+00
      8.946  0.3229E-01  0.1732E+00
      9.046  0.2524E-01  0.1757E+00
      9.145  0.2846E-01  0.1785E+00
      9.244  0.2431E-01  0.1809E+00
      9.344  0.2019E-01  0.1829E+00
      9.443  0.2557E-01  0.1855E+00
      9.542  0.2557E-01  0.1880E+00
      9.642  0.1987E-01  0.1900E+00
      9.741  0.2319E-01  0.1923E+00
      9.840  0.2251E-01  0.1945E+00
      9.940  0.1925E-01  0.1964E+00
     10.039  0.1912E-01  0.1983E+00
     10.138  0.2527E-01  0.2008E+00
     10.238  0.1995E-01  0.2028E+00
     10.337  0.1576E-01  0.2044E+00
     10.436  0.1973E-01  0.2063E+00
     10.536  0.2208E-01  0.2085E+00
     10.635  0.1960E-01  0.2105E+00
     10.734  0.1493E-01  0.2120E+00
     10.834  0.1969E-01  0.2139E+00
     10.933  0.2137E-01  0.2160E+00
     11.032  0.1443E-01  0.2175E+00
     11.131  0.1687E-01  0.2191E+00
     11.231  0.1877E-01  0.2210E+00
     11.330  0.2055E-01  0.2231E+00
     11.429  0.1549E-01  0.2246E+00
     11.529  0.1297E-01  0.2259E+00
     11.628  0.1856E-01  0.2277E+00
     11.727  0.1880E-01  0.2296E+00
     11.827  0.1737E-01  0.2313E+00
     11.926  0.1298E-01  0.2326E+00
     12.025  0.1604E-01  0.2342E+00
     12.125  0.2090E-01  0.2363E+00
     12.224  0.1871E-01  0.2381E+00
     12.323  0.1584E-01  0.2397E+00
     12.423  0.1749E-01  0.2414E+00
     12.522  0.2160E-01  0.2436E+00
     12.621  0.2276E-01  0.2458E+00
     12.721  0.1854E-01  0.2477E+00
     12.820  0.1645E-01  0.2493E+00
     12.919  0.2219E-01  0.2515E+00
     13.019  0.2448E-01  0.2540E+00
     13.118  0.2208E-01  0.2562E+00
     13.217  0.2322E-01  0.2585E+00
     13.317  0.2020E-01  0.2605E+00
     13.416  0.2410E-01  0.2629E+00
     13.515  0.3235E-01  0.2661E+00
     13.615  0.2688E-01  0.2687E+00
     13.714  0.2515E-01  0.2712E+00
     13.813  0.2826E-01  0.2740E+00
     13.913  0.2890E-01  0.2769E+00
     14.012  0.2912E-01  0.2798E+00
     14.111  0.2556E-01  0.2823E+00
     14.210  0.2506E-01  0.2848E+00
     14.310  0.2592E-01  0.2874E+00
     14.409  0.2883E-01  0.2903E+00
     14.508  0.2809E-01  0.2931E+00
     14.608  0.2492E-01  0.2955E+00
     14.707  0.2361E-01  0.2979E+00
     14.806  0.2206E-01  0.3001E+00
     14.906  0.2878E-01  0.3029E+00
     15.005  0.2909E-01  0.3058E+00
     15.104  0.2438E-01  0.3082E+00
     15.204  0.1990E-01  0.3102E+00
     15.303  0.2033E-01  0.3122E+00
     15.402  0.3032E-01  0.3153E+00
     15.502  0.2664E-01  0.3179E+00
     15.601  0.2204E-01  0.3201E+00
     15.700  0.2055E-01  0.3221E+00
     15.800  0.1884E-01  0.3240E+00
     15.899  0.2944E-01  0.3269E+00
     15.998  0.2621E-01  0.3295E+00
     16.098  0.1828E-01  0.3313E+00
     16.197  0.2186E-01  0.3335E+00
     16.296  0.1794E-01  0.3353E+00
     16.396  0.2670E-01  0.3379E+00
     16.495  0.2573E-01  0.3405E+00
     16.594  0.2016E-01  0.3425E+00
     16.694  0.1753E-01  0.3442E+00
     16.793  0.1795E-01  0.3460E+00
     16.892  0.2333E-01  0.3483E+00
     16.991  0.2676E-01  0.3510E+00
     17.091  0.2135E-01  0.3531E+00
     17.190  0.1583E-01  0.3547E+00
     17.289  0.1935E-01  0.3566E+00
     17.389  0.2336E-01  0.3589E+00
     17.488  0.3205E-01  0.3621E+00
     17.587  0.2517E-01  0.3646E+00
     17.687  0.1973E-01  0.3666E+00
     17.786  0.2323E-01  0.3689E+00
     17.885  0.2225E-01  0.3711E+00
     17.985  0.3294E-01  0.3744E+00
     18.084  0.2864E-01  0.3772E+00
     18.183  0.2335E-01  0.3795E+00
     18.283  0.2164E-01  0.3817E+00
     18.382  0.2342E-01  0.3840E+00
     18.481  0.3426E-01  0.3874E+00
     18.581  0.3114E-01  0.3905E+00
     18.680  0.2291E-01  0.3928E+00
     18.779  0.2173E-01  0.3949E+00
     18.879  0.2721E-01  0.3976E+00
     18.978  0.3042E-01  0.4007E+00
     19.077  0.3237E-01  0.4039E+00
     19.177  0.2530E-01  0.4064E+00
     19.276  0.2440E-01  0.4088E+00
     19.375  0.2539E-01  0.4113E+00
     19.475  0.2888E-01  0.4142E+00
     19.574  0.3524E-01  0.4177E+00
     19.673  0.2659E-01  0.4203E+00
     19.773  0.2455E-01  0.4228E+00
     19.872  0.2523E-01  0.4253E+00
     19.971  0.3080E-01  0.4283E+00
     20.070  0.3306E-01  0.4316E+00
     20.170  0.3071E-01  0.4347E+00
     20.269  0.2410E-01  0.4371E+00
     20.368  0.2595E-01  0.4397E+00
     20.468  0.2314E-01  0.4420E+00
     20.567  0.2800E-01  0.4447E+00
     20.666  0.2429E-01  0.4471E+00
     20.766  0.2125E-01  0.4493E+00
     20.865  0.2137E-01  0.4514E+00
     20.964  0.1763E-01  0.4531E+00
     21.064  0.1623E-01  0.4547E+00
     21.163  0.2306E-01  0.4570E+00
     21.262  0.2030E-01  0.4590E+00
     21.362  0.1441E-01  0.4605E+00
     21.461  0.1244E-01  0.4617E+00
     21.560  0.1086E-01  0.4628E+00
     21.660  0.9543E-02  0.4637E+00
     21.759  0.7004E-02  0.4644E+00
     21.858  0.3220E-02  0.4648E+00
     21.958  0.1798E-02  0.4649E+00
     22.057  0.1360E-02  0.4651E+00
     22.156  0.1142E-02  0.4652E+00
     22.256  0.4616E-03  0.4652E+00
     22.355  0.2313E-03  0.4653E+00
     22.454  0.6977E-03  0.4653E+00
     22.554  0.2340E-03  0.4653E+00
     22.653  0.8860E-04  0.4654E+00
     22.752  0.1026E-03  0.4654E+00
     22.851  0.7661E-04  0.4654E+00
     22.951  0.3353E-05  0.4654E+00
     23.050  0.1947E-09  0.4654E+00
     23.149  0.5909E-17  0.4654E+00
     23.249  0.0000E+00  0.4654E+00
     23.348  0.0000E+00  0.4654E+00
     23.447  0.0000E+00  0.4654E+00
     23.547  0.0000E+00  0.4654E+00
     23.646  0.0000E+00  0.4654E+00
     23.745  0.0000E+00  0.4654E+00
     23.845  0.0000E+00  0.4654E+00
     23.944  0.0000E+00  0.4654E+00
     24.043  0.0000E+00  0.4654E+00
     24.143  0.0000E+00  0.4654E+00
