       N       E                     dE             d eps       ncg     rms          rms(c)
DAV:   1     0.214730797701E+02    0.21473E+02   -0.24044E+03   840   0.317E+02
DAV:   2    -0.487385597943E+01   -0.26347E+02   -0.24315E+02  1176   0.443E+01
DAV:   3    -0.537273398824E+01   -0.49888E+00   -0.49851E+00  1344   0.932E+00
DAV:   4    -0.537309475922E+01   -0.36077E-03   -0.36077E-03  1316   0.219E-01
DAV:   5    -0.537309504266E+01   -0.28344E-06   -0.28346E-06  1400   0.604E-03
DAV:   6    -0.537309504285E+01   -0.19418E-09   -0.20290E-10  1232   0.104E-04
   1 F= -.53730950E+01 E0= -.53729070E+01  d E =-.376036E-03  mag=     0.0000    -0.0000     0.0000
