   45   45  577    1
  0.4053941E+02  0.6753283E-09  0.6753283E-09  0.4000000E-08  0.1500000E-16
  1.000000000000000E-004
  CAR 
 phonon_dispersion                       
     72     61    168
 
  0.1276756E-14  0.1276756E-14  0.1276756E-14  0.8264463E-02
      1        -14.185133   1.000000
      2        -12.076364   1.000000
      3        -11.753583   1.000000
      4        -11.744584   1.000000
      5        -11.736999   1.000000
      6        -11.733904   1.000000
      7        -10.390910   1.000000
      8         -9.661291   1.000000
      9         -9.604496   1.000000
     10         -9.541548   1.000000
     11         -9.522997   1.000000
     12         -9.266439   1.000000
     13         -9.259389   1.000000
     14         -9.251807   1.000000
     15         -9.245235   1.000000
     16         -8.376339   1.000000
     17         -8.142763   1.000000
     18         -8.050850   1.000000
     19         -7.950315   1.000000
     20         -7.922026   1.000000
     21         -7.111365   1.000000
     22         -7.044421   1.000000
     23         -6.980163   1.000000
     24         -6.915068   1.000000
     25         -6.236086   1.000000
     26         -6.201454   1.000000
     27         -6.182732   1.000000
     28         -6.168067   1.000000
     29         -5.724234   1.000000
     30         -5.617500   1.000000
     31         -5.529803   1.000000
     32         -5.420318   1.000000
     33         -4.350085   0.000000
     34         -4.344246   0.000000
     35         -4.305518   0.000000
     36         -4.293078   0.000000
     37         -3.922265   0.000000
     38         -3.901086   0.000000
     39         -3.877691   0.000000
     40         -3.848177   0.000000
     41         -3.270012   0.000000
     42         -3.267717   0.000000
     43         -3.266901   0.000000
     44         -3.264474   0.000000
     45         -1.299669   0.000000
     46         -0.161480   0.000000
     47         -0.125421   0.000000
     48         -0.093823   0.000000
     49         -0.082099   0.000000
     50         -0.042011   0.000000
     51         -0.034700   0.000000
     52         -0.023435   0.000000
     53         -0.018840   0.000000
     54          0.000837   0.000000
     55          0.008630   0.000000
     56          0.041134   0.000000
     57          0.046622   0.000000
     58          0.345093   0.000000
     59          1.589409   0.000000
     60          1.738354   0.000000
     61          1.747139   0.000000
     62          1.761280   0.000000
     63          1.774518   0.000000
     64          1.823539   0.000000
     65          1.825550   0.000000
     66          2.190167   0.000000
     67          2.222757   0.000000
     68          2.881596   0.000000
     69          2.971193   0.000000
     70          3.461345   0.000000
     71          3.505234   0.000000
     72          3.534374   0.000000
     73          3.542054   0.000000
     74          3.555337   0.000000
     75          3.567500   0.000000
     76          3.573935   0.000000
     77          3.593661   0.000000
     78          3.811856   0.000000
     79          3.977782   0.000000
     80          4.302144   0.000000
     81          4.307777   0.000000
     82          4.320730   0.000000
     83          4.337245   0.000000
     84          4.835123   0.000000
     85          4.883119   0.000000
     86          4.919443   0.000000
     87          4.920651   0.000000
     88          4.922598   0.000000
     89          4.923859   0.000000
     90          4.952668   0.000000
     91          4.969904   0.000000
     92          4.993431   0.000000
     93          5.023532   0.000000
     94          5.028937   0.000000
     95          5.029859   0.000000
     96          5.032883   0.000000
     97          5.101844   0.000000
     98          5.136662   0.000000
     99          5.162269   0.000000
    100          5.168326   0.000000
    101          5.176253   0.000000
    102          5.179006   0.000000
    103          5.189561   0.000000
    104          5.197443   0.000000
    105          5.214337   0.000000
    106          5.286111   0.000000
    107          5.309914   0.000000
    108          5.386071   0.000000
    109          5.401219   0.000000
    110          5.609072   0.000000
    111          5.619358   0.000000
    112          5.648892   0.000000
    113          5.657082   0.000000
    114          5.676121   0.000000
    115          5.678763   0.000000
    116          5.697680   0.000000
    117          5.749906   0.000000
    118          6.086147   0.000000
    119          6.112085   0.000000
    120          6.116396   0.000000
    121          6.127151   0.000000
    122          6.271367   0.000000
    123          6.281559   0.000000
    124          6.286210   0.000000
    125          6.289856   0.000000
    126          6.377574   0.000000
    127          6.388607   0.000000
    128          6.399748   0.000000
    129          6.410853   0.000000
    130          6.418100   0.000000
    131          6.638712   0.000000
    132          6.671705   0.000000
    133          6.706848   0.000000
    134          6.721440   0.000000
    135          6.756670   0.000000
    136          6.848745   0.000000
    137          6.861614   0.000000
    138          6.883833   0.000000
    139          6.891165   0.000000
    140          7.041172   0.000000
    141          7.042636   0.000000
    142          7.188022   0.000000
    143          7.201343   0.000000
    144          7.221962   0.000000
    145          7.224261   0.000000
    146          7.346112   0.000000
    147          7.358557   0.000000
    148          7.375955   0.000000
    149          7.379736   0.000000
    150          8.013134   0.000000
    151          8.150202   0.000000
    152          8.163870   0.000000
    153          8.170050   0.000000
    154          8.180034   0.000000
    155          8.234185   0.000000
    156          8.236736   0.000000
    157          8.239923   0.000000
    158          8.241456   0.000000
    159          8.244740   0.000000
    160          8.335740   0.000000
    161          8.338338   0.000000
    162          8.338727   0.000000
    163          8.341622   0.000000
    164          8.356914   0.000000
    165          8.375169   0.000000
    166          8.402141   0.000000
    167          8.405916   0.000000
    168          8.512132   0.000000
 
  0.9090909E-01  0.1276756E-14  0.1276756E-14  0.1652893E-01
      1        -14.164841   1.000000
      2        -12.163772   1.000000
      3        -12.054900   1.000000
      4        -11.727074   1.000000
      5        -11.715308   1.000000
      6        -11.283892   1.000000
      7        -10.369574   1.000000
      8        -10.004660   1.000000
      9         -9.686118   1.000000
     10         -9.675057   1.000000
     11         -9.602591   1.000000
     12         -9.513514   1.000000
     13         -9.131930   1.000000
     14         -8.802523   1.000000
     15         -8.794522   1.000000
     16         -8.391545   1.000000
     17         -8.351218   1.000000
     18         -8.061503   1.000000
     19         -7.921147   1.000000
     20         -7.673927   1.000000
     21         -7.474681   1.000000
     22         -7.395109   1.000000
     23         -6.602949   1.000000
     24         -6.528450   1.000000
     25         -6.456665   1.000000
     26         -6.186619   1.000000
     27         -6.168080   1.000000
     28         -6.039650   1.000000
     29         -5.958714   1.000000
     30         -5.874871   1.000000
     31         -5.274822   1.000000
     32         -5.152003   1.000000
     33         -5.065335   1.000000
     34         -4.332534   0.000000
     35         -4.282342   0.000000
     36         -4.215718   0.000000
     37         -4.184816   0.000000
     38         -3.662372   0.000000
     39         -3.651573   0.000000
     40         -3.622683   0.000000
     41         -3.591998   0.000000
     42         -3.523765   0.000000
     43         -3.091203   0.000000
     44         -3.077143   0.000000
     45         -1.287908   0.000000
     46         -0.624456   0.000000
     47         -0.335065   0.000000
     48         -0.329923   0.000000
     49         -0.061140   0.000000
     50         -0.035092   0.000000
     51         -0.012839   0.000000
     52          0.012071   0.000000
     53          0.077185   0.000000
     54          0.115363   0.000000
     55          0.227317   0.000000
     56          0.232325   0.000000
     57          0.370058   0.000000
     58          0.686048   0.000000
     59          1.606562   0.000000
     60          1.627862   0.000000
     61          1.720677   0.000000
     62          1.754026   0.000000
     63          1.772114   0.000000
     64          1.785330   0.000000
     65          1.820291   0.000000
     66          2.216710   0.000000
     67          2.247581   0.000000
     68          2.907092   0.000000
     69          2.995273   0.000000
     70          3.028183   0.000000
     71          3.485866   0.000000
     72          3.523100   0.000000
     73          3.567742   0.000000
     74          3.571480   0.000000
     75          3.602142   0.000000
     76          3.767834   0.000000
     77          3.833483   0.000000
     78          3.922924   0.000000
     79          3.947865   0.000000
     80          4.004947   0.000000
     81          4.096368   0.000000
     82          4.363161   0.000000
     83          4.466385   0.000000
     84          4.478698   0.000000
     85          4.484816   0.000000
     86          4.679208   0.000000
     87          4.712891   0.000000
     88          4.814017   0.000000
     89          4.893842   0.000000
     90          4.910294   0.000000
     91          4.947635   0.000000
     92          4.950609   0.000000
     93          4.999781   0.000000
     94          5.007817   0.000000
     95          5.045018   0.000000
     96          5.054613   0.000000
     97          5.062201   0.000000
     98          5.085845   0.000000
     99          5.126900   0.000000
    100          5.191579   0.000000
    101          5.204459   0.000000
    102          5.217306   0.000000
    103          5.236680   0.000000
    104          5.312826   0.000000
    105          5.402768   0.000000
    106          5.435990   0.000000
    107          5.443162   0.000000
    108          5.539185   0.000000
    109          5.541218   0.000000
    110          5.637745   0.000000
    111          5.670830   0.000000
    112          5.673640   0.000000
    113          5.698895   0.000000
    114          5.729792   0.000000
    115          5.755288   0.000000
    116          5.776250   0.000000
    117          5.819766   0.000000
    118          5.944249   0.000000
    119          6.119755   0.000000
    120          6.158814   0.000000
    121          6.210931   0.000000
    122          6.224445   0.000000
    123          6.239943   0.000000
    124          6.304390   0.000000
    125          6.310057   0.000000
    126          6.395029   0.000000
    127          6.415214   0.000000
    128          6.421889   0.000000
    129          6.450754   0.000000
    130          6.463486   0.000000
    131          6.600519   0.000000
    132          6.683686   0.000000
    133          6.762217   0.000000
    134          6.819913   0.000000
    135          6.844404   0.000000
    136          6.881180   0.000000
    137          6.911231   0.000000
    138          6.928159   0.000000
    139          6.956219   0.000000
    140          6.988483   0.000000
    141          7.065128   0.000000
    142          7.188701   0.000000
    143          7.223159   0.000000
    144          7.239118   0.000000
    145          7.270790   0.000000
    146          7.365392   0.000000
    147          7.390240   0.000000
    148          7.537271   0.000000
    149          7.556370   0.000000
    150          7.655925   0.000000
    151          7.657090   0.000000
    152          7.766358   0.000000
    153          7.773800   0.000000
    154          7.776165   0.000000
    155          7.914177   0.000000
    156          7.928795   0.000000
    157          7.960424   0.000000
    158          7.964999   0.000000
    159          8.031439   0.000000
    160          8.037477   0.000000
    161          8.230629   0.000000
    162          8.238021   0.000000
    163          8.274183   0.000000
    164          8.388194   0.000000
    165          8.428085   0.000000
    166          8.517224   0.000000
    167          8.525085   0.000000
    168          8.532833   0.000000
 
  0.1276756E-14  0.9090909E-01  0.1276756E-14  0.1652893E-01
      1        -14.164840   1.000000
      2        -12.164131   1.000000
      3        -12.054252   1.000000
      4        -11.727112   1.000000
      5        -11.715730   1.000000
      6        -11.283764   1.000000
      7        -10.370143   1.000000
      8        -10.002377   1.000000
      9         -9.684878   1.000000
     10         -9.677124   1.000000
     11         -9.603242   1.000000
     12         -9.514862   1.000000
     13         -9.131233   1.000000
     14         -8.803262   1.000000
     15         -8.793652   1.000000
     16         -8.398046   1.000000
     17         -8.339607   1.000000
     18         -8.063484   1.000000
     19         -7.929210   1.000000
     20         -7.665948   1.000000
     21         -7.483677   1.000000
     22         -7.387546   1.000000
     23         -6.611174   1.000000
     24         -6.526002   1.000000
     25         -6.451961   1.000000
     26         -6.186746   1.000000
     27         -6.165168   1.000000
     28         -6.030051   1.000000
     29         -5.982951   1.000000
     30         -5.863046   1.000000
     31         -5.266346   1.000000
     32         -5.166321   1.000000
     33         -5.061689   1.000000
     34         -4.326009   0.000000
     35         -4.284615   0.000000
     36         -4.211021   0.000000
     37         -4.188785   0.000000
     38         -3.665115   0.000000
     39         -3.650346   0.000000
     40         -3.620815   0.000000
     41         -3.592815   0.000000
     42         -3.527712   0.000000
     43         -3.089027   0.000000
     44         -3.078486   0.000000
     45         -1.287960   0.000000
     46         -0.624173   0.000000
     47         -0.339250   0.000000
     48         -0.325759   0.000000
     49         -0.063913   0.000000
     50         -0.029939   0.000000
     51         -0.012804   0.000000
     52          0.015477   0.000000
     53          0.063323   0.000000
     54          0.125994   0.000000
     55          0.220004   0.000000
     56          0.238551   0.000000
     57          0.369932   0.000000
     58          0.684781   0.000000
     59          1.605774   0.000000
     60          1.628383   0.000000
     61          1.724155   0.000000
     62          1.755259   0.000000
     63          1.771905   0.000000
     64          1.785029   0.000000
     65          1.817152   0.000000
     66          2.216721   0.000000
     67          2.247630   0.000000
     68          2.906926   0.000000
     69          2.995325   0.000000
     70          3.027746   0.000000
     71          3.493682   0.000000
     72          3.523936   0.000000
     73          3.563951   0.000000
     74          3.575312   0.000000
     75          3.590608   0.000000
     76          3.767981   0.000000
     77          3.835054   0.000000
     78          3.926565   0.000000
     79          3.944766   0.000000
     80          4.002972   0.000000
     81          4.101367   0.000000
     82          4.363195   0.000000
     83          4.465349   0.000000
     84          4.473239   0.000000
     85          4.485016   0.000000
     86          4.680457   0.000000
     87          4.724150   0.000000
     88          4.825040   0.000000
     89          4.875280   0.000000
     90          4.906128   0.000000
     91          4.948074   0.000000
     92          4.950677   0.000000
     93          4.992246   0.000000
     94          5.017223   0.000000
     95          5.048719   0.000000
     96          5.055521   0.000000
     97          5.070846   0.000000
     98          5.078262   0.000000
     99          5.121680   0.000000
    100          5.191080   0.000000
    101          5.204657   0.000000
    102          5.218975   0.000000
    103          5.236507   0.000000
    104          5.309165   0.000000
    105          5.409060   0.000000
    106          5.435435   0.000000
    107          5.438703   0.000000
    108          5.538459   0.000000
    109          5.541325   0.000000
    110          5.644936   0.000000
    111          5.671302   0.000000
    112          5.675542   0.000000
    113          5.695778   0.000000
    114          5.709931   0.000000
    115          5.747350   0.000000
    116          5.783800   0.000000
    117          5.836838   0.000000
    118          5.943626   0.000000
    119          6.120396   0.000000
    120          6.162317   0.000000
    121          6.204313   0.000000
    122          6.223780   0.000000
    123          6.236918   0.000000
    124          6.305943   0.000000
    125          6.315288   0.000000
    126          6.396605   0.000000
    127          6.413526   0.000000
    128          6.425085   0.000000
    129          6.449254   0.000000
    130          6.460895   0.000000
    131          6.600758   0.000000
    132          6.683660   0.000000
    133          6.761529   0.000000
    134          6.819707   0.000000
    135          6.842862   0.000000
    136          6.884923   0.000000
    137          6.905732   0.000000
    138          6.933084   0.000000
    139          6.953848   0.000000
    140          6.989379   0.000000
    141          7.065352   0.000000
    142          7.187427   0.000000
    143          7.230762   0.000000
    144          7.240583   0.000000
    145          7.264970   0.000000
    146          7.365418   0.000000
    147          7.387716   0.000000
    148          7.537756   0.000000
    149          7.555832   0.000000
    150          7.656012   0.000000
    151          7.657025   0.000000
    152          7.766399   0.000000
    153          7.773945   0.000000
    154          7.775958   0.000000
    155          7.912444   0.000000
    156          7.931384   0.000000
    157          7.960606   0.000000
    158          7.964713   0.000000
    159          8.029705   0.000000
    160          8.040182   0.000000
    161          8.230728   0.000000
    162          8.237771   0.000000
    163          8.274296   0.000000
    164          8.389656   0.000000
    165          8.425768   0.000000
    166          8.516382   0.000000
    167          8.526238   0.000000
    168          8.532855   0.000000
 
  0.1818182E+00  0.1276756E-14  0.1276756E-14  0.1652893E-01
      1        -14.103966   1.000000
      2        -12.545998   1.000000
      3        -11.991460   1.000000
      4        -11.664214   1.000000
      5        -11.652507   1.000000
      6        -10.790803   1.000000
      7        -10.388970   1.000000
      8        -10.302799   1.000000
      9        -10.070746   1.000000
     10        -10.059757   1.000000
     11         -9.538208   1.000000
     12         -9.448790   1.000000
     13         -8.732834   1.000000
     14         -8.665526   1.000000
     15         -8.311597   1.000000
     16         -8.308525   1.000000
     17         -8.281694   1.000000
     18         -8.001699   1.000000
     19         -7.902603   1.000000
     20         -7.836948   1.000000
     21         -7.781050   1.000000
     22         -7.372905   1.000000
     23         -6.770435   1.000000
     24         -6.394375   1.000000
     25         -6.245124   1.000000
     26         -6.158086   1.000000
     27         -6.131201   1.000000
     28         -6.083464   1.000000
     29         -5.998174   1.000000
     30         -5.853296   1.000000
     31         -5.802326   1.000000
     32         -4.933717   1.000000
     33         -4.810095   1.000000
     34         -4.544912   0.056560
     35         -4.518578   0.009926
     36         -4.262745   0.000000
     37         -4.218262   0.000000
     38         -4.146810   0.000000
     39         -4.115649   0.000000
     40         -3.484551   0.000000
     41         -3.425149   0.000000
     42         -3.109731   0.000000
     43         -3.082381   0.000000
     44         -2.758026   0.000000
     45         -1.255102   0.000000
     46         -1.065090   0.000000
     47         -0.631702   0.000000
     48         -0.601843   0.000000
     49          0.015733   0.000000
     50          0.027235   0.000000
     51          0.216314   0.000000
     52          0.256291   0.000000
     53          0.324884   0.000000
     54          0.379049   0.000000
     55          0.398976   0.000000
     56          0.409777   0.000000
     57          0.446864   0.000000
     58          1.247278   0.000000
     59          1.405703   0.000000
     60          1.576091   0.000000
     61          1.692304   0.000000
     62          1.735956   0.000000
     63          1.798461   0.000000
     64          1.849637   0.000000
     65          1.857967   0.000000
     66          2.295796   0.000000
     67          2.321149   0.000000
     68          2.634613   0.000000
     69          2.985816   0.000000
     70          3.065540   0.000000
     71          3.434673   0.000000
     72          3.453699   0.000000
     73          3.581028   0.000000
     74          3.624239   0.000000
     75          3.634516   0.000000
     76          3.663534   0.000000
     77          3.708474   0.000000
     78          3.752732   0.000000
     79          3.881777   0.000000
     80          3.905857   0.000000
     81          3.955228   0.000000
     82          4.027384   0.000000
     83          4.065451   0.000000
     84          4.292302   0.000000
     85          4.404889   0.000000
     86          4.499432   0.000000
     87          4.512957   0.000000
     88          4.716674   0.000000
     89          4.784695   0.000000
     90          4.845298   0.000000
     91          4.931419   0.000000
     92          5.000675   0.000000
     93          5.028268   0.000000
     94          5.030910   0.000000
     95          5.069058   0.000000
     96          5.073156   0.000000
     97          5.087690   0.000000
     98          5.124686   0.000000
     99          5.135077   0.000000
    100          5.256044   0.000000
    101          5.262779   0.000000
    102          5.280488   0.000000
    103          5.300228   0.000000
    104          5.311992   0.000000
    105          5.328746   0.000000
    106          5.422495   0.000000
    107          5.464535   0.000000
    108          5.490336   0.000000
    109          5.574158   0.000000
    110          5.612047   0.000000
    111          5.697169   0.000000
    112          5.721686   0.000000
    113          5.736631   0.000000
    114          5.761385   0.000000
    115          5.796897   0.000000
    116          5.954682   0.000000
    117          6.017158   0.000000
    118          6.037024   0.000000
    119          6.111254   0.000000
    120          6.210318   0.000000
    121          6.344417   0.000000
    122          6.375182   0.000000
    123          6.381359   0.000000
    124          6.388285   0.000000
    125          6.429704   0.000000
    126          6.441958   0.000000
    127          6.462326   0.000000
    128          6.476797   0.000000
    129          6.493976   0.000000
    130          6.505099   0.000000
    131          6.511597   0.000000
    132          6.558162   0.000000
    133          6.778232   0.000000
    134          6.801103   0.000000
    135          6.813808   0.000000
    136          6.846755   0.000000
    137          6.902138   0.000000
    138          6.971182   0.000000
    139          7.135402   0.000000
    140          7.143058   0.000000
    141          7.143689   0.000000
    142          7.262866   0.000000
    143          7.263532   0.000000
    144          7.295020   0.000000
    145          7.323997   0.000000
    146          7.398463   0.000000
    147          7.419211   0.000000
    148          7.461153   0.000000
    149          7.474484   0.000000
    150          7.476487   0.000000
    151          7.518041   0.000000
    152          7.562269   0.000000
    153          7.612813   0.000000
    154          7.623277   0.000000
    155          7.689392   0.000000
    156          7.730970   0.000000
    157          7.736245   0.000000
    158          7.738156   0.000000
    159          7.851098   0.000000
    160          8.062544   0.000000
    161          8.071892   0.000000
    162          8.080159   0.000000
    163          8.355631   0.000000
    164          8.396460   0.000000
    165          8.409333   0.000000
    166          8.440574   0.000000
    167          8.451214   0.000000
    168          8.464507   0.000000
 
  0.1276756E-14  0.1818182E+00  0.1276756E-14  0.1652893E-01
      1        -14.103965   1.000000
      2        -12.546014   1.000000
      3        -11.991197   1.000000
      4        -11.664259   1.000000
      5        -11.652919   1.000000
      6        -10.790910   1.000000
      7        -10.393135   1.000000
      8        -10.296760   1.000000
      9        -10.069655   1.000000
     10        -10.061138   1.000000
     11         -9.538905   1.000000
     12         -9.450620   1.000000
     13         -8.744326   1.000000
     14         -8.649542   1.000000
     15         -8.314191   1.000000
     16         -8.305899   1.000000
     17         -8.279972   1.000000
     18         -8.002357   1.000000
     19         -7.904135   1.000000
     20         -7.862028   1.000000
     21         -7.758969   1.000000
     22         -7.371316   1.000000
     23         -6.767815   1.000000
     24         -6.395963   1.000000
     25         -6.272634   1.000000
     26         -6.175969   1.000000
     27         -6.101089   1.000000
     28         -6.039485   1.000000
     29         -6.020777   1.000000
     30         -5.862318   1.000000
     31         -5.803364   1.000000
     32         -4.932646   1.000000
     33         -4.808749   1.000000
     34         -4.543530   0.052251
     35         -4.516631   0.008558
     36         -4.261069   0.000000
     37         -4.217744   0.000000
     38         -4.150309   0.000000
     39         -4.116077   0.000000
     40         -3.484899   0.000000
     41         -3.428985   0.000000
     42         -3.106816   0.000000
     43         -3.084132   0.000000
     44         -2.759813   0.000000
     45         -1.255687   0.000000
     46         -1.064052   0.000000
     47         -0.631149   0.000000
     48         -0.601852   0.000000
     49          0.009813   0.000000
     50          0.035131   0.000000
     51          0.215942   0.000000
     52          0.254243   0.000000
     53          0.339874   0.000000
     54          0.370381   0.000000
     55          0.380353   0.000000
     56          0.424499   0.000000
     57          0.447146   0.000000
     58          1.246555   0.000000
     59          1.406701   0.000000
     60          1.577617   0.000000
     61          1.692925   0.000000
     62          1.737726   0.000000
     63          1.794664   0.000000
     64          1.849671   0.000000
     65          1.857937   0.000000
     66          2.295798   0.000000
     67          2.321233   0.000000
     68          2.634383   0.000000
     69          2.986527   0.000000
     70          3.065702   0.000000
     71          3.437287   0.000000
     72          3.454975   0.000000
     73          3.585562   0.000000
     74          3.619004   0.000000
     75          3.632077   0.000000
     76          3.654111   0.000000
     77          3.711529   0.000000
     78          3.755356   0.000000
     79          3.881687   0.000000
     80          3.901395   0.000000
     81          3.955535   0.000000
     82          4.037116   0.000000
     83          4.066623   0.000000
     84          4.292862   0.000000
     85          4.406019   0.000000
     86          4.499733   0.000000
     87          4.511624   0.000000
     88          4.717169   0.000000
     89          4.783967   0.000000
     90          4.831614   0.000000
     91          4.936203   0.000000
     92          4.999896   0.000000
     93          5.028574   0.000000
     94          5.031071   0.000000
     95          5.066506   0.000000
     96          5.074910   0.000000
     97          5.092019   0.000000
     98          5.124481   0.000000
     99          5.134793   0.000000
    100          5.259550   0.000000
    101          5.263000   0.000000
    102          5.278045   0.000000
    103          5.302240   0.000000
    104          5.311622   0.000000
    105          5.353356   0.000000
    106          5.388921   0.000000
    107          5.441866   0.000000
    108          5.516934   0.000000
    109          5.572855   0.000000
    110          5.611845   0.000000
    111          5.699023   0.000000
    112          5.717256   0.000000
    113          5.736488   0.000000
    114          5.759609   0.000000
    115          5.801985   0.000000
    116          5.959319   0.000000
    117          6.018286   0.000000
    118          6.032630   0.000000
    119          6.111523   0.000000
    120          6.210469   0.000000
    121          6.344048   0.000000
    122          6.374217   0.000000
    123          6.383934   0.000000
    124          6.393184   0.000000
    125          6.424922   0.000000
    126          6.448215   0.000000
    127          6.462199   0.000000
    128          6.478229   0.000000
    129          6.484846   0.000000
    130          6.503275   0.000000
    131          6.514160   0.000000
    132          6.558435   0.000000
    133          6.778913   0.000000
    134          6.798607   0.000000
    135          6.818075   0.000000
    136          6.848712   0.000000
    137          6.901533   0.000000
    138          6.968548   0.000000
    139          7.135524   0.000000
    140          7.143133   0.000000
    141          7.143775   0.000000
    142          7.262649   0.000000
    143          7.263467   0.000000
    144          7.295545   0.000000
    145          7.323007   0.000000
    146          7.398495   0.000000
    147          7.418394   0.000000
    148          7.462430   0.000000
    149          7.474703   0.000000
    150          7.476501   0.000000
    151          7.517190   0.000000
    152          7.565306   0.000000
    153          7.612872   0.000000
    154          7.624115   0.000000
    155          7.688689   0.000000
    156          7.727993   0.000000
    157          7.731323   0.000000
    158          7.740347   0.000000
    159          7.853696   0.000000
    160          8.062853   0.000000
    161          8.071791   0.000000
    162          8.079721   0.000000
    163          8.355784   0.000000
    164          8.399197   0.000000
    165          8.405391   0.000000
    166          8.437320   0.000000
    167          8.455369   0.000000
    168          8.469217   0.000000
 
  0.2727273E+00  0.1276756E-14  0.1276756E-14  0.1652893E-01
      1        -14.002532   1.000000
      2        -12.888997   1.000000
      3        -11.885785   1.000000
      4        -11.559575   1.000000
      5        -11.547980   1.000000
      6        -10.734290   1.000000
      7        -10.419944   1.000000
      8        -10.409331   1.000000
      9        -10.271683   1.000000
     10        -10.190886   1.000000
     11         -9.429368   1.000000
     12         -9.342041   1.000000
     13         -9.051584   1.000000
     14         -8.274255   1.000000
     15         -8.207336   1.000000
     16         -8.163594   1.000000
     17         -8.116634   1.000000
     18         -7.888064   1.000000
     19         -7.797263   1.000000
     20         -7.784892   1.000000
     21         -7.725881   1.000000
     22         -7.303742   1.000000
     23         -7.066389   1.000000
     24         -6.719495   1.000000
     25         -6.568575   1.000000
     26         -6.311928   1.000000
     27         -6.022394   1.000000
     28         -5.994901   1.000000
     29         -5.967118   1.000000
     30         -5.602992   1.000000
     31         -5.488080   1.000000
     32         -4.878660   1.000000
     33         -4.856001   1.000000
     34         -4.826969   1.000000
     35         -4.810513   1.000000
     36         -4.514959   0.007518
     37         -4.351448   0.000000
     38         -4.161345   0.000000
     39         -4.116555   0.000000
     40         -3.499771   0.000000
     41         -3.424321   0.000000
     42         -3.251451   0.000000
     43         -3.215257   0.000000
     44         -2.072312   0.000000
     45         -1.325625   0.000000
     46         -1.208182   0.000000
     47         -0.838529   0.000000
     48         -0.784044   0.000000
     49          0.079891   0.000000
     50          0.093483   0.000000
     51          0.419817   0.000000
     52          0.429648   0.000000
     53          0.565778   0.000000
     54          0.573987   0.000000
     55          0.614130   0.000000
     56          0.731854   0.000000
     57          0.768257   0.000000
     58          0.845622   0.000000
     59          1.518716   0.000000
     60          1.687073   0.000000
     61          1.749765   0.000000
     62          1.760884   0.000000
     63          1.820780   0.000000
     64          1.972529   0.000000
     65          1.990639   0.000000
     66          2.424664   0.000000
     67          2.442413   0.000000
     68          2.687336   0.000000
     69          2.963197   0.000000
     70          2.971301   0.000000
     71          3.114975   0.000000
     72          3.176988   0.000000
     73          3.336822   0.000000
     74          3.382182   0.000000
     75          3.491978   0.000000
     76          3.504009   0.000000
     77          3.694825   0.000000
     78          3.726540   0.000000
     79          3.740882   0.000000
     80          3.778367   0.000000
     81          3.931662   0.000000
     82          3.968524   0.000000
     83          4.040894   0.000000
     84          4.137463   0.000000
     85          4.153784   0.000000
     86          4.450604   0.000000
     87          4.465914   0.000000
     88          4.638368   0.000000
     89          4.663612   0.000000
     90          4.701641   0.000000
     91          4.724069   0.000000
     92          4.970715   0.000000
     93          4.985107   0.000000
     94          5.027204   0.000000
     95          5.091495   0.000000
     96          5.098787   0.000000
     97          5.160469   0.000000
     98          5.164565   0.000000
     99          5.186176   0.000000
    100          5.248383   0.000000
    101          5.264728   0.000000
    102          5.363152   0.000000
    103          5.374592   0.000000
    104          5.392917   0.000000
    105          5.443557   0.000000
    106          5.525734   0.000000
    107          5.533793   0.000000
    108          5.559540   0.000000
    109          5.571634   0.000000
    110          5.575631   0.000000
    111          5.637518   0.000000
    112          5.675943   0.000000
    113          5.716012   0.000000
    114          5.816243   0.000000
    115          5.841419   0.000000
    116          5.851490   0.000000
    117          5.865276   0.000000
    118          5.875155   0.000000
    119          5.890919   0.000000
    120          5.914698   0.000000
    121          5.951882   0.000000
    122          6.503147   0.000000
    123          6.507598   0.000000
    124          6.514463   0.000000
    125          6.531952   0.000000
    126          6.551441   0.000000
    127          6.578646   0.000000
    128          6.633865   0.000000
    129          6.636481   0.000000
    130          6.679428   0.000000
    131          6.736828   0.000000
    132          6.739308   0.000000
    133          6.805139   0.000000
    134          6.806136   0.000000
    135          6.901384   0.000000
    136          6.913987   0.000000
    137          7.043363   0.000000
    138          7.073615   0.000000
    139          7.076840   0.000000
    140          7.084499   0.000000
    141          7.098096   0.000000
    142          7.127749   0.000000
    143          7.252162   0.000000
    144          7.282733   0.000000
    145          7.287736   0.000000
    146          7.415680   0.000000
    147          7.422870   0.000000
    148          7.438903   0.000000
    149          7.452478   0.000000
    150          7.454911   0.000000
    151          7.458246   0.000000
    152          7.494905   0.000000
    153          7.676389   0.000000
    154          7.694884   0.000000
    155          7.696221   0.000000
    156          7.766105   0.000000
    157          7.859508   0.000000
    158          7.911635   0.000000
    159          7.956342   0.000000
    160          8.004340   0.000000
    161          8.019555   0.000000
    162          8.112537   0.000000
    163          8.167328   0.000000
    164          8.190377   0.000000
    165          8.416149   0.000000
    166          8.425363   0.000000
    167          8.475141   0.000000
    168          8.487675   0.000000
 
  0.1276756E-14  0.2727273E+00  0.1276756E-14  0.1652893E-01
      1        -14.002529   1.000000
      2        -12.888985   1.000000
      3        -11.885670   1.000000
      4        -11.559632   1.000000
      5        -11.548373   1.000000
      6        -10.734275   1.000000
      7        -10.420778   1.000000
      8        -10.408978   1.000000
      9        -10.272542   1.000000
     10        -10.188269   1.000000
     11         -9.430426   1.000000
     12         -9.343606   1.000000
     13         -9.050017   1.000000
     14         -8.263902   1.000000
     15         -8.220192   1.000000
     16         -8.159158   1.000000
     17         -8.116904   1.000000
     18         -7.897989   1.000000
     19         -7.791695   1.000000
     20         -7.777578   1.000000
     21         -7.730082   1.000000
     22         -7.301561   1.000000
     23         -7.061328   1.000000
     24         -6.718192   1.000000
     25         -6.584241   1.000000
     26         -6.315334   1.000000
     27         -6.025831   1.000000
     28         -5.991833   1.000000
     29         -5.961386   1.000000
     30         -5.592380   1.000000
     31         -5.495011   1.000000
     32         -4.875309   1.000000
     33         -4.857464   1.000000
     34         -4.816841   1.000000
     35         -4.808764   1.000000
     36         -4.518911   0.010178
     37         -4.360669   0.000000
     38         -4.160404   0.000000
     39         -4.113620   0.000000
     40         -3.500818   0.000000
     41         -3.429887   0.000000
     42         -3.248292   0.000000
     43         -3.217911   0.000000
     44         -2.074034   0.000000
     45         -1.326717   0.000000
     46         -1.206441   0.000000
     47         -0.836283   0.000000
     48         -0.785642   0.000000
     49          0.077601   0.000000
     50          0.096914   0.000000
     51          0.421936   0.000000
     52          0.427434   0.000000
     53          0.569460   0.000000
     54          0.579904   0.000000
     55          0.618051   0.000000
     56          0.713531   0.000000
     57          0.777388   0.000000
     58          0.846480   0.000000
     59          1.520256   0.000000
     60          1.689830   0.000000
     61          1.746777   0.000000
     62          1.759538   0.000000
     63          1.820845   0.000000
     64          1.972528   0.000000
     65          1.990701   0.000000
     66          2.424994   0.000000
     67          2.442179   0.000000
     68          2.686014   0.000000
     69          2.965195   0.000000
     70          2.972334   0.000000
     71          3.113529   0.000000
     72          3.176167   0.000000
     73          3.334343   0.000000
     74          3.389291   0.000000
     75          3.493498   0.000000
     76          3.503688   0.000000
     77          3.697770   0.000000
     78          3.730105   0.000000
     79          3.735960   0.000000
     80          3.769572   0.000000
     81          3.933581   0.000000
     82          3.968244   0.000000
     83          4.038684   0.000000
     84          4.139302   0.000000
     85          4.152993   0.000000
     86          4.450703   0.000000
     87          4.467984   0.000000
     88          4.638378   0.000000
     89          4.662478   0.000000
     90          4.706909   0.000000
     91          4.716844   0.000000
     92          4.970515   0.000000
     93          4.985377   0.000000
     94          5.031969   0.000000
     95          5.089975   0.000000
     96          5.097166   0.000000
     97          5.161125   0.000000
     98          5.164537   0.000000
     99          5.187965   0.000000
    100          5.246277   0.000000
    101          5.265341   0.000000
    102          5.359838   0.000000
    103          5.375068   0.000000
    104          5.392969   0.000000
    105          5.451574   0.000000
    106          5.522395   0.000000
    107          5.530832   0.000000
    108          5.551717   0.000000
    109          5.567719   0.000000
    110          5.575841   0.000000
    111          5.637957   0.000000
    112          5.672505   0.000000
    113          5.720897   0.000000
    114          5.818809   0.000000
    115          5.839124   0.000000
    116          5.848015   0.000000
    117          5.861547   0.000000
    118          5.882410   0.000000
    119          5.885900   0.000000
    120          5.922695   0.000000
    121          5.957762   0.000000
    122          6.496999   0.000000
    123          6.513200   0.000000
    124          6.517449   0.000000
    125          6.530151   0.000000
    126          6.551765   0.000000
    127          6.576084   0.000000
    128          6.633766   0.000000
    129          6.635189   0.000000
    130          6.681913   0.000000
    131          6.735782   0.000000
    132          6.740062   0.000000
    133          6.805084   0.000000
    134          6.805736   0.000000
    135          6.901099   0.000000
    136          6.913672   0.000000
    137          7.042156   0.000000
    138          7.074095   0.000000
    139          7.081036   0.000000
    140          7.084337   0.000000
    141          7.097121   0.000000
    142          7.125962   0.000000
    143          7.252634   0.000000
    144          7.282888   0.000000
    145          7.287153   0.000000
    146          7.415662   0.000000
    147          7.422493   0.000000
    148          7.436983   0.000000
    149          7.446917   0.000000
    150          7.454654   0.000000
    151          7.463910   0.000000
    152          7.496464   0.000000
    153          7.684422   0.000000
    154          7.695401   0.000000
    155          7.696923   0.000000
    156          7.761881   0.000000
    157          7.855321   0.000000
    158          7.910067   0.000000
    159          7.959154   0.000000
    160          8.004610   0.000000
    161          8.020587   0.000000
    162          8.109811   0.000000
    163          8.167527   0.000000
    164          8.194457   0.000000
    165          8.417428   0.000000
    166          8.424317   0.000000
    167          8.472277   0.000000
    168          8.486981   0.000000
 
  0.3636364E+00  0.1276756E-14  0.1276756E-14  0.1652893E-01
      1        -13.860570   1.000000
      2        -13.192183   1.000000
      3        -11.738549   1.000000
      4        -11.413369   1.000000
      5        -11.402008   1.000000
      6        -11.043206   1.000000
      7        -10.728283   1.000000
      8        -10.717229   1.000000
      9        -10.050645   1.000000
     10         -9.731021   1.000000
     11         -9.359544   1.000000
     12         -9.274249   1.000000
     13         -9.181099   1.000000
     14         -8.564041   1.000000
     15         -8.469567   1.000000
     16         -8.033684   1.000000
     17         -7.750399   1.000000
     18         -7.707015   1.000000
     19         -7.660924   1.000000
     20         -7.588564   1.000000
     21         -7.346853   1.000000
     22         -7.247114   1.000000
     23         -7.239091   1.000000
     24         -7.017736   1.000000
     25         -6.865671   1.000000
     26         -6.400760   1.000000
     27         -6.173693   1.000000
     28         -5.864310   1.000000
     29         -5.841257   1.000000
     30         -5.378007   1.000000
     31         -5.369053   1.000000
     32         -5.191588   1.000000
     33         -5.162189   1.000000
     34         -5.064709   1.000000
     35         -4.958015   1.000000
     36         -4.344974   0.000000
     37         -4.175064   0.000000
     38         -4.024462   0.000000
     39         -3.982106   0.000000
     40         -3.707808   0.000000
     41         -3.622621   0.000000
     42         -3.447824   0.000000
     43         -3.408273   0.000000
     44         -1.553951   0.000000
     45         -1.426294   0.000000
     46         -1.166052   0.000000
     47         -0.923247   0.000000
     48         -0.851247   0.000000
     49          0.161030   0.000000
     50          0.172654   0.000000
     51          0.405831   0.000000
     52          0.410022   0.000000
     53          0.480029   0.000000
     54          0.749273   0.000000
     55          0.933926   0.000000
     56          0.985813   0.000000
     57          1.127107   0.000000
     58          1.152683   0.000000
     59          1.537901   0.000000
     60          1.601871   0.000000
     61          1.639196   0.000000
     62          1.674128   0.000000
     63          1.980692   0.000000
     64          2.136008   0.000000
     65          2.179310   0.000000
     66          2.534894   0.000000
     67          2.555531   0.000000
     68          2.591002   0.000000
     69          2.619252   0.000000
     70          2.885189   0.000000
     71          2.950922   0.000000
     72          3.037053   0.000000
     73          3.150351   0.000000
     74          3.284451   0.000000
     75          3.295347   0.000000
     76          3.301228   0.000000
     77          3.594262   0.000000
     78          3.692494   0.000000
     79          3.840851   0.000000
     80          3.859330   0.000000
     81          3.884833   0.000000
     82          3.928864   0.000000
     83          4.083026   0.000000
     84          4.205579   0.000000
     85          4.286572   0.000000
     86          4.340090   0.000000
     87          4.358721   0.000000
     88          4.372610   0.000000
     89          4.513835   0.000000
     90          4.527424   0.000000
     91          4.579021   0.000000
     92          4.657759   0.000000
     93          4.679149   0.000000
     94          4.703095   0.000000
     95          5.027461   0.000000
     96          5.088149   0.000000
     97          5.226953   0.000000
     98          5.258436   0.000000
     99          5.317251   0.000000
    100          5.342119   0.000000
    101          5.348096   0.000000
    102          5.389078   0.000000
    103          5.410851   0.000000
    104          5.418303   0.000000
    105          5.440782   0.000000
    106          5.503477   0.000000
    107          5.517981   0.000000
    108          5.535144   0.000000
    109          5.542075   0.000000
    110          5.581166   0.000000
    111          5.690614   0.000000
    112          5.706553   0.000000
    113          5.748221   0.000000
    114          5.874100   0.000000
    115          5.942762   0.000000
    116          5.970652   0.000000
    117          6.011766   0.000000
    118          6.029112   0.000000
    119          6.061765   0.000000
    120          6.087274   0.000000
    121          6.123396   0.000000
    122          6.268473   0.000000
    123          6.269749   0.000000
    124          6.346404   0.000000
    125          6.397465   0.000000
    126          6.405955   0.000000
    127          6.410515   0.000000
    128          6.543559   0.000000
    129          6.567835   0.000000
    130          6.573955   0.000000
    131          6.614853   0.000000
    132          6.631620   0.000000
    133          6.701722   0.000000
    134          6.713255   0.000000
    135          6.883420   0.000000
    136          6.888982   0.000000
    137          6.988543   0.000000
    138          7.004970   0.000000
    139          7.034353   0.000000
    140          7.079699   0.000000
    141          7.268179   0.000000
    142          7.394292   0.000000
    143          7.396855   0.000000
    144          7.415274   0.000000
    145          7.455753   0.000000
    146          7.464055   0.000000
    147          7.488535   0.000000
    148          7.496633   0.000000
    149          7.525847   0.000000
    150          7.572472   0.000000
    151          7.590093   0.000000
    152          7.602894   0.000000
    153          7.638258   0.000000
    154          7.676438   0.000000
    155          7.686455   0.000000
    156          7.693207   0.000000
    157          7.752501   0.000000
    158          7.850513   0.000000
    159          7.962397   0.000000
    160          8.176389   0.000000
    161          8.219380   0.000000
    162          8.246874   0.000000
    163          8.256173   0.000000
    164          8.260648   0.000000
    165          8.266290   0.000000
    166          8.396880   0.000000
    167          8.451781   0.000000
    168          8.514604   0.000000
 
  0.1276756E-14  0.3636364E+00  0.1276756E-14  0.1652893E-01
      1        -13.860566   1.000000
      2        -13.192165   1.000000
      3        -11.738733   1.000000
      4        -11.413439   1.000000
      5        -11.402363   1.000000
      6        -11.042395   1.000000
      7        -10.728560   1.000000
      8        -10.717434   1.000000
      9        -10.051199   1.000000
     10         -9.730357   1.000000
     11         -9.354806   1.000000
     12         -9.277841   1.000000
     13         -9.181890   1.000000
     14         -8.559261   1.000000
     15         -8.475506   1.000000
     16         -8.036414   1.000000
     17         -7.749283   1.000000
     18         -7.703378   1.000000
     19         -7.654251   1.000000
     20         -7.593781   1.000000
     21         -7.339462   1.000000
     22         -7.247828   1.000000
     23         -7.239219   1.000000
     24         -7.012593   1.000000
     25         -6.882976   1.000000
     26         -6.404163   1.000000
     27         -6.179674   1.000000
     28         -5.865489   1.000000
     29         -5.833216   1.000000
     30         -5.374626   1.000000
     31         -5.368522   1.000000
     32         -5.196542   1.000000
     33         -5.152602   1.000000
     34         -5.049242   1.000000
     35         -4.967098   1.000000
     36         -4.342113   0.000000
     37         -4.185037   0.000000
     38         -4.025044   0.000000
     39         -3.976879   0.000000
     40         -3.709382   0.000000
     41         -3.632672   0.000000
     42         -3.446350   0.000000
     43         -3.409349   0.000000
     44         -1.555768   0.000000
     45         -1.426396   0.000000
     46         -1.165438   0.000000
     47         -0.920625   0.000000
     48         -0.853780   0.000000
     49          0.159978   0.000000
     50          0.175084   0.000000
     51          0.406357   0.000000
     52          0.409043   0.000000
     53          0.490555   0.000000
     54          0.749746   0.000000
     55          0.937143   0.000000
     56          0.975478   0.000000
     57          1.126508   0.000000
     58          1.160015   0.000000
     59          1.537959   0.000000
     60          1.605430   0.000000
     61          1.640696   0.000000
     62          1.669402   0.000000
     63          1.980583   0.000000
     64          2.135911   0.000000
     65          2.179410   0.000000
     66          2.534382   0.000000
     67          2.557153   0.000000
     68          2.587507   0.000000
     69          2.617908   0.000000
     70          2.886650   0.000000
     71          2.951246   0.000000
     72          3.038729   0.000000
     73          3.151104   0.000000
     74          3.282287   0.000000
     75          3.296675   0.000000
     76          3.302660   0.000000
     77          3.594012   0.000000
     78          3.692481   0.000000
     79          3.844176   0.000000
     80          3.866308   0.000000
     81          3.875392   0.000000
     82          3.922477   0.000000
     83          4.083072   0.000000
     84          4.200460   0.000000
     85          4.292787   0.000000
     86          4.340974   0.000000
     87          4.353180   0.000000
     88          4.373673   0.000000
     89          4.497458   0.000000
     90          4.533396   0.000000
     91          4.591315   0.000000
     92          4.668975   0.000000
     93          4.674762   0.000000
     94          4.699333   0.000000
     95          5.032194   0.000000
     96          5.085116   0.000000
     97          5.227281   0.000000
     98          5.256186   0.000000
     99          5.324617   0.000000
    100          5.341697   0.000000
    101          5.347533   0.000000
    102          5.389095   0.000000
    103          5.408293   0.000000
    104          5.413767   0.000000
    105          5.441884   0.000000
    106          5.504623   0.000000
    107          5.516814   0.000000
    108          5.533778   0.000000
    109          5.542869   0.000000
    110          5.585165   0.000000
    111          5.671223   0.000000
    112          5.703325   0.000000
    113          5.753102   0.000000
    114          5.880334   0.000000
    115          5.943473   0.000000
    116          5.967851   0.000000
    117          6.008026   0.000000
    118          6.029209   0.000000
    119          6.054134   0.000000
    120          6.103146   0.000000
    121          6.127378   0.000000
    122          6.268496   0.000000
    123          6.269708   0.000000
    124          6.347449   0.000000
    125          6.396735   0.000000
    126          6.405654   0.000000
    127          6.410393   0.000000
    128          6.544376   0.000000
    129          6.568032   0.000000
    130          6.573709   0.000000
    131          6.614592   0.000000
    132          6.630762   0.000000
    133          6.703872   0.000000
    134          6.712156   0.000000
    135          6.882097   0.000000
    136          6.889650   0.000000
    137          6.993946   0.000000
    138          7.005309   0.000000
    139          7.023698   0.000000
    140          7.079310   0.000000
    141          7.269278   0.000000
    142          7.395017   0.000000
    143          7.398795   0.000000
    144          7.415304   0.000000
    145          7.456296   0.000000
    146          7.463936   0.000000
    147          7.491132   0.000000
    148          7.497772   0.000000
    149          7.528819   0.000000
    150          7.572450   0.000000
    151          7.593186   0.000000
    152          7.604268   0.000000
    153          7.634453   0.000000
    154          7.672979   0.000000
    155          7.681029   0.000000
    156          7.697680   0.000000
    157          7.752532   0.000000
    158          7.850643   0.000000
    159          7.962360   0.000000
    160          8.176761   0.000000
    161          8.216547   0.000000
    162          8.249129   0.000000
    163          8.252244   0.000000
    164          8.259194   0.000000
    165          8.269902   0.000000
    166          8.396259   0.000000
    167          8.452516   0.000000
    168          8.522637   0.000000
 
  0.4545455E+00  0.1276756E-14  0.1276756E-14  0.1652893E-01
      1        -13.678147   1.000000
      2        -13.455273   1.000000
      3        -11.552695   1.000000
      4        -11.311941   1.000000
      5        -11.225538   1.000000
      6        -11.213374   1.000000
      7        -10.997179   1.000000
      8        -10.985776   1.000000
      9         -9.870528   1.000000
     10         -9.610522   1.000000
     11         -9.262244   1.000000
     12         -9.083553   1.000000
     13         -8.997981   1.000000
     14         -8.838051   1.000000
     15         -8.739538   1.000000
     16         -8.124697   1.000000
     17         -7.847216   1.000000
     18         -7.622590   1.000000
     19         -7.549629   1.000000
     20         -7.429731   1.000000
     21         -7.345878   1.000000
     22         -7.251826   1.000000
     23         -7.112980   1.000000
     24         -6.730247   1.000000
     25         -6.723702   1.000000
     26         -6.431956   1.000000
     27         -6.344878   1.000000
     28         -5.915667   1.000000
     29         -5.907190   1.000000
     30         -5.673971   1.000000
     31         -5.656054   1.000000
     32         -5.428101   1.000000
     33         -5.395440   1.000000
     34         -4.634861   0.831431
     35         -4.495751   0.001466
     36         -4.227488   0.000000
     37         -4.096117   0.000000
     38         -4.015454   0.000000
     39         -3.970121   0.000000
     40         -3.851954   0.000000
     41         -3.802273   0.000000
     42         -3.655534   0.000000
     43         -3.613625   0.000000
     44         -1.442083   0.000000
     45         -1.263281   0.000000
     46         -1.162196   0.000000
     47         -0.935283   0.000000
     48         -0.855640   0.000000
     49          0.250872   0.000000
     50          0.257908   0.000000
     51          0.299303   0.000000
     52          0.341945   0.000000
     53          0.347880   0.000000
     54          0.972511   0.000000
     55          1.224447   0.000000
     56          1.243215   0.000000
     57          1.282367   0.000000
     58          1.412375   0.000000
     59          1.438156   0.000000
     60          1.519752   0.000000
     61          1.540763   0.000000
     62          1.933138   0.000000
     63          2.094166   0.000000
     64          2.204912   0.000000
     65          2.267986   0.000000
     66          2.342209   0.000000
     67          2.421552   0.000000
     68          2.612777   0.000000
     69          2.620599   0.000000
     70          2.718979   0.000000
     71          2.736992   0.000000
     72          2.856949   0.000000
     73          2.885579   0.000000
     74          3.129216   0.000000
     75          3.291079   0.000000
     76          3.337243   0.000000
     77          3.517250   0.000000
     78          3.732928   0.000000
     79          3.863165   0.000000
     80          4.004638   0.000000
     81          4.015952   0.000000
     82          4.022135   0.000000
     83          4.067089   0.000000
     84          4.106984   0.000000
     85          4.202682   0.000000
     86          4.214208   0.000000
     87          4.288296   0.000000
     88          4.326195   0.000000
     89          4.384600   0.000000
     90          4.419709   0.000000
     91          4.495586   0.000000
     92          4.496087   0.000000
     93          4.734961   0.000000
     94          4.930883   0.000000
     95          4.960462   0.000000
     96          4.980785   0.000000
     97          5.002763   0.000000
     98          5.091637   0.000000
     99          5.200493   0.000000
    100          5.244766   0.000000
    101          5.366223   0.000000
    102          5.520342   0.000000
    103          5.527350   0.000000
    104          5.545761   0.000000
    105          5.561645   0.000000
    106          5.585046   0.000000
    107          5.632493   0.000000
    108          5.660534   0.000000
    109          5.676969   0.000000
    110          5.683875   0.000000
    111          5.777637   0.000000
    112          5.811436   0.000000
    113          5.854616   0.000000
    114          5.904336   0.000000
    115          5.926073   0.000000
    116          5.927945   0.000000
    117          6.053618   0.000000
    118          6.073529   0.000000
    119          6.079745   0.000000
    120          6.085187   0.000000
    121          6.096816   0.000000
    122          6.122730   0.000000
    123          6.149833   0.000000
    124          6.253128   0.000000
    125          6.278203   0.000000
    126          6.286880   0.000000
    127          6.292094   0.000000
    128          6.422678   0.000000
    129          6.471805   0.000000
    130          6.541312   0.000000
    131          6.553891   0.000000
    132          6.596402   0.000000
    133          6.690614   0.000000
    134          6.715737   0.000000
    135          6.724921   0.000000
    136          6.862334   0.000000
    137          6.871494   0.000000
    138          6.937071   0.000000
    139          6.943995   0.000000
    140          7.174518   0.000000
    141          7.208114   0.000000
    142          7.220015   0.000000
    143          7.238137   0.000000
    144          7.286151   0.000000
    145          7.303614   0.000000
    146          7.408799   0.000000
    147          7.462246   0.000000
    148          7.471375   0.000000
    149          7.484707   0.000000
    150          7.496840   0.000000
    151          7.503045   0.000000
    152          7.625764   0.000000
    153          7.795065   0.000000
    154          7.829581   0.000000
    155          7.862102   0.000000
    156          7.879505   0.000000
    157          7.893365   0.000000
    158          8.051863   0.000000
    159          8.138150   0.000000
    160          8.150985   0.000000
    161          8.163705   0.000000
    162          8.168827   0.000000
    163          8.391519   0.000000
    164          8.401166   0.000000
    165          8.552455   0.000000
    166          8.623984   0.000000
    167          8.647747   0.000000
    168          8.696454   0.000000
 
  0.1276756E-14  0.4545455E+00  0.1276756E-14  0.1652893E-01
      1        -13.678149   1.000000
      2        -13.455248   1.000000
      3        -11.554195   1.000000
      4        -11.309421   1.000000
      5        -11.225838   1.000000
      6        -11.213776   1.000000
      7        -10.997290   1.000000
      8        -10.986120   1.000000
      9         -9.875161   1.000000
     10         -9.602439   1.000000
     11         -9.262048   1.000000
     12         -9.092442   1.000000
     13         -8.994944   1.000000
     14         -8.826499   1.000000
     15         -8.749332   1.000000
     16         -8.121974   1.000000
     17         -7.849434   1.000000
     18         -7.621903   1.000000
     19         -7.571029   1.000000
     20         -7.409433   1.000000
     21         -7.308517   1.000000
     22         -7.253630   1.000000
     23         -7.148106   1.000000
     24         -6.727286   1.000000
     25         -6.725085   1.000000
     26         -6.441516   1.000000
     27         -6.350170   1.000000
     28         -5.910755   1.000000
     29         -5.908335   1.000000
     30         -5.678165   1.000000
     31         -5.644179   1.000000
     32         -5.421591   1.000000
     33         -5.399209   1.000000
     34         -4.610543   0.607192
     35         -4.500721   0.002297
     36         -4.224058   0.000000
     37         -4.102741   0.000000
     38         -4.018739   0.000000
     39         -3.987161   0.000000
     40         -3.849723   0.000000
     41         -3.808257   0.000000
     42         -3.653804   0.000000
     43         -3.613380   0.000000
     44         -1.442409   0.000000
     45         -1.264545   0.000000
     46         -1.162467   0.000000
     47         -0.932866   0.000000
     48         -0.858521   0.000000
     49          0.250939   0.000000
     50          0.261173   0.000000
     51          0.305379   0.000000
     52          0.342306   0.000000
     53          0.348660   0.000000
     54          0.972365   0.000000
     55          1.235584   0.000000
     56          1.242024   0.000000
     57          1.271808   0.000000
     58          1.423992   0.000000
     59          1.438979   0.000000
     60          1.501404   0.000000
     61          1.557024   0.000000
     62          1.932375   0.000000
     63          2.093427   0.000000
     64          2.203762   0.000000
     65          2.259358   0.000000
     66          2.342128   0.000000
     67          2.421275   0.000000
     68          2.612700   0.000000
     69          2.623818   0.000000
     70          2.719574   0.000000
     71          2.736885   0.000000
     72          2.857396   0.000000
     73          2.886451   0.000000
     74          3.129369   0.000000
     75          3.291265   0.000000
     76          3.337708   0.000000
     77          3.517633   0.000000
     78          3.732082   0.000000
     79          3.863875   0.000000
     80          3.991785   0.000000
     81          4.020992   0.000000
     82          4.037362   0.000000
     83          4.055357   0.000000
     84          4.105370   0.000000
     85          4.200101   0.000000
     86          4.215949   0.000000
     87          4.284225   0.000000
     88          4.326528   0.000000
     89          4.385600   0.000000
     90          4.425814   0.000000
     91          4.491983   0.000000
     92          4.496745   0.000000
     93          4.734590   0.000000
     94          4.932107   0.000000
     95          4.967611   0.000000
     96          4.986783   0.000000
     97          4.994723   0.000000
     98          5.093017   0.000000
     99          5.201746   0.000000
    100          5.237881   0.000000
    101          5.369674   0.000000
    102          5.509305   0.000000
    103          5.533434   0.000000
    104          5.547834   0.000000
    105          5.561911   0.000000
    106          5.588554   0.000000
    107          5.623584   0.000000
    108          5.654510   0.000000
    109          5.678972   0.000000
    110          5.687262   0.000000
    111          5.775285   0.000000
    112          5.808059   0.000000
    113          5.862123   0.000000
    114          5.904320   0.000000
    115          5.926155   0.000000
    116          5.927663   0.000000
    117          6.053794   0.000000
    118          6.076284   0.000000
    119          6.080590   0.000000
    120          6.086792   0.000000
    121          6.094099   0.000000
    122          6.119489   0.000000
    123          6.149302   0.000000
    124          6.253800   0.000000
    125          6.277205   0.000000
    126          6.287107   0.000000
    127          6.291633   0.000000
    128          6.424714   0.000000
    129          6.476037   0.000000
    130          6.539860   0.000000
    131          6.552075   0.000000
    132          6.603000   0.000000
    133          6.684655   0.000000
    134          6.715648   0.000000
    135          6.723891   0.000000
    136          6.862113   0.000000
    137          6.870888   0.000000
    138          6.939009   0.000000
    139          6.944717   0.000000
    140          7.181868   0.000000
    141          7.214540   0.000000
    142          7.222335   0.000000
    143          7.233053   0.000000
    144          7.284455   0.000000
    145          7.303187   0.000000
    146          7.404267   0.000000
    147          7.460934   0.000000
    148          7.473562   0.000000
    149          7.485155   0.000000
    150          7.492162   0.000000
    151          7.503804   0.000000
    152          7.625932   0.000000
    153          7.796678   0.000000
    154          7.827801   0.000000
    155          7.862928   0.000000
    156          7.879645   0.000000
    157          7.893511   0.000000
    158          8.051949   0.000000
    159          8.139441   0.000000
    160          8.146773   0.000000
    161          8.164457   0.000000
    162          8.169141   0.000000
    163          8.392090   0.000000
    164          8.400932   0.000000
    165          8.552814   0.000000
    166          8.626836   0.000000
    167          8.646063   0.000000
    168          8.692160   0.000000
 
  0.9090909E-01  0.9090909E-01  0.1276756E-14  0.1652893E-01
      1        -14.144540   1.000000
      2        -12.147122   1.000000
      3        -12.138982   1.000000
      4        -12.032771   1.000000
      5        -11.266829   1.000000
      6        -11.258776   1.000000
      7        -10.348884   1.000000
      8        -10.105168   1.000000
      9        -10.006295   1.000000
     10         -9.951206   1.000000
     11         -9.224706   1.000000
     12         -9.214087   1.000000
     13         -9.135411   1.000000
     14         -9.086442   1.000000
     15         -8.407103   1.000000
     16         -8.365775   1.000000
     17         -8.327107   1.000000
     18         -8.291383   1.000000
     19         -7.885697   1.000000
     20         -7.671955   1.000000
     21         -7.592355   1.000000
     22         -7.027710   1.000000
     23         -6.945601   1.000000
     24         -6.468306   1.000000
     25         -6.436797   1.000000
     26         -6.324734   1.000000
     27         -6.107865   1.000000
     28         -5.957996   1.000000
     29         -5.942591   1.000000
     30         -5.640348   1.000000
     31         -5.527696   1.000000
     32         -5.083833   1.000000
     33         -5.069074   1.000000
     34         -4.815787   1.000000
     35         -4.501028   0.002360
     36         -3.983365   0.000000
     37         -3.945955   0.000000
     38         -3.789435   0.000000
     39         -3.665801   0.000000
     40         -3.660115   0.000000
     41         -3.511735   0.000000
     42         -3.501526   0.000000
     43         -3.309233   0.000000
     44         -2.641025   0.000000
     45         -1.276013   0.000000
     46         -0.613921   0.000000
     47         -0.609728   0.000000
     48         -0.545042   0.000000
     49         -0.211146   0.000000
     50         -0.175257   0.000000
     51         -0.144005   0.000000
     52          0.024955   0.000000
     53          0.278268   0.000000
     54          0.312065   0.000000
     55          0.395015   0.000000
     56          0.592329   0.000000
     57          0.692012   0.000000
     58          0.710975   0.000000
     59          1.594229   0.000000
     60          1.631417   0.000000
     61          1.656087   0.000000
     62          1.711610   0.000000
     63          1.725278   0.000000
     64          1.797855   0.000000
     65          1.807595   0.000000
     66          2.243242   0.000000
     67          2.272605   0.000000
     68          2.932131   0.000000
     69          3.019485   0.000000
     70          3.033104   0.000000
     71          3.070639   0.000000
     72          3.499749   0.000000
     73          3.529273   0.000000
     74          3.761554   0.000000
     75          3.783868   0.000000
     76          3.820876   0.000000
     77          3.862337   0.000000
     78          3.939430   0.000000
     79          3.961237   0.000000
     80          4.029109   0.000000
     81          4.103171   0.000000
     82          4.136900   0.000000
     83          4.390001   0.000000
     84          4.390864   0.000000
     85          4.493121   0.000000
     86          4.495950   0.000000
     87          4.599508   0.000000
     88          4.664921   0.000000
     89          4.707695   0.000000
     90          4.710984   0.000000
     91          4.760721   0.000000
     92          4.811136   0.000000
     93          4.912544   0.000000
     94          4.929067   0.000000
     95          4.940005   0.000000
     96          5.036310   0.000000
     97          5.042856   0.000000
     98          5.083814   0.000000
     99          5.163581   0.000000
    100          5.232280   0.000000
    101          5.252151   0.000000
    102          5.259358   0.000000
    103          5.412896   0.000000
    104          5.465221   0.000000
    105          5.497044   0.000000
    106          5.520759   0.000000
    107          5.563798   0.000000
    108          5.565599   0.000000
    109          5.569270   0.000000
    110          5.580314   0.000000
    111          5.697521   0.000000
    112          5.699992   0.000000
    113          5.771875   0.000000
    114          5.777948   0.000000
    115          5.890251   0.000000
    116          5.959924   0.000000
    117          5.964419   0.000000
    118          6.093903   0.000000
    119          6.117265   0.000000
    120          6.143606   0.000000
    121          6.151713   0.000000
    122          6.162792   0.000000
    123          6.232717   0.000000
    124          6.245566   0.000000
    125          6.249520   0.000000
    126          6.284371   0.000000
    127          6.379848   0.000000
    128          6.432860   0.000000
    129          6.596965   0.000000
    130          6.630153   0.000000
    131          6.769707   0.000000
    132          6.784755   0.000000
    133          6.834578   0.000000
    134          6.851753   0.000000
    135          6.857949   0.000000
    136          6.870633   0.000000
    137          6.884655   0.000000
    138          6.898362   0.000000
    139          6.919555   0.000000
    140          6.951981   0.000000
    141          6.975760   0.000000
    142          6.983943   0.000000
    143          7.016333   0.000000
    144          7.084820   0.000000
    145          7.087339   0.000000
    146          7.227514   0.000000
    147          7.411816   0.000000
    148          7.649787   0.000000
    149          7.668231   0.000000
    150          7.701383   0.000000
    151          7.788189   0.000000
    152          7.796693   0.000000
    153          7.922766   0.000000
    154          7.930425   0.000000
    155          7.946627   0.000000
    156          7.963554   0.000000
    157          8.006988   0.000000
    158          8.027910   0.000000
    159          8.033346   0.000000
    160          8.062368   0.000000
    161          8.209617   0.000000
    162          8.219485   0.000000
    163          8.285992   0.000000
    164          8.288924   0.000000
    165          8.309795   0.000000
    166          8.388812   0.000000
    167          8.389256   0.000000
    168          8.422869   0.000000
 
 -0.9090909E-01  0.9090909E-01  0.1276756E-14  0.1652893E-01
      1        -14.144539   1.000000
      2        -12.145634   1.000000
      3        -12.140527   1.000000
      4        -12.032753   1.000000
      5        -11.265064   1.000000
      6        -11.260489   1.000000
      7        -10.349223   1.000000
      8        -10.103969   1.000000
      9        -10.001190   1.000000
     10         -9.957895   1.000000
     11         -9.225691   1.000000
     12         -9.216411   1.000000
     13         -9.123279   1.000000
     14         -9.094210   1.000000
     15         -8.401710   1.000000
     16         -8.359687   1.000000
     17         -8.333534   1.000000
     18         -8.299492   1.000000
     19         -7.874490   1.000000
     20         -7.670382   1.000000
     21         -7.610394   1.000000
     22         -7.009936   1.000000
     23         -6.950251   1.000000
     24         -6.467050   1.000000
     25         -6.434367   1.000000
     26         -6.327366   1.000000
     27         -6.127651   1.000000
     28         -5.983028   1.000000
     29         -5.917819   1.000000
     30         -5.610011   1.000000
     31         -5.532150   1.000000
     32         -5.095085   1.000000
     33         -5.071864   1.000000
     34         -4.816210   1.000000
     35         -4.505830   0.003576
     36         -3.964360   0.000000
     37         -3.952424   0.000000
     38         -3.787204   0.000000
     39         -3.667859   0.000000
     40         -3.661590   0.000000
     41         -3.507858   0.000000
     42         -3.502280   0.000000
     43         -3.317093   0.000000
     44         -2.640970   0.000000
     45         -1.276039   0.000000
     46         -0.614160   0.000000
     47         -0.608519   0.000000
     48         -0.544143   0.000000
     49         -0.201939   0.000000
     50         -0.184213   0.000000
     51         -0.145481   0.000000
     52          0.025508   0.000000
     53          0.273174   0.000000
     54          0.315146   0.000000
     55          0.394716   0.000000
     56          0.596244   0.000000
     57          0.691029   0.000000
     58          0.709790   0.000000
     59          1.599936   0.000000
     60          1.630278   0.000000
     61          1.648745   0.000000
     62          1.713444   0.000000
     63          1.726591   0.000000
     64          1.797754   0.000000
     65          1.807194   0.000000
     66          2.243261   0.000000
     67          2.272577   0.000000
     68          2.932582   0.000000
     69          3.019611   0.000000
     70          3.037002   0.000000
     71          3.065441   0.000000
     72          3.505204   0.000000
     73          3.524211   0.000000
     74          3.759724   0.000000
     75          3.787131   0.000000
     76          3.812868   0.000000
     77          3.865514   0.000000
     78          3.945364   0.000000
     79          3.962715   0.000000
     80          4.024995   0.000000
     81          4.108801   0.000000
     82          4.133558   0.000000
     83          4.390026   0.000000
     84          4.390963   0.000000
     85          4.493374   0.000000
     86          4.495674   0.000000
     87          4.619893   0.000000
     88          4.672966   0.000000
     89          4.703990   0.000000
     90          4.710293   0.000000
     91          4.735914   0.000000
     92          4.799433   0.000000
     93          4.910293   0.000000
     94          4.931363   0.000000
     95          4.938260   0.000000
     96          5.038746   0.000000
     97          5.050481   0.000000
     98          5.101618   0.000000
     99          5.145703   0.000000
    100          5.234293   0.000000
    101          5.251097   0.000000
    102          5.260843   0.000000
    103          5.413600   0.000000
    104          5.470464   0.000000
    105          5.484397   0.000000
    106          5.537843   0.000000
    107          5.561023   0.000000
    108          5.564586   0.000000
    109          5.568214   0.000000
    110          5.572717   0.000000
    111          5.698195   0.000000
    112          5.699736   0.000000
    113          5.771377   0.000000
    114          5.777811   0.000000
    115          5.889521   0.000000
    116          5.958223   0.000000
    117          5.964115   0.000000
    118          6.091183   0.000000
    119          6.110263   0.000000
    120          6.145461   0.000000
    121          6.148651   0.000000
    122          6.171462   0.000000
    123          6.232571   0.000000
    124          6.246139   0.000000
    125          6.255592   0.000000
    126          6.287357   0.000000
    127          6.379600   0.000000
    128          6.433595   0.000000
    129          6.594273   0.000000
    130          6.633314   0.000000
    131          6.772199   0.000000
    132          6.783106   0.000000
    133          6.836519   0.000000
    134          6.842999   0.000000
    135          6.862802   0.000000
    136          6.872763   0.000000
    137          6.888078   0.000000
    138          6.890138   0.000000
    139          6.926619   0.000000
    140          6.948214   0.000000
    141          6.977488   0.000000
    142          6.982166   0.000000
    143          7.012383   0.000000
    144          7.084240   0.000000
    145          7.087400   0.000000
    146          7.227212   0.000000
    147          7.412035   0.000000
    148          7.650209   0.000000
    149          7.665752   0.000000
    150          7.700970   0.000000
    151          7.784721   0.000000
    152          7.802330   0.000000
    153          7.921150   0.000000
    154          7.930252   0.000000
    155          7.953039   0.000000
    156          7.961055   0.000000
    157          8.004040   0.000000
    158          8.028562   0.000000
    159          8.034839   0.000000
    160          8.063005   0.000000
    161          8.209956   0.000000
    162          8.220693   0.000000
    163          8.286283   0.000000
    164          8.288406   0.000000
    165          8.309795   0.000000
    166          8.388774   0.000000
    167          8.389502   0.000000
    168          8.423043   0.000000
 
  0.1818182E+00  0.9090909E-01  0.1276756E-14  0.1652893E-01
      1        -14.083647   1.000000
      2        -12.525255   1.000000
      3        -12.080653   1.000000
      4        -11.969334   1.000000
      5        -11.199609   1.000000
      6        -10.769609   1.000000
      7        -10.492137   1.000000
      8        -10.367295   1.000000
      9        -10.280381   1.000000
     10         -9.910852   1.000000
     11         -9.603360   1.000000
     12         -9.048597   1.000000
     13         -8.726976   1.000000
     14         -8.708328   1.000000
     15         -8.644341   1.000000
     16         -8.306002   1.000000
     17         -8.280410   1.000000
     18         -8.224909   1.000000
     19         -7.859362   1.000000
     20         -7.575414   1.000000
     21         -7.386546   1.000000
     22         -7.346338   1.000000
     23         -6.754918   1.000000
     24         -6.669965   1.000000
     25         -6.514681   1.000000
     26         -6.368197   1.000000
     27         -5.957837   1.000000
     28         -5.908300   1.000000
     29         -5.867794   1.000000
     30         -5.790081   1.000000
     31         -5.586374   1.000000
     32         -5.246219   1.000000
     33         -5.020058   1.000000
     34         -4.819004   1.000000
     35         -4.488629   0.000746
     36         -4.307595   0.000000
     37         -4.271097   0.000000
     38         -4.096058   0.000000
     39         -3.829591   0.000000
     40         -3.794538   0.000000
     41         -3.443466   0.000000
     42         -3.098168   0.000000
     43         -2.736809   0.000000
     44         -2.433379   0.000000
     45         -1.242619   0.000000
     46         -1.053253   0.000000
     47         -0.773334   0.000000
     48         -0.573557   0.000000
     49         -0.527189   0.000000
     50         -0.121817   0.000000
     51         -0.072423   0.000000
     52          0.171059   0.000000
     53          0.470847   0.000000
     54          0.602445   0.000000
     55          0.652925   0.000000
     56          0.743074   0.000000
     57          0.879073   0.000000
     58          1.253734   0.000000
     59          1.421660   0.000000
     60          1.565798   0.000000
     61          1.617748   0.000000
     62          1.695665   0.000000
     63          1.722718   0.000000
     64          1.875598   0.000000
     65          1.884334   0.000000
     66          2.322261   0.000000
     67          2.346637   0.000000
     68          2.654836   0.000000
     69          3.011075   0.000000
     70          3.090407   0.000000
     71          3.120322   0.000000
     72          3.435060   0.000000
     73          3.464357   0.000000
     74          3.556606   0.000000
     75          3.714779   0.000000
     76          3.752936   0.000000
     77          3.845705   0.000000
     78          3.899945   0.000000
     79          3.926148   0.000000
     80          3.944280   0.000000
     81          3.981856   0.000000
     82          4.042350   0.000000
     83          4.089953   0.000000
     84          4.191413   0.000000
     85          4.319629   0.000000
     86          4.431263   0.000000
     87          4.468826   0.000000
     88          4.478241   0.000000
     89          4.513468   0.000000
     90          4.574932   0.000000
     91          4.744490   0.000000
     92          4.786487   0.000000
     93          4.805646   0.000000
     94          4.850525   0.000000
     95          4.956159   0.000000
     96          5.005478   0.000000
     97          5.074073   0.000000
     98          5.103432   0.000000
     99          5.114907   0.000000
    100          5.148799   0.000000
    101          5.287552   0.000000
    102          5.300113   0.000000
    103          5.311269   0.000000
    104          5.349299   0.000000
    105          5.507410   0.000000
    106          5.549950   0.000000
    107          5.624270   0.000000
    108          5.645832   0.000000
    109          5.666868   0.000000
    110          5.694253   0.000000
    111          5.732904   0.000000
    112          5.779571   0.000000
    113          5.801892   0.000000
    114          5.834245   0.000000
    115          5.842621   0.000000
    116          5.985648   0.000000
    117          6.007995   0.000000
    118          6.015751   0.000000
    119          6.209863   0.000000
    120          6.226645   0.000000
    121          6.235840   0.000000
    122          6.297672   0.000000
    123          6.311502   0.000000
    124          6.359033   0.000000
    125          6.371630   0.000000
    126          6.409732   0.000000
    127          6.487220   0.000000
    128          6.502070   0.000000
    129          6.566135   0.000000
    130          6.575974   0.000000
    131          6.689810   0.000000
    132          6.702828   0.000000
    133          6.784190   0.000000
    134          6.804636   0.000000
    135          6.864793   0.000000
    136          6.913692   0.000000
    137          6.925545   0.000000
    138          6.928600   0.000000
    139          6.969300   0.000000
    140          7.011023   0.000000
    141          7.029500   0.000000
    142          7.105686   0.000000
    143          7.149456   0.000000
    144          7.172433   0.000000
    145          7.264576   0.000000
    146          7.366644   0.000000
    147          7.491079   0.000000
    148          7.541380   0.000000
    149          7.544967   0.000000
    150          7.579728   0.000000
    151          7.617043   0.000000
    152          7.766989   0.000000
    153          7.852572   0.000000
    154          7.869053   0.000000
    155          7.877528   0.000000
    156          7.949955   0.000000
    157          7.962923   0.000000
    158          7.989688   0.000000
    159          8.006678   0.000000
    160          8.030215   0.000000
    161          8.062735   0.000000
    162          8.082427   0.000000
    163          8.099740   0.000000
    164          8.321842   0.000000
    165          8.381357   0.000000
    166          8.394868   0.000000
    167          8.416689   0.000000
    168          8.430858   0.000000
 
 -0.9090909E-01  0.1818182E+00  0.1276756E-14  0.1652893E-01
      1        -14.083645   1.000000
      2        -12.525267   1.000000
      3        -12.080366   1.000000
      4        -11.969683   1.000000
      5        -11.199669   1.000000
      6        -10.769703   1.000000
      7        -10.492335   1.000000
      8        -10.371421   1.000000
      9        -10.272958   1.000000
     10         -9.914720   1.000000
     11         -9.603479   1.000000
     12         -9.046854   1.000000
     13         -8.737430   1.000000
     14         -8.708264   1.000000
     15         -8.628258   1.000000
     16         -8.312969   1.000000
     17         -8.280687   1.000000
     18         -8.223086   1.000000
     19         -7.860720   1.000000
     20         -7.581698   1.000000
     21         -7.402187   1.000000
     22         -7.318473   1.000000
     23         -6.750611   1.000000
     24         -6.693846   1.000000
     25         -6.500161   1.000000
     26         -6.365461   1.000000
     27         -5.978864   1.000000
     28         -5.904409   1.000000
     29         -5.858758   1.000000
     30         -5.789821   1.000000
     31         -5.579102   1.000000
     32         -5.243172   1.000000
     33         -5.020412   1.000000
     34         -4.823425   1.000000
     35         -4.501574   0.002476
     36         -4.296589   0.000000
     37         -4.274892   0.000000
     38         -4.090089   0.000000
     39         -3.823879   0.000000
     40         -3.794741   0.000000
     41         -3.442021   0.000000
     42         -3.107897   0.000000
     43         -2.738349   0.000000
     44         -2.433412   0.000000
     45         -1.243255   0.000000
     46         -1.052035   0.000000
     47         -0.769661   0.000000
     48         -0.574397   0.000000
     49         -0.527421   0.000000
     50         -0.117821   0.000000
     51         -0.075292   0.000000
     52          0.169626   0.000000
     53          0.470974   0.000000
     54          0.598419   0.000000
     55          0.652460   0.000000
     56          0.749931   0.000000
     57          0.877888   0.000000
     58          1.254204   0.000000
     59          1.422569   0.000000
     60          1.564689   0.000000
     61          1.621554   0.000000
     62          1.692086   0.000000
     63          1.721939   0.000000
     64          1.875487   0.000000
     65          1.884298   0.000000
     66          2.322313   0.000000
     67          2.346644   0.000000
     68          2.655077   0.000000
     69          3.011967   0.000000
     70          3.090630   0.000000
     71          3.119310   0.000000
     72          3.435215   0.000000
     73          3.465639   0.000000
     74          3.552586   0.000000
     75          3.718645   0.000000
     76          3.746597   0.000000
     77          3.850051   0.000000
     78          3.899586   0.000000
     79          3.916400   0.000000
     80          3.946898   0.000000
     81          3.982640   0.000000
     82          4.063501   0.000000
     83          4.093193   0.000000
     84          4.184694   0.000000
     85          4.320220   0.000000
     86          4.430816   0.000000
     87          4.463899   0.000000
     88          4.472855   0.000000
     89          4.521769   0.000000
     90          4.574971   0.000000
     91          4.737560   0.000000
     92          4.786857   0.000000
     93          4.812883   0.000000
     94          4.837582   0.000000
     95          4.958233   0.000000
     96          5.001780   0.000000
     97          5.063451   0.000000
     98          5.110351   0.000000
     99          5.120538   0.000000
    100          5.156326   0.000000
    101          5.287327   0.000000
    102          5.302727   0.000000
    103          5.308631   0.000000
    104          5.332384   0.000000
    105          5.521324   0.000000
    106          5.549177   0.000000
    107          5.622591   0.000000
    108          5.645585   0.000000
    109          5.667894   0.000000
    110          5.696571   0.000000
    111          5.727495   0.000000
    112          5.780005   0.000000
    113          5.804299   0.000000
    114          5.829748   0.000000
    115          5.841923   0.000000
    116          5.986738   0.000000
    117          6.007012   0.000000
    118          6.015406   0.000000
    119          6.215860   0.000000
    120          6.228857   0.000000
    121          6.234709   0.000000
    122          6.293010   0.000000
    123          6.305835   0.000000
    124          6.367367   0.000000
    125          6.372541   0.000000
    126          6.411471   0.000000
    127          6.487254   0.000000
    128          6.499973   0.000000
    129          6.566649   0.000000
    130          6.577399   0.000000
    131          6.689864   0.000000
    132          6.702998   0.000000
    133          6.779515   0.000000
    134          6.805773   0.000000
    135          6.864930   0.000000
    136          6.911714   0.000000
    137          6.923623   0.000000
    138          6.931830   0.000000
    139          6.968639   0.000000
    140          7.014718   0.000000
    141          7.028532   0.000000
    142          7.105997   0.000000
    143          7.150474   0.000000
    144          7.172586   0.000000
    145          7.265586   0.000000
    146          7.363296   0.000000
    147          7.489135   0.000000
    148          7.539798   0.000000
    149          7.551393   0.000000
    150          7.574196   0.000000
    151          7.619922   0.000000
    152          7.766909   0.000000
    153          7.851765   0.000000
    154          7.870085   0.000000
    155          7.876759   0.000000
    156          7.953180   0.000000
    157          7.959425   0.000000
    158          7.988300   0.000000
    159          8.003808   0.000000
    160          8.034231   0.000000
    161          8.064980   0.000000
    162          8.082324   0.000000
    163          8.098625   0.000000
    164          8.321479   0.000000
    165          8.384006   0.000000
    166          8.395012   0.000000
    167          8.418910   0.000000
    168          8.430101   0.000000
 
 -0.1818182E+00  0.9090909E-01  0.1276756E-14  0.1652893E-01
      1        -14.083646   1.000000
      2        -12.525253   1.000000
      3        -12.080696   1.000000
      4        -11.969330   1.000000
      5        -11.199543   1.000000
      6        -10.769578   1.000000
      7        -10.492627   1.000000
      8        -10.366858   1.000000
      9        -10.279504   1.000000
     10         -9.912643   1.000000
     11         -9.603376   1.000000
     12         -9.046126   1.000000
     13         -8.739572   1.000000
     14         -8.696744   1.000000
     15         -8.641600   1.000000
     16         -8.307449   1.000000
     17         -8.284912   1.000000
     18         -8.222038   1.000000
     19         -7.859971   1.000000
     20         -7.577328   1.000000
     21         -7.409516   1.000000
     22         -7.317261   1.000000
     23         -6.760486   1.000000
     24         -6.679921   1.000000
     25         -6.498179   1.000000
     26         -6.369960   1.000000
     27         -5.962034   1.000000
     28         -5.906217   1.000000
     29         -5.875807   1.000000
     30         -5.789912   1.000000
     31         -5.575394   1.000000
     32         -5.244690   1.000000
     33         -5.020533   1.000000
     34         -4.824436   1.000000
     35         -4.505957   0.003614
     36         -4.298274   0.000000
     37         -4.268194   0.000000
     38         -4.090812   0.000000
     39         -3.819967   0.000000
     40         -3.796768   0.000000
     41         -3.443397   0.000000
     42         -3.107297   0.000000
     43         -2.736198   0.000000
     44         -2.433637   0.000000
     45         -1.242753   0.000000
     46         -1.052929   0.000000
     47         -0.768972   0.000000
     48         -0.573704   0.000000
     49         -0.529253   0.000000
     50         -0.123954   0.000000
     51         -0.070326   0.000000
     52          0.170628   0.000000
     53          0.471097   0.000000
     54          0.600051   0.000000
     55          0.652887   0.000000
     56          0.743116   0.000000
     57          0.879884   0.000000
     58          1.255352   0.000000
     59          1.421932   0.000000
     60          1.565107   0.000000
     61          1.617347   0.000000
     62          1.696923   0.000000
     63          1.721985   0.000000
     64          1.875444   0.000000
     65          1.884264   0.000000
     66          2.322315   0.000000
     67          2.346590   0.000000
     68          2.655030   0.000000
     69          3.010952   0.000000
     70          3.090445   0.000000
     71          3.119789   0.000000
     72          3.432469   0.000000
     73          3.465975   0.000000
     74          3.557018   0.000000
     75          3.714589   0.000000
     76          3.748042   0.000000
     77          3.844536   0.000000
     78          3.897928   0.000000
     79          3.927588   0.000000
     80          3.948922   0.000000
     81          3.982468   0.000000
     82          4.052567   0.000000
     83          4.089851   0.000000
     84          4.189166   0.000000
     85          4.321367   0.000000
     86          4.431244   0.000000
     87          4.465628   0.000000
     88          4.475328   0.000000
     89          4.517074   0.000000
     90          4.574846   0.000000
     91          4.745627   0.000000
     92          4.785687   0.000000
     93          4.801734   0.000000
     94          4.842959   0.000000
     95          4.958932   0.000000
     96          5.005732   0.000000
     97          5.083180   0.000000
     98          5.102984   0.000000
     99          5.118451   0.000000
    100          5.149421   0.000000
    101          5.285080   0.000000
    102          5.299633   0.000000
    103          5.309686   0.000000
    104          5.341322   0.000000
    105          5.501098   0.000000
    106          5.559690   0.000000
    107          5.625825   0.000000
    108          5.645802   0.000000
    109          5.667008   0.000000
    110          5.690858   0.000000
    111          5.729380   0.000000
    112          5.779734   0.000000
    113          5.803811   0.000000
    114          5.831830   0.000000
    115          5.842589   0.000000
    116          5.987777   0.000000
    117          6.008265   0.000000
    118          6.015828   0.000000
    119          6.215589   0.000000
    120          6.226301   0.000000
    121          6.235301   0.000000
    122          6.291561   0.000000
    123          6.304942   0.000000
    124          6.367554   0.000000
    125          6.374061   0.000000
    126          6.409760   0.000000
    127          6.490329   0.000000
    128          6.498452   0.000000
    129          6.565151   0.000000
    130          6.578001   0.000000
    131          6.689875   0.000000
    132          6.703305   0.000000
    133          6.777698   0.000000
    134          6.805941   0.000000
    135          6.865474   0.000000
    136          6.912552   0.000000
    137          6.926713   0.000000
    138          6.930656   0.000000
    139          6.972606   0.000000
    140          7.007771   0.000000
    141          7.030309   0.000000
    142          7.105646   0.000000
    143          7.150524   0.000000
    144          7.173094   0.000000
    145          7.264242   0.000000
    146          7.365825   0.000000
    147          7.490005   0.000000
    148          7.541748   0.000000
    149          7.549183   0.000000
    150          7.571023   0.000000
    151          7.618081   0.000000
    152          7.766897   0.000000
    153          7.847925   0.000000
    154          7.875646   0.000000
    155          7.877831   0.000000
    156          7.954321   0.000000
    157          7.960461   0.000000
    158          7.988275   0.000000
    159          8.005115   0.000000
    160          8.031090   0.000000
    161          8.062971   0.000000
    162          8.082024   0.000000
    163          8.101502   0.000000
    164          8.321666   0.000000
    165          8.383870   0.000000
    166          8.394632   0.000000
    167          8.417396   0.000000
    168          8.430842   0.000000
 
  0.9090909E-01  0.1818182E+00  0.1276756E-14  0.1652893E-01
      1        -14.083646   1.000000
      2        -12.525272   1.000000
      3        -12.080293   1.000000
      4        -11.969717   1.000000
      5        -11.199745   1.000000
      6        -10.769683   1.000000
      7        -10.491971   1.000000
      8        -10.371912   1.000000
      9        -10.273654   1.000000
     10         -9.913025   1.000000
     11         -9.603254   1.000000
     12         -9.049240   1.000000
     13         -8.735385   1.000000
     14         -8.712047   1.000000
     15         -8.627548   1.000000
     16         -8.305990   1.000000
     17         -8.283431   1.000000
     18         -8.225634   1.000000
     19         -7.858595   1.000000
     20         -7.580946   1.000000
     21         -7.382980   1.000000
     22         -7.343039   1.000000
     23         -6.752087   1.000000
     24         -6.683625   1.000000
     25         -6.508864   1.000000
     26         -6.359618   1.000000
     27         -5.984431   1.000000
     28         -5.893786   1.000000
     29         -5.861073   1.000000
     30         -5.796075   1.000000
     31         -5.580923   1.000000
     32         -5.249352   1.000000
     33         -5.015031   1.000000
     34         -4.816353   1.000000
     35         -4.493992   0.001245
     36         -4.304999   0.000000
     37         -4.269023   0.000000
     38         -4.098846   0.000000
     39         -3.833347   0.000000
     40         -3.790936   0.000000
     41         -3.443265   0.000000
     42         -3.100088   0.000000
     43         -2.738466   0.000000
     44         -2.432639   0.000000
     45         -1.243176   0.000000
     46         -1.052020   0.000000
     47         -0.772072   0.000000
     48         -0.574565   0.000000
     49         -0.527982   0.000000
     50         -0.122706   0.000000
     51         -0.069190   0.000000
     52          0.169213   0.000000
     53          0.470841   0.000000
     54          0.604099   0.000000
     55          0.654533   0.000000
     56          0.741135   0.000000
     57          0.879837   0.000000
     58          1.253103   0.000000
     59          1.422510   0.000000
     60          1.567267   0.000000
     61          1.619748   0.000000
     62          1.692794   0.000000
     63          1.722174   0.000000
     64          1.875536   0.000000
     65          1.884324   0.000000
     66          2.322255   0.000000
     67          2.346639   0.000000
     68          2.654815   0.000000
     69          3.011973   0.000000
     70          3.090429   0.000000
     71          3.120230   0.000000
     72          3.435185   0.000000
     73          3.467352   0.000000
     74          3.549633   0.000000
     75          3.713898   0.000000
     76          3.753928   0.000000
     77          3.846847   0.000000
     78          3.896594   0.000000
     79          3.916764   0.000000
     80          3.950521   0.000000
     81          3.982847   0.000000
     82          4.057389   0.000000
     83          4.093255   0.000000
     84          4.186620   0.000000
     85          4.320411   0.000000
     86          4.431334   0.000000
     87          4.462894   0.000000
     88          4.473712   0.000000
     89          4.514103   0.000000
     90          4.575149   0.000000
     91          4.734868   0.000000
     92          4.786988   0.000000
     93          4.810815   0.000000
     94          4.855802   0.000000
     95          4.957809   0.000000
     96          5.003118   0.000000
     97          5.082423   0.000000
     98          5.101427   0.000000
     99          5.117552   0.000000
    100          5.142451   0.000000
    101          5.288185   0.000000
    102          5.304129   0.000000
    103          5.311367   0.000000
    104          5.343784   0.000000
    105          5.498072   0.000000
    106          5.554620   0.000000
    107          5.636318   0.000000
    108          5.645852   0.000000
    109          5.666766   0.000000
    110          5.689951   0.000000
    111          5.729689   0.000000
    112          5.779608   0.000000
    113          5.801628   0.000000
    114          5.830378   0.000000
    115          5.842520   0.000000
    116          5.982205   0.000000
    117          6.007321   0.000000
    118          6.020394   0.000000
    119          6.210817   0.000000
    120          6.226504   0.000000
    121          6.236769   0.000000
    122          6.298723   0.000000
    123          6.307930   0.000000
    124          6.362381   0.000000
    125          6.371702   0.000000
    126          6.410300   0.000000
    127          6.489166   0.000000
    128          6.498949   0.000000
    129          6.567263   0.000000
    130          6.577062   0.000000
    131          6.689656   0.000000
    132          6.702595   0.000000
    133          6.783153   0.000000
    134          6.805096   0.000000
    135          6.864757   0.000000
    136          6.913121   0.000000
    137          6.925140   0.000000
    138          6.926727   0.000000
    139          6.965215   0.000000
    140          7.018614   0.000000
    141          7.029323   0.000000
    142          7.104352   0.000000
    143          7.150853   0.000000
    144          7.173361   0.000000
    145          7.265836   0.000000
    146          7.364921   0.000000
    147          7.489660   0.000000
    148          7.539754   0.000000
    149          7.550117   0.000000
    150          7.576598   0.000000
    151          7.618919   0.000000
    152          7.766909   0.000000
    153          7.851442   0.000000
    154          7.864860   0.000000
    155          7.877403   0.000000
    156          7.953067   0.000000
    157          7.964309   0.000000
    158          7.988401   0.000000
    159          8.004660   0.000000
    160          8.029844   0.000000
    161          8.061148   0.000000
    162          8.082337   0.000000
    163          8.102791   0.000000
    164          8.321856   0.000000
    165          8.379233   0.000000
    166          8.395356   0.000000
    167          8.419487   0.000000
    168          8.432615   0.000000
 
  0.2727273E+00  0.9090909E-01  0.1276756E-14  0.1652893E-01
      1        -13.982183   1.000000
      2        -12.868332   1.000000
      3        -11.976548   1.000000
      4        -11.863659   1.000000
      5        -11.094543   1.000000
      6        -10.839796   1.000000
      7        -10.712012   1.000000
      8        -10.250536   1.000000
      9        -10.172514   1.000000
     10         -9.950179   1.000000
     11         -9.803158   1.000000
     12         -9.042362   1.000000
     13         -8.928602   1.000000
     14         -8.626346   1.000000
     15         -8.214859   1.000000
     16         -8.192052   1.000000
     17         -8.180990   1.000000
     18         -8.101070   1.000000
     19         -7.737814   1.000000
     20         -7.474002   1.000000
     21         -7.344378   1.000000
     22         -7.283153   1.000000
     23         -7.054485   1.000000
     24         -6.987273   1.000000
     25         -6.307904   1.000000
     26         -6.286821   1.000000
     27         -6.268889   1.000000
     28         -6.033857   1.000000
     29         -5.879909   1.000000
     30         -5.794911   1.000000
     31         -5.178234   1.000000
     32         -5.140627   1.000000
     33         -5.094739   1.000000
     34         -4.918723   1.000000
     35         -4.712267   0.999181
     36         -4.624799   0.750237
     37         -4.578312   0.261213
     38         -4.140074   0.000000
     39         -3.988346   0.000000
     40         -3.860727   0.000000
     41         -3.340105   0.000000
     42         -3.050847   0.000000
     43         -2.464887   0.000000
     44         -2.048209   0.000000
     45         -1.314208   0.000000
     46         -1.194631   0.000000
     47         -0.936233   0.000000
     48         -0.752397   0.000000
     49         -0.513073   0.000000
     50         -0.116529   0.000000
     51          0.223422   0.000000
     52          0.473086   0.000000
     53          0.597716   0.000000
     54          0.792008   0.000000
     55          0.836620   0.000000
     56          0.939128   0.000000
     57          0.996805   0.000000
     58          1.046469   0.000000
     59          1.508632   0.000000
     60          1.583472   0.000000
     61          1.656732   0.000000
     62          1.784148   0.000000
     63          1.847071   0.000000
     64          1.998735   0.000000
     65          2.017703   0.000000
     66          2.451009   0.000000
     67          2.468781   0.000000
     68          2.701563   0.000000
     69          2.974728   0.000000
     70          3.035789   0.000000
     71          3.141487   0.000000
     72          3.203128   0.000000
     73          3.231854   0.000000
     74          3.359420   0.000000
     75          3.404783   0.000000
     76          3.511506   0.000000
     77          3.530301   0.000000
     78          3.624962   0.000000
     79          3.904412   0.000000
     80          3.937661   0.000000
     81          3.964994   0.000000
     82          3.994737   0.000000
     83          4.065641   0.000000
     84          4.138538   0.000000
     85          4.175218   0.000000
     86          4.276668   0.000000
     87          4.310027   0.000000
     88          4.481811   0.000000
     89          4.490920   0.000000
     90          4.607281   0.000000
     91          4.654092   0.000000
     92          4.685565   0.000000
     93          4.708149   0.000000
     94          4.906944   0.000000
     95          4.917179   0.000000
     96          4.980215   0.000000
     97          5.032268   0.000000
     98          5.055875   0.000000
     99          5.073888   0.000000
    100          5.126080   0.000000
    101          5.148236   0.000000
    102          5.230105   0.000000
    103          5.247798   0.000000
    104          5.392928   0.000000
    105          5.419130   0.000000
    106          5.555256   0.000000
    107          5.584067   0.000000
    108          5.588448   0.000000
    109          5.606127   0.000000
    110          5.622210   0.000000
    111          5.724034   0.000000
    112          5.758663   0.000000
    113          5.776876   0.000000
    114          5.914096   0.000000
    115          5.942798   0.000000
    116          5.959971   0.000000
    117          5.968011   0.000000
    118          6.017202   0.000000
    119          6.088952   0.000000
    120          6.100961   0.000000
    121          6.247300   0.000000
    122          6.345019   0.000000
    123          6.359188   0.000000
    124          6.393439   0.000000
    125          6.399612   0.000000
    126          6.532473   0.000000
    127          6.587560   0.000000
    128          6.654665   0.000000
    129          6.700197   0.000000
    130          6.741833   0.000000
    131          6.784684   0.000000
    132          6.828687   0.000000
    133          6.890700   0.000000
    134          6.920525   0.000000
    135          6.933267   0.000000
    136          6.947898   0.000000
    137          7.053387   0.000000
    138          7.065526   0.000000
    139          7.101447   0.000000
    140          7.103389   0.000000
    141          7.123039   0.000000
    142          7.198052   0.000000
    143          7.262982   0.000000
    144          7.311657   0.000000
    145          7.392706   0.000000
    146          7.419909   0.000000
    147          7.424923   0.000000
    148          7.464527   0.000000
    149          7.492152   0.000000
    150          7.530282   0.000000
    151          7.636119   0.000000
    152          7.660120   0.000000
    153          7.837059   0.000000
    154          7.865050   0.000000
    155          7.879877   0.000000
    156          7.901370   0.000000
    157          7.928458   0.000000
    158          7.963151   0.000000
    159          7.974215   0.000000
    160          8.004817   0.000000
    161          8.024358   0.000000
    162          8.043830   0.000000
    163          8.160804   0.000000
    164          8.189161   0.000000
    165          8.258242   0.000000
    166          8.286963   0.000000
    167          8.458649   0.000000
    168          8.479399   0.000000
 
 -0.9090909E-01  0.2727273E+00  0.1276756E-14  0.1652893E-01
      1        -13.982178   1.000000
      2        -12.868324   1.000000
      3        -11.976282   1.000000
      4        -11.864123   1.000000
      5        -11.094570   1.000000
      6        -10.839502   1.000000
      7        -10.712566   1.000000
      8        -10.251513   1.000000
      9        -10.168396   1.000000
     10         -9.952188   1.000000
     11         -9.805378   1.000000
     12         -9.036777   1.000000
     13         -8.929927   1.000000
     14         -8.627255   1.000000
     15         -8.227386   1.000000
     16         -8.192569   1.000000
     17         -8.166646   1.000000
     18         -8.107518   1.000000
     19         -7.735499   1.000000
     20         -7.468483   1.000000
     21         -7.345760   1.000000
     22         -7.273709   1.000000
     23         -7.042402   1.000000
     24         -7.015840   1.000000
     25         -6.340630   1.000000
     26         -6.305114   1.000000
     27         -6.217138   1.000000
     28         -6.007362   1.000000
     29         -5.907801   1.000000
     30         -5.791070   1.000000
     31         -5.182519   1.000000
     32         -5.142242   1.000000
     33         -5.080541   1.000000
     34         -4.920035   1.000000
     35         -4.722678   0.999713
     36         -4.618853   0.693945
     37         -4.580299   0.279805
     38         -4.141954   0.000000
     39         -3.981718   0.000000
     40         -3.859010   0.000000
     41         -3.338055   0.000000
     42         -3.063750   0.000000
     43         -2.464063   0.000000
     44         -2.050492   0.000000
     45         -1.315272   0.000000
     46         -1.193181   0.000000
     47         -0.930232   0.000000
     48         -0.755149   0.000000
     49         -0.512490   0.000000
     50         -0.116220   0.000000
     51          0.226816   0.000000
     52          0.472256   0.000000
     53          0.597315   0.000000
     54          0.789397   0.000000
     55          0.831015   0.000000
     56          0.950107   0.000000
     57          1.004508   0.000000
     58          1.039062   0.000000
     59          1.510346   0.000000
     60          1.584833   0.000000
     61          1.653673   0.000000
     62          1.782899   0.000000
     63          1.846958   0.000000
     64          1.998600   0.000000
     65          2.017764   0.000000
     66          2.451399   0.000000
     67          2.468422   0.000000
     68          2.700570   0.000000
     69          2.975297   0.000000
     70          3.038281   0.000000
     71          3.139010   0.000000
     72          3.202146   0.000000
     73          3.230441   0.000000
     74          3.356630   0.000000
     75          3.414717   0.000000
     76          3.511333   0.000000
     77          3.530023   0.000000
     78          3.626429   0.000000
     79          3.904684   0.000000
     80          3.934977   0.000000
     81          3.966757   0.000000
     82          3.993933   0.000000
     83          4.064816   0.000000
     84          4.147074   0.000000
     85          4.175323   0.000000
     86          4.272951   0.000000
     87          4.298506   0.000000
     88          4.485330   0.000000
     89          4.492294   0.000000
     90          4.607238   0.000000
     91          4.652833   0.000000
     92          4.686367   0.000000
     93          4.707952   0.000000
     94          4.901679   0.000000
     95          4.913324   0.000000
     96          4.985207   0.000000
     97          5.051803   0.000000
     98          5.063641   0.000000
     99          5.079799   0.000000
    100          5.099474   0.000000
    101          5.145828   0.000000
    102          5.220882   0.000000
    103          5.249734   0.000000
    104          5.385051   0.000000
    105          5.422891   0.000000
    106          5.554747   0.000000
    107          5.585267   0.000000
    108          5.588668   0.000000
    109          5.606038   0.000000
    110          5.627302   0.000000
    111          5.727780   0.000000
    112          5.754396   0.000000
    113          5.775904   0.000000
    114          5.915523   0.000000
    115          5.943216   0.000000
    116          5.958299   0.000000
    117          5.968956   0.000000
    118          6.019041   0.000000
    119          6.087257   0.000000
    120          6.100812   0.000000
    121          6.247340   0.000000
    122          6.347246   0.000000
    123          6.359883   0.000000
    124          6.396626   0.000000
    125          6.398602   0.000000
    126          6.528024   0.000000
    127          6.589548   0.000000
    128          6.655612   0.000000
    129          6.699141   0.000000
    130          6.743367   0.000000
    131          6.785396   0.000000
    132          6.828462   0.000000
    133          6.888693   0.000000
    134          6.917819   0.000000
    135          6.931871   0.000000
    136          6.947980   0.000000
    137          7.053650   0.000000
    138          7.064138   0.000000
    139          7.100560   0.000000
    140          7.103984   0.000000
    141          7.129184   0.000000
    142          7.198504   0.000000
    143          7.263106   0.000000
    144          7.311634   0.000000
    145          7.392545   0.000000
    146          7.421680   0.000000
    147          7.425141   0.000000
    148          7.457847   0.000000
    149          7.505492   0.000000
    150          7.525300   0.000000
    151          7.638264   0.000000
    152          7.659345   0.000000
    153          7.823744   0.000000
    154          7.866766   0.000000
    155          7.880676   0.000000
    156          7.903254   0.000000
    157          7.920742   0.000000
    158          7.969212   0.000000
    159          7.982165   0.000000
    160          8.008423   0.000000
    161          8.022810   0.000000
    162          8.039846   0.000000
    163          8.159984   0.000000
    164          8.192345   0.000000
    165          8.258505   0.000000
    166          8.287173   0.000000
    167          8.459004   0.000000
    168          8.481935   0.000000
 
 -0.2727273E+00  0.9090909E-01  0.1276756E-14  0.1652893E-01
      1        -13.982181   1.000000
      2        -12.868337   1.000000
      3        -11.976585   1.000000
      4        -11.863658   1.000000
      5        -11.094436   1.000000
      6        -10.839796   1.000000
      7        -10.712026   1.000000
      8        -10.250788   1.000000
      9        -10.171213   1.000000
     10         -9.951919   1.000000
     11         -9.803528   1.000000
     12         -9.038197   1.000000
     13         -8.930912   1.000000
     14         -8.623880   1.000000
     15         -8.217451   1.000000
     16         -8.195297   1.000000
     17         -8.182361   1.000000
     18         -8.101742   1.000000
     19         -7.733923   1.000000
     20         -7.467298   1.000000
     21         -7.351152   1.000000
     22         -7.273171   1.000000
     23         -7.060375   1.000000
     24         -6.997203   1.000000
     25         -6.322906   1.000000
     26         -6.299985   1.000000
     27         -6.229689   1.000000
     28         -5.992768   1.000000
     29         -5.928480   1.000000
     30         -5.792157   1.000000
     31         -5.172537   1.000000
     32         -5.158489   1.000000
     33         -5.080277   1.000000
     34         -4.921218   1.000000
     35         -4.712897   0.999230
     36         -4.628951   0.786017
     37         -4.579578   0.272988
     38         -4.136099   0.000000
     39         -3.991518   0.000000
     40         -3.846638   0.000000
     41         -3.339816   0.000000
     42         -3.062052   0.000000
     43         -2.463855   0.000000
     44         -2.048881   0.000000
     45         -1.314243   0.000000
     46         -1.195018   0.000000
     47         -0.929416   0.000000
     48         -0.756005   0.000000
     49         -0.512982   0.000000
     50         -0.116829   0.000000
     51          0.225216   0.000000
     52          0.473309   0.000000
     53          0.597927   0.000000
     54          0.783597   0.000000
     55          0.829166   0.000000
     56          0.949853   0.000000
     57          0.999386   0.000000
     58          1.045937   0.000000
     59          1.509366   0.000000
     60          1.584627   0.000000
     61          1.657045   0.000000
     62          1.783556   0.000000
     63          1.846790   0.000000
     64          1.998556   0.000000
     65          2.017709   0.000000
     66          2.451056   0.000000
     67          2.468671   0.000000
     68          2.701500   0.000000
     69          2.973139   0.000000
     70          3.037292   0.000000
     71          3.139354   0.000000
     72          3.202971   0.000000
     73          3.231002   0.000000
     74          3.359127   0.000000
     75          3.407934   0.000000
     76          3.510418   0.000000
     77          3.530347   0.000000
     78          3.625679   0.000000
     79          3.902478   0.000000
     80          3.938029   0.000000
     81          3.967722   0.000000
     82          3.994628   0.000000
     83          4.065680   0.000000
     84          4.143487   0.000000
     85          4.175225   0.000000
     86          4.278498   0.000000
     87          4.300097   0.000000
     88          4.483423   0.000000
     89          4.493456   0.000000
     90          4.607275   0.000000
     91          4.653639   0.000000
     92          4.686042   0.000000
     93          4.707451   0.000000
     94          4.888042   0.000000
     95          4.913205   0.000000
     96          4.993317   0.000000
     97          5.053256   0.000000
     98          5.070040   0.000000
     99          5.078770   0.000000
    100          5.114448   0.000000
    101          5.141328   0.000000
    102          5.220434   0.000000
    103          5.249568   0.000000
    104          5.387986   0.000000
    105          5.420672   0.000000
    106          5.552969   0.000000
    107          5.575655   0.000000
    108          5.587361   0.000000
    109          5.602439   0.000000
    110          5.630612   0.000000
    111          5.730116   0.000000
    112          5.755144   0.000000
    113          5.775719   0.000000
    114          5.914858   0.000000
    115          5.939866   0.000000
    116          5.961215   0.000000
    117          5.971024   0.000000
    118          6.017504   0.000000
    119          6.089492   0.000000
    120          6.100861   0.000000
    121          6.247373   0.000000
    122          6.345590   0.000000
    123          6.358803   0.000000
    124          6.394807   0.000000
    125          6.400093   0.000000
    126          6.530092   0.000000
    127          6.587441   0.000000
    128          6.657768   0.000000
    129          6.695125   0.000000
    130          6.744939   0.000000
    131          6.784795   0.000000
    132          6.829282   0.000000
    133          6.890062   0.000000
    134          6.916833   0.000000
    135          6.932935   0.000000
    136          6.946056   0.000000
    137          7.055529   0.000000
    138          7.066092   0.000000
    139          7.099314   0.000000
    140          7.104347   0.000000
    141          7.126262   0.000000
    142          7.198302   0.000000
    143          7.263068   0.000000
    144          7.311690   0.000000
    145          7.392930   0.000000
    146          7.421145   0.000000
    147          7.424890   0.000000
    148          7.464786   0.000000
    149          7.501323   0.000000
    150          7.521228   0.000000
    151          7.637799   0.000000
    152          7.658121   0.000000
    153          7.825531   0.000000
    154          7.865539   0.000000
    155          7.881562   0.000000
    156          7.900811   0.000000
    157          7.930308   0.000000
    158          7.968599   0.000000
    159          7.975855   0.000000
    160          8.009293   0.000000
    161          8.022453   0.000000
    162          8.038819   0.000000
    163          8.160106   0.000000
    164          8.191718   0.000000
    165          8.257297   0.000000
    166          8.288316   0.000000
    167          8.458139   0.000000
    168          8.482176   0.000000
 
  0.9090909E-01  0.2727273E+00  0.1276756E-14  0.1652893E-01
      1        -13.982181   1.000000
      2        -12.868320   1.000000
      3        -11.976197   1.000000
      4        -11.864176   1.000000
      5        -11.094688   1.000000
      6        -10.839473   1.000000
      7        -10.712594   1.000000
      8        -10.251459   1.000000
      9        -10.169442   1.000000
     10         -9.950204   1.000000
     11         -9.805208   1.000000
     12         -9.038481   1.000000
     13         -8.933075   1.000000
     14         -8.624498   1.000000
     15         -8.229392   1.000000
     16         -8.196055   1.000000
     17         -8.156722   1.000000
     18         -8.106470   1.000000
     19         -7.739538   1.000000
     20         -7.469867   1.000000
     21         -7.349008   1.000000
     22         -7.278117   1.000000
     23         -7.044923   1.000000
     24         -6.999341   1.000000
     25         -6.321873   1.000000
     26         -6.297637   1.000000
     27         -6.255810   1.000000
     28         -6.015037   1.000000
     29         -5.902195   1.000000
     30         -5.785674   1.000000
     31         -5.182094   1.000000
     32         -5.124567   1.000000
     33         -5.092499   1.000000
     34         -4.917940   1.000000
     35         -4.721941   0.999690
     36         -4.629841   0.793275
     37         -4.569284   0.185404
     38         -4.138747   0.000000
     39         -3.997363   0.000000
     40         -3.857043   0.000000
     41         -3.339447   0.000000
     42         -3.056568   0.000000
     43         -2.462915   0.000000
     44         -2.050168   0.000000
     45         -1.315370   0.000000
     46         -1.192855   0.000000
     47         -0.933306   0.000000
     48         -0.754512   0.000000
     49         -0.513410   0.000000
     50         -0.116299   0.000000
     51          0.226521   0.000000
     52          0.470861   0.000000
     53          0.597373   0.000000
     54          0.797133   0.000000
     55          0.839185   0.000000
     56          0.935685   0.000000
     57          0.999042   0.000000
     58          1.044861   0.000000
     59          1.510696   0.000000
     60          1.587302   0.000000
     61          1.652201   0.000000
     62          1.783809   0.000000
     63          1.846953   0.000000
     64          1.998576   0.000000
     65          2.017755   0.000000
     66          2.451304   0.000000
     67          2.468424   0.000000
     68          2.700715   0.000000
     69          2.976001   0.000000
     70          3.036223   0.000000
     71          3.138979   0.000000
     72          3.202247   0.000000
     73          3.231958   0.000000
     74          3.357120   0.000000
     75          3.412348   0.000000
     76          3.513058   0.000000
     77          3.530144   0.000000
     78          3.621585   0.000000
     79          3.903291   0.000000
     80          3.930811   0.000000
     81          3.971829   0.000000
     82          3.993393   0.000000
     83          4.067682   0.000000
     84          4.142472   0.000000
     85          4.175518   0.000000
     86          4.273308   0.000000
     87          4.300764   0.000000
     88          4.481993   0.000000
     89          4.490781   0.000000
     90          4.607257   0.000000
     91          4.654543   0.000000
     92          4.686797   0.000000
     93          4.708047   0.000000
     94          4.901892   0.000000
     95          4.920918   0.000000
     96          4.993647   0.000000
     97          5.042175   0.000000
     98          5.065755   0.000000
     99          5.077316   0.000000
    100          5.104919   0.000000
    101          5.145288   0.000000
    102          5.225506   0.000000
    103          5.247091   0.000000
    104          5.390618   0.000000
    105          5.420477   0.000000
    106          5.554713   0.000000
    107          5.581283   0.000000
    108          5.588605   0.000000
    109          5.598572   0.000000
    110          5.627182   0.000000
    111          5.720042   0.000000
    112          5.763508   0.000000
    113          5.775289   0.000000
    114          5.913298   0.000000
    115          5.942651   0.000000
    116          5.956639   0.000000
    117          5.970143   0.000000
    118          6.025225   0.000000
    119          6.087430   0.000000
    120          6.100919   0.000000
    121          6.247203   0.000000
    122          6.344880   0.000000
    123          6.361523   0.000000
    124          6.392453   0.000000
    125          6.402180   0.000000
    126          6.526907   0.000000
    127          6.590594   0.000000
    128          6.655335   0.000000
    129          6.698479   0.000000
    130          6.742155   0.000000
    131          6.784714   0.000000
    132          6.828112   0.000000
    133          6.891165   0.000000
    134          6.920207   0.000000
    135          6.934440   0.000000
    136          6.945947   0.000000
    137          7.051790   0.000000
    138          7.066990   0.000000
    139          7.101133   0.000000
    140          7.104212   0.000000
    141          7.124953   0.000000
    142          7.197011   0.000000
    143          7.263425   0.000000
    144          7.311781   0.000000
    145          7.392949   0.000000
    146          7.421515   0.000000
    147          7.424409   0.000000
    148          7.457837   0.000000
    149          7.499556   0.000000
    150          7.528467   0.000000
    151          7.641037   0.000000
    152          7.658019   0.000000
    153          7.838920   0.000000
    154          7.863695   0.000000
    155          7.880601   0.000000
    156          7.902128   0.000000
    157          7.923235   0.000000
    158          7.953675   0.000000
    159          7.984448   0.000000
    160          8.008150   0.000000
    161          8.026411   0.000000
    162          8.038808   0.000000
    163          8.161159   0.000000
    164          8.190907   0.000000
    165          8.258205   0.000000
    166          8.286680   0.000000
    167          8.458477   0.000000
    168          8.481048   0.000000
 
  0.3636364E+00  0.9090909E-01  0.1276756E-14  0.1652893E-01
      1        -13.840177   1.000000
      2        -13.171598   1.000000
      3        -11.830999   1.000000
      4        -11.716442   1.000000
      5        -11.148204   1.000000
      6        -11.022010   1.000000
      7        -10.946520   1.000000
      8        -10.261274   1.000000
      9        -10.029150   1.000000
     10         -9.709969   1.000000
     11         -9.652606   1.000000
     12         -9.330289   1.000000
     13         -8.944925   1.000000
     14         -8.776114   1.000000
     15         -8.080606   1.000000
     16         -8.033851   1.000000
     17         -7.991090   1.000000
     18         -7.690425   1.000000
     19         -7.652802   1.000000
     20         -7.633622   1.000000
     21         -7.385882   1.000000
     22         -7.307066   1.000000
     23         -7.244993   1.000000
     24         -6.819024   1.000000
     25         -6.585951   1.000000
     26         -6.383299   1.000000
     27         -6.158598   1.000000
     28         -6.121681   1.000000
     29         -5.693345   1.000000
     30         -5.646971   1.000000
     31         -5.495926   1.000000
     32         -5.385632   1.000000
     33         -5.084762   1.000000
     34         -4.943271   1.000000
     35         -4.791395   1.000000
     36         -4.625448   0.756030
     37         -4.561452   0.132105
     38         -4.216236   0.000000
     39         -4.098812   0.000000
     40         -3.897258   0.000000
     41         -3.228512   0.000000
     42         -3.185361   0.000000
     43         -2.624070   0.000000
     44         -1.530226   0.000000
     45         -1.415435   0.000000
     46         -1.150740   0.000000
     47         -0.990224   0.000000
     48         -0.844596   0.000000
     49         -0.434719   0.000000
     50         -0.169425   0.000000
     51          0.477624   0.000000
     52          0.639042   0.000000
     53          0.773564   0.000000
     54          0.865123   0.000000
     55          0.905825   0.000000
     56          1.069116   0.000000
     57          1.202007   0.000000
     58          1.263906   0.000000
     59          1.479589   0.000000
     60          1.563723   0.000000
     61          1.613440   0.000000
     62          1.643985   0.000000
     63          2.007500   0.000000
     64          2.162997   0.000000
     65          2.206463   0.000000
     66          2.443960   0.000000
     67          2.611462   0.000000
     68          2.644591   0.000000
     69          2.797829   0.000000
     70          2.917056   0.000000
     71          2.975972   0.000000
     72          3.062980   0.000000
     73          3.167658   0.000000
     74          3.306154   0.000000
     75          3.321234   0.000000
     76          3.325808   0.000000
     77          3.387366   0.000000
     78          3.609272   0.000000
     79          3.703778   0.000000
     80          3.714622   0.000000
     81          3.898957   0.000000
     82          4.038288   0.000000
     83          4.075100   0.000000
     84          4.091693   0.000000
     85          4.188076   0.000000
     86          4.232932   0.000000
     87          4.322994   0.000000
     88          4.364815   0.000000
     89          4.436933   0.000000
     90          4.492951   0.000000
     91          4.577853   0.000000
     92          4.617389   0.000000
     93          4.639603   0.000000
     94          4.718136   0.000000
     95          4.762091   0.000000
     96          4.797016   0.000000
     97          4.894468   0.000000
     98          4.971177   0.000000
     99          5.054984   0.000000
    100          5.092989   0.000000
    101          5.246174   0.000000
    102          5.265161   0.000000
    103          5.299069   0.000000
    104          5.338672   0.000000
    105          5.367382   0.000000
    106          5.535665   0.000000
    107          5.590474   0.000000
    108          5.635542   0.000000
    109          5.694968   0.000000
    110          5.699818   0.000000
    111          5.708857   0.000000
    112          5.866057   0.000000
    113          5.893374   0.000000
    114          5.936904   0.000000
    115          6.000866   0.000000
    116          6.031293   0.000000
    117          6.044844   0.000000
    118          6.059560   0.000000
    119          6.085689   0.000000
    120          6.107050   0.000000
    121          6.149780   0.000000
    122          6.271044   0.000000
    123          6.336209   0.000000
    124          6.366746   0.000000
    125          6.406301   0.000000
    126          6.414093   0.000000
    127          6.506910   0.000000
    128          6.516435   0.000000
    129          6.547492   0.000000
    130          6.568960   0.000000
    131          6.572895   0.000000
    132          6.889133   0.000000
    133          6.935649   0.000000
    134          6.984160   0.000000
    135          6.999789   0.000000
    136          7.023753   0.000000
    137          7.109153   0.000000
    138          7.122246   0.000000
    139          7.140847   0.000000
    140          7.198606   0.000000
    141          7.228300   0.000000
    142          7.250013   0.000000
    143          7.272943   0.000000
    144          7.299636   0.000000
    145          7.403344   0.000000
    146          7.420338   0.000000
    147          7.586809   0.000000
    148          7.591762   0.000000
    149          7.603121   0.000000
    150          7.669220   0.000000
    151          7.729942   0.000000
    152          7.778108   0.000000
    153          7.779765   0.000000
    154          7.792211   0.000000
    155          7.813270   0.000000
    156          7.876960   0.000000
    157          7.957194   0.000000
    158          7.987297   0.000000
    159          7.996745   0.000000
    160          8.039916   0.000000
    161          8.106007   0.000000
    162          8.141048   0.000000
    163          8.239042   0.000000
    164          8.245319   0.000000
    165          8.296555   0.000000
    166          8.321524   0.000000
    167          8.423516   0.000000
    168          8.517578   0.000000
 
 -0.9090909E-01  0.3636364E+00  0.1276756E-14  0.1652893E-01
      1        -13.840171   1.000000
      2        -13.171585   1.000000
      3        -11.830780   1.000000
      4        -11.717142   1.000000
      5        -11.147755   1.000000
      6        -11.021662   1.000000
      7        -10.946841   1.000000
      8        -10.261168   1.000000
      9        -10.029819   1.000000
     10         -9.708654   1.000000
     11         -9.656541   1.000000
     12         -9.324736   1.000000
     13         -8.943135   1.000000
     14         -8.778718   1.000000
     15         -8.105627   1.000000
     16         -8.016747   1.000000
     17         -7.992249   1.000000
     18         -7.678980   1.000000
     19         -7.651900   1.000000
     20         -7.628695   1.000000
     21         -7.354316   1.000000
     22         -7.309926   1.000000
     23         -7.283401   1.000000
     24         -6.821547   1.000000
     25         -6.594839   1.000000
     26         -6.382302   1.000000
     27         -6.171586   1.000000
     28         -6.100992   1.000000
     29         -5.688009   1.000000
     30         -5.646140   1.000000
     31         -5.486215   1.000000
     32         -5.399615   1.000000
     33         -5.084122   1.000000
     34         -4.941661   1.000000
     35         -4.789240   1.000000
     36         -4.620773   0.712726
     37         -4.566574   0.165620
     38         -4.216839   0.000000
     39         -4.092239   0.000000
     40         -3.900166   0.000000
     41         -3.230623   0.000000
     42         -3.195387   0.000000
     43         -2.623555   0.000000
     44         -1.532533   0.000000
     45         -1.415618   0.000000
     46         -1.150390   0.000000
     47         -0.984357   0.000000
     48         -0.847833   0.000000
     49         -0.434071   0.000000
     50         -0.169474   0.000000
     51          0.499403   0.000000
     52          0.622574   0.000000
     53          0.774316   0.000000
     54          0.871985   0.000000
     55          0.894653   0.000000
     56          1.072987   0.000000
     57          1.211400   0.000000
     58          1.258438   0.000000
     59          1.483141   0.000000
     60          1.562703   0.000000
     61          1.612241   0.000000
     62          1.642553   0.000000
     63          2.007156   0.000000
     64          2.162753   0.000000
     65          2.206513   0.000000
     66          2.444803   0.000000
     67          2.612623   0.000000
     68          2.644323   0.000000
     69          2.790147   0.000000
     70          2.921151   0.000000
     71          2.976508   0.000000
     72          3.065031   0.000000
     73          3.168282   0.000000
     74          3.304485   0.000000
     75          3.322144   0.000000
     76          3.327816   0.000000
     77          3.385989   0.000000
     78          3.606581   0.000000
     79          3.702972   0.000000
     80          3.720688   0.000000
     81          3.900141   0.000000
     82          4.040622   0.000000
     83          4.072896   0.000000
     84          4.087464   0.000000
     85          4.187913   0.000000
     86          4.230971   0.000000
     87          4.323470   0.000000
     88          4.364405   0.000000
     89          4.437569   0.000000
     90          4.481045   0.000000
     91          4.573587   0.000000
     92          4.619781   0.000000
     93          4.642384   0.000000
     94          4.724258   0.000000
     95          4.780042   0.000000
     96          4.797298   0.000000
     97          4.894117   0.000000
     98          4.956159   0.000000
     99          5.048881   0.000000
    100          5.095096   0.000000
    101          5.250485   0.000000
    102          5.268569   0.000000
    103          5.298883   0.000000
    104          5.328747   0.000000
    105          5.369742   0.000000
    106          5.541631   0.000000
    107          5.580789   0.000000
    108          5.632382   0.000000
    109          5.697085   0.000000
    110          5.700587   0.000000
    111          5.708550   0.000000
    112          5.866753   0.000000
    113          5.900836   0.000000
    114          5.936518   0.000000
    115          5.996273   0.000000
    116          6.030257   0.000000
    117          6.035578   0.000000
    118          6.070712   0.000000
    119          6.088102   0.000000
    120          6.107318   0.000000
    121          6.149686   0.000000
    122          6.270432   0.000000
    123          6.331626   0.000000
    124          6.366811   0.000000
    125          6.408604   0.000000
    126          6.415318   0.000000
    127          6.508231   0.000000
    128          6.517573   0.000000
    129          6.549291   0.000000
    130          6.565871   0.000000
    131          6.574978   0.000000
    132          6.889078   0.000000
    133          6.935373   0.000000
    134          6.983224   0.000000
    135          6.998812   0.000000
    136          7.025086   0.000000
    137          7.108350   0.000000
    138          7.120141   0.000000
    139          7.141732   0.000000
    140          7.197824   0.000000
    141          7.229424   0.000000
    142          7.255517   0.000000
    143          7.269761   0.000000
    144          7.296573   0.000000
    145          7.405367   0.000000
    146          7.421019   0.000000
    147          7.588419   0.000000
    148          7.594038   0.000000
    149          7.602148   0.000000
    150          7.679605   0.000000
    151          7.727752   0.000000
    152          7.775102   0.000000
    153          7.779742   0.000000
    154          7.789077   0.000000
    155          7.811800   0.000000
    156          7.876964   0.000000
    157          7.956001   0.000000
    158          7.987335   0.000000
    159          7.998107   0.000000
    160          8.040907   0.000000
    161          8.105083   0.000000
    162          8.141242   0.000000
    163          8.231287   0.000000
    164          8.246296   0.000000
    165          8.302430   0.000000
    166          8.324600   0.000000
    167          8.422339   0.000000
    168          8.512428   0.000000
 
 -0.3636364E+00  0.9090909E-01  0.1276756E-14  0.1652893E-01
      1        -13.840174   1.000000
      2        -13.171604   1.000000
      3        -11.831039   1.000000
      4        -11.716444   1.000000
      5        -11.148148   1.000000
      6        -11.021587   1.000000
      7        -10.946944   1.000000
      8        -10.260899   1.000000
      9        -10.029571   1.000000
     10         -9.709648   1.000000
     11         -9.654504   1.000000
     12         -9.328713   1.000000
     13         -8.941431   1.000000
     14         -8.778003   1.000000
     15         -8.099022   1.000000
     16         -8.029623   1.000000
     17         -7.982311   1.000000
     18         -7.684996   1.000000
     19         -7.649063   1.000000
     20         -7.634453   1.000000
     21         -7.372061   1.000000
     22         -7.291234   1.000000
     23         -7.282891   1.000000
     24         -6.822672   1.000000
     25         -6.584740   1.000000
     26         -6.378943   1.000000
     27         -6.161411   1.000000
     28         -6.109267   1.000000
     29         -5.699150   1.000000
     30         -5.642518   1.000000
     31         -5.492388   1.000000
     32         -5.398284   1.000000
     33         -5.085848   1.000000
     34         -4.942004   1.000000
     35         -4.788190   1.000000
     36         -4.634856   0.831391
     37         -4.561851   0.134539
     38         -4.217785   0.000000
     39         -4.084883   0.000000
     40         -3.891515   0.000000
     41         -3.228781   0.000000
     42         -3.196249   0.000000
     43         -2.623430   0.000000
     44         -1.530623   0.000000
     45         -1.415630   0.000000
     46         -1.151282   0.000000
     47         -0.984367   0.000000
     48         -0.847353   0.000000
     49         -0.434529   0.000000
     50         -0.169757   0.000000
     51          0.486985   0.000000
     52          0.625499   0.000000
     53          0.774139   0.000000
     54          0.874637   0.000000
     55          0.896582   0.000000
     56          1.069295   0.000000
     57          1.205371   0.000000
     58          1.258984   0.000000
     59          1.487978   0.000000
     60          1.563695   0.000000
     61          1.606910   0.000000
     62          1.647632   0.000000
     63          2.006997   0.000000
     64          2.162668   0.000000
     65          2.206402   0.000000
     66          2.445102   0.000000
     67          2.613218   0.000000
     68          2.644903   0.000000
     69          2.793631   0.000000
     70          2.917506   0.000000
     71          2.976004   0.000000
     72          3.062855   0.000000
     73          3.167383   0.000000
     74          3.306456   0.000000
     75          3.321066   0.000000
     76          3.326078   0.000000
     77          3.387043   0.000000
     78          3.607940   0.000000
     79          3.703212   0.000000
     80          3.717355   0.000000
     81          3.900453   0.000000
     82          4.034179   0.000000
     83          4.082457   0.000000
     84          4.087396   0.000000
     85          4.187397   0.000000
     86          4.233002   0.000000
     87          4.322705   0.000000
     88          4.363775   0.000000
     89          4.440279   0.000000
     90          4.479603   0.000000
     91          4.586723   0.000000
     92          4.618892   0.000000
     93          4.642473   0.000000
     94          4.718072   0.000000
     95          4.761077   0.000000
     96          4.797130   0.000000
     97          4.895688   0.000000
     98          4.966417   0.000000
     99          5.063499   0.000000
    100          5.094373   0.000000
    101          5.247332   0.000000
    102          5.270954   0.000000
    103          5.296850   0.000000
    104          5.331083   0.000000
    105          5.367307   0.000000
    106          5.536937   0.000000
    107          5.577207   0.000000
    108          5.635917   0.000000
    109          5.697159   0.000000
    110          5.700483   0.000000
    111          5.711290   0.000000
    112          5.867576   0.000000
    113          5.894924   0.000000
    114          5.937458   0.000000
    115          5.994753   0.000000
    116          6.027487   0.000000
    117          6.033615   0.000000
    118          6.074802   0.000000
    119          6.090606   0.000000
    120          6.106573   0.000000
    121          6.150613   0.000000
    122          6.269890   0.000000
    123          6.334158   0.000000
    124          6.363340   0.000000
    125          6.409980   0.000000
    126          6.416156   0.000000
    127          6.500870   0.000000
    128          6.517776   0.000000
    129          6.546541   0.000000
    130          6.566242   0.000000
    131          6.580191   0.000000
    132          6.888973   0.000000
    133          6.934552   0.000000
    134          6.984013   0.000000
    135          7.001188   0.000000
    136          7.024957   0.000000
    137          7.109577   0.000000
    138          7.119640   0.000000
    139          7.141558   0.000000
    140          7.198228   0.000000
    141          7.228247   0.000000
    142          7.257550   0.000000
    143          7.271443   0.000000
    144          7.292938   0.000000
    145          7.405431   0.000000
    146          7.419851   0.000000
    147          7.581526   0.000000
    148          7.592006   0.000000
    149          7.603415   0.000000
    150          7.682081   0.000000
    151          7.717091   0.000000
    152          7.774592   0.000000
    153          7.779758   0.000000
    154          7.798063   0.000000
    155          7.816073   0.000000
    156          7.877100   0.000000
    157          7.953698   0.000000
    158          7.987591   0.000000
    159          8.000471   0.000000
    160          8.040409   0.000000
    161          8.106785   0.000000
    162          8.140274   0.000000
    163          8.237368   0.000000
    164          8.245765   0.000000
    165          8.296391   0.000000
    166          8.322084   0.000000
    167          8.422350   0.000000
    168          8.515051   0.000000
 
  0.9090909E-01  0.3636364E+00  0.1276756E-14  0.1652893E-01
      1        -13.840174   1.000000
      2        -13.171580   1.000000
      3        -11.830670   1.000000
      4        -11.717225   1.000000
      5        -11.147902   1.000000
      6        -11.021638   1.000000
      7        -10.946814   1.000000
      8        -10.261509   1.000000
      9        -10.029136   1.000000
     10         -9.708913   1.000000
     11         -9.655125   1.000000
     12         -9.325583   1.000000
     13         -8.950678   1.000000
     14         -8.772210   1.000000
     15         -8.088768   1.000000
     16         -8.027447   1.000000
     17         -7.997233   1.000000
     18         -7.680170   1.000000
     19         -7.651119   1.000000
     20         -7.631171   1.000000
     21         -7.369140   1.000000
     22         -7.326961   1.000000
     23         -7.245513   1.000000
     24         -6.818888   1.000000
     25         -6.595567   1.000000
     26         -6.385225   1.000000
     27         -6.163251   1.000000
     28         -6.120886   1.000000
     29         -5.690152   1.000000
     30         -5.637865   1.000000
     31         -5.504117   1.000000
     32         -5.375203   1.000000
     33         -5.083917   1.000000
     34         -4.937351   1.000000
     35         -4.783679   1.000000
     36         -4.635937   0.838976
     37         -4.565405   0.157526
     38         -4.213522   0.000000
     39         -4.098034   0.000000
     40         -3.902183   0.000000
     41         -3.229920   0.000000
     42         -3.191947   0.000000
     43         -2.621874   0.000000
     44         -1.532212   0.000000
     45         -1.415638   0.000000
     46         -1.150169   0.000000
     47         -0.986715   0.000000
     48         -0.847473   0.000000
     49         -0.434662   0.000000
     50         -0.169326   0.000000
     51          0.494789   0.000000
     52          0.627325   0.000000
     53          0.774023   0.000000
     54          0.860771   0.000000
     55          0.909355   0.000000
     56          1.073385   0.000000
     57          1.208566   0.000000
     58          1.255591   0.000000
     59          1.486162   0.000000
     60          1.563575   0.000000
     61          1.612412   0.000000
     62          1.642656   0.000000
     63          2.007128   0.000000
     64          2.162752   0.000000
     65          2.206525   0.000000
     66          2.445349   0.000000
     67          2.611690   0.000000
     68          2.644215   0.000000
     69          2.785599   0.000000
     70          2.925153   0.000000
     71          2.976381   0.000000
     72          3.064908   0.000000
     73          3.168308   0.000000
     74          3.305067   0.000000
     75          3.322304   0.000000
     76          3.326952   0.000000
     77          3.387049   0.000000
     78          3.609133   0.000000
     79          3.697930   0.000000
     80          3.715192   0.000000
     81          3.900972   0.000000
     82          4.035704   0.000000
     83          4.074927   0.000000
     84          4.091349   0.000000
     85          4.188174   0.000000
     86          4.232422   0.000000
     87          4.323730   0.000000
     88          4.364819   0.000000
     89          4.434658   0.000000
     90          4.488615   0.000000
     91          4.575222   0.000000
     92          4.612655   0.000000
     93          4.643598   0.000000
     94          4.723684   0.000000
     95          4.778305   0.000000
     96          4.797062   0.000000
     97          4.894928   0.000000
     98          4.962332   0.000000
     99          5.053298   0.000000
    100          5.094404   0.000000
    101          5.248047   0.000000
    102          5.267412   0.000000
    103          5.297032   0.000000
    104          5.334827   0.000000
    105          5.365648   0.000000
    106          5.543352   0.000000
    107          5.583156   0.000000
    108          5.624251   0.000000
    109          5.696443   0.000000
    110          5.700112   0.000000
    111          5.715892   0.000000
    112          5.863432   0.000000
    113          5.896965   0.000000
    114          5.935901   0.000000
    115          6.001632   0.000000
    116          6.025819   0.000000
    117          6.038713   0.000000
    118          6.071181   0.000000
    119          6.086520   0.000000
    120          6.106890   0.000000
    121          6.149202   0.000000
    122          6.271419   0.000000
    123          6.336937   0.000000
    124          6.365307   0.000000
    125          6.407392   0.000000
    126          6.413476   0.000000
    127          6.508369   0.000000
    128          6.515030   0.000000
    129          6.550055   0.000000
    130          6.567015   0.000000
    131          6.575169   0.000000
    132          6.889136   0.000000
    133          6.935753   0.000000
    134          6.983849   0.000000
    135          7.001581   0.000000
    136          7.020160   0.000000
    137          7.108477   0.000000
    138          7.120246   0.000000
    139          7.142203   0.000000
    140          7.197099   0.000000
    141          7.229248   0.000000
    142          7.254486   0.000000
    143          7.272288   0.000000
    144          7.297247   0.000000
    145          7.402664   0.000000
    146          7.421291   0.000000
    147          7.587860   0.000000
    148          7.596686   0.000000
    149          7.601238   0.000000
    150          7.676715   0.000000
    151          7.731961   0.000000
    152          7.775562   0.000000
    153          7.779182   0.000000
    154          7.788088   0.000000
    155          7.812168   0.000000
    156          7.876898   0.000000
    157          7.955545   0.000000
    158          7.987105   0.000000
    159          7.998303   0.000000
    160          8.040055   0.000000
    161          8.104218   0.000000
    162          8.141813   0.000000
    163          8.237289   0.000000
    164          8.245843   0.000000
    165          8.299598   0.000000
    166          8.323762   0.000000
    167          8.422228   0.000000
    168          8.510414   0.000000
 
  0.4545455E+00  0.9090909E-01  0.1276756E-14  0.1652893E-01
      1        -13.657703   1.000000
      2        -13.434761   1.000000
      3        -11.644269   1.000000
      4        -11.530896   1.000000
      5        -11.416191   1.000000
      6        -11.288227   1.000000
      7        -10.759041   1.000000
      8        -10.530053   1.000000
      9         -9.849540   1.000000
     10         -9.592222   1.000000
     11         -9.458139   1.000000
     12         -9.242461   1.000000
     13         -9.211424   1.000000
     14         -8.587806   1.000000
     15         -8.337587   1.000000
     16         -8.104566   1.000000
     17         -7.857916   1.000000
     18         -7.814143   1.000000
     19         -7.618046   1.000000
     20         -7.567759   1.000000
     21         -7.284058   1.000000
     22         -7.133208   1.000000
     23         -7.111462   1.000000
     24         -6.848655   1.000000
     25         -6.417781   1.000000
     26         -6.340594   1.000000
     27         -6.294979   1.000000
     28         -6.236134   1.000000
     29         -5.937385   1.000000
     30         -5.696475   1.000000
     31         -5.585739   1.000000
     32         -5.449326   1.000000
     33         -5.207292   1.000000
     34         -4.963374   1.000000
     35         -4.626645   0.766525
     36         -4.497485   0.001718
     37         -4.462539   0.000045
     38         -4.426219   0.000000
     39         -4.140291   0.000000
     40         -3.780864   0.000000
     41         -3.518031   0.000000
     42         -3.021931   0.000000
     43         -2.824383   0.000000
     44         -1.431717   0.000000
     45         -1.241969   0.000000
     46         -1.144294   0.000000
     47         -0.983800   0.000000
     48         -0.860528   0.000000
     49         -0.344521   0.000000
     50         -0.251419   0.000000
     51          0.309701   0.000000
     52          0.948503   0.000000
     53          0.996491   0.000000
     54          1.006749   0.000000
     55          1.038875   0.000000
     56          1.254927   0.000000
     57          1.268767   0.000000
     58          1.351059   0.000000
     59          1.370084   0.000000
     60          1.447488   0.000000
     61          1.553301   0.000000
     62          1.913047   0.000000
     63          1.942073   0.000000
     64          2.120946   0.000000
     65          2.368850   0.000000
     66          2.448282   0.000000
     67          2.619384   0.000000
     68          2.639443   0.000000
     69          2.743136   0.000000
     70          2.756291   0.000000
     71          2.763646   0.000000
     72          2.883501   0.000000
     73          2.902082   0.000000
     74          3.155818   0.000000
     75          3.297372   0.000000
     76          3.345583   0.000000
     77          3.540325   0.000000
     78          3.578427   0.000000
     79          3.754769   0.000000
     80          3.768225   0.000000
     81          3.812553   0.000000
     82          3.857629   0.000000
     83          3.882313   0.000000
     84          4.011667   0.000000
     85          4.040560   0.000000
     86          4.247285   0.000000
     87          4.358324   0.000000
     88          4.406981   0.000000
     89          4.440439   0.000000
     90          4.461384   0.000000
     91          4.514747   0.000000
     92          4.566882   0.000000
     93          4.625970   0.000000
     94          4.739364   0.000000
     95          4.807909   0.000000
     96          4.939983   0.000000
     97          4.980778   0.000000
     98          5.039402   0.000000
     99          5.104465   0.000000
    100          5.125463   0.000000
    101          5.210225   0.000000
    102          5.296348   0.000000
    103          5.321801   0.000000
    104          5.371651   0.000000
    105          5.407135   0.000000
    106          5.424897   0.000000
    107          5.453014   0.000000
    108          5.506587   0.000000
    109          5.632425   0.000000
    110          5.647205   0.000000
    111          5.702265   0.000000
    112          5.753400   0.000000
    113          5.903286   0.000000
    114          5.989841   0.000000
    115          6.011195   0.000000
    116          6.048220   0.000000
    117          6.060447   0.000000
    118          6.092083   0.000000
    119          6.126529   0.000000
    120          6.157519   0.000000
    121          6.171158   0.000000
    122          6.200734   0.000000
    123          6.271130   0.000000
    124          6.339051   0.000000
    125          6.348072   0.000000
    126          6.363012   0.000000
    127          6.549053   0.000000
    128          6.597440   0.000000
    129          6.635395   0.000000
    130          6.645703   0.000000
    131          6.661731   0.000000
    132          6.676291   0.000000
    133          6.712375   0.000000
    134          6.785183   0.000000
    135          6.873855   0.000000
    136          6.894791   0.000000
    137          6.955103   0.000000
    138          7.052382   0.000000
    139          7.065206   0.000000
    140          7.188935   0.000000
    141          7.223632   0.000000
    142          7.311487   0.000000
    143          7.342030   0.000000
    144          7.411475   0.000000
    145          7.423436   0.000000
    146          7.457584   0.000000
    147          7.471187   0.000000
    148          7.513027   0.000000
    149          7.523192   0.000000
    150          7.614319   0.000000
    151          7.653010   0.000000
    152          7.748928   0.000000
    153          7.771878   0.000000
    154          7.786539   0.000000
    155          7.825797   0.000000
    156          7.885883   0.000000
    157          8.001465   0.000000
    158          8.074301   0.000000
    159          8.112944   0.000000
    160          8.210088   0.000000
    161          8.284969   0.000000
    162          8.422666   0.000000
    163          8.510052   0.000000
    164          8.543749   0.000000
    165          8.573930   0.000000
    166          8.605963   0.000000
    167          8.634246   0.000000
    168          8.661516   0.000000
 
 -0.9090909E-01  0.4545455E+00  0.1276756E-14  0.1652893E-01
      1        -13.657700   1.000000
      2        -13.434741   1.000000
      3        -11.644176   1.000000
      4        -11.532732   1.000000
      5        -11.415604   1.000000
      6        -11.286837   1.000000
      7        -10.759192   1.000000
      8        -10.530183   1.000000
      9         -9.854159   1.000000
     10         -9.583975   1.000000
     11         -9.460910   1.000000
     12         -9.239669   1.000000
     13         -9.214002   1.000000
     14         -8.587029   1.000000
     15         -8.340569   1.000000
     16         -8.101889   1.000000
     17         -7.866825   1.000000
     18         -7.816268   1.000000
     19         -7.593536   1.000000
     20         -7.575424   1.000000
     21         -7.276630   1.000000
     22         -7.142288   1.000000
     23         -7.111056   1.000000
     24         -6.855514   1.000000
     25         -6.425602   1.000000
     26         -6.356282   1.000000
     27         -6.289341   1.000000
     28         -6.229409   1.000000
     29         -5.929189   1.000000
     30         -5.691377   1.000000
     31         -5.589001   1.000000
     32         -5.453787   1.000000
     33         -5.197374   1.000000
     34         -4.954005   1.000000
     35         -4.625624   0.757586
     36         -4.498642   0.001908
     37         -4.475877   0.000202
     38         -4.426939   0.000000
     39         -4.126010   0.000000
     40         -3.784741   0.000000
     41         -3.533856   0.000000
     42         -3.021225   0.000000
     43         -2.823624   0.000000
     44         -1.432114   0.000000
     45         -1.243657   0.000000
     46         -1.144559   0.000000
     47         -0.980254   0.000000
     48         -0.863355   0.000000
     49         -0.344012   0.000000
     50         -0.251245   0.000000
     51          0.319340   0.000000
     52          0.951976   0.000000
     53          0.995583   0.000000
     54          1.001193   0.000000
     55          1.039271   0.000000
     56          1.257811   0.000000
     57          1.271256   0.000000
     58          1.345770   0.000000
     59          1.382489   0.000000
     60          1.447743   0.000000
     61          1.548077   0.000000
     62          1.912777   0.000000
     63          1.941683   0.000000
     64          2.120441   0.000000
     65          2.368768   0.000000
     66          2.448236   0.000000
     67          2.611292   0.000000
     68          2.639448   0.000000
     69          2.741787   0.000000
     70          2.758931   0.000000
     71          2.767149   0.000000
     72          2.883918   0.000000
     73          2.903482   0.000000
     74          3.155848   0.000000
     75          3.297771   0.000000
     76          3.345663   0.000000
     77          3.542274   0.000000
     78          3.574905   0.000000
     79          3.742698   0.000000
     80          3.783121   0.000000
     81          3.815321   0.000000
     82          3.854178   0.000000
     83          3.880970   0.000000
     84          4.018551   0.000000
     85          4.036304   0.000000
     86          4.243413   0.000000
     87          4.361845   0.000000
     88          4.402793   0.000000
     89          4.434633   0.000000
     90          4.467011   0.000000
     91          4.505794   0.000000
     92          4.586335   0.000000
     93          4.619450   0.000000
     94          4.737588   0.000000
     95          4.799497   0.000000
     96          4.939423   0.000000
     97          4.980043   0.000000
     98          5.040083   0.000000
     99          5.106154   0.000000
    100          5.124360   0.000000
    101          5.213303   0.000000
    102          5.298853   0.000000
    103          5.321945   0.000000
    104          5.372778   0.000000
    105          5.393211   0.000000
    106          5.430683   0.000000
    107          5.453891   0.000000
    108          5.508155   0.000000
    109          5.631618   0.000000
    110          5.647470   0.000000
    111          5.703872   0.000000
    112          5.754678   0.000000
    113          5.903951   0.000000
    114          5.985239   0.000000
    115          6.016639   0.000000
    116          6.048541   0.000000
    117          6.057516   0.000000
    118          6.091472   0.000000
    119          6.124992   0.000000
    120          6.157879   0.000000
    121          6.173804   0.000000
    122          6.200408   0.000000
    123          6.270929   0.000000
    124          6.339436   0.000000
    125          6.347909   0.000000
    126          6.362595   0.000000
    127          6.548811   0.000000
    128          6.598250   0.000000
    129          6.626900   0.000000
    130          6.647562   0.000000
    131          6.669967   0.000000
    132          6.677357   0.000000
    133          6.712137   0.000000
    134          6.785342   0.000000
    135          6.872553   0.000000
    136          6.894706   0.000000
    137          6.954991   0.000000
    138          7.053888   0.000000
    139          7.063517   0.000000
    140          7.192219   0.000000
    141          7.223754   0.000000
    142          7.311115   0.000000
    143          7.356604   0.000000
    144          7.407676   0.000000
    145          7.418927   0.000000
    146          7.456203   0.000000
    147          7.471217   0.000000
    148          7.505687   0.000000
    149          7.527945   0.000000
    150          7.613938   0.000000
    151          7.654161   0.000000
    152          7.747818   0.000000
    153          7.771711   0.000000
    154          7.786644   0.000000
    155          7.825726   0.000000
    156          7.884845   0.000000
    157          8.002556   0.000000
    158          8.073171   0.000000
    159          8.113448   0.000000
    160          8.208908   0.000000
    161          8.283734   0.000000
    162          8.423237   0.000000
    163          8.513662   0.000000
    164          8.546160   0.000000
    165          8.574854   0.000000
    166          8.608130   0.000000
    167          8.633496   0.000000
    168          8.661927   0.000000
 
 -0.4545455E+00  0.9090909E-01  0.1276756E-14  0.1652893E-01
      1        -13.657698   1.000000
      2        -13.434766   1.000000
      3        -11.644316   1.000000
      4        -11.530899   1.000000
      5        -11.416153   1.000000
      6        -11.288177   1.000000
      7        -10.759104   1.000000
      8        -10.529985   1.000000
      9         -9.849356   1.000000
     10         -9.594120   1.000000
     11         -9.457103   1.000000
     12         -9.240092   1.000000
     13         -9.212515   1.000000
     14         -8.586903   1.000000
     15         -8.341047   1.000000
     16         -8.104806   1.000000
     17         -7.858836   1.000000
     18         -7.811233   1.000000
     19         -7.619335   1.000000
     20         -7.560446   1.000000
     21         -7.288298   1.000000
     22         -7.139545   1.000000
     23         -7.111724   1.000000
     24         -6.843436   1.000000
     25         -6.419611   1.000000
     26         -6.353602   1.000000
     27         -6.286320   1.000000
     28         -6.228412   1.000000
     29         -5.933305   1.000000
     30         -5.701207   1.000000
     31         -5.584721   1.000000
     32         -5.454307   1.000000
     33         -5.201843   1.000000
     34         -4.965535   1.000000
     35         -4.627229   0.771553
     36         -4.496696   0.001599
     37         -4.475434   0.000193
     38         -4.427461   0.000000
     39         -4.119674   0.000000
     40         -3.780066   0.000000
     41         -3.526068   0.000000
     42         -3.023182   0.000000
     43         -2.823583   0.000000
     44         -1.431839   0.000000
     45         -1.242237   0.000000
     46         -1.144399   0.000000
     47         -0.981718   0.000000
     48         -0.861394   0.000000
     49         -0.344216   0.000000
     50         -0.251774   0.000000
     51          0.310233   0.000000
     52          0.948085   0.000000
     53          0.999612   0.000000
     54          1.003794   0.000000
     55          1.037456   0.000000
     56          1.252428   0.000000
     57          1.269654   0.000000
     58          1.348479   0.000000
     59          1.378136   0.000000
     60          1.443845   0.000000
     61          1.552834   0.000000
     62          1.914766   0.000000
     63          1.942324   0.000000
     64          2.121505   0.000000
     65          2.368861   0.000000
     66          2.448375   0.000000
     67          2.619405   0.000000
     68          2.639329   0.000000
     69          2.743327   0.000000
     70          2.755695   0.000000
     71          2.762514   0.000000
     72          2.883574   0.000000
     73          2.902023   0.000000
     74          3.155695   0.000000
     75          3.297567   0.000000
     76          3.345062   0.000000
     77          3.541477   0.000000
     78          3.577217   0.000000
     79          3.750615   0.000000
     80          3.782683   0.000000
     81          3.802504   0.000000
     82          3.859890   0.000000
     83          3.878663   0.000000
     84          4.016874   0.000000
     85          4.037611   0.000000
     86          4.246583   0.000000
     87          4.354273   0.000000
     88          4.410939   0.000000
     89          4.436583   0.000000
     90          4.466309   0.000000
     91          4.514291   0.000000
     92          4.559330   0.000000
     93          4.635960   0.000000
     94          4.737139   0.000000
     95          4.805740   0.000000
     96          4.940743   0.000000
     97          4.982402   0.000000
     98          5.039547   0.000000
     99          5.105618   0.000000
    100          5.125743   0.000000
    101          5.219707   0.000000
    102          5.296689   0.000000
    103          5.322564   0.000000
    104          5.363378   0.000000
    105          5.400444   0.000000
    106          5.427639   0.000000
    107          5.448265   0.000000
    108          5.508243   0.000000
    109          5.633267   0.000000
    110          5.649020   0.000000
    111          5.701469   0.000000
    112          5.754125   0.000000
    113          5.904370   0.000000
    114          5.988740   0.000000
    115          6.009028   0.000000
    116          6.049619   0.000000
    117          6.060990   0.000000
    118          6.091070   0.000000
    119          6.119222   0.000000
    120          6.158786   0.000000
    121          6.177780   0.000000
    122          6.201120   0.000000
    123          6.271063   0.000000
    124          6.339519   0.000000
    125          6.348381   0.000000
    126          6.358889   0.000000
    127          6.548925   0.000000
    128          6.602555   0.000000
    129          6.632694   0.000000
    130          6.645573   0.000000
    131          6.658861   0.000000
    132          6.676395   0.000000
    133          6.720234   0.000000
    134          6.784700   0.000000
    135          6.870966   0.000000
    136          6.894829   0.000000
    137          6.955303   0.000000
    138          7.051748   0.000000
    139          7.065688   0.000000
    140          7.186946   0.000000
    141          7.224249   0.000000
    142          7.311260   0.000000
    143          7.354645   0.000000
    144          7.403614   0.000000
    145          7.421356   0.000000
    146          7.449300   0.000000
    147          7.472215   0.000000
    148          7.508040   0.000000
    149          7.531527   0.000000
    150          7.614791   0.000000
    151          7.654817   0.000000
    152          7.748099   0.000000
    153          7.770947   0.000000
    154          7.788032   0.000000
    155          7.825505   0.000000
    156          7.886426   0.000000
    157          8.002722   0.000000
    158          8.074631   0.000000
    159          8.115899   0.000000
    160          8.206492   0.000000
    161          8.283126   0.000000
    162          8.421688   0.000000
    163          8.510035   0.000000
    164          8.543414   0.000000
    165          8.575844   0.000000
    166          8.606889   0.000000
    167          8.636380   0.000000
    168          8.659503   0.000000
 
  0.9090909E-01  0.4545455E+00  0.1276756E-14  0.1652893E-01
      1        -13.657705   1.000000
      2        -13.434736   1.000000
      3        -11.644008   1.000000
      4        -11.532975   1.000000
      5        -11.415544   1.000000
      6        -11.286839   1.000000
      7        -10.759225   1.000000
      8        -10.530169   1.000000
      9         -9.854060   1.000000
     10         -9.583152   1.000000
     11         -9.460717   1.000000
     12         -9.241147   1.000000
     13         -9.214607   1.000000
     14         -8.586312   1.000000
     15         -8.338813   1.000000
     16         -8.101434   1.000000
     17         -7.869581   1.000000
     18         -7.815021   1.000000
     19         -7.598309   1.000000
     20         -7.575255   1.000000
     21         -7.273779   1.000000
     22         -7.136740   1.000000
     23         -7.111902   1.000000
     24         -6.856783   1.000000
     25         -6.427459   1.000000
     26         -6.350707   1.000000
     27         -6.294090   1.000000
     28         -6.231281   1.000000
     29         -5.935581   1.000000
     30         -5.687473   1.000000
     31         -5.588946   1.000000
     32         -5.446820   1.000000
     33         -5.201245   1.000000
     34         -4.951365   1.000000
     35         -4.622166   0.725999
     36         -4.498683   0.001915
     37         -4.483802   0.000462
     38         -4.424099   0.000000
     39         -4.129334   0.000000
     40         -3.785296   0.000000
     41         -3.530769   0.000000
     42         -3.022430   0.000000
     43         -2.821962   0.000000
     44         -1.432139   0.000000
     45         -1.243315   0.000000
     46         -1.144668   0.000000
     47         -0.981062   0.000000
     48         -0.863266   0.000000
     49         -0.344361   0.000000
     50         -0.251041   0.000000
     51          0.318925   0.000000
     52          0.952118   0.000000
     53          0.991700   0.000000
     54          1.003172   0.000000
     55          1.042299   0.000000
     56          1.257456   0.000000
     57          1.271178   0.000000
     58          1.353370   0.000000
     59          1.367988   0.000000
     60          1.452952   0.000000
     61          1.551403   0.000000
     62          1.911481   0.000000
     63          1.942369   0.000000
     64          2.119858   0.000000
     65          2.368693   0.000000
     66          2.448256   0.000000
     67          2.609296   0.000000
     68          2.639483   0.000000
     69          2.742665   0.000000
     70          2.756156   0.000000
     71          2.770230   0.000000
     72          2.884211   0.000000
     73          2.903177   0.000000
     74          3.156044   0.000000
     75          3.297699   0.000000
     76          3.346038   0.000000
     77          3.541820   0.000000
     78          3.576994   0.000000
     79          3.745672   0.000000
     80          3.766561   0.000000
     81          3.820812   0.000000
     82          3.861053   0.000000
     83          3.878385   0.000000
     84          4.018144   0.000000
     85          4.035237   0.000000
     86          4.245515   0.000000
     87          4.362676   0.000000
     88          4.406630   0.000000
     89          4.438410   0.000000
     90          4.457793   0.000000
     91          4.508398   0.000000
     92          4.585192   0.000000
     93          4.620555   0.000000
     94          4.736840   0.000000
     95          4.800312   0.000000
     96          4.935635   0.000000
     97          4.980857   0.000000
     98          5.039624   0.000000
     99          5.106483   0.000000
    100          5.126005   0.000000
    101          5.214526   0.000000
    102          5.300591   0.000000
    103          5.322553   0.000000
    104          5.373155   0.000000
    105          5.397085   0.000000
    106          5.427308   0.000000
    107          5.452670   0.000000
    108          5.506561   0.000000
    109          5.632791   0.000000
    110          5.648429   0.000000
    111          5.702864   0.000000
    112          5.753519   0.000000
    113          5.903388   0.000000
    114          5.988070   0.000000
    115          6.012874   0.000000
    116          6.045122   0.000000
    117          6.061649   0.000000
    118          6.091034   0.000000
    119          6.127359   0.000000
    120          6.157370   0.000000
    121          6.172803   0.000000
    122          6.200029   0.000000
    123          6.270962   0.000000
    124          6.338672   0.000000
    125          6.349097   0.000000
    126          6.361928   0.000000
    127          6.548987   0.000000
    128          6.601906   0.000000
    129          6.622466   0.000000
    130          6.646616   0.000000
    131          6.669031   0.000000
    132          6.676300   0.000000
    133          6.715069   0.000000
    134          6.785906   0.000000
    135          6.873764   0.000000
    136          6.894796   0.000000
    137          6.954616   0.000000
    138          7.054155   0.000000
    139          7.062804   0.000000
    140          7.192615   0.000000
    141          7.223719   0.000000
    142          7.311544   0.000000
    143          7.354308   0.000000
    144          7.404835   0.000000
    145          7.419432   0.000000
    146          7.458528   0.000000
    147          7.470823   0.000000
    148          7.512843   0.000000
    149          7.522963   0.000000
    150          7.614185   0.000000
    151          7.653766   0.000000
    152          7.751013   0.000000
    153          7.768985   0.000000
    154          7.784961   0.000000
    155          7.825538   0.000000
    156          7.885708   0.000000
    157          8.002184   0.000000
    158          8.073290   0.000000
    159          8.113850   0.000000
    160          8.207313   0.000000
    161          8.286173   0.000000
    162          8.421711   0.000000
    163          8.512568   0.000000
    164          8.548704   0.000000
    165          8.575035   0.000000
    166          8.603919   0.000000
    167          8.641623   0.000000
    168          8.660537   0.000000
 
  0.1818182E+00  0.1818182E+00  0.1276756E-14  0.1652893E-01
      1        -14.022699   1.000000
      2        -12.467205   1.000000
      3        -12.458752   1.000000
      4        -11.906232   1.000000
      5        -10.878468   1.000000
      6        -10.710262   1.000000
      7        -10.701670   1.000000
      8        -10.329062   1.000000
      9        -10.278404   1.000000
     10        -10.204785   1.000000
     11         -9.111826   1.000000
     12         -9.101616   1.000000
     13         -8.714023   1.000000
     14         -8.672175   1.000000
     15         -8.605452   1.000000
     16         -8.570151   1.000000
     17         -8.526832   1.000000
     18         -8.189987   1.000000
     19         -7.394650   1.000000
     20         -7.312327   1.000000
     21         -7.274637   1.000000
     22         -7.032430   1.000000
     23         -6.931728   1.000000
     24         -6.857171   1.000000
     25         -6.684045   1.000000
     26         -6.649156   1.000000
     27         -5.834576   1.000000
     28         -5.813606   1.000000
     29         -5.760738   1.000000
     30         -5.742125   1.000000
     31         -5.633665   1.000000
     32         -5.551310   1.000000
     33         -5.144743   1.000000
     34         -5.101478   1.000000
     35         -4.493589   0.001199
     36         -4.483913   0.000467
     37         -4.225437   0.000000
     38         -4.194132   0.000000
     39         -4.188336   0.000000
     40         -4.091087   0.000000
     41         -2.815661   0.000000
     42         -2.671864   0.000000
     43         -2.666960   0.000000
     44         -1.911930   0.000000
     45         -1.208030   0.000000
     46         -1.023511   0.000000
     47         -1.011895   0.000000
     48         -0.958775   0.000000
     49         -0.511782   0.000000
     50         -0.506312   0.000000
     51         -0.259022   0.000000
     52          0.138607   0.000000
     53          0.547507   0.000000
     54          0.914640   0.000000
     55          0.964073   0.000000
     56          1.243502   0.000000
     57          1.300631   0.000000
     58          1.315945   0.000000
     59          1.461152   0.000000
     60          1.482029   0.000000
     61          1.528637   0.000000
     62          1.552588   0.000000
     63          1.798586   0.000000
     64          1.951973   0.000000
     65          1.964283   0.000000
     66          2.401061   0.000000
     67          2.422205   0.000000
     68          2.701242   0.000000
     69          2.733527   0.000000
     70          3.090424   0.000000
     71          3.163336   0.000000
     72          3.402521   0.000000
     73          3.464725   0.000000
     74          3.471622   0.000000
     75          3.735382   0.000000
     76          3.763121   0.000000
     77          3.777965   0.000000
     78          3.808010   0.000000
     79          3.979745   0.000000
     80          3.983309   0.000000
     81          3.990015   0.000000
     82          4.029079   0.000000
     83          4.048805   0.000000
     84          4.062655   0.000000
     85          4.068417   0.000000
     86          4.151752   0.000000
     87          4.169296   0.000000
     88          4.186231   0.000000
     89          4.348059   0.000000
     90          4.390677   0.000000
     91          4.397512   0.000000
     92          4.504786   0.000000
     93          4.511851   0.000000
     94          4.787812   0.000000
     95          4.834350   0.000000
     96          4.956397   0.000000
     97          5.005418   0.000000
     98          5.029920   0.000000
     99          5.038942   0.000000
    100          5.116390   0.000000
    101          5.167349   0.000000
    102          5.182476   0.000000
    103          5.194324   0.000000
    104          5.273595   0.000000
    105          5.362699   0.000000
    106          5.462161   0.000000
    107          5.581255   0.000000
    108          5.637086   0.000000
    109          5.663184   0.000000
    110          5.790019   0.000000
    111          5.795762   0.000000
    112          6.002310   0.000000
    113          6.014095   0.000000
    114          6.029067   0.000000
    115          6.044652   0.000000
    116          6.050919   0.000000
    117          6.134574   0.000000
    118          6.169316   0.000000
    119          6.174396   0.000000
    120          6.187408   0.000000
    121          6.308378   0.000000
    122          6.312852   0.000000
    123          6.449974   0.000000
    124          6.452783   0.000000
    125          6.461473   0.000000
    126          6.467978   0.000000
    127          6.477583   0.000000
    128          6.559802   0.000000
    129          6.594687   0.000000
    130          6.604368   0.000000
    131          6.626205   0.000000
    132          6.672438   0.000000
    133          6.873296   0.000000
    134          6.882517   0.000000
    135          6.904291   0.000000
    136          6.906744   0.000000
    137          6.926718   0.000000
    138          6.934019   0.000000
    139          7.003275   0.000000
    140          7.041265   0.000000
    141          7.083215   0.000000
    142          7.170435   0.000000
    143          7.200972   0.000000
    144          7.216609   0.000000
    145          7.338150   0.000000
    146          7.559536   0.000000
    147          7.563753   0.000000
    148          7.570672   0.000000
    149          7.575308   0.000000
    150          7.623395   0.000000
    151          7.625591   0.000000
    152          7.773593   0.000000
    153          7.908544   0.000000
    154          7.931269   0.000000
    155          7.947209   0.000000
    156          8.147056   0.000000
    157          8.284789   0.000000
    158          8.338295   0.000000
    159          8.349685   0.000000
    160          8.401560   0.000000
    161          8.409777   0.000000
    162          8.427240   0.000000
    163          8.443470   0.000000
    164          8.445476   0.000000
    165          8.451219   0.000000
    166          8.466860   0.000000
    167          8.490662   0.000000
    168          8.499287   0.000000
 
 -0.1818182E+00  0.1818182E+00  0.1276756E-14  0.1652893E-01
      1        -14.022695   1.000000
      2        -12.465928   1.000000
      3        -12.460085   1.000000
      4        -11.906203   1.000000
      5        -10.878370   1.000000
      6        -10.707626   1.000000
      7        -10.704365   1.000000
      8        -10.320826   1.000000
      9        -10.288415   1.000000
     10        -10.203519   1.000000
     11         -9.111275   1.000000
     12         -9.103712   1.000000
     13         -8.690771   1.000000
     14         -8.674788   1.000000
     15         -8.612448   1.000000
     16         -8.572216   1.000000
     17         -8.538688   1.000000
     18         -8.188170   1.000000
     19         -7.394171   1.000000
     20         -7.319760   1.000000
     21         -7.262625   1.000000
     22         -7.047352   1.000000
     23         -6.916807   1.000000
     24         -6.866392   1.000000
     25         -6.687140   1.000000
     26         -6.641929   1.000000
     27         -5.831792   1.000000
     28         -5.823711   1.000000
     29         -5.752539   1.000000
     30         -5.732899   1.000000
     31         -5.624227   1.000000
     32         -5.565203   1.000000
     33         -5.162447   1.000000
     34         -5.090693   1.000000
     35         -4.495324   0.001409
     36         -4.488161   0.000713
     37         -4.252254   0.000000
     38         -4.191245   0.000000
     39         -4.173359   0.000000
     40         -4.067399   0.000000
     41         -2.824079   0.000000
     42         -2.672266   0.000000
     43         -2.668117   0.000000
     44         -1.912407   0.000000
     45         -1.208537   0.000000
     46         -1.020806   0.000000
     47         -1.013954   0.000000
     48         -0.952884   0.000000
     49         -0.510050   0.000000
     50         -0.509509   0.000000
     51         -0.258681   0.000000
     52          0.137811   0.000000
     53          0.547592   0.000000
     54          0.911322   0.000000
     55          0.962051   0.000000
     56          1.256481   0.000000
     57          1.290371   0.000000
     58          1.318753   0.000000
     59          1.463693   0.000000
     60          1.480824   0.000000
     61          1.530425   0.000000
     62          1.548377   0.000000
     63          1.798523   0.000000
     64          1.951929   0.000000
     65          1.964300   0.000000
     66          2.401215   0.000000
     67          2.422183   0.000000
     68          2.706218   0.000000
     69          2.727956   0.000000
     70          3.090748   0.000000
     71          3.163489   0.000000
     72          3.401754   0.000000
     73          3.465781   0.000000
     74          3.467552   0.000000
     75          3.736578   0.000000
     76          3.761842   0.000000
     77          3.785408   0.000000
     78          3.803040   0.000000
     79          3.976470   0.000000
     80          3.982653   0.000000
     81          3.991849   0.000000
     82          4.036820   0.000000
     83          4.060183   0.000000
     84          4.062994   0.000000
     85          4.101331   0.000000
     86          4.123804   0.000000
     87          4.161252   0.000000
     88          4.175940   0.000000
     89          4.346161   0.000000
     90          4.391608   0.000000
     91          4.396197   0.000000
     92          4.506324   0.000000
     93          4.510685   0.000000
     94          4.797740   0.000000
     95          4.826704   0.000000
     96          4.956260   0.000000
     97          5.003608   0.000000
     98          5.031092   0.000000
     99          5.033439   0.000000
    100          5.136893   0.000000
    101          5.168772   0.000000
    102          5.178042   0.000000
    103          5.205987   0.000000
    104          5.236512   0.000000
    105          5.361880   0.000000
    106          5.480712   0.000000
    107          5.581099   0.000000
    108          5.626937   0.000000
    109          5.665073   0.000000
    110          5.785906   0.000000
    111          5.794574   0.000000
    112          6.006745   0.000000
    113          6.009549   0.000000
    114          6.029990   0.000000
    115          6.044190   0.000000
    116          6.050083   0.000000
    117          6.139917   0.000000
    118          6.169572   0.000000
    119          6.174536   0.000000
    120          6.187808   0.000000
    121          6.309027   0.000000
    122          6.312299   0.000000
    123          6.450636   0.000000
    124          6.452543   0.000000
    125          6.460425   0.000000
    126          6.470305   0.000000
    127          6.475531   0.000000
    128          6.558521   0.000000
    129          6.598859   0.000000
    130          6.603726   0.000000
    131          6.626740   0.000000
    132          6.672397   0.000000
    133          6.872332   0.000000
    134          6.878319   0.000000
    135          6.906696   0.000000
    136          6.911762   0.000000
    137          6.923076   0.000000
    138          6.933890   0.000000
    139          7.007257   0.000000
    140          7.035781   0.000000
    141          7.083195   0.000000
    142          7.171804   0.000000
    143          7.202729   0.000000
    144          7.212569   0.000000
    145          7.337477   0.000000
    146          7.561845   0.000000
    147          7.565303   0.000000
    148          7.569154   0.000000
    149          7.573135   0.000000
    150          7.624246   0.000000
    151          7.626205   0.000000
    152          7.774323   0.000000
    153          7.909073   0.000000
    154          7.933523   0.000000
    155          7.947909   0.000000
    156          8.143442   0.000000
    157          8.282770   0.000000
    158          8.339650   0.000000
    159          8.348105   0.000000
    160          8.402686   0.000000
    161          8.407668   0.000000
    162          8.429853   0.000000
    163          8.443977   0.000000
    164          8.444850   0.000000
    165          8.454316   0.000000
    166          8.471649   0.000000
    167          8.490955   0.000000
    168          8.495476   0.000000
 
  0.2727273E+00  0.1818182E+00  0.1276756E-14  0.1652893E-01
      1        -13.921141   1.000000
      2        -12.806370   1.000000
      3        -12.359289   1.000000
      4        -11.800501   1.000000
      5        -11.225807   1.000000
      6        -10.650008   1.000000
      7        -10.598836   1.000000
      8        -10.196137   1.000000
      9        -10.186090   1.000000
     10        -10.097301   1.000000
     11         -9.453340   1.000000
     12         -9.031123   1.000000
     13         -8.956818   1.000000
     14         -8.584146   1.000000
     15         -8.533346   1.000000
     16         -8.448505   1.000000
     17         -8.124519   1.000000
     18         -8.049750   1.000000
     19         -7.395679   1.000000
     20         -7.266103   1.000000
     21         -7.214947   1.000000
     22         -7.141713   1.000000
     23         -6.969664   1.000000
     24         -6.883051   1.000000
     25         -6.577550   1.000000
     26         -6.396184   1.000000
     27         -6.231794   1.000000
     28         -5.981285   1.000000
     29         -5.860239   1.000000
     30         -5.706983   1.000000
     31         -5.635745   1.000000
     32         -5.519885   1.000000
     33         -5.429434   1.000000
     34         -4.969828   1.000000
     35         -4.727061   0.999820
     36         -4.648815   0.912215
     37         -4.502447   0.002673
     38         -4.471716   0.000129
     39         -4.237541   0.000000
     40         -3.814674   0.000000
     41         -2.676381   0.000000
     42         -2.559349   0.000000
     43         -1.978834   0.000000
     44         -1.711481   0.000000
     45         -1.281008   0.000000
     46         -1.157466   0.000000
     47         -1.104354   0.000000
     48         -0.958152   0.000000
     49         -0.759383   0.000000
     50         -0.543267   0.000000
     51         -0.131733   0.000000
     52          0.292601   0.000000
     53          0.674273   0.000000
     54          0.864996   0.000000
     55          1.132151   0.000000
     56          1.192672   0.000000
     57          1.303241   0.000000
     58          1.457488   0.000000
     59          1.486600   0.000000
     60          1.545875   0.000000
     61          1.629404   0.000000
     62          1.857553   0.000000
     63          1.924678   0.000000
     64          2.076210   0.000000
     65          2.098852   0.000000
     66          2.529421   0.000000
     67          2.547230   0.000000
     68          2.742250   0.000000
     69          2.820686   0.000000
     70          3.023771   0.000000
     71          3.194084   0.000000
     72          3.231227   0.000000
     73          3.281394   0.000000
     74          3.420389   0.000000
     75          3.463609   0.000000
     76          3.546690   0.000000
     77          3.584539   0.000000
     78          3.609902   0.000000
     79          3.787285   0.000000
     80          3.819932   0.000000
     81          3.849321   0.000000
     82          3.868862   0.000000
     83          3.903477   0.000000
     84          4.014234   0.000000
     85          4.069474   0.000000
     86          4.108611   0.000000
     87          4.119442   0.000000
     88          4.154902   0.000000
     89          4.195461   0.000000
     90          4.242550   0.000000
     91          4.256434   0.000000
     92          4.421790   0.000000
     93          4.515802   0.000000
     94          4.633367   0.000000
     95          4.713615   0.000000
     96          4.718417   0.000000
     97          4.755539   0.000000
     98          4.869668   0.000000
     99          4.897203   0.000000
    100          4.930529   0.000000
    101          5.072441   0.000000
    102          5.157430   0.000000
    103          5.296428   0.000000
    104          5.299754   0.000000
    105          5.357110   0.000000
    106          5.458692   0.000000
    107          5.503056   0.000000
    108          5.588386   0.000000
    109          5.615952   0.000000
    110          5.656877   0.000000
    111          5.751530   0.000000
    112          5.805737   0.000000
    113          5.865188   0.000000
    114          5.902377   0.000000
    115          5.920169   0.000000
    116          6.099891   0.000000
    117          6.142718   0.000000
    118          6.147020   0.000000
    119          6.264238   0.000000
    120          6.337472   0.000000
    121          6.354597   0.000000
    122          6.373604   0.000000
    123          6.426795   0.000000
    124          6.567449   0.000000
    125          6.587412   0.000000
    126          6.597346   0.000000
    127          6.615792   0.000000
    128          6.661678   0.000000
    129          6.693787   0.000000
    130          6.751303   0.000000
    131          6.792847   0.000000
    132          6.969871   0.000000
    133          6.988204   0.000000
    134          7.007587   0.000000
    135          7.024084   0.000000
    136          7.085717   0.000000
    137          7.127278   0.000000
    138          7.132559   0.000000
    139          7.175116   0.000000
    140          7.182469   0.000000
    141          7.314018   0.000000
    142          7.368053   0.000000
    143          7.377605   0.000000
    144          7.434977   0.000000
    145          7.521160   0.000000
    146          7.536868   0.000000
    147          7.579179   0.000000
    148          7.602236   0.000000
    149          7.690869   0.000000
    150          7.702075   0.000000
    151          7.766780   0.000000
    152          7.786737   0.000000
    153          7.845390   0.000000
    154          7.946510   0.000000
    155          7.985202   0.000000
    156          8.003440   0.000000
    157          8.022072   0.000000
    158          8.035345   0.000000
    159          8.094778   0.000000
    160          8.227100   0.000000
    161          8.253100   0.000000
    162          8.263810   0.000000
    163          8.300334   0.000000
    164          8.317331   0.000000
    165          8.337559   0.000000
    166          8.503146   0.000000
    167          8.532806   0.000000
    168          8.561549   0.000000
 
 -0.1818182E+00  0.2727273E+00  0.1276756E-14  0.1652893E-01
      1        -13.921134   1.000000
      2        -12.806360   1.000000
      3        -12.359334   1.000000
      4        -11.800591   1.000000
      5        -11.225731   1.000000
      6        -10.649567   1.000000
      7        -10.599066   1.000000
      8        -10.198820   1.000000
      9        -10.181941   1.000000
     10        -10.099747   1.000000
     11         -9.453577   1.000000
     12         -9.018772   1.000000
     13         -8.966437   1.000000
     14         -8.586503   1.000000
     15         -8.523234   1.000000
     16         -8.460176   1.000000
     17         -8.132026   1.000000
     18         -8.039156   1.000000
     19         -7.377370   1.000000
     20         -7.281254   1.000000
     21         -7.204863   1.000000
     22         -7.160825   1.000000
     23         -6.970116   1.000000
     24         -6.884950   1.000000
     25         -6.582491   1.000000
     26         -6.379789   1.000000
     27         -6.237788   1.000000
     28         -5.972844   1.000000
     29         -5.865185   1.000000
     30         -5.700305   1.000000
     31         -5.638081   1.000000
     32         -5.516875   1.000000
     33         -5.435279   1.000000
     34         -4.976148   1.000000
     35         -4.728641   0.999848
     36         -4.659694   0.951765
     37         -4.491815   0.001014
     38         -4.470249   0.000109
     39         -4.230746   0.000000
     40         -3.811405   0.000000
     41         -2.688490   0.000000
     42         -2.559044   0.000000
     43         -1.980778   0.000000
     44         -1.711859   0.000000
     45         -1.281825   0.000000
     46         -1.159285   0.000000
     47         -1.091226   0.000000
     48         -0.960045   0.000000
     49         -0.760688   0.000000
     50         -0.543512   0.000000
     51         -0.129905   0.000000
     52          0.291627   0.000000
     53          0.673891   0.000000
     54          0.865332   0.000000
     55          1.136984   0.000000
     56          1.185771   0.000000
     57          1.305539   0.000000
     58          1.463223   0.000000
     59          1.483667   0.000000
     60          1.547787   0.000000
     61          1.627116   0.000000
     62          1.855818   0.000000
     63          1.924706   0.000000
     64          2.076109   0.000000
     65          2.098913   0.000000
     66          2.529911   0.000000
     67          2.546745   0.000000
     68          2.742415   0.000000
     69          2.818914   0.000000
     70          3.024015   0.000000
     71          3.204441   0.000000
     72          3.218042   0.000000
     73          3.279420   0.000000
     74          3.418375   0.000000
     75          3.480238   0.000000
     76          3.545258   0.000000
     77          3.590111   0.000000
     78          3.609776   0.000000
     79          3.784724   0.000000
     80          3.816546   0.000000
     81          3.852531   0.000000
     82          3.869642   0.000000
     83          3.899092   0.000000
     84          4.013333   0.000000
     85          4.068071   0.000000
     86          4.110971   0.000000
     87          4.128610   0.000000
     88          4.149068   0.000000
     89          4.194612   0.000000
     90          4.229060   0.000000
     91          4.253643   0.000000
     92          4.425185   0.000000
     93          4.514787   0.000000
     94          4.632925   0.000000
     95          4.713894   0.000000
     96          4.719190   0.000000
     97          4.756609   0.000000
     98          4.889098   0.000000
     99          4.907223   0.000000
    100          4.931142   0.000000
    101          5.037922   0.000000
    102          5.161370   0.000000
    103          5.287484   0.000000
    104          5.302182   0.000000
    105          5.369967   0.000000
    106          5.453554   0.000000
    107          5.502697   0.000000
    108          5.588391   0.000000
    109          5.618885   0.000000
    110          5.658650   0.000000
    111          5.752167   0.000000
    112          5.796404   0.000000
    113          5.868616   0.000000
    114          5.896956   0.000000
    115          5.918271   0.000000
    116          6.102442   0.000000
    117          6.140882   0.000000
    118          6.153906   0.000000
    119          6.265702   0.000000
    120          6.342614   0.000000
    121          6.356967   0.000000
    122          6.366463   0.000000
    123          6.426456   0.000000
    124          6.568378   0.000000
    125          6.586629   0.000000
    126          6.592869   0.000000
    127          6.617158   0.000000
    128          6.661263   0.000000
    129          6.693784   0.000000
    130          6.751023   0.000000
    131          6.796492   0.000000
    132          6.969131   0.000000
    133          6.989220   0.000000
    134          7.005525   0.000000
    135          7.025679   0.000000
    136          7.081038   0.000000
    137          7.126299   0.000000
    138          7.133367   0.000000
    139          7.176771   0.000000
    140          7.186664   0.000000
    141          7.313080   0.000000
    142          7.368659   0.000000
    143          7.378230   0.000000
    144          7.433885   0.000000
    145          7.520107   0.000000
    146          7.538892   0.000000
    147          7.579000   0.000000
    148          7.602715   0.000000
    149          7.690284   0.000000
    150          7.701900   0.000000
    151          7.766566   0.000000
    152          7.788038   0.000000
    153          7.843314   0.000000
    154          7.946150   0.000000
    155          7.984772   0.000000
    156          8.002534   0.000000
    157          8.029174   0.000000
    158          8.037046   0.000000
    159          8.094596   0.000000
    160          8.233390   0.000000
    161          8.245841   0.000000
    162          8.257533   0.000000
    163          8.300006   0.000000
    164          8.316926   0.000000
    165          8.343812   0.000000
    166          8.504391   0.000000
    167          8.533861   0.000000
    168          8.564148   0.000000
 
 -0.2727273E+00  0.1818182E+00  0.1276756E-14  0.1652893E-01
      1        -13.921136   1.000000
      2        -12.806374   1.000000
      3        -12.359344   1.000000
      4        -11.800456   1.000000
      5        -11.225767   1.000000
      6        -10.648925   1.000000
      7        -10.599642   1.000000
      8        -10.200295   1.000000
      9        -10.183295   1.000000
     10        -10.096638   1.000000
     11         -9.453465   1.000000
     12         -9.028444   1.000000
     13         -8.956754   1.000000
     14         -8.586870   1.000000
     15         -8.534372   1.000000
     16         -8.446225   1.000000
     17         -8.130421   1.000000
     18         -8.044452   1.000000
     19         -7.385711   1.000000
     20         -7.278216   1.000000
     21         -7.199608   1.000000
     22         -7.158337   1.000000
     23         -6.973508   1.000000
     24         -6.886465   1.000000
     25         -6.577306   1.000000
     26         -6.379763   1.000000
     27         -6.231352   1.000000
     28         -5.971890   1.000000
     29         -5.873283   1.000000
     30         -5.704120   1.000000
     31         -5.637320   1.000000
     32         -5.514725   1.000000
     33         -5.439602   1.000000
     34         -4.971848   1.000000
     35         -4.724469   0.999762
     36         -4.655374   0.938224
     37         -4.512747   0.006314
     38         -4.470583   0.000114
     39         -4.220292   0.000000
     40         -3.808156   0.000000
     41         -2.687336   0.000000
     42         -2.561092   0.000000
     43         -1.978458   0.000000
     44         -1.712348   0.000000
     45         -1.280705   0.000000
     46         -1.161344   0.000000
     47         -1.091743   0.000000
     48         -0.958060   0.000000
     49         -0.762045   0.000000
     50         -0.543441   0.000000
     51         -0.130468   0.000000
     52          0.291796   0.000000
     53          0.674404   0.000000
     54          0.858281   0.000000
     55          1.130259   0.000000
     56          1.195256   0.000000
     57          1.309661   0.000000
     58          1.458958   0.000000
     59          1.485667   0.000000
     60          1.544409   0.000000
     61          1.629946   0.000000
     62          1.856484   0.000000
     63          1.924598   0.000000
     64          2.076116   0.000000
     65          2.098875   0.000000
     66          2.529583   0.000000
     67          2.547045   0.000000
     68          2.742613   0.000000
     69          2.819558   0.000000
     70          3.022930   0.000000
     71          3.201430   0.000000
     72          3.222226   0.000000
     73          3.280376   0.000000
     74          3.419093   0.000000
     75          3.470663   0.000000
     76          3.542936   0.000000
     77          3.590550   0.000000
     78          3.610018   0.000000
     79          3.785653   0.000000
     80          3.825575   0.000000
     81          3.847141   0.000000
     82          3.864984   0.000000
     83          3.901726   0.000000
     84          4.014275   0.000000
     85          4.069292   0.000000
     86          4.110949   0.000000
     87          4.126379   0.000000
     88          4.154772   0.000000
     89          4.195274   0.000000
     90          4.229517   0.000000
     91          4.254793   0.000000
     92          4.426107   0.000000
     93          4.515676   0.000000
     94          4.634876   0.000000
     95          4.712706   0.000000
     96          4.716316   0.000000
     97          4.756090   0.000000
     98          4.888229   0.000000
     99          4.907243   0.000000
    100          4.926101   0.000000
    101          5.044674   0.000000
    102          5.160427   0.000000
    103          5.289579   0.000000
    104          5.302199   0.000000
    105          5.369204   0.000000
    106          5.453990   0.000000
    107          5.502779   0.000000
    108          5.588442   0.000000
    109          5.620845   0.000000
    110          5.658579   0.000000
    111          5.752890   0.000000
    112          5.798582   0.000000
    113          5.864198   0.000000
    114          5.897487   0.000000
    115          5.918431   0.000000
    116          6.101223   0.000000
    117          6.142708   0.000000
    118          6.148416   0.000000
    119          6.264761   0.000000
    120          6.341151   0.000000
    121          6.358162   0.000000
    122          6.368762   0.000000
    123          6.425962   0.000000
    124          6.564828   0.000000
    125          6.586619   0.000000
    126          6.599058   0.000000
    127          6.616831   0.000000
    128          6.661314   0.000000
    129          6.694053   0.000000
    130          6.750971   0.000000
    131          6.795788   0.000000
    132          6.970269   0.000000
    133          6.990003   0.000000
    134          7.004233   0.000000
    135          7.025466   0.000000
    136          7.074337   0.000000
    137          7.128342   0.000000
    138          7.134930   0.000000
    139          7.178023   0.000000
    140          7.184640   0.000000
    141          7.314005   0.000000
    142          7.370431   0.000000
    143          7.375872   0.000000
    144          7.434609   0.000000
    145          7.521531   0.000000
    146          7.536097   0.000000
    147          7.579682   0.000000
    148          7.599645   0.000000
    149          7.692204   0.000000
    150          7.702937   0.000000
    151          7.767160   0.000000
    152          7.787245   0.000000
    153          7.842430   0.000000
    154          7.950706   0.000000
    155          7.985168   0.000000
    156          8.003043   0.000000
    157          8.022291   0.000000
    158          8.039207   0.000000
    159          8.094560   0.000000
    160          8.227361   0.000000
    161          8.246056   0.000000
    162          8.256576   0.000000
    163          8.299844   0.000000
    164          8.313779   0.000000
    165          8.355255   0.000000
    166          8.503300   0.000000
    167          8.533706   0.000000
    168          8.563715   0.000000
 
  0.1818182E+00  0.2727273E+00  0.1276756E-14  0.1652893E-01
      1        -13.921140   1.000000
      2        -12.806359   1.000000
      3        -12.359271   1.000000
      4        -11.800644   1.000000
      5        -11.225792   1.000000
      6        -10.649792   1.000000
      7        -10.599247   1.000000
      8        -10.199006   1.000000
      9        -10.178921   1.000000
     10        -10.101768   1.000000
     11         -9.452886   1.000000
     12         -9.023161   1.000000
     13         -8.965950   1.000000
     14         -8.585768   1.000000
     15         -8.520846   1.000000
     16         -8.459928   1.000000
     17         -8.129821   1.000000
     18         -8.041645   1.000000
     19         -7.386493   1.000000
     20         -7.273346   1.000000
     21         -7.215410   1.000000
     22         -7.145683   1.000000
     23         -6.967686   1.000000
     24         -6.884886   1.000000
     25         -6.581918   1.000000
     26         -6.380193   1.000000
     27         -6.240698   1.000000
     28         -5.992079   1.000000
     29         -5.871571   1.000000
     30         -5.691816   1.000000
     31         -5.625693   1.000000
     32         -5.523177   1.000000
     33         -5.425818   1.000000
     34         -4.975686   1.000000
     35         -4.719768   0.999612
     36         -4.644770   0.892531
     37         -4.520560   0.011510
     38         -4.465386   0.000063
     39         -4.233680   0.000000
     40         -3.817014   0.000000
     41         -2.680179   0.000000
     42         -2.557452   0.000000
     43         -1.980589   0.000000
     44         -1.710279   0.000000
     45         -1.282031   0.000000
     46         -1.155026   0.000000
     47         -1.103065   0.000000
     48         -0.959111   0.000000
     49         -0.761081   0.000000
     50         -0.542192   0.000000
     51         -0.131364   0.000000
     52          0.292201   0.000000
     53          0.673865   0.000000
     54          0.869259   0.000000
     55          1.131927   0.000000
     56          1.190332   0.000000
     57          1.306819   0.000000
     58          1.457729   0.000000
     59          1.486520   0.000000
     60          1.542138   0.000000
     61          1.632926   0.000000
     62          1.856369   0.000000
     63          1.924620   0.000000
     64          2.076059   0.000000
     65          2.098891   0.000000
     66          2.529711   0.000000
     67          2.546827   0.000000
     68          2.742556   0.000000
     69          2.819731   0.000000
     70          3.024910   0.000000
     71          3.198855   0.000000
     72          3.218438   0.000000
     73          3.280453   0.000000
     74          3.420007   0.000000
     75          3.479105   0.000000
     76          3.545877   0.000000
     77          3.590398   0.000000
     78          3.610118   0.000000
     79          3.780980   0.000000
     80          3.811304   0.000000
     81          3.852136   0.000000
     82          3.869547   0.000000
     83          3.900570   0.000000
     84          4.014277   0.000000
     85          4.068544   0.000000
     86          4.111920   0.000000
     87          4.124008   0.000000
     88          4.146108   0.000000
     89          4.195457   0.000000
     90          4.240259   0.000000
     91          4.255794   0.000000
     92          4.422620   0.000000
     93          4.515758   0.000000
     94          4.632781   0.000000
     95          4.714119   0.000000
     96          4.718239   0.000000
     97          4.756692   0.000000
     98          4.887372   0.000000
     99          4.895434   0.000000
    100          4.932791   0.000000
    101          5.056813   0.000000
    102          5.157715   0.000000
    103          5.293661   0.000000
    104          5.301719   0.000000
    105          5.358758   0.000000
    106          5.456592   0.000000
    107          5.503056   0.000000
    108          5.588424   0.000000
    109          5.617629   0.000000
    110          5.657443   0.000000
    111          5.751586   0.000000
    112          5.805311   0.000000
    113          5.863724   0.000000
    114          5.902190   0.000000
    115          5.919964   0.000000
    116          6.095921   0.000000
    117          6.144109   0.000000
    118          6.154793   0.000000
    119          6.263792   0.000000
    120          6.340130   0.000000
    121          6.356661   0.000000
    122          6.367855   0.000000
    123          6.426074   0.000000
    124          6.567936   0.000000
    125          6.587810   0.000000
    126          6.591807   0.000000
    127          6.616152   0.000000
    128          6.662642   0.000000
    129          6.694414   0.000000
    130          6.750506   0.000000
    131          6.793546   0.000000
    132          6.967573   0.000000
    133          6.990511   0.000000
    134          7.007556   0.000000
    135          7.022846   0.000000
    136          7.089306   0.000000
    137          7.127580   0.000000
    138          7.130522   0.000000
    139          7.176040   0.000000
    140          7.182808   0.000000
    141          7.314549   0.000000
    142          7.369190   0.000000
    143          7.378111   0.000000
    144          7.435463   0.000000
    145          7.520180   0.000000
    146          7.537560   0.000000
    147          7.578817   0.000000
    148          7.601809   0.000000
    149          7.690827   0.000000
    150          7.702074   0.000000
    151          7.766935   0.000000
    152          7.790265   0.000000
    153          7.840856   0.000000
    154          7.943498   0.000000
    155          7.985397   0.000000
    156          8.003527   0.000000
    157          8.022476   0.000000
    158          8.042876   0.000000
    159          8.094476   0.000000
    160          8.231016   0.000000
    161          8.249941   0.000000
    162          8.259393   0.000000
    163          8.299567   0.000000
    164          8.316948   0.000000
    165          8.340490   0.000000
    166          8.506033   0.000000
    167          8.531286   0.000000
    168          8.563841   0.000000
 
  0.3636364E+00  0.1818182E+00  0.1276756E-14  0.1652893E-01
      1        -13.779008   1.000000
      2        -13.109864   1.000000
      3        -12.214358   1.000000
      4        -11.653513   1.000000
      5        -11.533215   1.000000
      6        -10.957609   1.000000
      7        -10.452228   1.000000
      8        -10.046502   1.000000
      9         -9.957588   1.000000
     10         -9.761475   1.000000
     11         -9.644144   1.000000
     12         -9.342011   1.000000
     13         -9.251234   1.000000
     14         -8.394969   1.000000
     15         -8.295514   1.000000
     16         -8.027297   1.000000
     17         -7.945623   1.000000
     18         -7.709798   1.000000
     19         -7.605174   1.000000
     20         -7.580422   1.000000
     21         -7.540058   1.000000
     22         -7.249183   1.000000
     23         -7.011599   1.000000
     24         -6.432897   1.000000
     25         -6.384497   1.000000
     26         -6.326800   1.000000
     27         -6.283362   1.000000
     28         -6.110748   1.000000
     29         -6.009178   1.000000
     30         -5.855445   1.000000
     31         -5.714907   1.000000
     32         -5.541882   1.000000
     33         -5.508284   1.000000
     34         -4.959874   1.000000
     35         -4.913463   1.000000
     36         -4.852245   1.000000
     37         -4.820787   1.000000
     38         -4.479800   0.000306
     39         -4.152951   0.000000
     40         -3.589423   0.000000
     41         -2.762969   0.000000
     42         -2.408853   0.000000
     43         -1.812470   0.000000
     44         -1.459400   0.000000
     45         -1.383781   0.000000
     46         -1.137763   0.000000
     47         -1.105893   0.000000
     48         -0.884179   0.000000
     49         -0.865504   0.000000
     50         -0.612428   0.000000
     51          0.257760   0.000000
     52          0.538225   0.000000
     53          0.612258   0.000000
     54          0.850680   0.000000
     55          1.190476   0.000000
     56          1.283557   0.000000
     57          1.324069   0.000000
     58          1.377767   0.000000
     59          1.613403   0.000000
     60          1.636087   0.000000
     61          1.644022   0.000000
     62          1.778767   0.000000
     63          2.086382   0.000000
     64          2.243220   0.000000
     65          2.287779   0.000000
     66          2.437226   0.000000
     67          2.691992   0.000000
     68          2.724659   0.000000
     69          2.953530   0.000000
     70          2.966891   0.000000
     71          3.048071   0.000000
     72          3.138501   0.000000
     73          3.186287   0.000000
     74          3.218821   0.000000
     75          3.371026   0.000000
     76          3.398228   0.000000
     77          3.404839   0.000000
     78          3.541939   0.000000
     79          3.581488   0.000000
     80          3.648801   0.000000
     81          3.686313   0.000000
     82          3.777258   0.000000
     83          3.790220   0.000000
     84          3.830338   0.000000
     85          3.950592   0.000000
     86          4.036944   0.000000
     87          4.078776   0.000000
     88          4.277407   0.000000
     89          4.296837   0.000000
     90          4.356193   0.000000
     91          4.372889   0.000000
     92          4.387990   0.000000
     93          4.427392   0.000000
     94          4.468172   0.000000
     95          4.534256   0.000000
     96          4.569706   0.000000
     97          4.617566   0.000000
     98          4.690367   0.000000
     99          4.812910   0.000000
    100          4.880362   0.000000
    101          5.090345   0.000000
    102          5.182620   0.000000
    103          5.200950   0.000000
    104          5.309685   0.000000
    105          5.319593   0.000000
    106          5.332855   0.000000
    107          5.439301   0.000000
    108          5.447926   0.000000
    109          5.461908   0.000000
    110          5.535357   0.000000
    111          5.680239   0.000000
    112          5.821447   0.000000
    113          5.852214   0.000000
    114          5.956984   0.000000
    115          6.023422   0.000000
    116          6.104467   0.000000
    117          6.126316   0.000000
    118          6.138486   0.000000
    119          6.239322   0.000000
    120          6.263246   0.000000
    121          6.418154   0.000000
    122          6.455751   0.000000
    123          6.527895   0.000000
    124          6.539334   0.000000
    125          6.558835   0.000000
    126          6.618379   0.000000
    127          6.647625   0.000000
    128          6.693202   0.000000
    129          6.722977   0.000000
    130          6.776281   0.000000
    131          6.793351   0.000000
    132          6.847289   0.000000
    133          7.048277   0.000000
    134          7.104701   0.000000
    135          7.145748   0.000000
    136          7.157938   0.000000
    137          7.195070   0.000000
    138          7.219544   0.000000
    139          7.325583   0.000000
    140          7.395129   0.000000
    141          7.432456   0.000000
    142          7.465753   0.000000
    143          7.499374   0.000000
    144          7.587829   0.000000
    145          7.602228   0.000000
    146          7.646045   0.000000
    147          7.664380   0.000000
    148          7.712160   0.000000
    149          7.743575   0.000000
    150          7.766506   0.000000
    151          7.810922   0.000000
    152          7.853419   0.000000
    153          7.861553   0.000000
    154          7.932397   0.000000
    155          7.954590   0.000000
    156          8.036091   0.000000
    157          8.060906   0.000000
    158          8.092031   0.000000
    159          8.179380   0.000000
    160          8.195485   0.000000
    161          8.222745   0.000000
    162          8.265890   0.000000
    163          8.315748   0.000000
    164          8.372717   0.000000
    165          8.470841   0.000000
    166          8.491993   0.000000
    167          8.509915   0.000000
    168          8.602815   0.000000
 
 -0.1818182E+00  0.3636364E+00  0.1276756E-14  0.1652893E-01
      1        -13.778998   1.000000
      2        -13.109856   1.000000
      3        -12.214408   1.000000
      4        -11.653806   1.000000
      5        -11.533191   1.000000
      6        -10.956999   1.000000
      7        -10.452196   1.000000
      8        -10.045990   1.000000
      9         -9.960941   1.000000
     10         -9.761897   1.000000
     11         -9.643158   1.000000
     12         -9.331328   1.000000
     13         -9.258613   1.000000
     14         -8.388836   1.000000
     15         -8.308699   1.000000
     16         -8.026465   1.000000
     17         -7.947417   1.000000
     18         -7.677521   1.000000
     19         -7.613969   1.000000
     20         -7.580185   1.000000
     21         -7.551221   1.000000
     22         -7.250820   1.000000
     23         -7.018627   1.000000
     24         -6.447137   1.000000
     25         -6.395151   1.000000
     26         -6.346708   1.000000
     27         -6.240038   1.000000
     28         -6.100824   1.000000
     29         -6.004987   1.000000
     30         -5.858050   1.000000
     31         -5.716916   1.000000
     32         -5.547636   1.000000
     33         -5.507578   1.000000
     34         -4.942805   1.000000
     35         -4.922807   1.000000
     36         -4.853658   1.000000
     37         -4.826220   1.000000
     38         -4.490109   0.000861
     39         -4.136668   0.000000
     40         -3.590172   0.000000
     41         -2.776720   0.000000
     42         -2.408337   0.000000
     43         -1.812088   0.000000
     44         -1.462860   0.000000
     45         -1.383939   0.000000
     46         -1.135891   0.000000
     47         -1.096790   0.000000
     48         -0.893110   0.000000
     49         -0.859749   0.000000
     50         -0.612861   0.000000
     51          0.265321   0.000000
     52          0.533791   0.000000
     53          0.612960   0.000000
     54          0.851285   0.000000
     55          1.195355   0.000000
     56          1.281642   0.000000
     57          1.320505   0.000000
     58          1.378696   0.000000
     59          1.615338   0.000000
     60          1.636553   0.000000
     61          1.645133   0.000000
     62          1.776481   0.000000
     63          2.086157   0.000000
     64          2.242986   0.000000
     65          2.287808   0.000000
     66          2.438112   0.000000
     67          2.692541   0.000000
     68          2.724120   0.000000
     69          2.953621   0.000000
     70          2.965611   0.000000
     71          3.048409   0.000000
     72          3.136465   0.000000
     73          3.188123   0.000000
     74          3.220792   0.000000
     75          3.371731   0.000000
     76          3.398365   0.000000
     77          3.406171   0.000000
     78          3.544771   0.000000
     79          3.585588   0.000000
     80          3.642985   0.000000
     81          3.685048   0.000000
     82          3.777124   0.000000
     83          3.792454   0.000000
     84          3.826767   0.000000
     85          3.951069   0.000000
     86          4.035471   0.000000
     87          4.077466   0.000000
     88          4.281751   0.000000
     89          4.296693   0.000000
     90          4.345353   0.000000
     91          4.378085   0.000000
     92          4.387160   0.000000
     93          4.426150   0.000000
     94          4.464350   0.000000
     95          4.531427   0.000000
     96          4.570514   0.000000
     97          4.632896   0.000000
     98          4.691510   0.000000
     99          4.812063   0.000000
    100          4.866578   0.000000
    101          5.091156   0.000000
    102          5.182580   0.000000
    103          5.202915   0.000000
    104          5.310294   0.000000
    105          5.320197   0.000000
    106          5.334164   0.000000
    107          5.433549   0.000000
    108          5.447864   0.000000
    109          5.466907   0.000000
    110          5.535612   0.000000
    111          5.679642   0.000000
    112          5.821587   0.000000
    113          5.848401   0.000000
    114          5.958173   0.000000
    115          6.021646   0.000000
    116          6.095833   0.000000
    117          6.131209   0.000000
    118          6.145921   0.000000
    119          6.240604   0.000000
    120          6.265019   0.000000
    121          6.417490   0.000000
    122          6.453196   0.000000
    123          6.525534   0.000000
    124          6.538884   0.000000
    125          6.562328   0.000000
    126          6.621603   0.000000
    127          6.640815   0.000000
    128          6.695869   0.000000
    129          6.722416   0.000000
    130          6.776228   0.000000
    131          6.794626   0.000000
    132          6.847035   0.000000
    133          7.042675   0.000000
    134          7.107817   0.000000
    135          7.144098   0.000000
    136          7.170177   0.000000
    137          7.197689   0.000000
    138          7.210237   0.000000
    139          7.325487   0.000000
    140          7.393779   0.000000
    141          7.434192   0.000000
    142          7.466554   0.000000
    143          7.497532   0.000000
    144          7.587938   0.000000
    145          7.602659   0.000000
    146          7.639751   0.000000
    147          7.671620   0.000000
    148          7.713258   0.000000
    149          7.743659   0.000000
    150          7.770132   0.000000
    151          7.812095   0.000000
    152          7.856916   0.000000
    153          7.859636   0.000000
    154          7.931034   0.000000
    155          7.953698   0.000000
    156          8.046802   0.000000
    157          8.061842   0.000000
    158          8.089004   0.000000
    159          8.172103   0.000000
    160          8.196382   0.000000
    161          8.222919   0.000000
    162          8.259187   0.000000
    163          8.319259   0.000000
    164          8.374498   0.000000
    165          8.467465   0.000000
    166          8.494187   0.000000
    167          8.510119   0.000000
    168          8.602521   0.000000
 
 -0.3636364E+00  0.1818182E+00  0.1276756E-14  0.1652893E-01
      1        -13.779001   1.000000
      2        -13.109874   1.000000
      3        -12.214414   1.000000
      4        -11.653360   1.000000
      5        -11.533286   1.000000
      6        -10.957490   1.000000
      7        -10.452379   1.000000
      8        -10.047979   1.000000
      9         -9.956379   1.000000
     10         -9.762065   1.000000
     11         -9.643557   1.000000
     12         -9.340703   1.000000
     13         -9.251316   1.000000
     14         -8.399994   1.000000
     15         -8.292857   1.000000
     16         -8.026968   1.000000
     17         -7.945237   1.000000
     18         -7.684150   1.000000
     19         -7.636631   1.000000
     20         -7.584376   1.000000
     21         -7.526944   1.000000
     22         -7.252385   1.000000
     23         -7.016276   1.000000
     24         -6.435725   1.000000
     25         -6.405878   1.000000
     26         -6.317721   1.000000
     27         -6.258650   1.000000
     28         -6.091628   1.000000
     29         -6.008423   1.000000
     30         -5.874236   1.000000
     31         -5.719156   1.000000
     32         -5.544573   1.000000
     33         -5.508547   1.000000
     34         -4.949426   1.000000
     35         -4.910285   1.000000
     36         -4.864356   1.000000
     37         -4.824400   1.000000
     38         -4.493462   0.001185
     39         -4.129677   0.000000
     40         -3.587097   0.000000
     41         -2.774002   0.000000
     42         -2.410250   0.000000
     43         -1.811912   0.000000
     44         -1.460530   0.000000
     45         -1.384135   0.000000
     46         -1.138388   0.000000
     47         -1.096333   0.000000
     48         -0.889220   0.000000
     49         -0.862845   0.000000
     50         -0.612797   0.000000
     51          0.262981   0.000000
     52          0.530386   0.000000
     53          0.611325   0.000000
     54          0.850913   0.000000
     55          1.180191   0.000000
     56          1.306857   0.000000
     57          1.323644   0.000000
     58          1.368706   0.000000
     59          1.615800   0.000000
     60          1.635275   0.000000
     61          1.642978   0.000000
     62          1.777427   0.000000
     63          2.085902   0.000000
     64          2.242810   0.000000
     65          2.287677   0.000000
     66          2.438251   0.000000
     67          2.692842   0.000000
     68          2.724544   0.000000
     69          2.944454   0.000000
     70          2.978815   0.000000
     71          3.047869   0.000000
     72          3.138528   0.000000
     73          3.182438   0.000000
     74          3.218606   0.000000
     75          3.370443   0.000000
     76          3.397868   0.000000
     77          3.405012   0.000000
     78          3.541289   0.000000
     79          3.584817   0.000000
     80          3.643121   0.000000
     81          3.691700   0.000000
     82          3.774920   0.000000
     83          3.790475   0.000000
     84          3.827448   0.000000
     85          3.953652   0.000000
     86          4.034570   0.000000
     87          4.079307   0.000000
     88          4.279071   0.000000
     89          4.296625   0.000000
     90          4.351698   0.000000
     91          4.373775   0.000000
     92          4.388533   0.000000
     93          4.429077   0.000000
     94          4.464993   0.000000
     95          4.542204   0.000000
     96          4.568585   0.000000
     97          4.630689   0.000000
     98          4.690611   0.000000
     99          4.811445   0.000000
    100          4.865233   0.000000
    101          5.089846   0.000000
    102          5.182752   0.000000
    103          5.203924   0.000000
    104          5.309000   0.000000
    105          5.323023   0.000000
    106          5.331006   0.000000
    107          5.435065   0.000000
    108          5.449120   0.000000
    109          5.465434   0.000000
    110          5.535692   0.000000
    111          5.680091   0.000000
    112          5.821463   0.000000
    113          5.850486   0.000000
    114          5.958318   0.000000
    115          6.023585   0.000000
    116          6.089686   0.000000
    117          6.129900   0.000000
    118          6.146602   0.000000
    119          6.239390   0.000000
    120          6.263999   0.000000
    121          6.417707   0.000000
    122          6.452607   0.000000
    123          6.524447   0.000000
    124          6.538380   0.000000
    125          6.564029   0.000000
    126          6.619117   0.000000
    127          6.644558   0.000000
    128          6.695619   0.000000
    129          6.722663   0.000000
    130          6.776221   0.000000
    131          6.794614   0.000000
    132          6.847509   0.000000
    133          7.038938   0.000000
    134          7.111220   0.000000
    135          7.145359   0.000000
    136          7.175655   0.000000
    137          7.194658   0.000000
    138          7.204388   0.000000
    139          7.325388   0.000000
    140          7.393197   0.000000
    141          7.432194   0.000000
    142          7.466972   0.000000
    143          7.498682   0.000000
    144          7.587432   0.000000
    145          7.601345   0.000000
    146          7.640717   0.000000
    147          7.671567   0.000000
    148          7.713289   0.000000
    149          7.743898   0.000000
    150          7.770995   0.000000
    151          7.812765   0.000000
    152          7.854976   0.000000
    153          7.859759   0.000000
    154          7.931961   0.000000
    155          7.953246   0.000000
    156          8.039400   0.000000
    157          8.062876   0.000000
    158          8.084877   0.000000
    159          8.173481   0.000000
    160          8.197851   0.000000
    161          8.222110   0.000000
    162          8.267425   0.000000
    163          8.317681   0.000000
    164          8.374060   0.000000
    165          8.471366   0.000000
    166          8.491421   0.000000
    167          8.510548   0.000000
    168          8.602832   0.000000
 
  0.1818182E+00  0.3636364E+00  0.1276756E-14  0.1652893E-01
      1        -13.779005   1.000000
      2        -13.109847   1.000000
      3        -12.214341   1.000000
      4        -11.653963   1.000000
      5        -11.533152   1.000000
      6        -10.957042   1.000000
      7        -10.452251   1.000000
      8        -10.043706   1.000000
      9         -9.963091   1.000000
     10         -9.760890   1.000000
     11         -9.643355   1.000000
     12         -9.333140   1.000000
     13         -9.258673   1.000000
     14         -8.386056   1.000000
     15         -8.308644   1.000000
     16         -8.026435   1.000000
     17         -7.951312   1.000000
     18         -7.684474   1.000000
     19         -7.599031   1.000000
     20         -7.576058   1.000000
     21         -7.560938   1.000000
     22         -7.254067   1.000000
     23         -7.011249   1.000000
     24         -6.436928   1.000000
     25         -6.391497   1.000000
     26         -6.332095   1.000000
     27         -6.278479   1.000000
     28         -6.109114   1.000000
     29         -6.006196   1.000000
     30         -5.866928   1.000000
     31         -5.699217   1.000000
     32         -5.541379   1.000000
     33         -5.503424   1.000000
     34         -4.945267   1.000000
     35         -4.923352   1.000000
     36         -4.856546   1.000000
     37         -4.816394   1.000000
     38         -4.493342   0.001171
     39         -4.145226   0.000000
     40         -3.592182   0.000000
     41         -2.768620   0.000000
     42         -2.408589   0.000000
     43         -1.810397   0.000000
     44         -1.462067   0.000000
     45         -1.383896   0.000000
     46         -1.134863   0.000000
     47         -1.104457   0.000000
     48         -0.887273   0.000000
     49         -0.865330   0.000000
     50         -0.611529   0.000000
     51          0.262012   0.000000
     52          0.534712   0.000000
     53          0.615128   0.000000
     54          0.851184   0.000000
     55          1.194759   0.000000
     56          1.290462   0.000000
     57          1.319303   0.000000
     58          1.373866   0.000000
     59          1.615471   0.000000
     60          1.635260   0.000000
     61          1.642931   0.000000
     62          1.780025   0.000000
     63          2.086054   0.000000
     64          2.242995   0.000000
     65          2.287836   0.000000
     66          2.437943   0.000000
     67          2.692080   0.000000
     68          2.724142   0.000000
     69          2.950123   0.000000
     70          2.966124   0.000000
     71          3.048604   0.000000
     72          3.138385   0.000000
     73          3.189865   0.000000
     74          3.219015   0.000000
     75          3.370556   0.000000
     76          3.398624   0.000000
     77          3.405712   0.000000
     78          3.544630   0.000000
     79          3.579850   0.000000
     80          3.645662   0.000000
     81          3.689303   0.000000
     82          3.772738   0.000000
     83          3.792328   0.000000
     84          3.831440   0.000000
     85          3.951395   0.000000
     86          4.036599   0.000000
     87          4.073640   0.000000
     88          4.280101   0.000000
     89          4.296821   0.000000
     90          4.346541   0.000000
     91          4.375513   0.000000
     92          4.385239   0.000000
     93          4.426277   0.000000
     94          4.468181   0.000000
     95          4.530303   0.000000
     96          4.568988   0.000000
     97          4.638317   0.000000
     98          4.690513   0.000000
     99          4.812370   0.000000
    100          4.866469   0.000000
    101          5.094397   0.000000
    102          5.182625   0.000000
    103          5.201975   0.000000
    104          5.307837   0.000000
    105          5.319181   0.000000
    106          5.335076   0.000000
    107          5.438187   0.000000
    108          5.446947   0.000000
    109          5.463764   0.000000
    110          5.535465   0.000000
    111          5.680333   0.000000
    112          5.825753   0.000000
    113          5.853495   0.000000
    114          5.959749   0.000000
    115          6.018187   0.000000
    116          6.094961   0.000000
    117          6.128306   0.000000
    118          6.143825   0.000000
    119          6.239676   0.000000
    120          6.267921   0.000000
    121          6.416602   0.000000
    122          6.453653   0.000000
    123          6.525443   0.000000
    124          6.539899   0.000000
    125          6.560650   0.000000
    126          6.618066   0.000000
    127          6.643635   0.000000
    128          6.694801   0.000000
    129          6.722408   0.000000
    130          6.776020   0.000000
    131          6.793736   0.000000
    132          6.847884   0.000000
    133          7.043413   0.000000
    134          7.108527   0.000000
    135          7.144173   0.000000
    136          7.169400   0.000000
    137          7.196425   0.000000
    138          7.214270   0.000000
    139          7.325204   0.000000
    140          7.392021   0.000000
    141          7.433032   0.000000
    142          7.465889   0.000000
    143          7.498582   0.000000
    144          7.587647   0.000000
    145          7.602392   0.000000
    146          7.644051   0.000000
    147          7.667529   0.000000
    148          7.714990   0.000000
    149          7.744443   0.000000
    150          7.768612   0.000000
    151          7.810332   0.000000
    152          7.855010   0.000000
    153          7.860108   0.000000
    154          7.932361   0.000000
    155          7.953917   0.000000
    156          8.050487   0.000000
    157          8.062075   0.000000
    158          8.084126   0.000000
    159          8.175697   0.000000
    160          8.195483   0.000000
    161          8.225193   0.000000
    162          8.260886   0.000000
    163          8.316310   0.000000
    164          8.373872   0.000000
    165          8.465494   0.000000
    166          8.493156   0.000000
    167          8.510162   0.000000
    168          8.602654   0.000000
 
  0.4545455E+00  0.1818182E+00  0.1276756E-14  0.1652893E-01
      1        -13.596374   1.000000
      2        -13.373239   1.000000
      3        -12.028298   1.000000
      4        -11.801465   1.000000
      5        -11.466833   1.000000
      6        -11.224718   1.000000
      7        -10.263165   1.000000
      8        -10.033992   1.000000
      9         -9.855832   1.000000
     10         -9.778561   1.000000
     11         -9.613519   1.000000
     12         -9.506486   1.000000
     13         -9.171734   1.000000
     14         -8.217421   1.000000
     15         -8.109051   1.000000
     16         -8.041564   1.000000
     17         -7.939583   1.000000
     18         -7.853084   1.000000
     19         -7.745422   1.000000
     20         -7.522545   1.000000
     21         -7.510562   1.000000
     22         -7.208926   1.000000
     23         -6.826017   1.000000
     24         -6.589804   1.000000
     25         -6.532610   1.000000
     26         -6.355457   1.000000
     27         -6.274545   1.000000
     28         -6.230069   1.000000
     29         -5.991490   1.000000
     30         -5.892663   1.000000
     31         -5.391593   1.000000
     32         -5.355203   1.000000
     33         -5.346354   1.000000
     34         -5.286178   1.000000
     35         -5.148038   1.000000
     36         -5.097825   1.000000
     37         -4.846232   1.000000
     38         -4.797183   1.000000
     39         -3.768857   0.000000
     40         -3.467600   0.000000
     41         -2.991697   0.000000
     42         -2.223192   0.000000
     43         -2.013628   0.000000
     44         -1.401459   0.000000
     45         -1.179342   0.000000
     46         -1.106366   0.000000
     47         -1.089838   0.000000
     48         -0.892480   0.000000
     49         -0.793813   0.000000
     50         -0.699930   0.000000
     51          0.347214   0.000000
     52          0.704726   0.000000
     53          0.982056   0.000000
     54          1.047970   0.000000
     55          1.073871   0.000000
     56          1.197135   0.000000
     57          1.343325   0.000000
     58          1.372272   0.000000
     59          1.382572   0.000000
     60          1.725639   0.000000
     61          1.792399   0.000000
     62          1.909254   0.000000
     63          1.958142   0.000000
     64          2.194959   0.000000
     65          2.448883   0.000000
     66          2.529586   0.000000
     67          2.701384   0.000000
     68          2.715876   0.000000
     69          2.825494   0.000000
     70          2.828218   0.000000
     71          2.942687   0.000000
     72          2.963717   0.000000
     73          3.134810   0.000000
     74          3.233598   0.000000
     75          3.238809   0.000000
     76          3.293428   0.000000
     77          3.342822   0.000000
     78          3.351185   0.000000
     79          3.373699   0.000000
     80          3.621623   0.000000
     81          3.752575   0.000000
     82          3.773518   0.000000
     83          3.808409   0.000000
     84          3.840151   0.000000
     85          3.862191   0.000000
     86          3.927895   0.000000
     87          4.066489   0.000000
     88          4.086333   0.000000
     89          4.249870   0.000000
     90          4.357438   0.000000
     91          4.451901   0.000000
     92          4.505100   0.000000
     93          4.535764   0.000000
     94          4.546714   0.000000
     95          4.625564   0.000000
     96          4.698240   0.000000
     97          4.753449   0.000000
     98          4.832986   0.000000
     99          4.905755   0.000000
    100          4.912651   0.000000
    101          4.921824   0.000000
    102          5.016111   0.000000
    103          5.027450   0.000000
    104          5.146332   0.000000
    105          5.196974   0.000000
    106          5.256767   0.000000
    107          5.295162   0.000000
    108          5.464974   0.000000
    109          5.543526   0.000000
    110          5.553507   0.000000
    111          5.623134   0.000000
    112          5.783484   0.000000
    113          5.821037   0.000000
    114          5.906580   0.000000
    115          5.944713   0.000000
    116          6.058521   0.000000
    117          6.113294   0.000000
    118          6.146545   0.000000
    119          6.177055   0.000000
    120          6.294106   0.000000
    121          6.345158   0.000000
    122          6.381825   0.000000
    123          6.488094   0.000000
    124          6.498642   0.000000
    125          6.604304   0.000000
    126          6.619852   0.000000
    127          6.631166   0.000000
    128          6.663480   0.000000
    129          6.741657   0.000000
    130          6.791478   0.000000
    131          6.854511   0.000000
    132          6.940404   0.000000
    133          7.016698   0.000000
    134          7.063904   0.000000
    135          7.196785   0.000000
    136          7.226817   0.000000
    137          7.284144   0.000000
    138          7.303058   0.000000
    139          7.324983   0.000000
    140          7.330408   0.000000
    141          7.356245   0.000000
    142          7.410005   0.000000
    143          7.421489   0.000000
    144          7.431028   0.000000
    145          7.444041   0.000000
    146          7.547840   0.000000
    147          7.640337   0.000000
    148          7.657281   0.000000
    149          7.762514   0.000000
    150          7.801138   0.000000
    151          7.858480   0.000000
    152          7.948734   0.000000
    153          7.990250   0.000000
    154          8.053091   0.000000
    155          8.133281   0.000000
    156          8.153265   0.000000
    157          8.240581   0.000000
    158          8.256608   0.000000
    159          8.286158   0.000000
    160          8.350275   0.000000
    161          8.370641   0.000000
    162          8.394495   0.000000
    163          8.415289   0.000000
    164          8.643182   0.000000
    165          8.645649   0.000000
    166          8.668635   0.000000
    167          8.712633   0.000000
    168          8.758267   0.000000
 
 -0.1818182E+00  0.4545455E+00  0.1276756E-14  0.1652893E-01
      1        -13.596368   1.000000
      2        -13.373225   1.000000
      3        -12.028373   1.000000
      4        -11.801346   1.000000
      5        -11.468375   1.000000
      6        -11.222898   1.000000
      7        -10.263186   1.000000
      8        -10.034108   1.000000
      9         -9.859809   1.000000
     10         -9.781672   1.000000
     11         -9.600391   1.000000
     12         -9.512054   1.000000
     13         -9.171733   1.000000
     14         -8.216506   1.000000
     15         -8.116313   1.000000
     16         -8.039156   1.000000
     17         -7.931267   1.000000
     18         -7.850613   1.000000
     19         -7.752221   1.000000
     20         -7.531010   1.000000
     21         -7.503699   1.000000
     22         -7.199574   1.000000
     23         -6.830168   1.000000
     24         -6.577774   1.000000
     25         -6.558909   1.000000
     26         -6.367970   1.000000
     27         -6.286253   1.000000
     28         -6.202414   1.000000
     29         -5.992071   1.000000
     30         -5.890077   1.000000
     31         -5.386074   1.000000
     32         -5.351947   1.000000
     33         -5.346031   1.000000
     34         -5.280371   1.000000
     35         -5.146755   1.000000
     36         -5.091144   1.000000
     37         -4.859077   1.000000
     38         -4.803336   1.000000
     39         -3.759812   0.000000
     40         -3.469759   0.000000
     41         -3.004621   0.000000
     42         -2.222365   0.000000
     43         -2.013038   0.000000
     44         -1.401913   0.000000
     45         -1.182043   0.000000
     46         -1.109042   0.000000
     47         -1.081273   0.000000
     48         -0.896417   0.000000
     49         -0.791515   0.000000
     50         -0.700422   0.000000
     51          0.357998   0.000000
     52          0.699664   0.000000
     53          0.984673   0.000000
     54          1.041788   0.000000
     55          1.076369   0.000000
     56          1.208920   0.000000
     57          1.341052   0.000000
     58          1.369645   0.000000
     59          1.378390   0.000000
     60          1.729002   0.000000
     61          1.792206   0.000000
     62          1.908728   0.000000
     63          1.958038   0.000000
     64          2.194355   0.000000
     65          2.448793   0.000000
     66          2.529496   0.000000
     67          2.701081   0.000000
     68          2.716704   0.000000
     69          2.825274   0.000000
     70          2.828682   0.000000
     71          2.942814   0.000000
     72          2.964992   0.000000
     73          3.133130   0.000000
     74          3.226040   0.000000
     75          3.242958   0.000000
     76          3.293844   0.000000
     77          3.348884   0.000000
     78          3.351219   0.000000
     79          3.371285   0.000000
     80          3.622333   0.000000
     81          3.756001   0.000000
     82          3.779821   0.000000
     83          3.798715   0.000000
     84          3.843787   0.000000
     85          3.861253   0.000000
     86          3.923566   0.000000
     87          4.066733   0.000000
     88          4.083624   0.000000
     89          4.250668   0.000000
     90          4.374638   0.000000
     91          4.458970   0.000000
     92          4.479663   0.000000
     93          4.536874   0.000000
     94          4.551328   0.000000
     95          4.624658   0.000000
     96          4.675618   0.000000
     97          4.752617   0.000000
     98          4.832937   0.000000
     99          4.904352   0.000000
    100          4.913800   0.000000
    101          4.932080   0.000000
    102          5.017239   0.000000
    103          5.026856   0.000000
    104          5.146147   0.000000
    105          5.197171   0.000000
    106          5.259216   0.000000
    107          5.296378   0.000000
    108          5.462488   0.000000
    109          5.542462   0.000000
    110          5.560146   0.000000
    111          5.623504   0.000000
    112          5.785112   0.000000
    113          5.820906   0.000000
    114          5.903132   0.000000
    115          5.946953   0.000000
    116          6.059237   0.000000
    117          6.113254   0.000000
    118          6.147380   0.000000
    119          6.176121   0.000000
    120          6.293462   0.000000
    121          6.343788   0.000000
    122          6.381364   0.000000
    123          6.487362   0.000000
    124          6.506712   0.000000
    125          6.600185   0.000000
    126          6.617873   0.000000
    127          6.633731   0.000000
    128          6.668413   0.000000
    129          6.724764   0.000000
    130          6.793309   0.000000
    131          6.859617   0.000000
    132          6.940552   0.000000
    133          7.016647   0.000000
    134          7.064196   0.000000
    135          7.202876   0.000000
    136          7.226879   0.000000
    137          7.280843   0.000000
    138          7.303059   0.000000
    139          7.324108   0.000000
    140          7.332354   0.000000
    141          7.357059   0.000000
    142          7.407240   0.000000
    143          7.419979   0.000000
    144          7.434270   0.000000
    145          7.449284   0.000000
    146          7.546970   0.000000
    147          7.642385   0.000000
    148          7.653276   0.000000
    149          7.771413   0.000000
    150          7.794271   0.000000
    151          7.863961   0.000000
    152          7.949305   0.000000
    153          7.987120   0.000000
    154          8.054156   0.000000
    155          8.133037   0.000000
    156          8.152367   0.000000
    157          8.241591   0.000000
    158          8.253906   0.000000
    159          8.290521   0.000000
    160          8.353626   0.000000
    161          8.367741   0.000000
    162          8.397773   0.000000
    163          8.412057   0.000000
    164          8.631048   0.000000
    165          8.644187   0.000000
    166          8.679811   0.000000
    167          8.709279   0.000000
    168          8.754207   0.000000
 
 -0.4545455E+00  0.1818182E+00  0.1276756E-14  0.1652893E-01
      1        -13.596365   1.000000
      2        -13.373249   1.000000
      3        -12.028366   1.000000
      4        -11.801362   1.000000
      5        -11.466867   1.000000
      6        -11.224685   1.000000
      7        -10.263318   1.000000
      8        -10.033841   1.000000
      9         -9.856479   1.000000
     10         -9.778662   1.000000
     11         -9.612803   1.000000
     12         -9.506025   1.000000
     13         -9.171909   1.000000
     14         -8.223875   1.000000
     15         -8.102572   1.000000
     16         -8.038941   1.000000
     17         -7.942219   1.000000
     18         -7.852485   1.000000
     19         -7.745076   1.000000
     20         -7.529341   1.000000
     21         -7.502934   1.000000
     22         -7.212142   1.000000
     23         -6.829909   1.000000
     24         -6.572335   1.000000
     25         -6.549153   1.000000
     26         -6.356664   1.000000
     27         -6.275925   1.000000
     28         -6.217205   1.000000
     29         -5.996232   1.000000
     30         -5.890798   1.000000
     31         -5.406168   1.000000
     32         -5.352872   1.000000
     33         -5.332501   1.000000
     34         -5.289096   1.000000
     35         -5.152179   1.000000
     36         -5.096865   1.000000
     37         -4.845525   1.000000
     38         -4.799497   1.000000
     39         -3.761109   0.000000
     40         -3.466973   0.000000
     41         -2.998348   0.000000
     42         -2.224171   0.000000
     43         -2.012997   0.000000
     44         -1.401710   0.000000
     45         -1.179857   0.000000
     46         -1.110440   0.000000
     47         -1.082139   0.000000
     48         -0.894252   0.000000
     49         -0.792371   0.000000
     50         -0.700655   0.000000
     51          0.349233   0.000000
     52          0.700457   0.000000
     53          0.982992   0.000000
     54          1.044604   0.000000
     55          1.074709   0.000000
     56          1.201919   0.000000
     57          1.341816   0.000000
     58          1.375847   0.000000
     59          1.379373   0.000000
     60          1.726696   0.000000
     61          1.789819   0.000000
     62          1.910684   0.000000
     63          1.958296   0.000000
     64          2.195037   0.000000
     65          2.448860   0.000000
     66          2.529599   0.000000
     67          2.702022   0.000000
     68          2.715913   0.000000
     69          2.825597   0.000000
     70          2.827990   0.000000
     71          2.942179   0.000000
     72          2.964202   0.000000
     73          3.135246   0.000000
     74          3.232939   0.000000
     75          3.238235   0.000000
     76          3.293482   0.000000
     77          3.338761   0.000000
     78          3.357155   0.000000
     79          3.370546   0.000000
     80          3.621726   0.000000
     81          3.752461   0.000000
     82          3.772787   0.000000
     83          3.814707   0.000000
     84          3.840183   0.000000
     85          3.854163   0.000000
     86          3.931640   0.000000
     87          4.065566   0.000000
     88          4.084768   0.000000
     89          4.252598   0.000000
     90          4.348197   0.000000
     91          4.464669   0.000000
     92          4.497873   0.000000
     93          4.536585   0.000000
     94          4.559784   0.000000
     95          4.623720   0.000000
     96          4.691685   0.000000
     97          4.752569   0.000000
     98          4.833090   0.000000
     99          4.907527   0.000000
    100          4.908191   0.000000
    101          4.924637   0.000000
    102          5.017715   0.000000
    103          5.026083   0.000000
    104          5.144540   0.000000
    105          5.196935   0.000000
    106          5.260533   0.000000
    107          5.292855   0.000000
    108          5.462720   0.000000
    109          5.541861   0.000000
    110          5.555126   0.000000
    111          5.622847   0.000000
    112          5.785564   0.000000
    113          5.821312   0.000000
    114          5.904513   0.000000
    115          5.945617   0.000000
    116          6.060823   0.000000
    117          6.114799   0.000000
    118          6.144648   0.000000
    119          6.174968   0.000000
    120          6.295331   0.000000
    121          6.342601   0.000000
    122          6.377777   0.000000
    123          6.486839   0.000000
    124          6.504341   0.000000
    125          6.602630   0.000000
    126          6.621171   0.000000
    127          6.634205   0.000000
    128          6.663008   0.000000
    129          6.733228   0.000000
    130          6.795719   0.000000
    131          6.856405   0.000000
    132          6.940411   0.000000
    133          7.016575   0.000000
    134          7.064135   0.000000
    135          7.202439   0.000000
    136          7.226779   0.000000
    137          7.278025   0.000000
    138          7.303162   0.000000
    139          7.324531   0.000000
    140          7.331813   0.000000
    141          7.356718   0.000000
    142          7.401041   0.000000
    143          7.420740   0.000000
    144          7.434839   0.000000
    145          7.451008   0.000000
    146          7.547598   0.000000
    147          7.639171   0.000000
    148          7.656683   0.000000
    149          7.770496   0.000000
    150          7.793670   0.000000
    151          7.862242   0.000000
    152          7.949474   0.000000
    153          7.980997   0.000000
    154          8.054810   0.000000
    155          8.134860   0.000000
    156          8.154324   0.000000
    157          8.238196   0.000000
    158          8.258777   0.000000
    159          8.288253   0.000000
    160          8.349746   0.000000
    161          8.364214   0.000000
    162          8.393420   0.000000
    163          8.425880   0.000000
    164          8.640934   0.000000
    165          8.644937   0.000000
    166          8.670506   0.000000
    167          8.706220   0.000000
    168          8.756268   0.000000
 
  0.1818182E+00  0.4545455E+00  0.1276756E-14  0.1652893E-01
      1        -13.596376   1.000000
      2        -13.373215   1.000000
      3        -12.028291   1.000000
      4        -11.801462   1.000000
      5        -11.468371   1.000000
      6        -11.222890   1.000000
      7        -10.263223   1.000000
      8        -10.034135   1.000000
      9         -9.857423   1.000000
     10         -9.784077   1.000000
     11         -9.599827   1.000000
     12         -9.512734   1.000000
     13         -9.171860   1.000000
     14         -8.210743   1.000000
     15         -8.121610   1.000000
     16         -8.042158   1.000000
     17         -7.923945   1.000000
     18         -7.861105   1.000000
     19         -7.746262   1.000000
     20         -7.525914   1.000000
     21         -7.508800   1.000000
     22         -7.199195   1.000000
     23         -6.827939   1.000000
     24         -6.583434   1.000000
     25         -6.551888   1.000000
     26         -6.362510   1.000000
     27         -6.281328   1.000000
     28         -6.227227   1.000000
     29         -5.984206   1.000000
     30         -5.891230   1.000000
     31         -5.370493   1.000000
     32         -5.357647   1.000000
     33         -5.348256   1.000000
     34         -5.280438   1.000000
     35         -5.146043   1.000000
     36         -5.093559   1.000000
     37         -4.858146   1.000000
     38         -4.805218   1.000000
     39         -3.763996   0.000000
     40         -3.470287   0.000000
     41         -3.000131   0.000000
     42         -2.223422   0.000000
     43         -2.011457   0.000000
     44         -1.401955   0.000000
     45         -1.181753   0.000000
     46         -1.104509   0.000000
     47         -1.088172   0.000000
     48         -0.895461   0.000000
     49         -0.793184   0.000000
     50         -0.699116   0.000000
     51          0.357200   0.000000
     52          0.699261   0.000000
     53          0.982782   0.000000
     54          1.045465   0.000000
     55          1.075992   0.000000
     56          1.210270   0.000000
     57          1.344294   0.000000
     58          1.361295   0.000000
     59          1.383155   0.000000
     60          1.726689   0.000000
     61          1.795041   0.000000
     62          1.907822   0.000000
     63          1.958080   0.000000
     64          2.194025   0.000000
     65          2.448761   0.000000
     66          2.529533   0.000000
     67          2.700397   0.000000
     68          2.716550   0.000000
     69          2.825261   0.000000
     70          2.828717   0.000000
     71          2.943024   0.000000
     72          2.964423   0.000000
     73          3.134305   0.000000
     74          3.227890   0.000000
     75          3.241835   0.000000
     76          3.294117   0.000000
     77          3.346273   0.000000
     78          3.350712   0.000000
     79          3.371644   0.000000
     80          3.620681   0.000000
     81          3.758772   0.000000
     82          3.772336   0.000000
     83          3.819704   0.000000
     84          3.839658   0.000000
     85          3.856960   0.000000
     86          3.916986   0.000000
     87          4.065949   0.000000
     88          4.087777   0.000000
     89          4.246773   0.000000
     90          4.377709   0.000000
     91          4.447722   0.000000
     92          4.499400   0.000000
     93          4.533532   0.000000
     94          4.537513   0.000000
     95          4.623694   0.000000
     96          4.682622   0.000000
     97          4.755106   0.000000
     98          4.832860   0.000000
     99          4.905843   0.000000
    100          4.914092   0.000000
    101          4.928426   0.000000
    102          5.016738   0.000000
    103          5.026690   0.000000
    104          5.146489   0.000000
    105          5.197364   0.000000
    106          5.258017   0.000000
    107          5.299431   0.000000
    108          5.464302   0.000000
    109          5.546104   0.000000
    110          5.555116   0.000000
    111          5.623739   0.000000
    112          5.785080   0.000000
    113          5.821476   0.000000
    114          5.905512   0.000000
    115          5.947419   0.000000
    116          6.054815   0.000000
    117          6.111929   0.000000
    118          6.150619   0.000000
    119          6.176673   0.000000
    120          6.292243   0.000000
    121          6.338051   0.000000
    122          6.390516   0.000000
    123          6.487731   0.000000
    124          6.501201   0.000000
    125          6.599837   0.000000
    126          6.618320   0.000000
    127          6.631513   0.000000
    128          6.670094   0.000000
    129          6.723596   0.000000
    130          6.793147   0.000000
    131          6.862546   0.000000
    132          6.940497   0.000000
    133          7.016741   0.000000
    134          7.064179   0.000000
    135          7.202036   0.000000
    136          7.226853   0.000000
    137          7.282596   0.000000
    138          7.303632   0.000000
    139          7.324331   0.000000
    140          7.331365   0.000000
    141          7.357191   0.000000
    142          7.404788   0.000000
    143          7.419952   0.000000
    144          7.434746   0.000000
    145          7.448980   0.000000
    146          7.547281   0.000000
    147          7.641863   0.000000
    148          7.655580   0.000000
    149          7.769349   0.000000
    150          7.793720   0.000000
    151          7.865525   0.000000
    152          7.948111   0.000000
    153          7.987991   0.000000
    154          8.051723   0.000000
    155          8.135684   0.000000
    156          8.152806   0.000000
    157          8.243579   0.000000
    158          8.256503   0.000000
    159          8.284234   0.000000
    160          8.352999   0.000000
    161          8.375043   0.000000
    162          8.392278   0.000000
    163          8.412207   0.000000
    164          8.633688   0.000000
    165          8.648013   0.000000
    166          8.671089   0.000000
    167          8.705938   0.000000
    168          8.758484   0.000000
 
  0.2727273E+00  0.2727273E+00  0.1276756E-14  0.1652893E-01
      1        -13.819425   1.000000
      2        -12.707386   1.000000
      3        -12.698783   1.000000
      4        -11.695147   1.000000
      5        -11.572411   1.000000
      6        -10.567696   1.000000
      7        -10.512088   1.000000
      8        -10.086954   1.000000
      9        -10.071317   1.000000
     10         -9.993976   1.000000
     11         -9.370032   1.000000
     12         -8.943630   1.000000
     13         -8.921663   1.000000
     14         -8.886215   1.000000
     15         -8.806362   1.000000
     16         -8.050565   1.000000
     17         -7.963734   1.000000
     18         -7.931151   1.000000
     19         -7.688170   1.000000
     20         -7.121379   1.000000
     21         -7.073473   1.000000
     22         -6.914281   1.000000
     23         -6.857783   1.000000
     24         -6.758201   1.000000
     25         -6.708055   1.000000
     26         -6.417088   1.000000
     27         -6.166473   1.000000
     28         -6.151735   1.000000
     29         -5.911492   1.000000
     30         -5.848429   1.000000
     31         -5.775819   1.000000
     32         -5.743913   1.000000
     33         -5.708116   1.000000
     34         -5.231891   1.000000
     35         -5.203147   1.000000
     36         -4.602901   0.522280
     37         -4.590435   0.383336
     38         -4.517886   0.009419
     39         -4.159974   0.000000
     40         -3.529107   0.000000
     41         -2.391675   0.000000
     42         -1.864051   0.000000
     43         -1.860384   0.000000
     44         -1.281220   0.000000
     45         -1.233995   0.000000
     46         -1.211356   0.000000
     47         -1.096543   0.000000
     48         -1.081692   0.000000
     49         -0.811626   0.000000
     50         -0.806622   0.000000
     51         -0.372447   0.000000
     52          0.257294   0.000000
     53          0.800131   0.000000
     54          0.893273   0.000000
     55          0.946749   0.000000
     56          1.185607   0.000000
     57          1.244391   0.000000
     58          1.388626   0.000000
     59          1.412181   0.000000
     60          1.965212   0.000000
     61          1.979756   0.000000
     62          2.051566   0.000000
     63          2.138136   0.000000
     64          2.203638   0.000000
     65          2.234075   0.000000
     66          2.657731   0.000000
     67          2.676554   0.000000
     68          2.802223   0.000000
     69          2.809960   0.000000
     70          3.087512   0.000000
     71          3.093252   0.000000
     72          3.326750   0.000000
     73          3.346764   0.000000
     74          3.392958   0.000000
     75          3.416110   0.000000
     76          3.450447   0.000000
     77          3.485156   0.000000
     78          3.516013   0.000000
     79          3.529372   0.000000
     80          3.586814   0.000000
     81          3.639963   0.000000
     82          3.678633   0.000000
     83          3.685480   0.000000
     84          3.741325   0.000000
     85          3.744128   0.000000
     86          3.978182   0.000000
     87          4.115623   0.000000
     88          4.119010   0.000000
     89          4.122781   0.000000
     90          4.179709   0.000000
     91          4.192558   0.000000
     92          4.202581   0.000000
     93          4.273062   0.000000
     94          4.375806   0.000000
     95          4.385242   0.000000
     96          4.391149   0.000000
     97          4.608176   0.000000
     98          4.716779   0.000000
     99          4.816892   0.000000
    100          4.823827   0.000000
    101          4.875686   0.000000
    102          4.880307   0.000000
    103          5.088005   0.000000
    104          5.129582   0.000000
    105          5.350609   0.000000
    106          5.415817   0.000000
    107          5.471565   0.000000
    108          5.539336   0.000000
    109          5.550116   0.000000
    110          5.585572   0.000000
    111          5.719245   0.000000
    112          5.728587   0.000000
    113          5.758290   0.000000
    114          5.760966   0.000000
    115          5.867106   0.000000
    116          6.019372   0.000000
    117          6.047360   0.000000
    118          6.417914   0.000000
    119          6.444306   0.000000
    120          6.463412   0.000000
    121          6.518995   0.000000
    122          6.600850   0.000000
    123          6.662455   0.000000
    124          6.679067   0.000000
    125          6.686725   0.000000
    126          6.697158   0.000000
    127          6.713576   0.000000
    128          6.774512   0.000000
    129          6.821085   0.000000
    130          6.837380   0.000000
    131          7.025138   0.000000
    132          7.031004   0.000000
    133          7.142950   0.000000
    134          7.147958   0.000000
    135          7.216981   0.000000
    136          7.249605   0.000000
    137          7.250081   0.000000
    138          7.313254   0.000000
    139          7.316723   0.000000
    140          7.384790   0.000000
    141          7.415626   0.000000
    142          7.436766   0.000000
    143          7.482314   0.000000
    144          7.506264   0.000000
    145          7.542400   0.000000
    146          7.555649   0.000000
    147          7.623042   0.000000
    148          7.629675   0.000000
    149          7.722001   0.000000
    150          7.731579   0.000000
    151          7.882560   0.000000
    152          7.889935   0.000000
    153          7.965192   0.000000
    154          8.003486   0.000000
    155          8.109505   0.000000
    156          8.131082   0.000000
    157          8.245301   0.000000
    158          8.258832   0.000000
    159          8.333427   0.000000
    160          8.367058   0.000000
    161          8.379750   0.000000
    162          8.531518   0.000000
    163          8.575548   0.000000
    164          8.579698   0.000000
    165          8.656564   0.000000
    166          8.663237   0.000000
    167          8.721911   0.000000
    168          8.722336   0.000000
 
 -0.2727273E+00  0.2727273E+00  0.1276756E-14  0.1652893E-01
      1        -13.819417   1.000000
      2        -12.706165   1.000000
      3        -12.700068   1.000000
      4        -11.694987   1.000000
      5        -11.572469   1.000000
      6        -10.560706   1.000000
      7        -10.520241   1.000000
      8        -10.083305   1.000000
      9        -10.076485   1.000000
     10         -9.991242   1.000000
     11         -9.368921   1.000000
     12         -8.941872   1.000000
     13         -8.927434   1.000000
     14         -8.878494   1.000000
     15         -8.812867   1.000000
     16         -8.034993   1.000000
     17         -7.989668   1.000000
     18         -7.909401   1.000000
     19         -7.698195   1.000000
     20         -7.119174   1.000000
     21         -7.086350   1.000000
     22         -6.911973   1.000000
     23         -6.867891   1.000000
     24         -6.749699   1.000000
     25         -6.696852   1.000000
     26         -6.421542   1.000000
     27         -6.158818   1.000000
     28         -6.144945   1.000000
     29         -5.893240   1.000000
     30         -5.866946   1.000000
     31         -5.761443   1.000000
     32         -5.754655   1.000000
     33         -5.723682   1.000000
     34         -5.231267   1.000000
     35         -5.203910   1.000000
     36         -4.608856   0.588743
     37         -4.590012   0.378777
     38         -4.523923   0.014704
     39         -4.143375   0.000000
     40         -3.525478   0.000000
     41         -2.406310   0.000000
     42         -1.865870   0.000000
     43         -1.859815   0.000000
     44         -1.271029   0.000000
     45         -1.228931   0.000000
     46         -1.217988   0.000000
     47         -1.096638   0.000000
     48         -1.079039   0.000000
     49         -0.812769   0.000000
     50         -0.808091   0.000000
     51         -0.369922   0.000000
     52          0.256416   0.000000
     53          0.800180   0.000000
     54          0.895196   0.000000
     55          0.935532   0.000000
     56          1.194001   0.000000
     57          1.244791   0.000000
     58          1.392017   0.000000
     59          1.407989   0.000000
     60          1.966877   0.000000
     61          1.980251   0.000000
     62          2.050799   0.000000
     63          2.134646   0.000000
     64          2.204105   0.000000
     65          2.234164   0.000000
     66          2.658147   0.000000
     67          2.675985   0.000000
     68          2.803990   0.000000
     69          2.808350   0.000000
     70          3.077071   0.000000
     71          3.102189   0.000000
     72          3.330522   0.000000
     73          3.343066   0.000000
     74          3.403475   0.000000
     75          3.427549   0.000000
     76          3.455195   0.000000
     77          3.470986   0.000000
     78          3.505750   0.000000
     79          3.527265   0.000000
     80          3.591962   0.000000
     81          3.637932   0.000000
     82          3.680280   0.000000
     83          3.684423   0.000000
     84          3.741982   0.000000
     85          3.743821   0.000000
     86          3.975894   0.000000
     87          4.112784   0.000000
     88          4.117408   0.000000
     89          4.134519   0.000000
     90          4.170843   0.000000
     91          4.194836   0.000000
     92          4.202218   0.000000
     93          4.274029   0.000000
     94          4.368208   0.000000
     95          4.388776   0.000000
     96          4.394164   0.000000
     97          4.635091   0.000000
     98          4.685741   0.000000
     99          4.818648   0.000000
    100          4.826150   0.000000
    101          4.875382   0.000000
    102          4.878604   0.000000
    103          5.092920   0.000000
    104          5.129667   0.000000
    105          5.351838   0.000000
    106          5.414432   0.000000
    107          5.472011   0.000000
    108          5.545548   0.000000
    109          5.550495   0.000000
    110          5.574282   0.000000
    111          5.723315   0.000000
    112          5.728490   0.000000
    113          5.757422   0.000000
    114          5.761223   0.000000
    115          5.869053   0.000000
    116          6.018342   0.000000
    117          6.044039   0.000000
    118          6.400103   0.000000
    119          6.440670   0.000000
    120          6.464077   0.000000
    121          6.542266   0.000000
    122          6.600411   0.000000
    123          6.665024   0.000000
    124          6.669707   0.000000
    125          6.680957   0.000000
    126          6.706211   0.000000
    127          6.714001   0.000000
    128          6.773039   0.000000
    129          6.824597   0.000000
    130          6.833399   0.000000
    131          7.022976   0.000000
    132          7.032399   0.000000
    133          7.138549   0.000000
    134          7.151027   0.000000
    135          7.222476   0.000000
    136          7.249621   0.000000
    137          7.250542   0.000000
    138          7.313009   0.000000
    139          7.315643   0.000000
    140          7.385351   0.000000
    141          7.420515   0.000000
    142          7.427667   0.000000
    143          7.481363   0.000000
    144          7.508794   0.000000
    145          7.538042   0.000000
    146          7.554987   0.000000
    147          7.625173   0.000000
    148          7.632274   0.000000
    149          7.723743   0.000000
    150          7.727958   0.000000
    151          7.884022   0.000000
    152          7.887825   0.000000
    153          7.969852   0.000000
    154          8.002149   0.000000
    155          8.115883   0.000000
    156          8.131900   0.000000
    157          8.246060   0.000000
    158          8.258878   0.000000
    159          8.328801   0.000000
    160          8.369202   0.000000
    161          8.373149   0.000000
    162          8.538924   0.000000
    163          8.575722   0.000000
    164          8.580044   0.000000
    165          8.656980   0.000000
    166          8.662432   0.000000
    167          8.721990   0.000000
    168          8.722341   0.000000
 
  0.3636364E+00  0.2727273E+00  0.1276756E-14  0.1652893E-01
      1        -13.677088   1.000000
      2        -13.007036   1.000000
      3        -12.558638   1.000000
      4        -11.880286   1.000000
      5        -11.546890   1.000000
      6        -10.851507   1.000000
      7        -10.388445   1.000000
      8         -9.931402   1.000000
      9         -9.854355   1.000000
     10         -9.682094   1.000000
     11         -9.534375   1.000000
     12         -9.237845   1.000000
     13         -9.150856   1.000000
     14         -8.704084   1.000000
     15         -8.372448   1.000000
     16         -8.018674   1.000000
     17         -7.871192   1.000000
     18         -7.774460   1.000000
     19         -7.490293   1.000000
     20         -7.461608   1.000000
     21         -7.175941   1.000000
     22         -7.049078   1.000000
     23         -6.932961   1.000000
     24         -6.719423   1.000000
     25         -6.347395   1.000000
     26         -6.288563   1.000000
     27         -6.220763   1.000000
     28         -6.193513   1.000000
     29         -6.045336   1.000000
     30         -6.004505   1.000000
     31         -5.952012   1.000000
     32         -5.927727   1.000000
     33         -5.609849   1.000000
     34         -5.453912   1.000000
     35         -5.199151   1.000000
     36         -4.901840   1.000000
     37         -4.825984   1.000000
     38         -4.723077   0.999725
     39         -3.736042   0.000000
     40         -3.309768   0.000000
     41         -2.326607   0.000000
     42         -1.700857   0.000000
     43         -1.351139   0.000000
     44         -1.342913   0.000000
     45         -1.309914   0.000000
     46         -1.153190   0.000000
     47         -1.038718   0.000000
     48         -1.019002   0.000000
     49         -0.922811   0.000000
     50         -0.884474   0.000000
     51         -0.074426   0.000000
     52          0.380565   0.000000
     53          0.600647   0.000000
     54          0.969306   0.000000
     55          0.991237   0.000000
     56          1.108847   0.000000
     57          1.211748   0.000000
     58          1.238178   0.000000
     59          1.541118   0.000000
     60          1.769190   0.000000
     61          2.134253   0.000000
     62          2.216242   0.000000
     63          2.376152   0.000000
     64          2.422698   0.000000
     65          2.430316   0.000000
     66          2.456556   0.000000
     67          2.824061   0.000000
     68          2.851375   0.000000
     69          2.881521   0.000000
     70          2.892050   0.000000
     71          3.070938   0.000000
     72          3.151215   0.000000
     73          3.172615   0.000000
     74          3.180046   0.000000
     75          3.264053   0.000000
     76          3.303648   0.000000
     77          3.470228   0.000000
     78          3.506399   0.000000
     79          3.527979   0.000000
     80          3.575945   0.000000
     81          3.615921   0.000000
     82          3.642152   0.000000
     83          3.693899   0.000000
     84          3.748283   0.000000
     85          3.764484   0.000000
     86          3.807285   0.000000
     87          3.848748   0.000000
     88          3.882178   0.000000
     89          3.928013   0.000000
     90          4.106564   0.000000
     91          4.128215   0.000000
     92          4.267343   0.000000
     93          4.276048   0.000000
     94          4.373296   0.000000
     95          4.409685   0.000000
     96          4.454242   0.000000
     97          4.466764   0.000000
     98          4.533305   0.000000
     99          4.562083   0.000000
    100          4.579571   0.000000
    101          4.723121   0.000000
    102          4.774635   0.000000
    103          4.968727   0.000000
    104          5.028070   0.000000
    105          5.064262   0.000000
    106          5.097240   0.000000
    107          5.399462   0.000000
    108          5.407273   0.000000
    109          5.563581   0.000000
    110          5.583077   0.000000
    111          5.697318   0.000000
    112          5.703995   0.000000
    113          5.714435   0.000000
    114          5.870008   0.000000
    115          5.884304   0.000000
    116          6.199512   0.000000
    117          6.236087   0.000000
    118          6.298813   0.000000
    119          6.316600   0.000000
    120          6.337328   0.000000
    121          6.492372   0.000000
    122          6.510006   0.000000
    123          6.653644   0.000000
    124          6.677634   0.000000
    125          6.749694   0.000000
    126          6.765745   0.000000
    127          6.804238   0.000000
    128          6.859086   0.000000
    129          6.902891   0.000000
    130          6.916698   0.000000
    131          7.034982   0.000000
    132          7.069179   0.000000
    133          7.089104   0.000000
    134          7.102785   0.000000
    135          7.152776   0.000000
    136          7.227462   0.000000
    137          7.338258   0.000000
    138          7.426628   0.000000
    139          7.444573   0.000000
    140          7.502472   0.000000
    141          7.558103   0.000000
    142          7.581924   0.000000
    143          7.739659   0.000000
    144          7.754196   0.000000
    145          7.777992   0.000000
    146          7.887497   0.000000
    147          7.909579   0.000000
    148          7.919963   0.000000
    149          7.991676   0.000000
    150          7.998829   0.000000
    151          8.009946   0.000000
    152          8.016980   0.000000
    153          8.086730   0.000000
    154          8.179203   0.000000
    155          8.239192   0.000000
    156          8.258404   0.000000
    157          8.285790   0.000000
    158          8.308657   0.000000
    159          8.365437   0.000000
    160          8.425273   0.000000
    161          8.437439   0.000000
    162          8.463985   0.000000
    163          8.538278   0.000000
    164          8.588794   0.000000
    165          8.600034   0.000000
    166          8.694005   0.000000
    167          8.742670   0.000000
    168          8.847644   0.000000
 
 -0.2727273E+00  0.3636364E+00  0.1276756E-14  0.1652893E-01
      1        -13.677077   1.000000
      2        -13.007026   1.000000
      3        -12.558712   1.000000
      4        -11.880177   1.000000
      5        -11.547160   1.000000
      6        -10.850476   1.000000
      7        -10.390353   1.000000
      8         -9.931485   1.000000
      9         -9.854265   1.000000
     10         -9.680147   1.000000
     11         -9.534431   1.000000
     12         -9.238534   1.000000
     13         -9.149227   1.000000
     14         -8.708779   1.000000
     15         -8.372129   1.000000
     16         -8.005149   1.000000
     17         -7.868048   1.000000
     18         -7.788790   1.000000
     19         -7.491651   1.000000
     20         -7.457172   1.000000
     21         -7.172652   1.000000
     22         -7.060132   1.000000
     23         -6.934329   1.000000
     24         -6.725078   1.000000
     25         -6.340055   1.000000
     26         -6.281710   1.000000
     27         -6.227124   1.000000
     28         -6.167839   1.000000
     29         -6.037599   1.000000
     30         -6.022536   1.000000
     31         -5.963119   1.000000
     32         -5.929770   1.000000
     33         -5.615264   1.000000
     34         -5.440121   1.000000
     35         -5.203280   1.000000
     36         -4.895199   1.000000
     37         -4.834251   1.000000
     38         -4.727580   0.999830
     39         -3.726105   0.000000
     40         -3.309014   0.000000
     41         -2.344015   0.000000
     42         -1.700237   0.000000
     43         -1.358018   0.000000
     44         -1.335735   0.000000
     45         -1.302883   0.000000
     46         -1.151507   0.000000
     47         -1.036948   0.000000
     48         -1.017641   0.000000
     49         -0.925149   0.000000
     50         -0.885204   0.000000
     51         -0.071879   0.000000
     52          0.379883   0.000000
     53          0.601891   0.000000
     54          0.973492   0.000000
     55          0.982012   0.000000
     56          1.115201   0.000000
     57          1.203803   0.000000
     58          1.243673   0.000000
     59          1.540933   0.000000
     60          1.769312   0.000000
     61          2.136109   0.000000
     62          2.215231   0.000000
     63          2.375251   0.000000
     64          2.422692   0.000000
     65          2.430968   0.000000
     66          2.455160   0.000000
     67          2.825171   0.000000
     68          2.851666   0.000000
     69          2.881748   0.000000
     70          2.890268   0.000000
     71          3.081794   0.000000
     72          3.150805   0.000000
     73          3.162761   0.000000
     74          3.186415   0.000000
     75          3.266370   0.000000
     76          3.302479   0.000000
     77          3.467062   0.000000
     78          3.507248   0.000000
     79          3.526608   0.000000
     80          3.555423   0.000000
     81          3.617449   0.000000
     82          3.655915   0.000000
     83          3.707605   0.000000
     84          3.742230   0.000000
     85          3.763675   0.000000
     86          3.803484   0.000000
     87          3.847659   0.000000
     88          3.882216   0.000000
     89          3.928200   0.000000
     90          4.109806   0.000000
     91          4.130987   0.000000
     92          4.267311   0.000000
     93          4.278755   0.000000
     94          4.369418   0.000000
     95          4.402773   0.000000
     96          4.446073   0.000000
     97          4.462870   0.000000
     98          4.533366   0.000000
     99          4.565914   0.000000
    100          4.585410   0.000000
    101          4.723143   0.000000
    102          4.775996   0.000000
    103          4.969653   0.000000
    104          5.026751   0.000000
    105          5.066199   0.000000
    106          5.098209   0.000000
    107          5.399805   0.000000
    108          5.406649   0.000000
    109          5.561654   0.000000
    110          5.584813   0.000000
    111          5.700950   0.000000
    112          5.705729   0.000000
    113          5.710881   0.000000
    114          5.869739   0.000000
    115          5.885092   0.000000
    116          6.192029   0.000000
    117          6.227629   0.000000
    118          6.309066   0.000000
    119          6.324870   0.000000
    120          6.334581   0.000000
    121          6.493303   0.000000
    122          6.509472   0.000000
    123          6.648376   0.000000
    124          6.675873   0.000000
    125          6.750494   0.000000
    126          6.765597   0.000000
    127          6.792417   0.000000
    128          6.861917   0.000000
    129          6.906122   0.000000
    130          6.915997   0.000000
    131          7.032209   0.000000
    132          7.074769   0.000000
    133          7.092003   0.000000
    134          7.108486   0.000000
    135          7.148196   0.000000
    136          7.228159   0.000000
    137          7.339009   0.000000
    138          7.426768   0.000000
    139          7.449565   0.000000
    140          7.502548   0.000000
    141          7.563873   0.000000
    142          7.570534   0.000000
    143          7.739693   0.000000
    144          7.755527   0.000000
    145          7.779770   0.000000
    146          7.888982   0.000000
    147          7.904450   0.000000
    148          7.920614   0.000000
    149          7.991398   0.000000
    150          7.996704   0.000000
    151          8.011777   0.000000
    152          8.025863   0.000000
    153          8.085563   0.000000
    154          8.180674   0.000000
    155          8.235862   0.000000
    156          8.260387   0.000000
    157          8.284613   0.000000
    158          8.308551   0.000000
    159          8.364851   0.000000
    160          8.419726   0.000000
    161          8.437736   0.000000
    162          8.466063   0.000000
    163          8.548550   0.000000
    164          8.587838   0.000000
    165          8.599616   0.000000
    166          8.694905   0.000000
    167          8.741907   0.000000
    168          8.847574   0.000000
 
 -0.3636364E+00  0.2727273E+00  0.1276756E-14  0.1652893E-01
      1        -13.677078   1.000000
      2        -13.007043   1.000000
      3        -12.558698   1.000000
      4        -11.880175   1.000000
      5        -11.546906   1.000000
      6        -10.851147   1.000000
      7        -10.389998   1.000000
      8         -9.932157   1.000000
      9         -9.851730   1.000000
     10         -9.681271   1.000000
     11         -9.535076   1.000000
     12         -9.237168   1.000000
     13         -9.151732   1.000000
     14         -8.707464   1.000000
     15         -8.372030   1.000000
     16         -8.005479   1.000000
     17         -7.873060   1.000000
     18         -7.778649   1.000000
     19         -7.498527   1.000000
     20         -7.464326   1.000000
     21         -7.166511   1.000000
     22         -7.058320   1.000000
     23         -6.936133   1.000000
     24         -6.717134   1.000000
     25         -6.340635   1.000000
     26         -6.281546   1.000000
     27         -6.211301   1.000000
     28         -6.188442   1.000000
     29         -6.033794   1.000000
     30         -6.010784   1.000000
     31         -5.979596   1.000000
     32         -5.928182   1.000000
     33         -5.612255   1.000000
     34         -5.452668   1.000000
     35         -5.195049   1.000000
     36         -4.903057   1.000000
     37         -4.823865   1.000000
     38         -4.730385   0.999875
     39         -3.725855   0.000000
     40         -3.307792   0.000000
     41         -2.341712   0.000000
     42         -1.702277   0.000000
     43         -1.350775   0.000000
     44         -1.340525   0.000000
     45         -1.303636   0.000000
     46         -1.153176   0.000000
     47         -1.040557   0.000000
     48         -1.012591   0.000000
     49         -0.925299   0.000000
     50         -0.885353   0.000000
     51         -0.072653   0.000000
     52          0.379912   0.000000
     53          0.596786   0.000000
     54          0.966887   0.000000
     55          0.986198   0.000000
     56          1.122753   0.000000
     57          1.208564   0.000000
     58          1.237778   0.000000
     59          1.540290   0.000000
     60          1.769766   0.000000
     61          2.133361   0.000000
     62          2.215589   0.000000
     63          2.375077   0.000000
     64          2.421343   0.000000
     65          2.429655   0.000000
     66          2.458628   0.000000
     67          2.824991   0.000000
     68          2.851110   0.000000
     69          2.883769   0.000000
     70          2.889279   0.000000
     71          3.080531   0.000000
     72          3.152263   0.000000
     73          3.161721   0.000000
     74          3.184798   0.000000
     75          3.263958   0.000000
     76          3.302800   0.000000
     77          3.470442   0.000000
     78          3.507621   0.000000
     79          3.531161   0.000000
     80          3.544033   0.000000
     81          3.620562   0.000000
     82          3.663989   0.000000
     83          3.695809   0.000000
     84          3.748247   0.000000
     85          3.765357   0.000000
     86          3.804779   0.000000
     87          3.848599   0.000000
     88          3.882817   0.000000
     89          3.927911   0.000000
     90          4.105487   0.000000
     91          4.120774   0.000000
     92          4.270410   0.000000
     93          4.289266   0.000000
     94          4.371342   0.000000
     95          4.417272   0.000000
     96          4.443746   0.000000
     97          4.467239   0.000000
     98          4.533523   0.000000
     99          4.559810   0.000000
    100          4.574354   0.000000
    101          4.723157   0.000000
    102          4.776259   0.000000
    103          4.969211   0.000000
    104          5.027702   0.000000
    105          5.065503   0.000000
    106          5.098169   0.000000
    107          5.399691   0.000000
    108          5.406238   0.000000
    109          5.560969   0.000000
    110          5.585960   0.000000
    111          5.701078   0.000000
    112          5.705991   0.000000
    113          5.709151   0.000000
    114          5.870345   0.000000
    115          5.884602   0.000000
    116          6.185341   0.000000
    117          6.247341   0.000000
    118          6.302096   0.000000
    119          6.316273   0.000000
    120          6.335813   0.000000
    121          6.493392   0.000000
    122          6.509545   0.000000
    123          6.651261   0.000000
    124          6.673368   0.000000
    125          6.748427   0.000000
    126          6.766673   0.000000
    127          6.797172   0.000000
    128          6.859327   0.000000
    129          6.903782   0.000000
    130          6.916039   0.000000
    131          7.036587   0.000000
    132          7.076467   0.000000
    133          7.091048   0.000000
    134          7.106487   0.000000
    135          7.149271   0.000000
    136          7.227143   0.000000
    137          7.331474   0.000000
    138          7.426499   0.000000
    139          7.449579   0.000000
    140          7.502960   0.000000
    141          7.561745   0.000000
    142          7.573492   0.000000
    143          7.741149   0.000000
    144          7.755045   0.000000
    145          7.781219   0.000000
    146          7.888144   0.000000
    147          7.907097   0.000000
    148          7.920130   0.000000
    149          7.991252   0.000000
    150          8.000955   0.000000
    151          8.013407   0.000000
    152          8.020924   0.000000
    153          8.084135   0.000000
    154          8.181133   0.000000
    155          8.236777   0.000000
    156          8.258746   0.000000
    157          8.286929   0.000000
    158          8.308560   0.000000
    159          8.360542   0.000000
    160          8.417951   0.000000
    161          8.437597   0.000000
    162          8.475805   0.000000
    163          8.539056   0.000000
    164          8.588497   0.000000
    165          8.599348   0.000000
    166          8.693792   0.000000
    167          8.743669   0.000000
    168          8.848390   0.000000
 
  0.2727273E+00  0.3636364E+00  0.1276756E-14  0.1652893E-01
      1        -13.677087   1.000000
      2        -13.007020   1.000000
      3        -12.558647   1.000000
      4        -11.880290   1.000000
      5        -11.547155   1.000000
      6        -10.850805   1.000000
      7        -10.388785   1.000000
      8         -9.930785   1.000000
      9         -9.857807   1.000000
     10         -9.679439   1.000000
     11         -9.534242   1.000000
     12         -9.235968   1.000000
     13         -9.151907   1.000000
     14         -8.706021   1.000000
     15         -8.372137   1.000000
     16         -8.017314   1.000000
     17         -7.875516   1.000000
     18         -7.769927   1.000000
     19         -7.489315   1.000000
     20         -7.456961   1.000000
     21         -7.168008   1.000000
     22         -7.067849   1.000000
     23         -6.930278   1.000000
     24         -6.724185   1.000000
     25         -6.341984   1.000000
     26         -6.284298   1.000000
     27         -6.227616   1.000000
     28         -6.194076   1.000000
     29         -6.043471   1.000000
     30         -5.998764   1.000000
     31         -5.964321   1.000000
     32         -5.921419   1.000000
     33         -5.609242   1.000000
     34         -5.444743   1.000000
     35         -5.203266   1.000000
     36         -4.898947   1.000000
     37         -4.832061   1.000000
     38         -4.722985   0.999722
     39         -3.734549   0.000000
     40         -3.310922   0.000000
     41         -2.330088   0.000000
     42         -1.700515   0.000000
     43         -1.360744   0.000000
     44         -1.332305   0.000000
     45         -1.312164   0.000000
     46         -1.149706   0.000000
     47         -1.040490   0.000000
     48         -1.018061   0.000000
     49         -0.925299   0.000000
     50         -0.881095   0.000000
     51         -0.075163   0.000000
     52          0.380321   0.000000
     53          0.603466   0.000000
     54          0.975327   0.000000
     55          0.985585   0.000000
     56          1.114649   0.000000
     57          1.199496   0.000000
     58          1.244091   0.000000
     59          1.540930   0.000000
     60          1.769313   0.000000
     61          2.134973   0.000000
     62          2.215963   0.000000
     63          2.376023   0.000000
     64          2.423093   0.000000
     65          2.430455   0.000000
     66          2.457455   0.000000
     67          2.824229   0.000000
     68          2.853031   0.000000
     69          2.878940   0.000000
     70          2.891195   0.000000
     71          3.079597   0.000000
     72          3.150156   0.000000
     73          3.164577   0.000000
     74          3.180223   0.000000
     75          3.267120   0.000000
     76          3.304085   0.000000
     77          3.469000   0.000000
     78          3.506898   0.000000
     79          3.521751   0.000000
     80          3.562817   0.000000
     81          3.622576   0.000000
     82          3.675418   0.000000
     83          3.691059   0.000000
     84          3.745504   0.000000
     85          3.767475   0.000000
     86          3.785868   0.000000
     87          3.847534   0.000000
     88          3.882039   0.000000
     89          3.927935   0.000000
     90          4.109544   0.000000
     91          4.128599   0.000000
     92          4.267202   0.000000
     93          4.278187   0.000000
     94          4.367804   0.000000
     95          4.400326   0.000000
     96          4.455507   0.000000
     97          4.462855   0.000000
     98          4.532536   0.000000
     99          4.568662   0.000000
    100          4.584963   0.000000
    101          4.723139   0.000000
    102          4.775104   0.000000
    103          4.968782   0.000000
    104          5.028326   0.000000
    105          5.064748   0.000000
    106          5.097414   0.000000
    107          5.399766   0.000000
    108          5.406433   0.000000
    109          5.563573   0.000000
    110          5.583622   0.000000
    111          5.698116   0.000000
    112          5.704264   0.000000
    113          5.714907   0.000000
    114          5.869161   0.000000
    115          5.884941   0.000000
    116          6.195869   0.000000
    117          6.242740   0.000000
    118          6.300834   0.000000
    119          6.313403   0.000000
    120          6.339552   0.000000
    121          6.490701   0.000000
    122          6.509891   0.000000
    123          6.654301   0.000000
    124          6.675223   0.000000
    125          6.746430   0.000000
    126          6.772679   0.000000
    127          6.797886   0.000000
    128          6.853548   0.000000
    129          6.906054   0.000000
    130          6.917480   0.000000
    131          7.033545   0.000000
    132          7.070256   0.000000
    133          7.089911   0.000000
    134          7.110757   0.000000
    135          7.147953   0.000000
    136          7.227259   0.000000
    137          7.336182   0.000000
    138          7.426609   0.000000
    139          7.449617   0.000000
    140          7.502422   0.000000
    141          7.562581   0.000000
    142          7.575491   0.000000
    143          7.743686   0.000000
    144          7.749561   0.000000
    145          7.778377   0.000000
    146          7.884580   0.000000
    147          7.913763   0.000000
    148          7.921835   0.000000
    149          7.991872   0.000000
    150          7.997921   0.000000
    151          8.010239   0.000000
    152          8.019794   0.000000
    153          8.085517   0.000000
    154          8.180323   0.000000
    155          8.232902   0.000000
    156          8.262950   0.000000
    157          8.286176   0.000000
    158          8.308536   0.000000
    159          8.365076   0.000000
    160          8.418932   0.000000
    161          8.437244   0.000000
    162          8.474656   0.000000
    163          8.535985   0.000000
    164          8.588543   0.000000
    165          8.599419   0.000000
    166          8.694398   0.000000
    167          8.741448   0.000000
    168          8.846745   0.000000
 
  0.4545455E+00  0.2727273E+00  0.1276756E-14  0.1652893E-01
      1        -13.494190   1.000000
      2        -13.270747   1.000000
      3        -12.373242   1.000000
      4        -12.147044   1.000000
      5        -11.360757   1.000000
      6        -11.118486   1.000000
      7        -10.200038   1.000000
      8         -9.959490   1.000000
      9         -9.739278   1.000000
     10         -9.671610   1.000000
     11         -9.505152   1.000000
     12         -9.407368   1.000000
     13         -9.059881   1.000000
     14         -8.525867   1.000000
     15         -8.267307   1.000000
     16         -7.939357   1.000000
     17         -7.864982   1.000000
     18         -7.682994   1.000000
     19         -7.584225   1.000000
     20         -7.442978   1.000000
     21         -7.332408   1.000000
     22         -7.085683   1.000000
     23         -6.870528   1.000000
     24         -6.733007   1.000000
     25         -6.534045   1.000000
     26         -6.481415   1.000000
     27         -6.305350   1.000000
     28         -6.255942   1.000000
     29         -6.170247   1.000000
     30         -5.876965   1.000000
     31         -5.756424   1.000000
     32         -5.649345   1.000000
     33         -5.508443   1.000000
     34         -5.421248   1.000000
     35         -5.179314   1.000000
     36         -5.163853   1.000000
     37         -5.116076   1.000000
     38         -5.020954   1.000000
     39         -3.413180   0.000000
     40         -3.191953   0.000000
     41         -2.453509   0.000000
     42         -1.497420   0.000000
     43         -1.357375   0.000000
     44         -1.270983   0.000000
     45         -1.257983   0.000000
     46         -1.079379   0.000000
     47         -1.066894   0.000000
     48         -1.007328   0.000000
     49         -0.973555   0.000000
     50         -0.945885   0.000000
     51          0.398166   0.000000
     52          0.485036   0.000000
     53          0.571705   0.000000
     54          0.899915   0.000000
     55          1.025486   0.000000
     56          1.090337   0.000000
     57          1.150171   0.000000
     58          1.205921   0.000000
     59          1.474806   0.000000
     60          1.936724   0.000000
     61          1.972456   0.000000
     62          2.306222   0.000000
     63          2.327534   0.000000
     64          2.488714   0.000000
     65          2.579405   0.000000
     66          2.630781   0.000000
     67          2.664939   0.000000
     68          2.823592   0.000000
     69          2.833384   0.000000
     70          2.890994   0.000000
     71          2.939189   0.000000
     72          2.962053   0.000000
     73          2.995227   0.000000
     74          3.014630   0.000000
     75          3.097380   0.000000
     76          3.217959   0.000000
     77          3.264497   0.000000
     78          3.367251   0.000000
     79          3.422507   0.000000
     80          3.443316   0.000000
     81          3.701281   0.000000
     82          3.736510   0.000000
     83          3.746448   0.000000
     84          3.845680   0.000000
     85          3.863967   0.000000
     86          3.900559   0.000000
     87          3.959082   0.000000
     88          3.993158   0.000000
     89          4.040484   0.000000
     90          4.080477   0.000000
     91          4.092400   0.000000
     92          4.133951   0.000000
     93          4.168202   0.000000
     94          4.215904   0.000000
     95          4.373469   0.000000
     96          4.451589   0.000000
     97          4.484841   0.000000
     98          4.575671   0.000000
     99          4.593722   0.000000
    100          4.638109   0.000000
    101          4.755091   0.000000
    102          4.800928   0.000000
    103          4.829176   0.000000
    104          4.860145   0.000000
    105          5.082013   0.000000
    106          5.166316   0.000000
    107          5.193181   0.000000
    108          5.211261   0.000000
    109          5.388568   0.000000
    110          5.413973   0.000000
    111          5.554839   0.000000
    112          5.883870   0.000000
    113          5.924087   0.000000
    114          6.005750   0.000000
    115          6.044566   0.000000
    116          6.081258   0.000000
    117          6.097932   0.000000
    118          6.131118   0.000000
    119          6.195169   0.000000
    120          6.201439   0.000000
    121          6.212644   0.000000
    122          6.383615   0.000000
    123          6.557089   0.000000
    124          6.600489   0.000000
    125          6.734437   0.000000
    126          6.811080   0.000000
    127          6.895006   0.000000
    128          6.936312   0.000000
    129          6.958705   0.000000
    130          6.999427   0.000000
    131          7.036638   0.000000
    132          7.060897   0.000000
    133          7.113975   0.000000
    134          7.128287   0.000000
    135          7.168565   0.000000
    136          7.197484   0.000000
    137          7.218488   0.000000
    138          7.466259   0.000000
    139          7.566022   0.000000
    140          7.663687   0.000000
    141          7.734900   0.000000
    142          7.735728   0.000000
    143          7.864759   0.000000
    144          7.911657   0.000000
    145          7.952276   0.000000
    146          7.958330   0.000000
    147          7.977100   0.000000
    148          7.985357   0.000000
    149          7.996435   0.000000
    150          8.025120   0.000000
    151          8.089690   0.000000
    152          8.101241   0.000000
    153          8.219038   0.000000
    154          8.236289   0.000000
    155          8.270820   0.000000
    156          8.310222   0.000000
    157          8.325197   0.000000
    158          8.349101   0.000000
    159          8.421277   0.000000
    160          8.551937   0.000000
    161          8.649164   0.000000
    162          8.656693   0.000000
    163          8.691822   0.000000
    164          8.743160   0.000000
    165          8.775566   0.000000
    166          8.789665   0.000000
    167          8.898170   0.000000
    168          8.932160   0.000000
 
 -0.2727273E+00  0.4545455E+00  0.1276756E-14  0.1652893E-01
      1        -13.494182   1.000000
      2        -13.270737   1.000000
      3        -12.373324   1.000000
      4        -12.146962   1.000000
      5        -11.362184   1.000000
      6        -11.116463   1.000000
      7        -10.203495   1.000000
      8         -9.954659   1.000000
      9         -9.742407   1.000000
     10         -9.671272   1.000000
     11         -9.508156   1.000000
     12         -9.402562   1.000000
     13         -9.059709   1.000000
     14         -8.533706   1.000000
     15         -8.257394   1.000000
     16         -7.936396   1.000000
     17         -7.865536   1.000000
     18         -7.681697   1.000000
     19         -7.593325   1.000000
     20         -7.437098   1.000000
     21         -7.340836   1.000000
     22         -7.074084   1.000000
     23         -6.868983   1.000000
     24         -6.738193   1.000000
     25         -6.557380   1.000000
     26         -6.475289   1.000000
     27         -6.307826   1.000000
     28         -6.247875   1.000000
     29         -6.168025   1.000000
     30         -5.880582   1.000000
     31         -5.734599   1.000000
     32         -5.658428   1.000000
     33         -5.499892   1.000000
     34         -5.421857   1.000000
     35         -5.191607   1.000000
     36         -5.155603   1.000000
     37         -5.114236   1.000000
     38         -5.030357   1.000000
     39         -3.406785   0.000000
     40         -3.192813   0.000000
     41         -2.465476   0.000000
     42         -1.497307   0.000000
     43         -1.357493   0.000000
     44         -1.285759   0.000000
     45         -1.235383   0.000000
     46         -1.095282   0.000000
     47         -1.051285   0.000000
     48         -1.006218   0.000000
     49         -0.974128   0.000000
     50         -0.949074   0.000000
     51          0.419290   0.000000
     52          0.467712   0.000000
     53          0.572970   0.000000
     54          0.896344   0.000000
     55          1.034592   0.000000
     56          1.086869   0.000000
     57          1.148218   0.000000
     58          1.203727   0.000000
     59          1.475223   0.000000
     60          1.936768   0.000000
     61          1.973630   0.000000
     62          2.306072   0.000000
     63          2.326430   0.000000
     64          2.491019   0.000000
     65          2.579396   0.000000
     66          2.630872   0.000000
     67          2.664716   0.000000
     68          2.819687   0.000000
     69          2.838381   0.000000
     70          2.891947   0.000000
     71          2.940192   0.000000
     72          2.961834   0.000000
     73          2.996000   0.000000
     74          3.012867   0.000000
     75          3.098208   0.000000
     76          3.218864   0.000000
     77          3.272772   0.000000
     78          3.366450   0.000000
     79          3.422249   0.000000
     80          3.431833   0.000000
     81          3.685814   0.000000
     82          3.738412   0.000000
     83          3.751924   0.000000
     84          3.856694   0.000000
     85          3.879106   0.000000
     86          3.900973   0.000000
     87          3.941250   0.000000
     88          3.991112   0.000000
     89          4.062455   0.000000
     90          4.079048   0.000000
     91          4.094379   0.000000
     92          4.137330   0.000000
     93          4.167939   0.000000
     94          4.180413   0.000000
     95          4.373450   0.000000
     96          4.452056   0.000000
     97          4.485457   0.000000
     98          4.580584   0.000000
     99          4.586827   0.000000
    100          4.637925   0.000000
    101          4.755159   0.000000
    102          4.800419   0.000000
    103          4.829536   0.000000
    104          4.868526   0.000000
    105          5.082279   0.000000
    106          5.166838   0.000000
    107          5.195751   0.000000
    108          5.207802   0.000000
    109          5.390101   0.000000
    110          5.414410   0.000000
    111          5.552364   0.000000
    112          5.885711   0.000000
    113          5.924446   0.000000
    114          6.008433   0.000000
    115          6.041118   0.000000
    116          6.082194   0.000000
    117          6.100535   0.000000
    118          6.133091   0.000000
    119          6.195626   0.000000
    120          6.202895   0.000000
    121          6.212046   0.000000
    122          6.383077   0.000000
    123          6.553078   0.000000
    124          6.602009   0.000000
    125          6.731339   0.000000
    126          6.797300   0.000000
    127          6.900674   0.000000
    128          6.936792   0.000000
    129          6.958699   0.000000
    130          6.997180   0.000000
    131          7.041318   0.000000
    132          7.064883   0.000000
    133          7.114438   0.000000
    134          7.132203   0.000000
    135          7.168115   0.000000
    136          7.192105   0.000000
    137          7.222894   0.000000
    138          7.467345   0.000000
    139          7.566180   0.000000
    140          7.663805   0.000000
    141          7.734048   0.000000
    142          7.736476   0.000000
    143          7.863602   0.000000
    144          7.909714   0.000000
    145          7.956324   0.000000
    146          7.958029   0.000000
    147          7.976409   0.000000
    148          7.983230   0.000000
    149          7.997726   0.000000
    150          8.029372   0.000000
    151          8.092248   0.000000
    152          8.098038   0.000000
    153          8.219708   0.000000
    154          8.238196   0.000000
    155          8.273044   0.000000
    156          8.303623   0.000000
    157          8.340821   0.000000
    158          8.347889   0.000000
    159          8.413306   0.000000
    160          8.550385   0.000000
    161          8.648498   0.000000
    162          8.660574   0.000000
    163          8.688116   0.000000
    164          8.742952   0.000000
    165          8.778019   0.000000
    166          8.788124   0.000000
    167          8.896814   0.000000
    168          8.930147   0.000000
 
 -0.4545455E+00  0.2727273E+00  0.1276756E-14  0.1652893E-01
      1        -13.494178   1.000000
      2        -13.270760   1.000000
      3        -12.373304   1.000000
      4        -12.146969   1.000000
      5        -11.360761   1.000000
      6        -11.118424   1.000000
      7        -10.201473   1.000000
      8         -9.957104   1.000000
      9         -9.743478   1.000000
     10         -9.666293   1.000000
     11         -9.507839   1.000000
     12         -9.406558   1.000000
     13         -9.059922   1.000000
     14         -8.529368   1.000000
     15         -8.261875   1.000000
     16         -7.939740   1.000000
     17         -7.865090   1.000000
     18         -7.684071   1.000000
     19         -7.584509   1.000000
     20         -7.443874   1.000000
     21         -7.331374   1.000000
     22         -7.088645   1.000000
     23         -6.872104   1.000000
     24         -6.731676   1.000000
     25         -6.544079   1.000000
     26         -6.470413   1.000000
     27         -6.298034   1.000000
     28         -6.251254   1.000000
     29         -6.173303   1.000000
     30         -5.884568   1.000000
     31         -5.752638   1.000000
     32         -5.656765   1.000000
     33         -5.507387   1.000000
     34         -5.422678   1.000000
     35         -5.174846   1.000000
     36         -5.165032   1.000000
     37         -5.096569   1.000000
     38         -5.040586   1.000000
     39         -3.408269   0.000000
     40         -3.191305   0.000000
     41         -2.460466   0.000000
     42         -1.498478   0.000000
     43         -1.357731   0.000000
     44         -1.276860   0.000000
     45         -1.247476   0.000000
     46         -1.082593   0.000000
     47         -1.065708   0.000000
     48         -1.001657   0.000000
     49         -0.974007   0.000000
     50         -0.948978   0.000000
     51          0.408834   0.000000
     52          0.472135   0.000000
     53          0.571372   0.000000
     54          0.897315   0.000000
     55          1.036392   0.000000
     56          1.085324   0.000000
     57          1.150142   0.000000
     58          1.204609   0.000000
     59          1.475234   0.000000
     60          1.936744   0.000000
     61          1.972648   0.000000
     62          2.303518   0.000000
     63          2.327354   0.000000
     64          2.490664   0.000000
     65          2.579365   0.000000
     66          2.631055   0.000000
     67          2.664836   0.000000
     68          2.823791   0.000000
     69          2.834528   0.000000
     70          2.891329   0.000000
     71          2.939868   0.000000
     72          2.960779   0.000000
     73          2.993941   0.000000
     74          3.013533   0.000000
     75          3.097905   0.000000
     76          3.217076   0.000000
     77          3.272522   0.000000
     78          3.367146   0.000000
     79          3.424669   0.000000
     80          3.429095   0.000000
     81          3.701836   0.000000
     82          3.741909   0.000000
     83          3.747989   0.000000
     84          3.855099   0.000000
     85          3.875404   0.000000
     86          3.896501   0.000000
     87          3.938381   0.000000
     88          3.995067   0.000000
     89          4.016670   0.000000
     90          4.080440   0.000000
     91          4.115068   0.000000
     92          4.148761   0.000000
     93          4.166918   0.000000
     94          4.203642   0.000000
     95          4.373472   0.000000
     96          4.452074   0.000000
     97          4.485182   0.000000
     98          4.583907   0.000000
     99          4.587201   0.000000
    100          4.637033   0.000000
    101          4.755288   0.000000
    102          4.800092   0.000000
    103          4.830657   0.000000
    104          4.859634   0.000000
    105          5.082436   0.000000
    106          5.166650   0.000000
    107          5.194496   0.000000
    108          5.207676   0.000000
    109          5.389677   0.000000
    110          5.414304   0.000000
    111          5.552666   0.000000
    112          5.884187   0.000000
    113          5.924311   0.000000
    114          6.009129   0.000000
    115          6.042274   0.000000
    116          6.080095   0.000000
    117          6.096436   0.000000
    118          6.129957   0.000000
    119          6.197772   0.000000
    120          6.205748   0.000000
    121          6.210919   0.000000
    122          6.382776   0.000000
    123          6.555484   0.000000
    124          6.598196   0.000000
    125          6.734076   0.000000
    126          6.811453   0.000000
    127          6.892268   0.000000
    128          6.936034   0.000000
    129          6.958952   0.000000
    130          7.001308   0.000000
    131          7.039843   0.000000
    132          7.059752   0.000000
    133          7.116613   0.000000
    134          7.128200   0.000000
    135          7.166984   0.000000
    136          7.196641   0.000000
    137          7.218043   0.000000
    138          7.467255   0.000000
    139          7.566511   0.000000
    140          7.663717   0.000000
    141          7.734118   0.000000
    142          7.736057   0.000000
    143          7.861228   0.000000
    144          7.905308   0.000000
    145          7.957703   0.000000
    146          7.964579   0.000000
    147          7.973313   0.000000
    148          7.984184   0.000000
    149          7.996766   0.000000
    150          8.028881   0.000000
    151          8.092807   0.000000
    152          8.099010   0.000000
    153          8.223152   0.000000
    154          8.236106   0.000000
    155          8.272342   0.000000
    156          8.294151   0.000000
    157          8.336262   0.000000
    158          8.353021   0.000000
    159          8.415285   0.000000
    160          8.555490   0.000000
    161          8.648554   0.000000
    162          8.656051   0.000000
    163          8.690104   0.000000
    164          8.741751   0.000000
    165          8.780774   0.000000
    166          8.788609   0.000000
    167          8.897871   0.000000
    168          8.933286   0.000000
 
  0.2727273E+00  0.4545455E+00  0.1276756E-14  0.1652893E-01
      1        -13.494194   1.000000
      2        -13.270725   1.000000
      3        -12.373257   1.000000
      4        -12.147041   1.000000
      5        -11.362197   1.000000
      6        -11.116503   1.000000
      7        -10.202025   1.000000
      8         -9.957053   1.000000
      9         -9.740247   1.000000
     10         -9.674783   1.000000
     11         -9.503638   1.000000
     12         -9.404677   1.000000
     13         -9.060064   1.000000
     14         -8.530847   1.000000
     15         -8.262731   1.000000
     16         -7.935923   1.000000
     17         -7.864531   1.000000
     18         -7.683491   1.000000
     19         -7.586968   1.000000
     20         -7.437501   1.000000
     21         -7.341771   1.000000
     22         -7.075817   1.000000
     23         -6.869223   1.000000
     24         -6.737304   1.000000
     25         -6.543811   1.000000
     26         -6.486956   1.000000
     27         -6.320466   1.000000
     28         -6.250432   1.000000
     29         -6.160370   1.000000
     30         -5.873542   1.000000
     31         -5.732391   1.000000
     32         -5.657302   1.000000
     33         -5.509888   1.000000
     34         -5.417156   1.000000
     35         -5.195288   1.000000
     36         -5.157267   1.000000
     37         -5.111327   1.000000
     38         -5.027230   1.000000
     39         -3.410768   0.000000
     40         -3.193434   0.000000
     41         -2.459275   0.000000
     42         -1.499401   0.000000
     43         -1.356048   0.000000
     44         -1.276335   0.000000
     45         -1.249850   0.000000
     46         -1.081599   0.000000
     47         -1.060099   0.000000
     48         -1.015159   0.000000
     49         -0.970196   0.000000
     50         -0.945856   0.000000
     51          0.413380   0.000000
     52          0.471944   0.000000
     53          0.572710   0.000000
     54          0.900153   0.000000
     55          1.041541   0.000000
     56          1.078575   0.000000
     57          1.146616   0.000000
     58          1.205103   0.000000
     59          1.475087   0.000000
     60          1.936578   0.000000
     61          1.973589   0.000000
     62          2.305640   0.000000
     63          2.326601   0.000000
     64          2.492488   0.000000
     65          2.579344   0.000000
     66          2.630768   0.000000
     67          2.664836   0.000000
     68          2.820146   0.000000
     69          2.838103   0.000000
     70          2.891911   0.000000
     71          2.936377   0.000000
     72          2.963134   0.000000
     73          2.995703   0.000000
     74          3.014036   0.000000
     75          3.097859   0.000000
     76          3.219655   0.000000
     77          3.268763   0.000000
     78          3.366267   0.000000
     79          3.422126   0.000000
     80          3.438338   0.000000
     81          3.688931   0.000000
     82          3.738968   0.000000
     83          3.749658   0.000000
     84          3.853609   0.000000
     85          3.871062   0.000000
     86          3.903988   0.000000
     87          3.960080   0.000000
     88          3.983161   0.000000
     89          4.055244   0.000000
     90          4.077246   0.000000
     91          4.086253   0.000000
     92          4.136662   0.000000
     93          4.164940   0.000000
     94          4.193708   0.000000
     95          4.373458   0.000000
     96          4.452105   0.000000
     97          4.485053   0.000000
     98          4.579398   0.000000
     99          4.588119   0.000000
    100          4.638228   0.000000
    101          4.754868   0.000000
    102          4.801305   0.000000
    103          4.829934   0.000000
    104          4.868072   0.000000
    105          5.082088   0.000000
    106          5.166076   0.000000
    107          5.195736   0.000000
    108          5.208787   0.000000
    109          5.389573   0.000000
    110          5.414086   0.000000
    111          5.553895   0.000000
    112          5.886289   0.000000
    113          5.924373   0.000000
    114          6.007064   0.000000
    115          6.044165   0.000000
    116          6.078909   0.000000
    117          6.103992   0.000000
    118          6.131399   0.000000
    119          6.196621   0.000000
    120          6.201262   0.000000
    121          6.212613   0.000000
    122          6.381914   0.000000
    123          6.556428   0.000000
    124          6.601401   0.000000
    125          6.732642   0.000000
    126          6.797404   0.000000
    127          6.897845   0.000000
    128          6.936785   0.000000
    129          6.961618   0.000000
    130          6.999949   0.000000
    131          7.040506   0.000000
    132          7.056991   0.000000
    133          7.111168   0.000000
    134          7.139550   0.000000
    135          7.166185   0.000000
    136          7.197955   0.000000
    137          7.216828   0.000000
    138          7.467881   0.000000
    139          7.566105   0.000000
    140          7.663762   0.000000
    141          7.734680   0.000000
    142          7.735743   0.000000
    143          7.862709   0.000000
    144          7.909879   0.000000
    145          7.957721   0.000000
    146          7.963879   0.000000
    147          7.973291   0.000000
    148          7.985024   0.000000
    149          7.994308   0.000000
    150          8.026995   0.000000
    151          8.090073   0.000000
    152          8.100025   0.000000
    153          8.223370   0.000000
    154          8.238347   0.000000
    155          8.272266   0.000000
    156          8.307660   0.000000
    157          8.331458   0.000000
    158          8.348653   0.000000
    159          8.416140   0.000000
    160          8.549862   0.000000
    161          8.649358   0.000000
    162          8.653760   0.000000
    163          8.692953   0.000000
    164          8.743900   0.000000
    165          8.778367   0.000000
    166          8.786829   0.000000
    167          8.898871   0.000000
    168          8.925015   0.000000
 
  0.3636364E+00  0.3636364E+00  0.1276756E-14  0.1652893E-01
      1        -13.534462   1.000000
      2        -12.867458   1.000000
      3        -12.858754   1.000000
      4        -12.186634   1.000000
      5        -11.399487   1.000000
      6        -10.728484   1.000000
      7        -10.672435   1.000000
      8         -9.999624   1.000000
      9         -9.709486   1.000000
     10         -9.386496   1.000000
     11         -9.381674   1.000000
     12         -9.053076   1.000000
     13         -8.957810   1.000000
     14         -8.684996   1.000000
     15         -8.680727   1.000000
     16         -8.302567   1.000000
     17         -7.699249   1.000000
     18         -7.352579   1.000000
     19         -7.318263   1.000000
     20         -7.313604   1.000000
     21         -7.297340   1.000000
     22         -7.027424   1.000000
     23         -6.976393   1.000000
     24         -6.638812   1.000000
     25         -6.620582   1.000000
     26         -6.608191   1.000000
     27         -6.552703   1.000000
     28         -6.306989   1.000000
     29         -6.104358   1.000000
     30         -6.088925   1.000000
     31         -5.848490   1.000000
     32         -5.811437   1.000000
     33         -5.545993   1.000000
     34         -5.489193   1.000000
     35         -5.425551   1.000000
     36         -5.136211   1.000000
     37         -5.127301   1.000000
     38         -4.733401   0.999911
     39         -3.360994   0.000000
     40         -3.100184   0.000000
     41         -2.006783   0.000000
     42         -1.488286   0.000000
     43         -1.274563   0.000000
     44         -1.248267   0.000000
     45         -1.188651   0.000000
     46         -1.172203   0.000000
     47         -1.010626   0.000000
     48         -0.999843   0.000000
     49         -0.953876   0.000000
     50         -0.503784   0.000000
     51         -0.154472   0.000000
     52          0.269787   0.000000
     53          0.665997   0.000000
     54          0.700127   0.000000
     55          0.993417   0.000000
     56          1.034499   0.000000
     57          1.156764   0.000000
     58          1.346722   0.000000
     59          1.361689   0.000000
     60          1.930842   0.000000
     61          1.966391   0.000000
     62          2.260386   0.000000
     63          2.337515   0.000000
     64          2.390929   0.000000
     65          2.560279   0.000000
     66          2.612482   0.000000
     67          2.779134   0.000000
     68          2.886465   0.000000
     69          3.008824   0.000000
     70          3.039625   0.000000
     71          3.046280   0.000000
     72          3.150638   0.000000
     73          3.224340   0.000000
     74          3.244943   0.000000
     75          3.259569   0.000000
     76          3.291130   0.000000
     77          3.329233   0.000000
     78          3.420839   0.000000
     79          3.432608   0.000000
     80          3.451959   0.000000
     81          3.453357   0.000000
     82          3.599663   0.000000
     83          3.607429   0.000000
     84          3.717320   0.000000
     85          3.740609   0.000000
     86          3.802159   0.000000
     87          3.880835   0.000000
     88          3.886045   0.000000
     89          3.903028   0.000000
     90          3.919764   0.000000
     91          3.992159   0.000000
     92          4.021824   0.000000
     93          4.025350   0.000000
     94          4.058637   0.000000
     95          4.317485   0.000000
     96          4.384488   0.000000
     97          4.466287   0.000000
     98          4.536188   0.000000
     99          4.593901   0.000000
    100          4.595378   0.000000
    101          4.618476   0.000000
    102          4.666372   0.000000
    103          4.670527   0.000000
    104          4.691744   0.000000
    105          4.699832   0.000000
    106          4.735056   0.000000
    107          5.267715   0.000000
    108          5.343161   0.000000
    109          5.512629   0.000000
    110          5.517343   0.000000
    111          5.523925   0.000000
    112          5.526881   0.000000
    113          5.734511   0.000000
    114          5.805969   0.000000
    115          6.005474   0.000000
    116          6.121883   0.000000
    117          6.285964   0.000000
    118          6.308040   0.000000
    119          6.352808   0.000000
    120          6.367360   0.000000
    121          6.547460   0.000000
    122          6.552983   0.000000
    123          6.569654   0.000000
    124          6.580444   0.000000
    125          6.749089   0.000000
    126          6.768008   0.000000
    127          6.795103   0.000000
    128          6.817910   0.000000
    129          6.925879   0.000000
    130          7.027707   0.000000
    131          7.112908   0.000000
    132          7.129441   0.000000
    133          7.178367   0.000000
    134          7.197229   0.000000
    135          7.302899   0.000000
    136          7.341156   0.000000
    137          7.367878   0.000000
    138          7.659042   0.000000
    139          7.666167   0.000000
    140          7.701951   0.000000
    141          7.707168   0.000000
    142          7.727387   0.000000
    143          7.757745   0.000000
    144          7.865337   0.000000
    145          7.878358   0.000000
    146          7.983193   0.000000
    147          8.174047   0.000000
    148          8.176537   0.000000
    149          8.246766   0.000000
    150          8.255162   0.000000
    151          8.271149   0.000000
    152          8.295536   0.000000
    153          8.330735   0.000000
    154          8.336365   0.000000
    155          8.344500   0.000000
    156          8.555350   0.000000
    157          8.558803   0.000000
    158          8.719541   0.000000
    159          8.727810   0.000000
    160          8.746638   0.000000
    161          8.750696   0.000000
    162          8.840631   0.000000
    163          8.874172   0.000000
    164          8.885692   0.000000
    165          8.921253   0.000000
    166          8.933902   0.000000
    167          8.934852   0.000000
    168          8.958246   0.000000
 
 -0.3636364E+00  0.3636364E+00  0.1276756E-14  0.1652893E-01
      1        -13.534449   1.000000
      2        -12.866266   1.000000
      3        -12.860018   1.000000
      4        -12.186556   1.000000
      5        -11.399478   1.000000
      6        -10.721818   1.000000
      7        -10.680222   1.000000
      8         -9.997456   1.000000
      9         -9.710358   1.000000
     10         -9.387681   1.000000
     11         -9.379991   1.000000
     12         -9.046109   1.000000
     13         -8.968711   1.000000
     14         -8.686340   1.000000
     15         -8.677856   1.000000
     16         -8.298373   1.000000
     17         -7.697827   1.000000
     18         -7.360988   1.000000
     19         -7.325501   1.000000
     20         -7.307811   1.000000
     21         -7.296442   1.000000
     22         -7.025612   1.000000
     23         -6.984283   1.000000
     24         -6.634977   1.000000
     25         -6.623663   1.000000
     26         -6.600269   1.000000
     27         -6.539568   1.000000
     28         -6.307095   1.000000
     29         -6.100670   1.000000
     30         -6.096773   1.000000
     31         -5.850496   1.000000
     32         -5.822701   1.000000
     33         -5.563341   1.000000
     34         -5.454289   1.000000
     35         -5.435124   1.000000
     36         -5.137550   1.000000
     37         -5.123672   1.000000
     38         -4.739042   0.999953
     39         -3.353926   0.000000
     40         -3.098717   0.000000
     41         -2.028493   0.000000
     42         -1.470010   0.000000
     43         -1.271443   0.000000
     44         -1.255403   0.000000
     45         -1.185601   0.000000
     46         -1.173857   0.000000
     47         -1.005759   0.000000
     48         -1.001320   0.000000
     49         -0.957315   0.000000
     50         -0.503735   0.000000
     51         -0.152365   0.000000
     52          0.269137   0.000000
     53          0.669221   0.000000
     54          0.692283   0.000000
     55          0.995325   0.000000
     56          1.037004   0.000000
     57          1.155933   0.000000
     58          1.348860   0.000000
     59          1.359275   0.000000
     60          1.936341   0.000000
     61          1.960547   0.000000
     62          2.259401   0.000000
     63          2.337131   0.000000
     64          2.390477   0.000000
     65          2.559944   0.000000
     66          2.612404   0.000000
     67          2.779125   0.000000
     68          2.890790   0.000000
     69          3.008104   0.000000
     70          3.039235   0.000000
     71          3.049279   0.000000
     72          3.152069   0.000000
     73          3.216297   0.000000
     74          3.243258   0.000000
     75          3.272442   0.000000
     76          3.282499   0.000000
     77          3.323486   0.000000
     78          3.419642   0.000000
     79          3.435382   0.000000
     80          3.451495   0.000000
     81          3.453665   0.000000
     82          3.597925   0.000000
     83          3.607413   0.000000
     84          3.720125   0.000000
     85          3.741953   0.000000
     86          3.802504   0.000000
     87          3.881757   0.000000
     88          3.885126   0.000000
     89          3.914278   0.000000
     90          3.933664   0.000000
     91          3.989803   0.000000
     92          4.021941   0.000000
     93          4.025762   0.000000
     94          4.034222   0.000000
     95          4.317562   0.000000
     96          4.384924   0.000000
     97          4.477417   0.000000
     98          4.529291   0.000000
     99          4.594082   0.000000
    100          4.597329   0.000000
    101          4.615030   0.000000
    102          4.664981   0.000000
    103          4.670462   0.000000
    104          4.691568   0.000000
    105          4.699454   0.000000
    106          4.737257   0.000000
    107          5.268168   0.000000
    108          5.343479   0.000000
    109          5.514788   0.000000
    110          5.516246   0.000000
    111          5.522717   0.000000
    112          5.527216   0.000000
    113          5.732138   0.000000
    114          5.806154   0.000000
    115          6.006933   0.000000
    116          6.122717   0.000000
    117          6.289488   0.000000
    118          6.318168   0.000000
    119          6.327750   0.000000
    120          6.377050   0.000000
    121          6.547846   0.000000
    122          6.551971   0.000000
    123          6.566933   0.000000
    124          6.577951   0.000000
    125          6.743047   0.000000
    126          6.779884   0.000000
    127          6.793559   0.000000
    128          6.814328   0.000000
    129          6.928942   0.000000
    130          7.027825   0.000000
    131          7.096650   0.000000
    132          7.132756   0.000000
    133          7.181554   0.000000
    134          7.210313   0.000000
    135          7.310183   0.000000
    136          7.334689   0.000000
    137          7.357607   0.000000
    138          7.658161   0.000000
    139          7.667817   0.000000
    140          7.700982   0.000000
    141          7.710146   0.000000
    142          7.734905   0.000000
    143          7.753812   0.000000
    144          7.868578   0.000000
    145          7.875913   0.000000
    146          7.984306   0.000000
    147          8.174563   0.000000
    148          8.175907   0.000000
    149          8.252791   0.000000
    150          8.256975   0.000000
    151          8.268646   0.000000
    152          8.292659   0.000000
    153          8.328431   0.000000
    154          8.339549   0.000000
    155          8.342802   0.000000
    156          8.551145   0.000000
    157          8.560586   0.000000
    158          8.719276   0.000000
    159          8.725465   0.000000
    160          8.746527   0.000000
    161          8.750494   0.000000
    162          8.847165   0.000000
    163          8.873464   0.000000
    164          8.886150   0.000000
    165          8.925786   0.000000
    166          8.932235   0.000000
    167          8.935560   0.000000
    168          8.963334   0.000000
 
  0.4545455E+00  0.3636364E+00  0.1276756E-14  0.1652893E-01
      1        -13.351208   1.000000
      2        -13.127360   1.000000
      3        -12.678257   1.000000
      4        -12.452740   1.000000
      5        -11.213007   1.000000
      6        -10.970995   1.000000
      7        -10.509757   1.000000
      8        -10.268437   1.000000
      9         -9.531587   1.000000
     10         -9.271922   1.000000
     11         -9.188778   1.000000
     12         -8.956483   1.000000
     13         -8.904379   1.000000
     14         -8.817385   1.000000
     15         -8.558752   1.000000
     16         -8.183159   1.000000
     17         -7.797566   1.000000
     18         -7.512164   1.000000
     19         -7.284555   1.000000
     20         -7.153526   1.000000
     21         -7.125014   1.000000
     22         -7.107766   1.000000
     23         -6.919522   1.000000
     24         -6.889600   1.000000
     25         -6.862661   1.000000
     26         -6.805359   1.000000
     27         -6.572926   1.000000
     28         -6.192510   1.000000
     29         -6.074988   1.000000
     30         -6.010903   1.000000
     31         -5.947954   1.000000
     32         -5.698157   1.000000
     33         -5.644105   1.000000
     34         -5.460284   1.000000
     35         -5.401757   1.000000
     36         -5.371774   1.000000
     37         -5.166098   1.000000
     38         -4.879370   1.000000
     39         -3.106148   0.000000
     40         -2.987975   0.000000
     41         -1.964273   0.000000
     42         -1.465608   0.000000
     43         -1.280458   0.000000
     44         -1.180479   0.000000
     45         -1.092588   0.000000
     46         -1.029445   0.000000
     47         -0.979647   0.000000
     48         -0.933770   0.000000
     49         -0.902157   0.000000
     50         -0.732445   0.000000
     51          0.250395   0.000000
     52          0.453983   0.000000
     53          0.514832   0.000000
     54          0.778802   0.000000
     55          0.873338   0.000000
     56          0.913324   0.000000
     57          1.004023   0.000000
     58          1.380117   0.000000
     59          1.652098   0.000000
     60          1.778429   0.000000
     61          2.004757   0.000000
     62          2.023047   0.000000
     63          2.178424   0.000000
     64          2.380114   0.000000
     65          2.457858   0.000000
     66          2.689394   0.000000
     67          2.818216   0.000000
     68          2.854115   0.000000
     69          2.912109   0.000000
     70          2.944811   0.000000
     71          2.993495   0.000000
     72          3.085127   0.000000
     73          3.105944   0.000000
     74          3.152332   0.000000
     75          3.251369   0.000000
     76          3.281422   0.000000
     77          3.377271   0.000000
     78          3.419142   0.000000
     79          3.459549   0.000000
     80          3.524979   0.000000
     81          3.541318   0.000000
     82          3.560658   0.000000
     83          3.567372   0.000000
     84          3.676202   0.000000
     85          3.711414   0.000000
     86          3.776607   0.000000
     87          3.781593   0.000000
     88          3.948826   0.000000
     89          3.967730   0.000000
     90          3.972332   0.000000
     91          4.047336   0.000000
     92          4.084392   0.000000
     93          4.096983   0.000000
     94          4.150088   0.000000
     95          4.202722   0.000000
     96          4.211859   0.000000
     97          4.260005   0.000000
     98          4.360514   0.000000
     99          4.392666   0.000000
    100          4.438309   0.000000
    101          4.648212   0.000000
    102          4.763414   0.000000
    103          4.785012   0.000000
    104          4.814783   0.000000
    105          4.831321   0.000000
    106          4.914594   0.000000
    107          5.022345   0.000000
    108          5.034708   0.000000
    109          5.190593   0.000000
    110          5.243430   0.000000
    111          5.545864   0.000000
    112          5.652676   0.000000
    113          5.675311   0.000000
    114          5.796737   0.000000
    115          5.877405   0.000000
    116          5.988496   0.000000
    117          6.004010   0.000000
    118          6.240129   0.000000
    119          6.263311   0.000000
    120          6.444710   0.000000
    121          6.478145   0.000000
    122          6.582419   0.000000
    123          6.630796   0.000000
    124          6.639451   0.000000
    125          6.666517   0.000000
    126          6.731577   0.000000
    127          6.835255   0.000000
    128          6.896567   0.000000
    129          6.948430   0.000000
    130          7.064942   0.000000
    131          7.095673   0.000000
    132          7.166958   0.000000
    133          7.194052   0.000000
    134          7.220171   0.000000
    135          7.260894   0.000000
    136          7.306983   0.000000
    137          7.398235   0.000000
    138          7.464924   0.000000
    139          7.713986   0.000000
    140          7.785687   0.000000
    141          7.833267   0.000000
    142          7.877460   0.000000
    143          7.955534   0.000000
    144          8.015755   0.000000
    145          8.162113   0.000000
    146          8.199657   0.000000
    147          8.351570   0.000000
    148          8.371366   0.000000
    149          8.413273   0.000000
    150          8.449023   0.000000
    151          8.473765   0.000000
    152          8.499460   0.000000
    153          8.587542   0.000000
    154          8.619998   0.000000
    155          8.684515   0.000000
    156          8.700948   0.000000
    157          8.719505   0.000000
    158          8.740603   0.000000
    159          8.741904   0.000000
    160          8.824498   0.000000
    161          8.848616   0.000000
    162          8.863523   0.000000
    163          8.885283   0.000000
    164          8.901950   0.000000
    165          8.958732   0.000000
    166          8.970348   0.000000
    167          8.980781   0.000000
    168          9.073472   0.000000
 
 -0.3636364E+00  0.4545455E+00  0.1276756E-14  0.1652893E-01
      1        -13.351198   1.000000
      2        -13.127349   1.000000
      3        -12.678343   1.000000
      4        -12.452669   1.000000
      5        -11.214221   1.000000
      6        -10.968402   1.000000
      7        -10.513573   1.000000
      8        -10.265547   1.000000
      9         -9.534778   1.000000
     10         -9.265444   1.000000
     11         -9.188921   1.000000
     12         -8.958764   1.000000
     13         -8.904279   1.000000
     14         -8.823674   1.000000
     15         -8.553517   1.000000
     16         -8.183363   1.000000
     17         -7.794559   1.000000
     18         -7.510144   1.000000
     19         -7.283251   1.000000
     20         -7.148852   1.000000
     21         -7.129432   1.000000
     22         -7.119356   1.000000
     23         -6.920157   1.000000
     24         -6.893884   1.000000
     25         -6.868402   1.000000
     26         -6.793325   1.000000
     27         -6.576563   1.000000
     28         -6.167053   1.000000
     29         -6.084172   1.000000
     30         -6.016065   1.000000
     31         -5.951017   1.000000
     32         -5.707345   1.000000
     33         -5.629619   1.000000
     34         -5.475130   1.000000
     35         -5.391616   1.000000
     36         -5.374652   1.000000
     37         -5.160574   1.000000
     38         -4.884099   1.000000
     39         -3.102190   0.000000
     40         -2.987852   0.000000
     41         -1.978456   0.000000
     42         -1.454562   0.000000
     43         -1.282289   0.000000
     44         -1.181195   0.000000
     45         -1.091189   0.000000
     46         -1.030829   0.000000
     47         -0.977346   0.000000
     48         -0.938155   0.000000
     49         -0.900873   0.000000
     50         -0.729381   0.000000
     51          0.250228   0.000000
     52          0.458762   0.000000
     53          0.513749   0.000000
     54          0.774345   0.000000
     55          0.874827   0.000000
     56          0.912367   0.000000
     57          1.004884   0.000000
     58          1.379374   0.000000
     59          1.652735   0.000000
     60          1.778708   0.000000
     61          2.004660   0.000000
     62          2.023441   0.000000
     63          2.176772   0.000000
     64          2.378913   0.000000
     65          2.459812   0.000000
     66          2.689622   0.000000
     67          2.817468   0.000000
     68          2.854021   0.000000
     69          2.920509   0.000000
     70          2.939201   0.000000
     71          3.003044   0.000000
     72          3.080331   0.000000
     73          3.105139   0.000000
     74          3.152025   0.000000
     75          3.251792   0.000000
     76          3.284548   0.000000
     77          3.376297   0.000000
     78          3.418649   0.000000
     79          3.439750   0.000000
     80          3.527014   0.000000
     81          3.547075   0.000000
     82          3.560097   0.000000
     83          3.568814   0.000000
     84          3.674863   0.000000
     85          3.716578   0.000000
     86          3.777926   0.000000
     87          3.784441   0.000000
     88          3.945004   0.000000
     89          3.967786   0.000000
     90          3.971682   0.000000
     91          4.047704   0.000000
     92          4.089784   0.000000
     93          4.101498   0.000000
     94          4.149401   0.000000
     95          4.191178   0.000000
     96          4.211901   0.000000
     97          4.260331   0.000000
     98          4.361659   0.000000
     99          4.385880   0.000000
    100          4.439277   0.000000
    101          4.647895   0.000000
    102          4.766213   0.000000
    103          4.789863   0.000000
    104          4.812731   0.000000
    105          4.831238   0.000000
    106          4.914607   0.000000
    107          5.023156   0.000000
    108          5.034958   0.000000
    109          5.190571   0.000000
    110          5.243367   0.000000
    111          5.544853   0.000000
    112          5.649932   0.000000
    113          5.674696   0.000000
    114          5.799036   0.000000
    115          5.878019   0.000000
    116          5.988940   0.000000
    117          6.006750   0.000000
    118          6.239622   0.000000
    119          6.261843   0.000000
    120          6.443444   0.000000
    121          6.484111   0.000000
    122          6.582311   0.000000
    123          6.631136   0.000000
    124          6.642292   0.000000
    125          6.667641   0.000000
    126          6.736691   0.000000
    127          6.831148   0.000000
    128          6.880245   0.000000
    129          6.943461   0.000000
    130          7.049880   0.000000
    131          7.103648   0.000000
    132          7.166622   0.000000
    133          7.213329   0.000000
    134          7.222716   0.000000
    135          7.258690   0.000000
    136          7.311183   0.000000
    137          7.393955   0.000000
    138          7.464279   0.000000
    139          7.713161   0.000000
    140          7.787264   0.000000
    141          7.833632   0.000000
    142          7.878042   0.000000
    143          7.956476   0.000000
    144          8.014222   0.000000
    145          8.164351   0.000000
    146          8.198305   0.000000
    147          8.352844   0.000000
    148          8.370015   0.000000
    149          8.419819   0.000000
    150          8.445569   0.000000
    151          8.471710   0.000000
    152          8.498879   0.000000
    153          8.585879   0.000000
    154          8.620032   0.000000
    155          8.686763   0.000000
    156          8.700033   0.000000
    157          8.714347   0.000000
    158          8.741551   0.000000
    159          8.743652   0.000000
    160          8.826335   0.000000
    161          8.846120   0.000000
    162          8.863205   0.000000
    163          8.885506   0.000000
    164          8.900765   0.000000
    165          8.958907   0.000000
    166          8.971262   0.000000
    167          8.993436   0.000000
    168          9.074195   0.000000
 
 -0.4545455E+00  0.3636364E+00  0.1276756E-14  0.1652893E-01
      1        -13.351194   1.000000
      2        -13.127370   1.000000
      3        -12.678322   1.000000
      4        -12.452674   1.000000
      5        -11.213046   1.000000
      6        -10.970671   1.000000
      7        -10.511207   1.000000
      8        -10.267053   1.000000
      9         -9.532157   1.000000
     10         -9.269913   1.000000
     11         -9.189599   1.000000
     12         -8.957164   1.000000
     13         -8.904270   1.000000
     14         -8.819869   1.000000
     15         -8.555908   1.000000
     16         -8.183204   1.000000
     17         -7.797769   1.000000
     18         -7.510944   1.000000
     19         -7.285954   1.000000
     20         -7.158971   1.000000
     21         -7.119060   1.000000
     22         -7.108549   1.000000
     23         -6.923625   1.000000
     24         -6.888675   1.000000
     25         -6.875274   1.000000
     26         -6.791461   1.000000
     27         -6.572585   1.000000
     28         -6.141355   1.000000
     29         -6.118050   1.000000
     30         -6.022724   1.000000
     31         -5.944340   1.000000
     32         -5.709119   1.000000
     33         -5.636349   1.000000
     34         -5.455480   1.000000
     35         -5.397114   1.000000
     36         -5.379809   1.000000
     37         -5.157028   1.000000
     38         -4.885648   1.000000
     39         -3.102891   0.000000
     40         -2.987371   0.000000
     41         -1.974499   0.000000
     42         -1.457658   0.000000
     43         -1.280720   0.000000
     44         -1.180434   0.000000
     45         -1.092453   0.000000
     46         -1.029472   0.000000
     47         -0.978862   0.000000
     48         -0.937659   0.000000
     49         -0.901543   0.000000
     50         -0.729843   0.000000
     51          0.250027   0.000000
     52          0.457671   0.000000
     53          0.509792   0.000000
     54          0.775303   0.000000
     55          0.879563   0.000000
     56          0.913123   0.000000
     57          1.002957   0.000000
     58          1.379840   0.000000
     59          1.652464   0.000000
     60          1.778324   0.000000
     61          2.004653   0.000000
     62          2.022984   0.000000
     63          2.176488   0.000000
     64          2.379158   0.000000
     65          2.459907   0.000000
     66          2.689560   0.000000
     67          2.817677   0.000000
     68          2.853692   0.000000
     69          2.919086   0.000000
     70          2.941570   0.000000
     71          2.994185   0.000000
     72          3.082982   0.000000
     73          3.103601   0.000000
     74          3.152085   0.000000
     75          3.252539   0.000000
     76          3.280576   0.000000
     77          3.376499   0.000000
     78          3.421513   0.000000
     79          3.452108   0.000000
     80          3.533416   0.000000
     81          3.542890   0.000000
     82          3.557501   0.000000
     83          3.566318   0.000000
     84          3.675927   0.000000
     85          3.717485   0.000000
     86          3.775731   0.000000
     87          3.781354   0.000000
     88          3.945672   0.000000
     89          3.967731   0.000000
     90          3.971926   0.000000
     91          4.047484   0.000000
     92          4.084167   0.000000
     93          4.095440   0.000000
     94          4.153444   0.000000
     95          4.201069   0.000000
     96          4.208881   0.000000
     97          4.260584   0.000000
     98          4.361207   0.000000
     99          4.394410   0.000000
    100          4.438788   0.000000
    101          4.651916   0.000000
    102          4.760800   0.000000
    103          4.786422   0.000000
    104          4.812274   0.000000
    105          4.831733   0.000000
    106          4.914337   0.000000
    107          5.022929   0.000000
    108          5.034936   0.000000
    109          5.190655   0.000000
    110          5.242400   0.000000
    111          5.545670   0.000000
    112          5.649528   0.000000
    113          5.674530   0.000000
    114          5.798930   0.000000
    115          5.878098   0.000000
    116          5.988857   0.000000
    117          6.006741   0.000000
    118          6.239656   0.000000
    119          6.261992   0.000000
    120          6.444055   0.000000
    121          6.479816   0.000000
    122          6.580104   0.000000
    123          6.619723   0.000000
    124          6.644717   0.000000
    125          6.668375   0.000000
    126          6.736654   0.000000
    127          6.834822   0.000000
    128          6.896802   0.000000
    129          6.946154   0.000000
    130          7.066434   0.000000
    131          7.095017   0.000000
    132          7.151662   0.000000
    133          7.214157   0.000000
    134          7.231192   0.000000
    135          7.253045   0.000000
    136          7.303793   0.000000
    137          7.389801   0.000000
    138          7.466346   0.000000
    139          7.712484   0.000000
    140          7.787108   0.000000
    141          7.834073   0.000000
    142          7.877900   0.000000
    143          7.960180   0.000000
    144          8.012622   0.000000
    145          8.163301   0.000000
    146          8.199000   0.000000
    147          8.352654   0.000000
    148          8.369401   0.000000
    149          8.415632   0.000000
    150          8.449478   0.000000
    151          8.471652   0.000000
    152          8.500673   0.000000
    153          8.589163   0.000000
    154          8.621008   0.000000
    155          8.687497   0.000000
    156          8.701026   0.000000
    157          8.717282   0.000000
    158          8.740111   0.000000
    159          8.742009   0.000000
    160          8.824857   0.000000
    161          8.848709   0.000000
    162          8.863601   0.000000
    163          8.885583   0.000000
    164          8.894184   0.000000
    165          8.958612   0.000000
    166          8.974349   0.000000
    167          8.980884   0.000000
    168          9.073676   0.000000
 
  0.3636364E+00  0.4545455E+00  0.1276756E-14  0.1652893E-01
      1        -13.351213   1.000000
      2        -13.127339   1.000000
      3        -12.678277   1.000000
      4        -12.452736   1.000000
      5        -11.214189   1.000000
      6        -10.968718   1.000000
      7        -10.512132   1.000000
      8        -10.266927   1.000000
      9         -9.534491   1.000000
     10         -9.267219   1.000000
     11         -9.187631   1.000000
     12         -8.956795   1.000000
     13         -8.904813   1.000000
     14         -8.823212   1.000000
     15         -8.556107   1.000000
     16         -8.182701   1.000000
     17         -7.794291   1.000000
     18         -7.511691   1.000000
     19         -7.279772   1.000000
     20         -7.150855   1.000000
     21         -7.127004   1.000000
     22         -7.118376   1.000000
     23         -6.907271   1.000000
     24         -6.895993   1.000000
     25         -6.871678   1.000000
     26         -6.805683   1.000000
     27         -6.578598   1.000000
     28         -6.169296   1.000000
     29         -6.075662   1.000000
     30         -6.016827   1.000000
     31         -5.951828   1.000000
     32         -5.712418   1.000000
     33         -5.621071   1.000000
     34         -5.472317   1.000000
     35         -5.397594   1.000000
     36         -5.374731   1.000000
     37         -5.166167   1.000000
     38         -4.878994   1.000000
     39         -3.105288   0.000000
     40         -2.988456   0.000000
     41         -1.968252   0.000000
     42         -1.463364   0.000000
     43         -1.283721   0.000000
     44         -1.177701   0.000000
     45         -1.092315   0.000000
     46         -1.031202   0.000000
     47         -0.976887   0.000000
     48         -0.936467   0.000000
     49         -0.901557   0.000000
     50         -0.730067   0.000000
     51          0.250518   0.000000
     52          0.455294   0.000000
     53          0.515157   0.000000
     54          0.779213   0.000000
     55          0.879506   0.000000
     56          0.904122   0.000000
     57          1.005347   0.000000
     58          1.379621   0.000000
     59          1.652566   0.000000
     60          1.778421   0.000000
     61          2.004864   0.000000
     62          2.023663   0.000000
     63          2.177382   0.000000
     64          2.379707   0.000000
     65          2.459159   0.000000
     66          2.689564   0.000000
     67          2.817806   0.000000
     68          2.854322   0.000000
     69          2.914548   0.000000
     70          2.940542   0.000000
     71          3.003954   0.000000
     72          3.081036   0.000000
     73          3.106363   0.000000
     74          3.153107   0.000000
     75          3.250005   0.000000
     76          3.283788   0.000000
     77          3.378950   0.000000
     78          3.415231   0.000000
     79          3.452362   0.000000
     80          3.527587   0.000000
     81          3.540361   0.000000
     82          3.562234   0.000000
     83          3.566808   0.000000
     84          3.675755   0.000000
     85          3.708312   0.000000
     86          3.778056   0.000000
     87          3.783750   0.000000
     88          3.947156   0.000000
     89          3.967726   0.000000
     90          3.971466   0.000000
     91          4.047078   0.000000
     92          4.088962   0.000000
     93          4.103940   0.000000
     94          4.152055   0.000000
     95          4.195624   0.000000
     96          4.208108   0.000000
     97          4.260057   0.000000
     98          4.361481   0.000000
     99          4.382265   0.000000
    100          4.439785   0.000000
    101          4.648122   0.000000
    102          4.768043   0.000000
    103          4.785701   0.000000
    104          4.814728   0.000000
    105          4.832498   0.000000
    106          4.914550   0.000000
    107          5.022626   0.000000
    108          5.034835   0.000000
    109          5.190557   0.000000
    110          5.243038   0.000000
    111          5.547206   0.000000
    112          5.651435   0.000000
    113          5.675303   0.000000
    114          5.796787   0.000000
    115          5.877514   0.000000
    116          5.988600   0.000000
    117          6.004707   0.000000
    118          6.240210   0.000000
    119          6.263308   0.000000
    120          6.446478   0.000000
    121          6.479948   0.000000
    122          6.582381   0.000000
    123          6.636892   0.000000
    124          6.642048   0.000000
    125          6.669954   0.000000
    126          6.729920   0.000000
    127          6.831218   0.000000
    128          6.881612   0.000000
    129          6.941392   0.000000
    130          7.061547   0.000000
    131          7.097787   0.000000
    132          7.170033   0.000000
    133          7.198192   0.000000
    134          7.219723   0.000000
    135          7.262588   0.000000
    136          7.316603   0.000000
    137          7.397476   0.000000
    138          7.463831   0.000000
    139          7.714243   0.000000
    140          7.785692   0.000000
    141          7.832130   0.000000
    142          7.878167   0.000000
    143          7.955238   0.000000
    144          8.014657   0.000000
    145          8.162843   0.000000
    146          8.198506   0.000000
    147          8.353729   0.000000
    148          8.370997   0.000000
    149          8.417625   0.000000
    150          8.437771   0.000000
    151          8.480237   0.000000
    152          8.499257   0.000000
    153          8.587682   0.000000
    154          8.620012   0.000000
    155          8.685535   0.000000
    156          8.702352   0.000000
    157          8.720115   0.000000
    158          8.736343   0.000000
    159          8.741646   0.000000
    160          8.825292   0.000000
    161          8.847682   0.000000
    162          8.863103   0.000000
    163          8.886294   0.000000
    164          8.902790   0.000000
    165          8.959020   0.000000
    166          8.969050   0.000000
    167          8.986943   0.000000
    168          9.073404   0.000000
 
  0.4545455E+00  0.4545455E+00  0.1276756E-14  0.1652893E-01
      1        -13.167523   1.000000
      2        -12.947470   1.000000
      3        -12.938715   1.000000
      4        -12.718148   1.000000
      5        -11.027613   1.000000
      6        -10.808533   1.000000
      7        -10.753333   1.000000
      8        -10.535864   1.000000
      9         -9.356651   1.000000
     10         -9.129741   1.000000
     11         -9.035391   1.000000
     12         -8.814916   1.000000
     13         -8.705814   1.000000
     14         -8.701445   1.000000
     15         -8.465312   1.000000
     16         -8.462072   1.000000
     17         -7.619172   1.000000
     18         -7.613258   1.000000
     19         -7.409018   1.000000
     20         -7.397290   1.000000
     21         -7.317072   1.000000
     22         -7.117196   1.000000
     23         -7.054861   1.000000
     24         -6.857075   1.000000
     25         -6.695248   1.000000
     26         -6.673814   1.000000
     27         -6.456664   1.000000
     28         -6.392146   1.000000
     29         -5.986717   1.000000
     30         -5.943592   1.000000
     31         -5.890704   1.000000
     32         -5.875893   1.000000
     33         -5.709847   1.000000
     34         -5.684493   1.000000
     35         -5.618263   1.000000
     36         -5.579301   1.000000
     37         -4.942151   1.000000
     38         -4.838492   1.000000
     39         -2.908838   0.000000
     40         -2.880041   0.000000
     41         -1.654299   0.000000
     42         -1.591269   0.000000
     43         -1.211792   0.000000
     44         -1.195168   0.000000
     45         -1.118920   0.000000
     46         -1.113491   0.000000
     47         -0.814041   0.000000
     48         -0.789673   0.000000
     49         -0.765053   0.000000
     50         -0.649021   0.000000
     51          0.079798   0.000000
     52          0.614653   0.000000
     53          0.624327   0.000000
     54          0.743058   0.000000
     55          0.759468   0.000000
     56          0.866278   0.000000
     57          1.394828   0.000000
     58          1.397209   0.000000
     59          1.603792   0.000000
     60          1.608954   0.000000
     61          1.860138   0.000000
     62          1.898247   0.000000
     63          1.972844   0.000000
     64          2.036827   0.000000
     65          2.156260   0.000000
     66          2.780250   0.000000
     67          2.802019   0.000000
     68          2.859436   0.000000
     69          3.030501   0.000000
     70          3.060645   0.000000
     71          3.066295   0.000000
     72          3.094705   0.000000
     73          3.192265   0.000000
     74          3.223705   0.000000
     75          3.283385   0.000000
     76          3.325007   0.000000
     77          3.325935   0.000000
     78          3.387178   0.000000
     79          3.395310   0.000000
     80          3.452840   0.000000
     81          3.468705   0.000000
     82          3.494655   0.000000
     83          3.536838   0.000000
     84          3.617649   0.000000
     85          3.694983   0.000000
     86          3.747453   0.000000
     87          3.749190   0.000000
     88          3.802157   0.000000
     89          3.806179   0.000000
     90          4.024078   0.000000
     91          4.049951   0.000000
     92          4.096339   0.000000
     93          4.172877   0.000000
     94          4.176269   0.000000
     95          4.319131   0.000000
     96          4.335934   0.000000
     97          4.383522   0.000000
     98          4.404416   0.000000
     99          4.450812   0.000000
    100          4.452866   0.000000
    101          4.571483   0.000000
    102          4.578094   0.000000
    103          4.600999   0.000000
    104          4.639987   0.000000
    105          4.706538   0.000000
    106          4.714001   0.000000
    107          5.041472   0.000000
    108          5.101580   0.000000
    109          5.138964   0.000000
    110          5.324873   0.000000
    111          5.331459   0.000000
    112          5.357299   0.000000
    113          5.359644   0.000000
    114          5.517790   0.000000
    115          5.588018   0.000000
    116          6.106841   0.000000
    117          6.124773   0.000000
    118          6.326521   0.000000
    119          6.334629   0.000000
    120          6.337476   0.000000
    121          6.354985   0.000000
    122          6.484138   0.000000
    123          6.493572   0.000000
    124          6.500250   0.000000
    125          6.898979   0.000000
    126          6.928797   0.000000
    127          6.969751   0.000000
    128          6.988168   0.000000
    129          7.026472   0.000000
    130          7.075691   0.000000
    131          7.107728   0.000000
    132          7.129411   0.000000
    133          7.169956   0.000000
    134          7.212038   0.000000
    135          7.234637   0.000000
    136          7.293614   0.000000
    137          7.333192   0.000000
    138          7.451850   0.000000
    139          7.477299   0.000000
    140          7.567785   0.000000
    141          8.058231   0.000000
    142          8.186383   0.000000
    143          8.205896   0.000000
    144          8.307130   0.000000
    145          8.426701   0.000000
    146          8.456173   0.000000
    147          8.486081   0.000000
    148          8.500478   0.000000
    149          8.560244   0.000000
    150          8.580485   0.000000
    151          8.604528   0.000000
    152          8.616595   0.000000
    153          8.716768   0.000000
    154          8.749790   0.000000
    155          8.754212   0.000000
    156          8.765127   0.000000
    157          8.775035   0.000000
    158          8.929263   0.000000
    159          8.943836   0.000000
    160          9.302962   0.000000
    161          9.303846   0.000000
    162          9.332035   0.000000
    163          9.355580   0.000000
    164          9.368241   0.000000
    165          9.370275   0.000000
    166          9.377677   0.000000
    167          9.433088   0.000000
    168          9.436308   0.000000
 
 -0.4545455E+00  0.4545455E+00  0.1276756E-14  0.1652893E-01
      1        -13.167513   1.000000
      2        -12.946290   1.000000
      3        -12.939970   1.000000
      4        -12.718082   1.000000
      5        -11.027873   1.000000
      6        -10.802456   1.000000
      7        -10.760431   1.000000
      8        -10.534525   1.000000
      9         -9.357090   1.000000
     10         -9.123638   1.000000
     11         -9.044189   1.000000
     12         -8.809966   1.000000
     13         -8.705874   1.000000
     14         -8.702962   1.000000
     15         -8.464810   1.000000
     16         -8.462769   1.000000
     17         -7.619964   1.000000
     18         -7.613130   1.000000
     19         -7.406460   1.000000
     20         -7.396630   1.000000
     21         -7.319828   1.000000
     22         -7.113495   1.000000
     23         -7.061891   1.000000
     24         -6.850128   1.000000
     25         -6.702811   1.000000
     26         -6.676914   1.000000
     27         -6.435060   1.000000
     28         -6.402573   1.000000
     29         -5.982904   1.000000
     30         -5.955645   1.000000
     31         -5.890154   1.000000
     32         -5.877559   1.000000
     33         -5.709624   1.000000
     34         -5.677893   1.000000
     35         -5.618850   1.000000
     36         -5.580644   1.000000
     37         -4.936282   1.000000
     38         -4.844192   1.000000
     39         -2.907701   0.000000
     40         -2.879619   0.000000
     41         -1.677820   0.000000
     42         -1.568359   0.000000
     43         -1.210432   0.000000
     44         -1.196789   0.000000
     45         -1.118535   0.000000
     46         -1.114077   0.000000
     47         -0.812174   0.000000
     48         -0.790561   0.000000
     49         -0.768286   0.000000
     50         -0.646614   0.000000
     51          0.079659   0.000000
     52          0.616303   0.000000
     53          0.621715   0.000000
     54          0.740781   0.000000
     55          0.762506   0.000000
     56          0.866527   0.000000
     57          1.395294   0.000000
     58          1.396768   0.000000
     59          1.603632   0.000000
     60          1.608744   0.000000
     61          1.865884   0.000000
     62          1.892013   0.000000
     63          1.972563   0.000000
     64          2.036471   0.000000
     65          2.157136   0.000000
     66          2.773817   0.000000
     67          2.812425   0.000000
     68          2.858570   0.000000
     69          3.030764   0.000000
     70          3.056297   0.000000
     71          3.061172   0.000000
     72          3.096328   0.000000
     73          3.207068   0.000000
     74          3.217116   0.000000
     75          3.275904   0.000000
     76          3.324852   0.000000
     77          3.326147   0.000000
     78          3.391283   0.000000
     79          3.395060   0.000000
     80          3.459528   0.000000
     81          3.470318   0.000000
     82          3.490317   0.000000
     83          3.531381   0.000000
     84          3.617643   0.000000
     85          3.694931   0.000000
     86          3.748471   0.000000
     87          3.749290   0.000000
     88          3.804438   0.000000
     89          3.806573   0.000000
     90          4.023369   0.000000
     91          4.041390   0.000000
     92          4.102288   0.000000
     93          4.171328   0.000000
     94          4.176773   0.000000
     95          4.324284   0.000000
     96          4.337169   0.000000
     97          4.384819   0.000000
     98          4.398786   0.000000
     99          4.451343   0.000000
    100          4.453439   0.000000
    101          4.570199   0.000000
    102          4.578233   0.000000
    103          4.603107   0.000000
    104          4.638458   0.000000
    105          4.709509   0.000000
    106          4.713054   0.000000
    107          5.033270   0.000000
    108          5.101732   0.000000
    109          5.147918   0.000000
    110          5.321308   0.000000
    111          5.329535   0.000000
    112          5.356702   0.000000
    113          5.359526   0.000000
    114          5.520273   0.000000
    115          5.588397   0.000000
    116          6.109043   0.000000
    117          6.125185   0.000000
    118          6.326954   0.000000
    119          6.332636   0.000000
    120          6.335473   0.000000
    121          6.351887   0.000000
    122          6.485178   0.000000
    123          6.493445   0.000000
    124          6.503850   0.000000
    125          6.911899   0.000000
    126          6.925752   0.000000
    127          6.946394   0.000000
    128          7.001410   0.000000
    129          7.025813   0.000000
    130          7.056021   0.000000
    131          7.113870   0.000000
    132          7.152659   0.000000
    133          7.176851   0.000000
    134          7.212761   0.000000
    135          7.219937   0.000000
    136          7.291674   0.000000
    137          7.331648   0.000000
    138          7.454180   0.000000
    139          7.473468   0.000000
    140          7.569804   0.000000
    141          8.055413   0.000000
    142          8.198917   0.000000
    143          8.205586   0.000000
    144          8.292740   0.000000
    145          8.426459   0.000000
    146          8.464247   0.000000
    147          8.486320   0.000000
    148          8.494935   0.000000
    149          8.568284   0.000000
    150          8.580924   0.000000
    151          8.604627   0.000000
    152          8.613759   0.000000
    153          8.715046   0.000000
    154          8.747104   0.000000
    155          8.752907   0.000000
    156          8.770087   0.000000
    157          8.773259   0.000000
    158          8.931955   0.000000
    159          8.944051   0.000000
    160          9.303343   0.000000
    161          9.304255   0.000000
    162          9.326921   0.000000
    163          9.359687   0.000000
    164          9.361684   0.000000
    165          9.371333   0.000000
    166          9.375825   0.000000
    167          9.434156   0.000000
    168          9.436467   0.000000
