 running   42 mpi-ranks, on    1 nodes
 distrk:  each k-point on   42 cores,    1 groups
 distr:  one band on    1 cores,   42 groups
 vasp.6.5.0 16Dec24 (build Jan 08 2025 16:17:04) complex                        
  
 POSCAR found type information on POSCAR Be
 POSCAR found :  1 types and       2 ions
 Reading from existing POTCAR
 scaLAPACK will be used
 -----------------------------------------------------------------------------
|                                                                             |
|           W    W    AA    RRRRR   N    N  II  N    N   GGGG   !!!           |
|           W    W   A  A   R    R  NN   N  II  NN   N  G    G  !!!           |
|           W    W  A    A  R    R  N N  N  II  N N  N  G       !!!           |
|           W WW W  AAAAAA  RRRRR   N  N N  II  N  N N  G  GGG   !            |
|           WW  WW  A    A  R   R   N   NN  II  N   NN  G    G                |
|           W    W  A    A  R    R  N    N  II  N    N   GGGG   !!!           |
|                                                                             |
|     For optimal performance we recommend to set                             |
|       NCORE = 2 up to number-of-cores-per-socket                            |
|     NCORE specifies how many cores store one orbital (NPAR=cpu/NCORE).      |
|     This setting can greatly improve the performance of VASP for DFT.       |
|     The default, NCORE=1 might be grossly inefficient on modern             |
|     multi-core architectures or massively parallel machines. Do your        |
|     own testing! More info at https://www.vasp.at/wiki/index.php/NCORE      |
|     Unfortunately you need to use the default for GW and RPA                |
|     calculations (for HF NCORE is supported but not extensively tested      |
|     yet).                                                                   |
|                                                                             |
 -----------------------------------------------------------------------------

 Reading from existing POTCAR
 LDA part: xc-table for (Slater+PW92), standard interpolation
 POSCAR, INCAR and KPOINTS ok, starting setup
 FFT: planning ... GRIDC
 FFT: planning ... GRID_SOFT
 FFT: planning ... GRID
 WAVECAR not read
 entering main loop
       N       E                     dE             d eps       ncg     rms          rms(c)
DAV:   1     0.403647846611E+01    0.40365E+01   -0.11012E+03  7140   0.581E+01
DAV:   2    -0.326252632867E+01   -0.72990E+01   -0.69405E+01 10374   0.661E+00
DAV:   3    -0.332758792742E+01   -0.65062E-01   -0.64829E-01  8316   0.844E-01
DAV:   4    -0.332781537092E+01   -0.22744E-03   -0.22744E-03 13398   0.538E-02
DAV:   5    -0.332781538842E+01   -0.17500E-07   -0.16824E-07  8148   0.462E-04    0.182E+00
DAV:   6    -0.321957739933E+01    0.10824E+00   -0.40361E-02 11214   0.135E-01    0.103E+00
DAV:   7    -0.315105152827E+01    0.68526E-01   -0.76986E-02 11172   0.175E-01    0.128E-01
DAV:   8    -0.314645835845E+01    0.45932E-02   -0.55774E-03 11340   0.560E-02    0.891E-02
DAV:   9    -0.314704977016E+01   -0.59141E-03   -0.18844E-04 10122   0.167E-02    0.301E-02
DAV:  10    -0.314826960265E+01   -0.12198E-02   -0.84021E-04 10248   0.215E-02    0.129E-02
DAV:  11    -0.314880102749E+01   -0.53142E-03   -0.50497E-05 10248   0.760E-03    0.710E-03
DAV:  12    -0.314920700886E+01   -0.40598E-03   -0.52279E-05 10584   0.452E-03    0.384E-03
DAV:  13    -0.314948434255E+01   -0.27733E-03   -0.38129E-05 10038   0.277E-03    0.207E-03
DAV:  14    -0.314954444593E+01   -0.60103E-04   -0.49675E-06 10794   0.117E-03    0.941E-04
DAV:  15    -0.314960948202E+01   -0.65036E-04   -0.10153E-05 10584   0.960E-04    0.459E-04
DAV:  16    -0.314962380662E+01   -0.14325E-04   -0.11382E-06 11046   0.309E-04    0.335E-04
DAV:  17    -0.314962709517E+01   -0.32886E-05   -0.20702E-07 10626   0.211E-04    0.145E-04
DAV:  18    -0.314962928626E+01   -0.21911E-05   -0.63383E-08 10122   0.106E-04    0.451E-05
DAV:  19    -0.314962957524E+01   -0.28898E-06   -0.90352E-10 11172   0.172E-05
   1 F= -.31496296E+01 E0= -.31485080E+01  d E =-.314963E+01
 curvature:   0.00 expect dE= 0.000E+00 dE for cont linesearch  0.000E+00
 trial: gam= 0.00000 g(F)=  0.393E-56 g(S)=  0.163E+00 ort = 0.000E+00 (trialstep = 0.100E+01)
 search vector abs. value=  0.163E+00
 bond charge predicted
       N       E                     dE             d eps       ncg     rms          rms(c)
DAV:   1    -0.327931061510E+01   -0.12968E+00   -0.65520E-01 11340   0.924E-01    0.302E-01
DAV:   2    -0.327721936992E+01    0.20912E-02   -0.11776E-03  9870   0.395E-02    0.191E-01
DAV:   3    -0.327572366850E+01    0.14957E-02   -0.13946E-03 11592   0.279E-02    0.178E-02
DAV:   4    -0.327576758738E+01   -0.43919E-04   -0.35449E-05 10458   0.521E-03    0.498E-03
DAV:   5    -0.327577973554E+01   -0.12148E-04   -0.46537E-06 10458   0.177E-03    0.180E-03
DAV:   6    -0.327578648206E+01   -0.67465E-05   -0.21940E-06 11340   0.103E-03    0.224E-04
DAV:   7    -0.327578824764E+01   -0.17656E-05   -0.11789E-07 11130   0.144E-04    0.153E-04
DAV:   8    -0.327579061900E+01   -0.23714E-05   -0.33102E-07 11424   0.164E-04    0.884E-05
DAV:   9    -0.327579168997E+01   -0.10710E-05   -0.22969E-07 11004   0.115E-04    0.303E-05
DAV:  10    -0.327579174551E+01   -0.55541E-07    0.39172E-10 11676   0.166E-05
   2 F= -.32757917E+01 E0= -.32747050E+01  d E =-.126162E+00
 trial-energy change:   -0.126162  1 .order   -0.121621   -0.162587   -0.080655
 step:   1.6374(harm=  1.9844)  dis= 0.00000  next Energy=    -3.302671 (dE=-0.153E+00)
 bond charge predicted
       N       E                     dE             d eps       ncg     rms          rms(c)
DAV:   1    -0.330838127411E+01   -0.32590E-01   -0.28158E-01 10836   0.619E-01    0.191E-01
DAV:   2    -0.330753770882E+01    0.84357E-03   -0.44967E-04  9156   0.251E-02    0.121E-01
DAV:   3    -0.330695589523E+01    0.58181E-03   -0.46205E-04  9912   0.197E-02    0.794E-03
DAV:   4    -0.330696137740E+01   -0.54822E-05   -0.92889E-06 11214   0.279E-03    0.306E-03
DAV:   5    -0.330696236505E+01   -0.98765E-06   -0.20697E-06 11718   0.119E-03
   3 F= -.33069624E+01 E0= -.33058508E+01  d E =-.157333E+00
 curvature:  -0.87 expect dE=-0.558E-03 dE for cont linesearch -0.558E-03
 ZBRENT: extrapolating
 opt :   1.7298  next Energy=    -3.307435 (dE=-0.158E+00)
 bond charge predicted
       N       E                     dE             d eps       ncg     rms          rms(c)
DAV:   1    -0.330748772049E+01   -0.52634E-03   -0.60199E-03 11886   0.896E-02    0.290E-02
DAV:   2    -0.330746871281E+01    0.19008E-04   -0.11633E-05  8778   0.431E-03    0.183E-02
DAV:   3    -0.330745783971E+01    0.10873E-04   -0.10668E-05 10248   0.300E-03    0.119E-03
DAV:   4    -0.330745827378E+01   -0.43407E-06   -0.18728E-07 10626   0.411E-04
   4 F= -.33074583E+01 E0= -.33062514E+01  d E =-.157829E+00
 curvature:  -0.74 expect dE=-0.101E-05 dE for cont linesearch -0.101E-05
 ZBRENT: bracketing found
 ZBRENT: interpolating
 opt :   1.7257  next Energy=    -3.307459 (dE=-0.158E+00)
 bond charge predicted
       N       E                     dE             d eps       ncg     rms          rms(c)
DAV:   1    -0.330745981468E+01   -0.19750E-05   -0.12307E-05 11088   0.402E-03    0.132E-03
DAV:   2    -0.330745991275E+01   -0.98070E-07   -0.43779E-08 10626   0.250E-04
   5 F= -.33074599E+01 E0= -.33062577E+01  d E =-.157830E+00
 curvature:  -0.70 expect dE=-0.888E-09 dE for cont linesearch -0.888E-09
 trial: gam= 0.00000 g(F)=  0.363E-52 g(S)=  0.126E-08 ort =-0.143E-04 (trialstep = 0.115E+01)
 search vector abs. value=  0.136E-08
 reached required accuracy - stopping structural energy minimisation
