       N       E                     dE             d eps       ncg     rms          rms(c)
DAV:   1     0.733183083973E+01    0.73318E+01   -0.13061E+03 32310   0.696E+01
DAV:   2    -0.642009853778E+01   -0.13752E+02   -0.12821E+02 40362   0.210E+01
DAV:   3    -0.680850934661E+01   -0.38841E+00   -0.38635E+00 41532   0.289E+00
DAV:   4    -0.680966905467E+01   -0.11597E-02   -0.11596E-02 38364   0.154E-01
DAV:   5    -0.680967289681E+01   -0.38421E-05   -0.38421E-05 39702   0.834E-03
DAV:   6    -0.680967291801E+01   -0.21199E-07   -0.21105E-07 37803   0.606E-04
   1 F= -.71888440E+01 E0= -.71874855E+01  d E =-.271708E-02
