       N       E                     dE             d eps       ncg     rms          rms(c)
DAV:   1     0.931366402331E+00    0.93137E+00   -0.16188E+03 19404   0.686E+01
DAV:   2    -0.684563451306E+01   -0.77770E+01   -0.69512E+01 28182   0.970E+00
DAV:   3    -0.686982610866E+01   -0.24192E-01   -0.24192E-01 20622   0.629E-01
DAV:   4    -0.686988554806E+01   -0.59439E-04   -0.59440E-04 36162   0.334E-02
DAV:   5    -0.686988555180E+01   -0.37433E-08   -0.37545E-08 20958   0.222E-04    0.267E+00
DAV:   6    -0.617597509575E+01    0.69391E+00   -0.10280E+00 27636   0.493E-01    0.132E+00
DAV:   7    -0.592206101804E+01    0.25391E+00   -0.10086E+00 27846   0.477E-01    0.346E-01
DAV:   8    -0.591109882029E+01    0.10962E-01   -0.38388E-03 32004   0.632E-02    0.112E-01
DAV:   9    -0.590554362344E+01    0.55552E-02   -0.92424E-03 31794   0.440E-02    0.700E-02
DAV:  10    -0.590489072452E+01    0.65290E-03   -0.77302E-03 31122   0.409E-02    0.369E-02
DAV:  11    -0.590613660293E+01   -0.12459E-02   -0.82263E-04 26418   0.202E-02    0.157E-02
DAV:  12    -0.590657263622E+01   -0.43603E-03   -0.12247E-04 27594   0.720E-03    0.967E-03
DAV:  13    -0.590697094145E+01   -0.39831E-03   -0.15407E-04 27174   0.532E-03    0.312E-03
DAV:  14    -0.590716546740E+01   -0.19453E-03   -0.33412E-05 25704   0.225E-03    0.185E-03
DAV:  15    -0.590724263938E+01   -0.77172E-04   -0.84228E-06 26292   0.101E-03    0.691E-04
DAV:  16    -0.590726852653E+01   -0.25887E-04   -0.19057E-06 25872   0.554E-04    0.542E-04
DAV:  17    -0.590727605517E+01   -0.75286E-05   -0.13961E-06 26922   0.402E-04    0.231E-04
DAV:  18    -0.590727961701E+01   -0.35618E-05   -0.16926E-07 25326   0.143E-04    0.755E-05
DAV:  19    -0.590728035126E+01   -0.73425E-06   -0.10587E-08 27930   0.398E-05
   1 F= -.59072804E+01 E0= -.59070445E+01  d E =-.471629E-03
