       N       E                     dE             d eps       ncg     rms          rms(c)
DAV:   1     0.532863950276E+01    0.53286E+01   -0.19738E+03  1736   0.274E+02
DAV:   2    -0.113135826409E+02   -0.16642E+02   -0.14716E+02  2240   0.348E+01
DAV:   3    -0.116350030885E+02   -0.32142E+00   -0.32126E+00  2660   0.731E+00
DAV:   4    -0.116358348882E+02   -0.83180E-03   -0.83180E-03  2660   0.339E-01
DAV:   5    -0.116358351374E+02   -0.24923E-06   -0.24896E-06  2576   0.684E-03
DAV:   6    -0.116358351391E+02   -0.17424E-08   -0.15220E-08  2660   0.401E-04
   1 F= -.11635835E+02 E0= -.11635735E+02  d E =-.201225E-03  mag=     0.0000    -0.0000     0.0000
