   1   1   0   0
  0.2512496E+03  0.2506240E-09  0.2506240E-09  0.4000000E-08  0.5000000E-15
  1.000000000000000E-004
  CAR 
 Convergence                             
     24.68981870    -10.99074785  301     -3.79315289      1.00000000
    -10.991  0.0000E+00  0.0000E+00
    -10.872  0.0000E+00  0.0000E+00
    -10.753  0.0000E+00  0.0000E+00
    -10.634  0.0000E+00  0.0000E+00
    -10.515  0.0000E+00  0.0000E+00
    -10.396  0.0000E+00  0.0000E+00
    -10.277  0.0000E+00  0.0000E+00
    -10.158  0.0000E+00  0.0000E+00
    -10.039  0.0000E+00  0.0000E+00
     -9.920  0.0000E+00  0.0000E+00
     -9.801  0.0000E+00  0.0000E+00
     -9.682  0.0000E+00  0.0000E+00
     -9.564  0.3710E-09  0.4413E-10
     -9.445  0.5642E-03  0.6710E-04
     -9.326  0.1241E+00  0.1482E-01
     -9.207  0.3204E+00  0.5293E-01
     -9.088  0.3271E+00  0.9183E-01
     -8.969  0.3606E+00  0.1347E+00
     -8.850  0.3224E+00  0.1731E+00
     -8.731  0.3029E+00  0.2091E+00
     -8.612  0.3565E+00  0.2515E+00
     -8.493  0.3296E+00  0.2907E+00
     -8.374  0.3159E+00  0.3282E+00
     -8.255  0.3633E+00  0.3715E+00
     -8.136  0.2705E+00  0.4036E+00
     -8.017  0.4262E+00  0.4543E+00
     -7.898  0.3199E+00  0.4924E+00
     -7.779  0.2625E+00  0.5236E+00
     -7.661  0.4314E+00  0.5749E+00
     -7.542  0.2891E+00  0.6093E+00
     -7.423  0.2908E+00  0.6439E+00
     -7.304  0.4466E+00  0.6970E+00
     -7.185  0.2618E+00  0.7281E+00
     -7.066  0.3404E+00  0.7686E+00
     -6.947  0.3731E+00  0.8130E+00
     -6.828  0.3904E+00  0.8594E+00
     -6.709  0.2783E+00  0.8925E+00
     -6.590  0.2611E+00  0.9236E+00
     -6.471  0.5453E+00  0.9884E+00
     -6.352  0.2645E+00  0.1020E+01
     -6.233  0.2684E+00  0.1052E+01
     -6.114  0.4609E+00  0.1107E+01
     -5.995  0.4169E+00  0.1156E+01
     -5.877  0.2268E+00  0.1183E+01
     -5.758  0.4285E+00  0.1234E+01
     -5.639  0.4822E+00  0.1292E+01
     -5.520  0.2843E+00  0.1325E+01
     -5.401  0.5912E+00  0.1396E+01
     -5.282  0.4144E+00  0.1445E+01
     -5.163  0.3659E+00  0.1488E+01
     -5.044  0.3487E+00  0.1530E+01
     -4.925  0.3103E+00  0.1567E+01
     -4.806  0.2184E+00  0.1593E+01
     -4.687  0.2675E+00  0.1625E+01
     -4.568  0.3063E+00  0.1661E+01
     -4.449  0.2452E+00  0.1690E+01
     -4.330  0.4782E+00  0.1747E+01
     -4.211  0.5167E+00  0.1809E+01
     -4.093  0.5019E+00  0.1868E+01
     -3.974  0.3521E+00  0.1910E+01
     -3.855  0.4761E+00  0.1967E+01
     -3.736  0.5256E+00  0.2029E+01
     -3.617  0.4792E+00  0.2086E+01
     -3.498  0.6664E+00  0.2165E+01
     -3.379  0.6992E+00  0.2249E+01
     -3.260  0.6677E+00  0.2328E+01
     -3.141  0.6432E+00  0.2405E+01
     -3.022  0.8103E+00  0.2501E+01
     -2.903  0.6777E+00  0.2582E+01
     -2.784  0.4890E+00  0.2640E+01
     -2.665  0.7086E+00  0.2724E+01
     -2.546  0.9605E+00  0.2838E+01
     -2.427  0.7055E+00  0.2922E+01
     -2.308  0.5835E+00  0.2992E+01
     -2.190  0.7591E+00  0.3082E+01
     -2.071  0.6943E+00  0.3164E+01
     -1.952  0.8999E+00  0.3271E+01
     -1.833  0.9702E+00  0.3387E+01
     -1.714  0.9566E+00  0.3501E+01
     -1.595  0.6822E+00  0.3582E+01
     -1.476  0.7164E+00  0.3667E+01
     -1.357  0.5703E+00  0.3735E+01
     -1.238  0.7961E+00  0.3829E+01
     -1.119  0.9989E+00  0.3948E+01
     -1.000  0.4835E+00  0.4006E+01
     -0.881  0.4645E+00  0.4061E+01
     -0.762  0.6611E+00  0.4140E+01
     -0.643  0.8076E+00  0.4236E+01
     -0.524  0.4654E+00  0.4291E+01
     -0.406  0.7739E+00  0.4383E+01
     -0.287  0.7149E+00  0.4468E+01
     -0.168  0.1081E+01  0.4597E+01
     -0.049  0.8931E+00  0.4703E+01
      0.070  0.6961E+00  0.4786E+01
      0.189  0.9029E+00  0.4893E+01
      0.308  0.8374E+00  0.4993E+01
      0.427  0.1315E+01  0.5149E+01
      0.546  0.1366E+01  0.5311E+01
      0.665  0.1225E+01  0.5457E+01
      0.784  0.1320E+01  0.5614E+01
      0.903  0.2109E+01  0.5865E+01
      1.022  0.1773E+01  0.6076E+01
      1.141  0.1752E+01  0.6284E+01
      1.260  0.1866E+01  0.6506E+01
      1.379  0.1950E+01  0.6738E+01
      1.497  0.1787E+01  0.6951E+01
      1.616  0.2141E+01  0.7205E+01
      1.735  0.2206E+01  0.7468E+01
      1.854  0.1987E+01  0.7704E+01
      1.973  0.2646E+01  0.8019E+01
      2.092  0.2830E+01  0.8355E+01
      2.211  0.2461E+01  0.8648E+01
      2.330  0.2750E+01  0.8975E+01
      2.449  0.2604E+01  0.9285E+01
      2.568  0.2420E+01  0.9572E+01
      2.687  0.2343E+01  0.9851E+01
      2.806  0.3314E+01  0.1025E+02
      2.925  0.3082E+01  0.1061E+02
      3.044  0.2615E+01  0.1092E+02
      3.163  0.3664E+01  0.1136E+02
      3.281  0.3685E+01  0.1180E+02
      3.400  0.3679E+01  0.1223E+02
      3.519  0.3907E+01  0.1270E+02
      3.638  0.3551E+01  0.1312E+02
      3.757  0.3309E+01  0.1352E+02
      3.876  0.4008E+01  0.1399E+02
      3.995  0.3487E+01  0.1441E+02
      4.114  0.4152E+01  0.1490E+02
      4.233  0.3282E+01  0.1529E+02
      4.352  0.4496E+01  0.1583E+02
      4.471  0.3881E+01  0.1629E+02
      4.590  0.3622E+01  0.1672E+02
      4.709  0.3919E+01  0.1718E+02
      4.828  0.4355E+01  0.1770E+02
      4.947  0.4009E+01  0.1818E+02
      5.066  0.3786E+01  0.1863E+02
      5.184  0.4004E+01  0.1911E+02
      5.303  0.4179E+01  0.1960E+02
      5.422  0.4445E+01  0.2013E+02
      5.541  0.4072E+01  0.2062E+02
      5.660  0.5434E+01  0.2126E+02
      5.779  0.4169E+01  0.2176E+02
      5.898  0.4245E+01  0.2226E+02
      6.017  0.4197E+01  0.2276E+02
      6.136  0.5162E+01  0.2338E+02
      6.255  0.5523E+01  0.2403E+02
      6.374  0.4641E+01  0.2458E+02
      6.493  0.3993E+01  0.2506E+02
      6.612  0.4499E+01  0.2559E+02
      6.731  0.4766E+01  0.2616E+02
      6.850  0.5038E+01  0.2676E+02
      6.968  0.4593E+01  0.2731E+02
      7.087  0.5637E+01  0.2798E+02
      7.206  0.5804E+01  0.2867E+02
      7.325  0.4746E+01  0.2923E+02
      7.444  0.4918E+01  0.2982E+02
      7.563  0.4281E+01  0.3033E+02
      7.682  0.5740E+01  0.3101E+02
      7.801  0.5634E+01  0.3168E+02
      7.920  0.4765E+01  0.3225E+02
      8.039  0.5464E+01  0.3290E+02
      8.158  0.4172E+01  0.3339E+02
      8.277  0.4927E+01  0.3398E+02
      8.396  0.5698E+01  0.3465E+02
      8.515  0.5071E+01  0.3526E+02
      8.634  0.5657E+01  0.3593E+02
      8.752  0.5175E+01  0.3655E+02
      8.871  0.5072E+01  0.3715E+02
      8.990  0.5309E+01  0.3778E+02
      9.109  0.5677E+01  0.3846E+02
      9.228  0.6057E+01  0.3918E+02
      9.347  0.5166E+01  0.3979E+02
      9.466  0.5249E+01  0.4042E+02
      9.585  0.5610E+01  0.4108E+02
      9.704  0.5745E+01  0.4177E+02
      9.823  0.5391E+01  0.4241E+02
      9.942  0.4980E+01  0.4300E+02
     10.061  0.5015E+01  0.4360E+02
     10.180  0.4934E+01  0.4418E+02
     10.299  0.4748E+01  0.4475E+02
     10.418  0.5988E+01  0.4546E+02
     10.537  0.5881E+01  0.4616E+02
     10.655  0.5643E+01  0.4683E+02
     10.774  0.5829E+01  0.4752E+02
     10.893  0.5373E+01  0.4816E+02
     11.012  0.6561E+01  0.4894E+02
     11.131  0.5966E+01  0.4965E+02
     11.250  0.6315E+01  0.5040E+02
     11.369  0.5557E+01  0.5106E+02
     11.488  0.5454E+01  0.5171E+02
     11.607  0.5448E+01  0.5236E+02
     11.726  0.5376E+01  0.5300E+02
     11.845  0.6142E+01  0.5373E+02
     11.964  0.6242E+01  0.5447E+02
     12.083  0.5718E+01  0.5515E+02
     12.202  0.5902E+01  0.5586E+02
     12.321  0.6192E+01  0.5659E+02
     12.439  0.5528E+01  0.5725E+02
     12.558  0.5691E+01  0.5793E+02
     12.677  0.7296E+01  0.5879E+02
     12.796  0.6866E+01  0.5961E+02
     12.915  0.6176E+01  0.6034E+02
     13.034  0.5922E+01  0.6105E+02
     13.153  0.5813E+01  0.6174E+02
     13.272  0.6004E+01  0.6245E+02
     13.391  0.6463E+01  0.6322E+02
     13.510  0.6936E+01  0.6405E+02
     13.629  0.6092E+01  0.6477E+02
     13.748  0.5859E+01  0.6547E+02
     13.867  0.6721E+01  0.6627E+02
     13.986  0.6948E+01  0.6710E+02
     14.105  0.6709E+01  0.6789E+02
     14.224  0.6408E+01  0.6866E+02
     14.342  0.7185E+01  0.6951E+02
     14.461  0.6702E+01  0.7031E+02
     14.580  0.5821E+01  0.7100E+02
     14.699  0.5327E+01  0.7163E+02
     14.818  0.5719E+01  0.7231E+02
     14.937  0.6143E+01  0.7304E+02
     15.056  0.7256E+01  0.7391E+02
     15.175  0.6039E+01  0.7462E+02
     15.294  0.5148E+01  0.7524E+02
     15.413  0.4584E+01  0.7578E+02
     15.532  0.4695E+01  0.7634E+02
     15.651  0.4616E+01  0.7689E+02
     15.770  0.3252E+01  0.7728E+02
     15.889  0.3789E+01  0.7773E+02
     16.008  0.4679E+01  0.7828E+02
     16.126  0.3561E+01  0.7871E+02
     16.245  0.3043E+01  0.7907E+02
     16.364  0.2489E+01  0.7937E+02
     16.483  0.2770E+01  0.7969E+02
     16.602  0.2157E+01  0.7995E+02
     16.721  0.2110E+01  0.8020E+02
     16.840  0.3328E+01  0.8060E+02
     16.959  0.1686E+01  0.8080E+02
     17.078  0.1097E+01  0.8093E+02
     17.197  0.1555E+01  0.8111E+02
     17.316  0.1160E+01  0.8125E+02
     17.435  0.1238E+01  0.8140E+02
     17.554  0.1425E+01  0.8157E+02
     17.673  0.1028E+01  0.8169E+02
     17.792  0.1111E+01  0.8182E+02
     17.911  0.1089E+01  0.8195E+02
     18.029  0.1039E+01  0.8208E+02
     18.148  0.1691E+01  0.8228E+02
     18.267  0.9233E+00  0.8239E+02
     18.386  0.9874E+00  0.8250E+02
     18.505  0.9119E+00  0.8261E+02
     18.624  0.1375E+01  0.8278E+02
     18.743  0.9451E+00  0.8289E+02
     18.862  0.7215E+00  0.8297E+02
     18.981  0.6278E+00  0.8305E+02
     19.100  0.5442E+00  0.8311E+02
     19.219  0.1648E+00  0.8313E+02
     19.338  0.2060E+00  0.8316E+02
     19.457  0.4094E+00  0.8321E+02
     19.576  0.7447E+00  0.8330E+02
     19.695  0.3201E+00  0.8333E+02
     19.813  0.2701E-01  0.8334E+02
     19.932  0.4059E+00  0.8338E+02
     20.051  0.3265E+00  0.8342E+02
     20.170  0.6012E+00  0.8350E+02
     20.289  0.6733E+00  0.8358E+02
     20.408  0.5062E+00  0.8364E+02
     20.527  0.3160E+00  0.8367E+02
     20.646  0.3370E+00  0.8371E+02
     20.765  0.4973E+00  0.8377E+02
     20.884  0.1809E+00  0.8379E+02
     21.003  0.2768E-02  0.8379E+02
     21.122  0.6324E-01  0.8380E+02
     21.241  0.6362E-01  0.8381E+02
     21.360  0.3043E+00  0.8385E+02
     21.479  0.3136E+00  0.8388E+02
     21.598  0.1912E+00  0.8391E+02
     21.716  0.1765E+00  0.8393E+02
     21.835  0.1168E+00  0.8394E+02
     21.954  0.5144E-01  0.8395E+02
     22.073  0.8532E-01  0.8396E+02
     22.192  0.7885E-01  0.8397E+02
     22.311  0.2253E-01  0.8397E+02
     22.430  0.4544E-05  0.8397E+02
     22.549  0.9434E-07  0.8397E+02
     22.668  0.9420E-02  0.8397E+02
     22.787  0.1283E+00  0.8399E+02
     22.906  0.6791E-01  0.8399E+02
     23.025  0.1836E-01  0.8400E+02
     23.144  0.3814E-01  0.8400E+02
     23.263  0.3353E-03  0.8400E+02
     23.382  0.3278E-09  0.8400E+02
     23.500  0.0000E+00  0.8400E+02
     23.619  0.0000E+00  0.8400E+02
     23.738  0.0000E+00  0.8400E+02
     23.857  0.0000E+00  0.8400E+02
     23.976  0.0000E+00  0.8400E+02
     24.095  0.0000E+00  0.8400E+02
     24.214  0.0000E+00  0.8400E+02
     24.333  0.0000E+00  0.8400E+02
     24.452  0.0000E+00  0.8400E+02
     24.571  0.0000E+00  0.8400E+02
     24.690  0.0000E+00  0.8400E+02
