  75  75   0   0
  0.5815868E+02  0.1161076E-08  0.1053976E-08  0.4000000E-08  0.5000000E-15
  1.000000000000000E-004
  CAR 
 Phonopy                                 
      2.65164029    -15.28791251  301     -3.62088637      1.00000000
    -15.288  0.0000E+00  0.0000E+00
    -15.228  0.0000E+00  0.0000E+00
    -15.168  0.0000E+00  0.0000E+00
    -15.109  0.0000E+00  0.0000E+00
    -15.049  0.0000E+00  0.0000E+00
    -14.989  0.0000E+00  0.0000E+00
    -14.929  0.0000E+00  0.0000E+00
    -14.869  0.1485E-15  0.8882E-17
    -14.810  0.1119E-12  0.6701E-14
    -14.750  0.4599E-10  0.2757E-11
    -14.690  0.9519E-08  0.5720E-09
    -14.630  0.1004E-05  0.6060E-07
    -14.570  0.5479E-04  0.3337E-05
    -14.511  0.1577E-02  0.9766E-04
    -14.451  0.2441E-01  0.1557E-02
    -14.391  0.2062E+00  0.1389E-01
    -14.331  0.9658E+00  0.7164E-01
    -14.271  0.2603E+01  0.2273E+00
    -14.212  0.4462E+01  0.4941E+00
    -14.152  0.5751E+01  0.8380E+00
    -14.092  0.6112E+01  0.1204E+01
    -14.032  0.5753E+01  0.1548E+01
    -13.972  0.6148E+01  0.1915E+01
    -13.913  0.6788E+01  0.2321E+01
    -13.853  0.6054E+01  0.2683E+01
    -13.793  0.5178E+01  0.2993E+01
    -13.733  0.5917E+01  0.3347E+01
    -13.673  0.7273E+01  0.3781E+01
    -13.614  0.6998E+01  0.4200E+01
    -13.554  0.5409E+01  0.4523E+01
    -13.494  0.4833E+01  0.4812E+01
    -13.434  0.5895E+01  0.5165E+01
    -13.374  0.7097E+01  0.5589E+01
    -13.315  0.7389E+01  0.6031E+01
    -13.255  0.6756E+01  0.6435E+01
    -13.195  0.5371E+01  0.6756E+01
    -13.135  0.4446E+01  0.7022E+01
    -13.075  0.5560E+01  0.7355E+01
    -13.016  0.7304E+01  0.7791E+01
    -12.956  0.7563E+01  0.8244E+01
    -12.896  0.6924E+01  0.8658E+01
    -12.836  0.6148E+01  0.9025E+01
    -12.776  0.5526E+01  0.9356E+01
    -12.717  0.5138E+01  0.9663E+01
    -12.657  0.5291E+01  0.9979E+01
    -12.597  0.6493E+01  0.1037E+02
    -12.537  0.7486E+01  0.1082E+02
    -12.477  0.7419E+01  0.1126E+02
    -12.418  0.7145E+01  0.1169E+02
    -12.358  0.6318E+01  0.1206E+02
    -12.298  0.4958E+01  0.1236E+02
    -12.238  0.4649E+01  0.1264E+02
    -12.178  0.5890E+01  0.1299E+02
    -12.119  0.7273E+01  0.1343E+02
    -12.059  0.7394E+01  0.1387E+02
    -11.999  0.6677E+01  0.1427E+02
    -11.939  0.6413E+01  0.1465E+02
    -11.879  0.7071E+01  0.1507E+02
    -11.820  0.7355E+01  0.1551E+02
    -11.760  0.6068E+01  0.1588E+02
    -11.700  0.4348E+01  0.1614E+02
    -11.640  0.4193E+01  0.1639E+02
    -11.580  0.6511E+01  0.1678E+02
    -11.521  0.9022E+01  0.1732E+02
    -11.461  0.8660E+01  0.1783E+02
    -11.401  0.7225E+01  0.1827E+02
    -11.341  0.7939E+01  0.1874E+02
    -11.281  0.1032E+02  0.1936E+02
    -11.222  0.1246E+02  0.2010E+02
    -11.162  0.1283E+02  0.2087E+02
    -11.102  0.1136E+02  0.2155E+02
    -11.042  0.1017E+02  0.2216E+02
    -10.982  0.1098E+02  0.2281E+02
    -10.923  0.1314E+02  0.2360E+02
    -10.863  0.1471E+02  0.2448E+02
    -10.803  0.1440E+02  0.2534E+02
    -10.743  0.1272E+02  0.2610E+02
    -10.683  0.1182E+02  0.2681E+02
    -10.624  0.1235E+02  0.2755E+02
    -10.564  0.1252E+02  0.2829E+02
    -10.504  0.1260E+02  0.2905E+02
    -10.444  0.1274E+02  0.2981E+02
    -10.384  0.1149E+02  0.3050E+02
    -10.325  0.1057E+02  0.3113E+02
    -10.265  0.1219E+02  0.3186E+02
    -10.205  0.1456E+02  0.3273E+02
    -10.145  0.1519E+02  0.3364E+02
    -10.085  0.1454E+02  0.3450E+02
    -10.026  0.1399E+02  0.3534E+02
     -9.966  0.1375E+02  0.3616E+02
     -9.906  0.1264E+02  0.3692E+02
     -9.846  0.1158E+02  0.3761E+02
     -9.786  0.1205E+02  0.3833E+02
     -9.727  0.1239E+02  0.3907E+02
     -9.667  0.1223E+02  0.3981E+02
     -9.607  0.1328E+02  0.4060E+02
     -9.547  0.1553E+02  0.4153E+02
     -9.487  0.1691E+02  0.4254E+02
     -9.428  0.1568E+02  0.4348E+02
     -9.368  0.1285E+02  0.4425E+02
     -9.308  0.1126E+02  0.4492E+02
     -9.248  0.1329E+02  0.4571E+02
     -9.188  0.1700E+02  0.4673E+02
     -9.129  0.1889E+02  0.4786E+02
     -9.069  0.1750E+02  0.4891E+02
     -9.009  0.1499E+02  0.4980E+02
     -8.949  0.1400E+02  0.5064E+02
     -8.889  0.1271E+02  0.5140E+02
     -8.830  0.1271E+02  0.5216E+02
     -8.770  0.1666E+02  0.5316E+02
     -8.710  0.2121E+02  0.5442E+02
     -8.650  0.2319E+02  0.5581E+02
     -8.590  0.2273E+02  0.5717E+02
     -8.531  0.1931E+02  0.5833E+02
     -8.471  0.1445E+02  0.5919E+02
     -8.411  0.1183E+02  0.5990E+02
     -8.351  0.1176E+02  0.6060E+02
     -8.291  0.1231E+02  0.6134E+02
     -8.232  0.1222E+02  0.6207E+02
     -8.172  0.1157E+02  0.6276E+02
     -8.112  0.1188E+02  0.6347E+02
     -8.052  0.1417E+02  0.6432E+02
     -7.992  0.1771E+02  0.6538E+02
     -7.933  0.1891E+02  0.6651E+02
     -7.873  0.1580E+02  0.6745E+02
     -7.813  0.1252E+02  0.6820E+02
     -7.753  0.1218E+02  0.6893E+02
     -7.694  0.1181E+02  0.6963E+02
     -7.634  0.9836E+01  0.7022E+02
     -7.574  0.8936E+01  0.7076E+02
     -7.514  0.9922E+01  0.7135E+02
     -7.454  0.1206E+02  0.7207E+02
     -7.395  0.1454E+02  0.7294E+02
     -7.335  0.1463E+02  0.7381E+02
     -7.275  0.1230E+02  0.7455E+02
     -7.215  0.1206E+02  0.7527E+02
     -7.155  0.1435E+02  0.7613E+02
     -7.096  0.1464E+02  0.7700E+02
     -7.036  0.1240E+02  0.7775E+02
     -6.976  0.1015E+02  0.7835E+02
     -6.916  0.8882E+01  0.7888E+02
     -6.856  0.8784E+01  0.7941E+02
     -6.797  0.8798E+01  0.7994E+02
     -6.737  0.8605E+01  0.8045E+02
     -6.677  0.9244E+01  0.8100E+02
     -6.617  0.1021E+02  0.8161E+02
     -6.557  0.1043E+02  0.8224E+02
     -6.498  0.1026E+02  0.8285E+02
     -6.438  0.1165E+02  0.8355E+02
     -6.378  0.1478E+02  0.8443E+02
     -6.318  0.1611E+02  0.8540E+02
     -6.258  0.1530E+02  0.8631E+02
     -6.199  0.1494E+02  0.8720E+02
     -6.139  0.1455E+02  0.8807E+02
     -6.079  0.1485E+02  0.8896E+02
     -6.019  0.1640E+02  0.8994E+02
     -5.959  0.1626E+02  0.9091E+02
     -5.900  0.1419E+02  0.9176E+02
     -5.840  0.1207E+02  0.9248E+02
     -5.780  0.1119E+02  0.9315E+02
     -5.720  0.1315E+02  0.9394E+02
     -5.660  0.1720E+02  0.9497E+02
     -5.601  0.1967E+02  0.9614E+02
     -5.541  0.1916E+02  0.9729E+02
     -5.481  0.1803E+02  0.9837E+02
     -5.421  0.1819E+02  0.9946E+02
     -5.361  0.1858E+02  0.1006E+03
     -5.302  0.1811E+02  0.1016E+03
     -5.242  0.1691E+02  0.1027E+03
     -5.182  0.1482E+02  0.1035E+03
     -5.122  0.1241E+02  0.1043E+03
     -5.062  0.1250E+02  0.1050E+03
     -5.003  0.1641E+02  0.1060E+03
     -4.943  0.2134E+02  0.1073E+03
     -4.883  0.2422E+02  0.1087E+03
     -4.823  0.2297E+02  0.1101E+03
     -4.763  0.1701E+02  0.1111E+03
     -4.704  0.1015E+02  0.1117E+03
     -4.644  0.7825E+01  0.1122E+03
     -4.584  0.9266E+01  0.1128E+03
     -4.524  0.1037E+02  0.1134E+03
     -4.464  0.1231E+02  0.1141E+03
     -4.405  0.1680E+02  0.1151E+03
     -4.345  0.1946E+02  0.1163E+03
     -4.285  0.1882E+02  0.1174E+03
     -4.225  0.1812E+02  0.1185E+03
     -4.165  0.1681E+02  0.1195E+03
     -4.106  0.1393E+02  0.1203E+03
     -4.046  0.1079E+02  0.1210E+03
     -3.986  0.8780E+01  0.1215E+03
     -3.926  0.8941E+01  0.1220E+03
     -3.866  0.9901E+01  0.1226E+03
     -3.807  0.9140E+01  0.1232E+03
     -3.747  0.8293E+01  0.1237E+03
     -3.687  0.9882E+01  0.1243E+03
     -3.627  0.1115E+02  0.1249E+03
     -3.567  0.1013E+02  0.1255E+03
     -3.508  0.8931E+01  0.1261E+03
     -3.448  0.7919E+01  0.1265E+03
     -3.388  0.6614E+01  0.1269E+03
     -3.328  0.6091E+01  0.1273E+03
     -3.268  0.5744E+01  0.1276E+03
     -3.209  0.4871E+01  0.1279E+03
     -3.149  0.5875E+01  0.1283E+03
     -3.089  0.8399E+01  0.1288E+03
     -3.029  0.8775E+01  0.1293E+03
     -2.969  0.7128E+01  0.1297E+03
     -2.910  0.5556E+01  0.1301E+03
     -2.850  0.4601E+01  0.1304E+03
     -2.790  0.4883E+01  0.1306E+03
     -2.730  0.6996E+01  0.1311E+03
     -2.670  0.9178E+01  0.1316E+03
     -2.611  0.8516E+01  0.1321E+03
     -2.551  0.5776E+01  0.1325E+03
     -2.491  0.3883E+01  0.1327E+03
     -2.431  0.3399E+01  0.1329E+03
     -2.371  0.3869E+01  0.1331E+03
     -2.312  0.5233E+01  0.1334E+03
     -2.252  0.6772E+01  0.1339E+03
     -2.192  0.7449E+01  0.1343E+03
     -2.132  0.7532E+01  0.1347E+03
     -2.072  0.7788E+01  0.1352E+03
     -2.013  0.7969E+01  0.1357E+03
     -1.953  0.7531E+01  0.1361E+03
     -1.893  0.7054E+01  0.1366E+03
     -1.833  0.6690E+01  0.1370E+03
     -1.773  0.5725E+01  0.1373E+03
     -1.714  0.5094E+01  0.1376E+03
     -1.654  0.5265E+01  0.1379E+03
     -1.594  0.6441E+01  0.1383E+03
     -1.534  0.9087E+01  0.1389E+03
     -1.474  0.1272E+02  0.1396E+03
     -1.415  0.1846E+02  0.1407E+03
     -1.355  0.2706E+02  0.1423E+03
     -1.295  0.3451E+02  0.1444E+03
     -1.235  0.3333E+02  0.1464E+03
     -1.175  0.2211E+02  0.1477E+03
     -1.116  0.1164E+02  0.1484E+03
     -1.056  0.8243E+01  0.1489E+03
     -0.996  0.7243E+01  0.1493E+03
     -0.936  0.5328E+01  0.1497E+03
     -0.876  0.5344E+01  0.1500E+03
     -0.817  0.8812E+01  0.1505E+03
     -0.757  0.1254E+02  0.1512E+03
     -0.697  0.1463E+02  0.1521E+03
     -0.637  0.1628E+02  0.1531E+03
     -0.577  0.1821E+02  0.1542E+03
     -0.518  0.2158E+02  0.1555E+03
     -0.458  0.2502E+02  0.1570E+03
     -0.398  0.2482E+02  0.1585E+03
     -0.338  0.2370E+02  0.1599E+03
     -0.278  0.2427E+02  0.1613E+03
     -0.219  0.2359E+02  0.1627E+03
     -0.159  0.2216E+02  0.1641E+03
     -0.099  0.2159E+02  0.1654E+03
     -0.039  0.2120E+02  0.1666E+03
      0.021  0.2243E+02  0.1680E+03
      0.080  0.2524E+02  0.1695E+03
      0.140  0.2580E+02  0.1710E+03
      0.200  0.2435E+02  0.1725E+03
      0.260  0.2293E+02  0.1738E+03
      0.319  0.2057E+02  0.1751E+03
      0.379  0.1808E+02  0.1762E+03
      0.439  0.1767E+02  0.1772E+03
      0.499  0.1896E+02  0.1783E+03
      0.559  0.1841E+02  0.1794E+03
      0.618  0.1640E+02  0.1804E+03
      0.678  0.1700E+02  0.1814E+03
      0.738  0.1955E+02  0.1826E+03
      0.798  0.2134E+02  0.1839E+03
      0.858  0.2364E+02  0.1853E+03
      0.917  0.2679E+02  0.1869E+03
      0.977  0.2904E+02  0.1886E+03
      1.037  0.3024E+02  0.1904E+03
      1.097  0.2950E+02  0.1922E+03
      1.157  0.2633E+02  0.1938E+03
      1.216  0.2494E+02  0.1953E+03
      1.276  0.2791E+02  0.1969E+03
      1.336  0.3211E+02  0.1989E+03
      1.396  0.3639E+02  0.2010E+03
      1.456  0.4045E+02  0.2035E+03
      1.515  0.3946E+02  0.2058E+03
      1.575  0.3202E+02  0.2077E+03
      1.635  0.2159E+02  0.2090E+03
      1.695  0.1124E+02  0.2097E+03
      1.755  0.4038E+01  0.2099E+03
      1.814  0.9074E+00  0.2100E+03
      1.874  0.1177E+00  0.2100E+03
      1.934  0.8304E-02  0.2100E+03
      1.994  0.3067E-03  0.2100E+03
      2.054  0.5800E-05  0.2100E+03
      2.113  0.5542E-07  0.2100E+03
      2.173  0.2653E-09  0.2100E+03
      2.233  0.6324E-12  0.2100E+03
      2.293  0.5941E-15  0.2100E+03
      2.353  0.0000E+00  0.2100E+03
      2.412  0.0000E+00  0.2100E+03
      2.472  0.0000E+00  0.2100E+03
      2.532  0.0000E+00  0.2100E+03
      2.592  0.0000E+00  0.2100E+03
      2.652  0.0000E+00  0.2100E+03
