       N       E                     dE             d eps       ncg     rms          rms(c)
DAV:   1     0.841703805238E+03    0.84170E+03   -0.33975E+04  2730   0.834E+02
DAV:   2    -0.155458448869E+03   -0.99716E+03   -0.96328E+03  4214   0.176E+02
DAV:   3    -0.265099787652E+03   -0.10964E+03   -0.10785E+03  3430   0.646E+01
DAV:   4    -0.268496899601E+03   -0.33971E+01   -0.33816E+01  3584   0.129E+01
DAV:   5    -0.268576492456E+03   -0.79593E-01   -0.79469E-01  3864   0.178E+00    0.150E+01
DAV:   6    -0.258647972254E+03    0.99285E+01   -0.74742E+00  3031   0.541E+00    0.882E+00
DAV:   7    -0.253528577933E+03    0.51194E+01   -0.78363E+00  3024   0.578E+00    0.176E+00
DAV:   8    -0.253211900937E+03    0.31668E+00   -0.98945E-01  3696   0.201E+00    0.118E+00
DAV:   9    -0.253007310280E+03    0.20459E+00   -0.78753E-02  3325   0.767E-01    0.405E-01
DAV:  10    -0.252941104240E+03    0.66206E-01   -0.55610E-02  3304   0.498E-01    0.328E-01
DAV:  11    -0.252904876454E+03    0.36228E-01   -0.74747E-02  3227   0.486E-01    0.214E-01
DAV:  12    -0.252929641032E+03   -0.24765E-01   -0.28288E-02  3234   0.350E-01    0.184E-01
DAV:  13    -0.252933515789E+03   -0.38748E-02   -0.80273E-03  3213   0.217E-01    0.100E-01
DAV:  14    -0.252941072849E+03   -0.75571E-02   -0.15707E-03  3395   0.845E-02    0.337E-02
DAV:  15    -0.252950098512E+03   -0.90257E-02   -0.11206E-03  2870   0.538E-02    0.428E-02
DAV:  16    -0.252952465164E+03   -0.23667E-02   -0.17939E-04  3129   0.229E-02    0.124E-02
DAV:  17    -0.252953549077E+03   -0.10839E-02   -0.90275E-05  3185   0.197E-02    0.860E-03
DAV:  18    -0.252954385893E+03   -0.83682E-03   -0.65316E-05  2863   0.118E-02    0.321E-03
DAV:  19    -0.252954484818E+03   -0.98924E-04   -0.30832E-06  3122   0.298E-03    0.270E-03
DAV:  20    -0.252954648658E+03   -0.16384E-03   -0.39768E-06  2856   0.376E-03    0.183E-03
DAV:  21    -0.252954670806E+03   -0.22148E-04   -0.65262E-07  3108   0.194E-03    0.134E-03
DAV:  22    -0.252954698130E+03   -0.27323E-04   -0.30907E-07  3122   0.120E-03    0.678E-04
DAV:  23    -0.252954703274E+03   -0.51442E-05   -0.64767E-08  3017   0.678E-04    0.266E-04
DAV:  24    -0.252954708060E+03   -0.47863E-05   -0.27780E-08  2541   0.244E-04    0.113E-04
DAV:  25    -0.252954709266E+03   -0.12054E-05   -0.26945E-09  2177   0.159E-04    0.752E-05
DAV:  26    -0.252954709734E+03   -0.46863E-06   -0.62861E-10  2037   0.102E-04    0.769E-05
DAV:  27    -0.252954709868E+03   -0.13338E-06    0.12375E-09  2051   0.694E-05    0.118E-05
DAV:  28    -0.252954709909E+03   -0.41252E-07    0.15786E-09  2037   0.381E-05    0.153E-05
DAV:  29    -0.252954709930E+03   -0.21118E-07    0.18098E-09  2030   0.209E-05    0.104E-05
DAV:  30    -0.252954709937E+03   -0.69240E-08    0.18427E-09  2247   0.111E-05
   1 F= -.26430477E+03 E0= -.26427788E+03  d E =-.537852E-01
