   2   2   0   0
  0.8132269E+02  0.2166834E-09  0.2166834E-09  0.4000000E-08  0.5000000E-15
  1.000000000000000E-004
  CAR 
 Geometry                                
      7.85292202    -14.04420208  301     -4.04379557      1.00000000
    -14.044  0.0000E+00  0.0000E+00
    -13.971  0.0000E+00  0.0000E+00
    -13.898  0.0000E+00  0.0000E+00
    -13.825  0.0000E+00  0.0000E+00
    -13.752  0.0000E+00  0.0000E+00
    -13.679  0.0000E+00  0.0000E+00
    -13.606  0.0000E+00  0.0000E+00
    -13.533  0.0000E+00  0.0000E+00
    -13.460  0.0000E+00  0.0000E+00
    -13.387  0.0000E+00  0.0000E+00
    -13.314  0.1135E-16  0.8285E-18
    -13.241  0.9891E-11  0.7219E-12
    -13.168  0.1418E-06  0.1035E-07
    -13.095  0.4796E-04  0.3511E-05
    -13.022  0.9642E-03  0.7389E-04
    -12.949  0.1978E-02  0.2182E-03
    -12.876  0.2757E-02  0.4195E-03
    -12.803  0.1587E-02  0.5354E-03
    -12.730  0.2896E-02  0.7467E-03
    -12.657  0.2586E-02  0.9355E-03
    -12.584  0.1210E-02  0.1024E-02
    -12.511  0.2584E-02  0.1212E-02
    -12.438  0.3701E-02  0.1483E-02
    -12.365  0.1300E-02  0.1577E-02
    -12.292  0.1404E-02  0.1680E-02
    -12.219  0.2691E-02  0.1876E-02
    -12.146  0.3746E-02  0.2150E-02
    -12.073  0.2387E-02  0.2324E-02
    -12.000  0.5633E-03  0.2365E-02
    -11.927  0.1833E-02  0.2499E-02
    -11.854  0.3366E-02  0.2745E-02
    -11.781  0.3279E-02  0.2984E-02
    -11.709  0.2578E-02  0.3172E-02
    -11.636  0.1958E-02  0.3315E-02
    -11.563  0.1522E-03  0.3326E-02
    -11.490  0.2011E-02  0.3473E-02
    -11.417  0.4420E-02  0.3795E-02
    -11.344  0.3716E-02  0.4067E-02
    -11.271  0.1135E-02  0.4150E-02
    -11.198  0.2296E-02  0.4317E-02
    -11.125  0.2048E-02  0.4467E-02
    -11.052  0.1373E-03  0.4477E-02
    -10.979  0.2204E-02  0.4637E-02
    -10.906  0.5734E-02  0.5056E-02
    -10.833  0.2425E-02  0.5233E-02
    -10.760  0.2845E-02  0.5441E-02
    -10.687  0.3097E-03  0.5463E-02
    -10.614  0.1832E-02  0.5597E-02
    -10.541  0.2487E-02  0.5779E-02
    -10.468  0.7063E-03  0.5830E-02
    -10.395  0.3522E-02  0.6087E-02
    -10.322  0.4699E-02  0.6430E-02
    -10.249  0.2527E-02  0.6615E-02
    -10.176  0.2511E-02  0.6798E-02
    -10.103  0.1903E-02  0.6937E-02
    -10.030  0.7565E-04  0.6942E-02
     -9.957  0.1221E-02  0.7031E-02
     -9.884  0.3112E-02  0.7259E-02
     -9.811  0.3018E-02  0.7479E-02
     -9.738  0.3725E-02  0.7751E-02
     -9.665  0.2891E-02  0.7962E-02
     -9.592  0.3253E-02  0.8199E-02
     -9.519  0.1237E-02  0.8289E-02
     -9.446  0.3092E-02  0.8515E-02
     -9.373  0.9760E-03  0.8586E-02
     -9.300  0.1731E-04  0.8588E-02
     -9.227  0.9137E-03  0.8654E-02
     -9.154  0.5261E-02  0.9038E-02
     -9.081  0.4769E-02  0.9386E-02
     -9.008  0.2509E-02  0.9570E-02
     -8.935  0.1891E-02  0.9708E-02
     -8.862  0.3096E-02  0.9934E-02
     -8.789  0.1979E-02  0.1008E-01
     -8.716  0.3431E-02  0.1033E-01
     -8.643  0.5181E-02  0.1071E-01
     -8.570  0.2689E-02  0.1090E-01
     -8.497  0.2245E-02  0.1107E-01
     -8.424  0.6606E-02  0.1155E-01
     -8.351  0.8815E-02  0.1219E-01
     -8.278  0.5841E-02  0.1262E-01
     -8.205  0.5514E-02  0.1302E-01
     -8.132  0.3254E-02  0.1326E-01
     -8.059  0.4477E-02  0.1359E-01
     -7.986  0.4895E-02  0.1394E-01
     -7.913  0.5181E-02  0.1432E-01
     -7.840  0.4772E-02  0.1467E-01
     -7.767  0.1654E-02  0.1479E-01
     -7.694  0.2655E-02  0.1498E-01
     -7.621  0.8264E-02  0.1559E-01
     -7.548  0.1019E-01  0.1633E-01
     -7.475  0.6065E-02  0.1677E-01
     -7.402  0.3105E-02  0.1700E-01
     -7.329  0.2782E-02  0.1720E-01
     -7.256  0.8133E-02  0.1780E-01
     -7.183  0.6214E-02  0.1825E-01
     -7.110  0.2156E-02  0.1841E-01
     -7.037  0.6263E-02  0.1886E-01
     -6.964  0.1640E-02  0.1898E-01
     -6.891  0.1205E-02  0.1907E-01
     -6.818  0.9269E-02  0.1975E-01
     -6.745  0.1132E-01  0.2058E-01
     -6.672  0.7120E-02  0.2110E-01
     -6.599  0.4534E-02  0.2143E-01
     -6.526  0.7039E-02  0.2194E-01
     -6.453  0.4872E-02  0.2230E-01
     -6.380  0.7374E-02  0.2283E-01
     -6.307  0.7690E-02  0.2340E-01
     -6.234  0.3238E-02  0.2363E-01
     -6.161  0.3214E-02  0.2387E-01
     -6.088  0.1582E-02  0.2398E-01
     -6.015  0.3414E-02  0.2423E-01
     -5.942  0.5637E-02  0.2464E-01
     -5.869  0.1569E-01  0.2579E-01
     -5.796  0.1098E-01  0.2659E-01
     -5.723  0.7707E-02  0.2715E-01
     -5.650  0.3163E-02  0.2738E-01
     -5.577  0.4961E-02  0.2774E-01
     -5.504  0.3354E-02  0.2799E-01
     -5.431  0.5266E-02  0.2837E-01
     -5.358  0.2788E-02  0.2858E-01
     -5.285  0.7443E-02  0.2912E-01
     -5.212  0.1166E-01  0.2997E-01
     -5.139  0.8102E-02  0.3056E-01
     -5.066  0.1020E-01  0.3131E-01
     -4.993  0.9258E-02  0.3198E-01
     -4.920  0.1346E-01  0.3297E-01
     -4.847  0.9262E-02  0.3364E-01
     -4.774  0.1200E-01  0.3452E-01
     -4.701  0.1756E-01  0.3580E-01
     -4.628  0.6675E-02  0.3629E-01
     -4.555  0.4423E-02  0.3661E-01
     -4.482  0.7190E-02  0.3713E-01
     -4.409  0.7762E-02  0.3770E-01
     -4.336  0.4833E-02  0.3805E-01
     -4.263  0.5837E-02  0.3848E-01
     -4.190  0.1060E-01  0.3925E-01
     -4.118  0.5853E-02  0.3968E-01
     -4.045  0.4335E-02  0.4000E-01
     -3.972  0.5206E-02  0.4038E-01
     -3.899  0.7020E-02  0.4089E-01
     -3.826  0.5500E-02  0.4129E-01
     -3.753  0.4831E-02  0.4164E-01
     -3.680  0.3796E-02  0.4192E-01
     -3.607  0.4382E-02  0.4224E-01
     -3.534  0.5368E-02  0.4263E-01
     -3.461  0.3194E-02  0.4287E-01
     -3.388  0.4213E-02  0.4317E-01
     -3.315  0.2107E-02  0.4333E-01
     -3.242  0.4875E-02  0.4368E-01
     -3.169  0.3248E-02  0.4392E-01
     -3.096  0.3735E-02  0.4419E-01
     -3.023  0.8782E-02  0.4483E-01
     -2.950  0.1064E-02  0.4491E-01
     -2.877  0.1064E-03  0.4492E-01
     -2.804  0.3091E-02  0.4514E-01
     -2.731  0.5236E-02  0.4553E-01
     -2.658  0.1028E-02  0.4560E-01
     -2.585  0.4511E-02  0.4593E-01
     -2.512  0.3839E-02  0.4621E-01
     -2.439  0.3975E-02  0.4650E-01
     -2.366  0.2147E-02  0.4666E-01
     -2.293  0.8188E-03  0.4672E-01
     -2.220  0.3149E-02  0.4695E-01
     -2.147  0.6638E-03  0.4700E-01
     -2.074  0.4391E-05  0.4700E-01
     -2.001  0.1262E-03  0.4701E-01
     -1.928  0.2412E-02  0.4718E-01
     -1.855  0.2992E-02  0.4740E-01
     -1.782  0.6101E-02  0.4784E-01
     -1.709  0.3874E-02  0.4813E-01
     -1.636  0.1120E-02  0.4821E-01
     -1.563  0.3247E-02  0.4845E-01
     -1.490  0.1939E-02  0.4859E-01
     -1.417  0.9730E-03  0.4866E-01
     -1.344  0.3573E-02  0.4892E-01
     -1.271  0.2850E-02  0.4913E-01
     -1.198  0.1094E-03  0.4914E-01
     -1.125  0.2078E-06  0.4914E-01
     -1.052  0.1098E-03  0.4914E-01
     -0.979  0.3366E-02  0.4939E-01
     -0.906  0.6651E-02  0.4987E-01
     -0.833  0.7887E-02  0.5045E-01
     -0.760  0.2263E-02  0.5062E-01
     -0.687  0.9304E-03  0.5068E-01
     -0.614  0.3129E-02  0.5091E-01
     -0.541  0.1364E-02  0.5101E-01
     -0.468  0.1744E-02  0.5114E-01
     -0.395  0.4370E-02  0.5146E-01
     -0.322  0.3933E-02  0.5175E-01
     -0.249  0.3478E-03  0.5177E-01
     -0.176  0.1088E-02  0.5185E-01
     -0.103  0.4707E-02  0.5219E-01
     -0.030  0.1011E-01  0.5293E-01
      0.043  0.6836E-02  0.5343E-01
      0.116  0.5343E-02  0.5382E-01
      0.189  0.7374E-02  0.5436E-01
      0.262  0.1187E-01  0.5522E-01
      0.335  0.3408E-01  0.5771E-01
      0.408  0.2845E-01  0.5979E-01
      0.481  0.1026E-01  0.6054E-01
      0.554  0.4639E-02  0.6088E-01
      0.627  0.8549E-02  0.6150E-01
      0.700  0.1174E-01  0.6236E-01
      0.773  0.8813E-02  0.6300E-01
      0.846  0.4326E-02  0.6332E-01
      0.919  0.4672E-02  0.6366E-01
      0.992  0.5563E-02  0.6406E-01
      1.065  0.4225E-02  0.6437E-01
      1.138  0.1560E-02  0.6449E-01
      1.211  0.6271E-02  0.6494E-01
      1.284  0.5400E-02  0.6534E-01
      1.357  0.9763E-02  0.6605E-01
      1.430  0.1346E-01  0.6703E-01
      1.503  0.2073E-01  0.6854E-01
      1.576  0.1187E-01  0.6941E-01
      1.649  0.7953E-02  0.6999E-01
      1.722  0.1077E-01  0.7078E-01
      1.795  0.1290E-01  0.7172E-01
      1.868  0.1542E-01  0.7285E-01
      1.941  0.1386E-01  0.7386E-01
      2.014  0.1472E-01  0.7493E-01
      2.087  0.1213E-01  0.7582E-01
      2.160  0.8754E-02  0.7645E-01
      2.233  0.1322E-01  0.7742E-01
      2.306  0.2228E-01  0.7905E-01
      2.379  0.2269E-01  0.8070E-01
      2.452  0.1272E-01  0.8163E-01
      2.525  0.7424E-02  0.8217E-01
      2.598  0.1485E-01  0.8326E-01
      2.671  0.1372E-01  0.8426E-01
      2.744  0.1818E-01  0.8558E-01
      2.817  0.1346E-01  0.8657E-01
      2.890  0.4815E-02  0.8692E-01
      2.963  0.1187E-01  0.8779E-01
      3.036  0.1383E-01  0.8879E-01
      3.109  0.7066E-02  0.8931E-01
      3.182  0.6407E-02  0.8978E-01
      3.255  0.1406E-01  0.9080E-01
      3.328  0.1226E-01  0.9170E-01
      3.401  0.1242E-01  0.9261E-01
      3.473  0.1100E-01  0.9341E-01
      3.546  0.4744E-02  0.9375E-01
      3.619  0.1512E-01  0.9486E-01
      3.692  0.1272E-01  0.9579E-01
      3.765  0.7222E-02  0.9631E-01
      3.838  0.3351E-02  0.9656E-01
      3.911  0.2543E-02  0.9674E-01
      3.984  0.5466E-02  0.9714E-01
      4.057  0.6844E-02  0.9764E-01
      4.130  0.7846E-02  0.9821E-01
      4.203  0.5738E-02  0.9863E-01
      4.276  0.4152E-02  0.9894E-01
      4.349  0.1092E-01  0.9973E-01
      4.422  0.9973E-02  0.1005E+00
      4.495  0.1490E-01  0.1015E+00
      4.568  0.1312E-01  0.1025E+00
      4.641  0.7104E-02  0.1030E+00
      4.714  0.1109E-01  0.1038E+00
      4.787  0.1316E-01  0.1048E+00
      4.860  0.1042E-01  0.1056E+00
      4.933  0.5325E-02  0.1059E+00
      5.006  0.6838E-02  0.1064E+00
      5.079  0.4079E-02  0.1067E+00
      5.152  0.3648E-02  0.1070E+00
      5.225  0.9005E-02  0.1077E+00
      5.298  0.6858E-02  0.1082E+00
      5.371  0.5849E-02  0.1086E+00
      5.444  0.9042E-02  0.1093E+00
      5.517  0.1473E-01  0.1103E+00
      5.590  0.8784E-02  0.1110E+00
      5.663  0.6477E-02  0.1114E+00
      5.736  0.1652E-01  0.1126E+00
      5.809  0.1748E-01  0.1139E+00
      5.882  0.1055E-01  0.1147E+00
      5.955  0.1489E-01  0.1158E+00
      6.028  0.8525E-02  0.1164E+00
      6.101  0.5811E-02  0.1168E+00
      6.174  0.4715E-02  0.1172E+00
      6.247  0.8203E-02  0.1178E+00
      6.320  0.1940E-02  0.1179E+00
      6.393  0.1468E-02  0.1180E+00
      6.466  0.1917E-02  0.1182E+00
      6.539  0.8198E-02  0.1188E+00
      6.612  0.6400E-02  0.1192E+00
      6.685  0.3375E-02  0.1195E+00
      6.758  0.5346E-03  0.1195E+00
      6.831  0.1826E-02  0.1196E+00
      6.904  0.4392E-02  0.1200E+00
      6.977  0.5187E-03  0.1200E+00
      7.050  0.1812E-05  0.1200E+00
      7.123  0.1236E-09  0.1200E+00
      7.196  0.1387E-15  0.1200E+00
      7.269  0.0000E+00  0.1200E+00
      7.342  0.0000E+00  0.1200E+00
      7.415  0.0000E+00  0.1200E+00
      7.488  0.0000E+00  0.1200E+00
      7.561  0.0000E+00  0.1200E+00
      7.634  0.0000E+00  0.1200E+00
      7.707  0.0000E+00  0.1200E+00
      7.780  0.0000E+00  0.1200E+00
      7.853  0.0000E+00  0.1200E+00
