       N       E                     dE             d eps       ncg     rms          rms(c)
DAV:   1     0.970700530371E+03    0.97070E+03   -0.41621E+04 21756   0.845E+02
DAV:   2    -0.208098534913E+03   -0.11788E+04   -0.11351E+04 33120   0.179E+02
DAV:   3    -0.359139763270E+03   -0.15104E+03   -0.14873E+03 27328   0.692E+01
DAV:   4    -0.363340370932E+03   -0.42006E+01   -0.41870E+01 27712   0.134E+01
DAV:   5    -0.363442640385E+03   -0.10227E+00   -0.10216E+00 30336   0.179E+00    0.210E+01
DAV:   6    -0.352217490577E+03    0.11225E+02   -0.43339E+00 24078   0.407E+00    0.121E+01
DAV:   7    -0.345035116224E+03    0.71824E+01   -0.99755E+00 23270   0.587E+00    0.144E+00
DAV:   8    -0.344611168269E+03    0.42395E+00   -0.10278E+00 26576   0.203E+00    0.857E-01
DAV:   9    -0.344533645577E+03    0.77523E-01   -0.13541E-01 28188   0.741E-01    0.617E-01
DAV:  10    -0.344497148745E+03    0.36497E-01   -0.53165E-02 24990   0.531E-01    0.229E-01
DAV:  11    -0.344494521586E+03    0.26272E-02   -0.22812E-02 25000   0.302E-01    0.236E-01
DAV:  12    -0.344505037841E+03   -0.10516E-01   -0.23638E-02 23572   0.261E-01    0.800E-02
DAV:  13    -0.344522503482E+03   -0.17466E-01   -0.80201E-03 24490   0.175E-01    0.124E-01
DAV:  14    -0.344536067716E+03   -0.13564E-01   -0.62033E-03 23172   0.165E-01    0.561E-02
DAV:  15    -0.344538413573E+03   -0.23459E-02   -0.61839E-04 26898   0.507E-02    0.517E-02
DAV:  16    -0.344541391137E+03   -0.29776E-02   -0.53086E-04 23264   0.509E-02    0.238E-02
DAV:  17    -0.344542171463E+03   -0.78033E-03   -0.12103E-04 25808   0.246E-02    0.522E-03
DAV:  18    -0.344542718100E+03   -0.54664E-03   -0.24560E-05 23718   0.822E-03    0.773E-03
DAV:  19    -0.344542838166E+03   -0.12007E-03   -0.31179E-06 27264   0.385E-03    0.120E-03
DAV:  20    -0.344542925446E+03   -0.87280E-04   -0.10863E-06 23278   0.202E-03    0.266E-03
DAV:  21    -0.344542960511E+03   -0.35066E-04   -0.12544E-07 23050   0.570E-04    0.135E-03
DAV:  22    -0.344542981235E+03   -0.20724E-04   -0.39983E-07 23010   0.134E-03    0.110E-03
DAV:  23    -0.344542987192E+03   -0.59572E-05   -0.72965E-08 24588   0.669E-04    0.141E-04
DAV:  24    -0.344542989453E+03   -0.22607E-05   -0.28079E-09 19934   0.194E-04    0.413E-05
DAV:  25    -0.344542990378E+03   -0.92538E-06    0.62048E-09 16882   0.100E-04    0.106E-04
DAV:  26    -0.344542990560E+03   -0.18114E-06    0.83798E-09 17118   0.578E-05    0.319E-05
DAV:  27    -0.344542990649E+03   -0.88994E-07    0.85525E-09 16060   0.370E-05    0.547E-06
DAV:  28    -0.344542990674E+03   -0.25114E-07    0.87915E-09 17486   0.189E-05    0.249E-06
DAV:  29    -0.344542990695E+03   -0.21539E-07    0.88050E-09 15586   0.132E-05    0.445E-06
DAV:  30    -0.344542990701E+03   -0.54733E-08    0.88288E-09 16746   0.779E-06
   1 F= -.34454299E+03 E0= -.34454005E+03  d E =-.587422E-02
