 running  168 mpi-ranks, on    1 nodes
 distrk:  each k-point on  168 cores,    1 groups
 distr:  one band on    1 cores,  168 groups
 vasp.6.5.0 16Dec24 (build Jan 08 2025 16:17:04) complex                        
  
 POSCAR found type information on POSCAR BeH 
 POSCAR found :  2 types and      36 ions
 Reading from existing POTCAR
 scaLAPACK will be used
 -----------------------------------------------------------------------------
|                                                                             |
|           W    W    AA    RRRRR   N    N  II  N    N   GGGG   !!!           |
|           W    W   A  A   R    R  NN   N  II  NN   N  G    G  !!!           |
|           W    W  A    A  R    R  N N  N  II  N N  N  G       !!!           |
|           W WW W  AAAAAA  RRRRR   N  N N  II  N  N N  G  GGG   !            |
|           WW  WW  A    A  R   R   N   NN  II  N   NN  G    G                |
|           W    W  A    A  R    R  N    N  II  N    N   GGGG   !!!           |
|                                                                             |
|     For optimal performance we recommend to set                             |
|       NCORE = 2 up to number-of-cores-per-socket                            |
|     NCORE specifies how many cores store one orbital (NPAR=cpu/NCORE).      |
|     This setting can greatly improve the performance of VASP for DFT.       |
|     The default, NCORE=1 might be grossly inefficient on modern             |
|     multi-core architectures or massively parallel machines. Do your        |
|     own testing! More info at https://www.vasp.at/wiki/index.php/NCORE      |
|     Unfortunately you need to use the default for GW and RPA                |
|     calculations (for HF NCORE is supported but not extensively tested      |
|     yet).                                                                   |
|                                                                             |
 -----------------------------------------------------------------------------

 Reading from existing POTCAR
 -----------------------------------------------------------------------------
|                                                                             |
|               ----> ADVICE to this user running VASP <----                  |
|                                                                             |
|     You have a (more or less) 'large supercell' and for larger cells it     |
|     might be more efficient to use real-space projection operators.         |
|     Therefore, try LREAL= Auto in the INCAR file.                           |
|     Mind: For very accurate calculation, you might also keep the            |
|     reciprocal projection scheme (i.e. LREAL=.FALSE.).                      |
|                                                                             |
 -----------------------------------------------------------------------------

 LDA part: xc-table for (Slater+PW92), standard interpolation
 POSCAR, INCAR and KPOINTS ok, starting setup
 FFT: planning ... GRIDC
 FFT: planning ... GRID_SOFT
 FFT: planning ... GRID
 WAVECAR not read
 entering main loop
       N       E                     dE             d eps       ncg     rms          rms(c)
DAV:   1     0.862921747557E+02    0.86292E+02   -0.22960E+04 35280   0.272E+02
DAV:   2    -0.120102058239E+03   -0.20639E+03   -0.20612E+03 52752   0.448E+01
DAV:   3    -0.122400448523E+03   -0.22984E+01   -0.22923E+01 68040   0.605E+00
DAV:   4    -0.122401266014E+03   -0.81749E-03   -0.81749E-03 40152   0.113E-01
DAV:   5    -0.122401269194E+03   -0.31806E-05   -0.31778E-05 66864   0.781E-03    0.783E+00
DAV:   6    -0.116183027276E+03    0.62182E+01   -0.34498E+01 53256   0.399E+00    0.447E+00
DAV:   7    -0.115616969151E+03    0.56606E+00   -0.19220E+01 68208   0.196E+00    0.316E+00
DAV:   8    -0.114515378429E+03    0.11016E+01   -0.10903E+01 67200   0.179E+00    0.154E+00
DAV:   9    -0.114207086485E+03    0.30829E+00   -0.83323E-01 69552   0.553E-01    0.464E-01
DAV:  10    -0.114157749445E+03    0.49337E-01   -0.55329E-02 69720   0.183E-01    0.195E-01
DAV:  11    -0.114148528801E+03    0.92206E-02   -0.14350E-02 67704   0.716E-02    0.115E-01
DAV:  12    -0.114150254938E+03   -0.17261E-02   -0.12948E-02 66696   0.650E-02    0.706E-02
DAV:  13    -0.114157117248E+03   -0.68623E-02   -0.27240E-03 63000   0.365E-02    0.307E-02
DAV:  14    -0.114160337556E+03   -0.32203E-02   -0.42569E-04 63168   0.140E-02    0.184E-02
DAV:  15    -0.114161906212E+03   -0.15687E-02   -0.10113E-04 64344   0.746E-03    0.947E-03
DAV:  16    -0.114163140269E+03   -0.12341E-02   -0.11456E-04 57120   0.549E-03    0.470E-03
DAV:  17    -0.114163687212E+03   -0.54694E-03   -0.39720E-05 66192   0.318E-03    0.279E-03
DAV:  18    -0.114163918783E+03   -0.23157E-03   -0.31039E-05 60480   0.267E-03    0.171E-03
DAV:  19    -0.114164047615E+03   -0.12883E-03   -0.91570E-06 62328   0.142E-03    0.608E-04
DAV:  20    -0.114164063612E+03   -0.15997E-04   -0.32884E-07 63000   0.386E-04    0.384E-04
DAV:  21    -0.114164083304E+03   -0.19692E-04   -0.13326E-07 60648   0.196E-04    0.150E-04
DAV:  22    -0.114164087226E+03   -0.39212E-05    0.10520E-08 62160   0.109E-04    0.762E-05
DAV:  23    -0.114164088408E+03   -0.11822E-05    0.27444E-08 60984   0.658E-05    0.286E-05
DAV:  24    -0.114164088881E+03   -0.47326E-06    0.41803E-08 60816   0.321E-05
   1 F= -.12114856E+03 E0= -.12114357E+03  d E =-.998403E-02
 Found     8 degrees of freedom:
 Finite differences POTIM= 0.01500 DOF=   8
 bond charge predicted
       N       E                     dE             d eps       ncg     rms          rms(c)
DAV:   1    -0.114163957085E+03    0.13132E-03   -0.58265E-02 69552   0.206E-01    0.775E-02
DAV:   2    -0.114163582791E+03    0.37429E-03   -0.23891E-03126672   0.321E-02    0.303E-02
DAV:   3    -0.114163540655E+03    0.42137E-04   -0.22545E-04 91056   0.103E-02    0.132E-02
DAV:   4    -0.114163534244E+03    0.64107E-05   -0.51304E-05 92904   0.483E-03    0.417E-03
DAV:   5    -0.114163533946E+03    0.29767E-06   -0.25920E-05 89040   0.299E-03    0.296E-03
DAV:   6    -0.114163533225E+03    0.72123E-06   -0.69846E-06 94920   0.155E-03
   2 F= -.12114801E+03 E0= -.12114302E+03  d E =-.998030E-02
 Finite differences progress:
  Degree of freedom:   1/  8
  Displacement:        1/  2
  Total:               1/ 16
 bond charge predicted
       N       E                     dE             d eps       ncg     rms          rms(c)
DAV:   1    -0.114165233915E+03   -0.17000E-02   -0.18188E-01 66528   0.359E-01    0.155E-01
DAV:   2    -0.114163731834E+03    0.15021E-02   -0.95059E-03126168   0.628E-02    0.606E-02
DAV:   3    -0.114163562651E+03    0.16918E-03   -0.88769E-04 94752   0.203E-02    0.263E-02
DAV:   4    -0.114163535211E+03    0.27440E-04   -0.16950E-04 76440   0.900E-03    0.737E-03
DAV:   5    -0.114163536035E+03   -0.82444E-06   -0.68985E-05 79800   0.512E-03    0.543E-03
DAV:   6    -0.114163533190E+03    0.28449E-05   -0.27219E-05 90888   0.301E-03    0.177E-03
DAV:   7    -0.114163533182E+03    0.83296E-08   -0.55678E-07 88032   0.801E-04
   3 F= -.12114801E+03 E0= -.12114302E+03  d E =-.997995E-02
 Finite differences progress:
  Degree of freedom:   1/  8
  Displacement:        2/  2
  Total:               2/ 16
 bond charge predicted
       N       E                     dE             d eps       ncg     rms          rms(c)
DAV:   1    -0.114164453876E+03   -0.92069E-03   -0.11398E-01 35952   0.305E-01    0.810E-02
DAV:   2    -0.114163974837E+03    0.47904E-03   -0.18685E-03 57792   0.316E-02    0.402E-02
DAV:   3    -0.114163810636E+03    0.16420E-03   -0.38417E-04 49392   0.133E-02    0.191E-02
DAV:   4    -0.114163744597E+03    0.66039E-04   -0.17867E-04 60480   0.890E-03    0.716E-03
DAV:   5    -0.114163731102E+03    0.13494E-04   -0.67331E-05 51912   0.514E-03    0.505E-03
DAV:   6    -0.114163723019E+03    0.80830E-05   -0.30106E-05 54264   0.342E-03    0.187E-03
DAV:   7    -0.114163719853E+03    0.31669E-05   -0.81605E-06 61152   0.189E-03    0.735E-04
DAV:   8    -0.114163719063E+03    0.78959E-06   -0.25758E-06 63504   0.110E-03
   4 F= -.12114690E+03 E0= -.12114191E+03  d E =-.998013E-02
 Finite differences progress:
  Degree of freedom:   2/  8
  Displacement:        1/  2
  Total:               3/ 16
 bond charge predicted
       N       E                     dE             d eps       ncg     rms          rms(c)
DAV:   1    -0.114165362447E+03   -0.16426E-02   -0.22502E-01 36624   0.435E-01    0.138E-01
DAV:   2    -0.114164241770E+03    0.11207E-02   -0.68160E-03 53088   0.559E-02    0.564E-02
DAV:   3    -0.114164113451E+03    0.12832E-03   -0.73766E-04 52584   0.185E-02    0.244E-02
DAV:   4    -0.114164096973E+03    0.16477E-04   -0.17545E-04 58464   0.902E-03    0.801E-03
DAV:   5    -0.114164096052E+03    0.92100E-06   -0.79383E-05 57288   0.507E-03    0.505E-03
DAV:   6    -0.114164093671E+03    0.23818E-05   -0.24398E-05 52248   0.287E-03    0.178E-03
DAV:   7    -0.114164093631E+03    0.39355E-07   -0.60671E-07 55272   0.863E-04
   5 F= -.12114986E+03 E0= -.12114487E+03  d E =-.998004E-02
 Finite differences progress:
  Degree of freedom:   2/  8
  Displacement:        2/  2
  Total:               4/ 16
 bond charge predicted
       N       E                     dE             d eps       ncg     rms          rms(c)
DAV:   1    -0.114164162718E+03   -0.69048E-04   -0.12644E-01 72072   0.323E-01    0.108E-01
DAV:   2    -0.114163323031E+03    0.83969E-03   -0.54069E-03 90888   0.509E-02    0.426E-02
DAV:   3    -0.114163212447E+03    0.11058E-03   -0.50504E-04 94248   0.162E-02    0.202E-02
DAV:   4    -0.114163180589E+03    0.31857E-04   -0.11756E-04100464   0.756E-03    0.690E-03
DAV:   5    -0.114163176610E+03    0.39791E-05   -0.48134E-05101976   0.424E-03    0.473E-03
DAV:   6    -0.114163172300E+03    0.43105E-05   -0.22377E-05 97776   0.275E-03    0.194E-03
