 vasp.6.5.0 16Dec24 (build Jan 08 2025 16:17:04) complex                        
  
 executed on             LinuxIFC date 2025.07.23  11:07:38
 running   42 mpi-ranks, on    1 nodes
 distrk:  each k-point on   42 cores,    1 groups
 distr:  one band on NCORE=   1 cores,   42 groups


--------------------------------------------------------------------------------------------------------


 INCAR:
   SYSTEM = Convergence
   ISTART = 0
   ICHARG = 2
   PREC = Accurate
   ENCUT = 600
   LCHARG = .FALSE.
   LWAVE = .FALSE.
   ALGO = Normal
   NELM = 100
   EDIFF = 1E-6
   EDIFFG = -1E-3
   SIGMA = 0.05
   ISMEAR = 0
   ISPIN = 1
   NSW = 0
   IBRION = -1
   POTIM = .5
   ISIF = 2
   GGA = PE
   LDIPOL = .TRUE.
   IDIPOL = 3
   DIPOL = 0.5 0.5 0.1

 POTCAR:    PAW_PBE Be 06Sep2000                  
 -----------------------------------------------------------------------------
|                                                                             |
|           W    W    AA    RRRRR   N    N  II  N    N   GGGG   !!!           |
|           W    W   A  A   R    R  NN   N  II  NN   N  G    G  !!!           |
|           W    W  A    A  R    R  N N  N  II  N N  N  G       !!!           |
|           W WW W  AAAAAA  RRRRR   N  N N  II  N  N N  G  GGG   !            |
|           WW  WW  A    A  R   R   N   NN  II  N   NN  G    G                |
|           W    W  A    A  R    R  N    N  II  N    N   GGGG   !!!           |
|                                                                             |
|     For optimal performance we recommend to set                             |
|       NCORE = 2 up to number-of-cores-per-socket                            |
|     NCORE specifies how many cores store one orbital (NPAR=cpu/NCORE).      |
|     This setting can greatly improve the performance of VASP for DFT.       |
|     The default, NCORE=1 might be grossly inefficient on modern             |
|     multi-core architectures or massively parallel machines. Do your        |
|     own testing! More info at https://www.vasp.at/wiki/index.php/NCORE      |
|     Unfortunately you need to use the default for GW and RPA                |
|     calculations (for HF NCORE is supported but not extensively tested      |
|     yet).                                                                   |
|                                                                             |
 -----------------------------------------------------------------------------

 POTCAR:    PAW_PBE Be 06Sep2000                  
   SHA256 =  98a2d1e63100a984719ed1fa4aa623d62d7fd86152f07ada9bb3796889d1bbc8 Be/POTCAR             
   COPYR  = (c) Copyright 06Sep2000 Georg Kresse                                                    
   COPYR  = This file is part of the software VASP. Any use, copying, and all other rights are regul
   COPYR  = If you do not have a valid VASP license, you may not use, copy or distribute this file. 
   VRHFIN =Be: s2p0                                                                                 
   LEXCH  = PE                                                                                      
   EATOM  =    27.4793 eV,    2.0197 Ry                                                             
                                                                                                    
   TITEL  = PAW_PBE Be 06Sep2000                                                                    
   LULTRA =        F    use ultrasoft PP ?                                                          
   IUNSCR =        1    unscreen: 0-lin 1-nonlin 2-no                                               
   RPACOR =    1.580    partial core radius                                                         
   POMASS =    9.013; ZVAL   =    2.000    mass and valenz                                          
   RCORE  =    1.900    outmost cutoff radius                                                       
   RWIGS  =    1.880; RWIGS  =    0.995    wigner-seitz radius (au A)                               
   ENMAX  =  247.543; ENMIN  =  185.658 eV                                                          
   ICORE  =        2    local potential                                                             
   LCOR   =        T    correct aug charges                                                         
   LPAW   =        T    paw PP                                                                      
   EAUG   =  318.781                                                                                
   DEXC   =    0.000                                                                                
   RMAX   =    1.944    core radius for proj-oper                                                   
   RAUG   =    1.300    factor for augmentation sphere                                              
   RDEP   =    2.003    radius for radial grids                                                     
   RDEPT  =    1.802    core radius for aug-charge                                                  
                                                                                                    
   Atomic configuration                                                                             
    4 entries                                                                                       
     n  l   j            E        occ.                                                              
     1  0  0.50      -106.2287   2.0000                                                             
     2  0  0.50        -5.6162   1.9900                                                             
     2  1  0.50        -2.0244   0.0100                                                             
     3  2  1.50        -1.3606   0.0000                                                             
   Description                                                                                      
     l       E           TYP  RCUT    TYP  RCUT                                                     
     0     -5.6161739     23  1.900                                                                 
     0     27.2116520     23  1.900                                                                 
     1     -2.0243505     23  1.900                                                                 
     1     27.2116520     23  1.900                                                                 
     2     -1.3605826     15  1.500                                                                 
  local pseudopotential read in
  partial core-charges read in
  partial kinetic energy density read in
  atomic valenz-charges read in
  non local Contribution for L=           0  read in
    real space projection operators read in
  non local Contribution for L=           0  read in
    real space projection operators read in
  non local Contribution for L=           1  read in
    real space projection operators read in
  non local Contribution for L=           1  read in
    real space projection operators read in
    PAW grid and wavefunctions read in
 
   number of l-projection  operators is LMAX  =           4
   number of lm-projection operators is LMMAX =           8
 
  PAW_PBE Be 06Sep2000                  :
 energy of atom  1       EATOM=  -27.4793
 kinetic energy error for atom=    0.0000 (will be added to EATOM!!)
 
 
 POSCAR: G-Beryllene with a=3.9837168574084174
  positions in direct lattice
  No initial velocities read in


 exchange-correlation table for PE
   RHO(1)=    0.500       N(1)  =     2000
   RHO(2)=  100.500       N(2)  =     4000
 


--------------------------------------------------------------------------------------------------------


 ion  position               nearest neighbor table
   1  0.333  0.667  0.100-   2 2.30   2 2.30   2 2.30
   2  0.667  0.333  0.100-   1 2.30   1 2.30   1 2.30
 
  LATTYP: Found a hexagonal cell.
 ALAT       =     3.9837168574
 C/A-ratio  =    10.0408742468
  
  Lattice vectors:
  
 A1 = (   3.4500000000,   1.9918584287,   0.0000000000)
 A2 = (  -3.4500000000,   1.9918584287,   0.0000000000)
 A3 = (   0.0000000000,   0.0000000000,  40.0000000000)


Analysis of symmetry for initial positions (statically):
=====================================================================
 Subroutine PRICEL returns:
 Original cell was already a primitive cell.
 

 Routine SETGRP: Setting up the symmetry group for a 
 hexagonal supercell.


 Subroutine GETGRP returns: Found 24 space group operations
 (whereof 12 operations were pure point group operations)
 out of a pool of 24 trial point group operations.


The static configuration has the point symmetry C_6v.
 The point group associated with its full space group is D_6h.


Analysis of symmetry for dynamics (positions and initial velocities):
=====================================================================
 Subroutine PRICEL returns:
 Original cell was already a primitive cell.
 

 Routine SETGRP: Setting up the symmetry group for a 
 hexagonal supercell.


 Subroutine GETGRP returns: Found 24 space group operations
 (whereof 12 operations were pure point group operations)
 out of a pool of 24 trial point group operations.


The dynamic configuration has the point symmetry C_6v.
 The point group associated with its full space group is D_6h.


 Subroutine INISYM returns: Found 24 space group operations
 (whereof 12 operations are pure point group operations),
 and found     1 'primitive' translations


----------------------------------------------------------------------------------------

                                     Primitive cell                                     

  volume of cell :     549.7529

  direct lattice vectors                    reciprocal lattice vectors
     3.450000000  1.991858429  0.000000000     0.144927536  0.251021856  0.000000000
    -3.450000000  1.991858429  0.000000000    -0.144927536  0.251021856  0.000000000
     0.000000000  0.000000000 40.000000000     0.000000000  0.000000000  0.025000000

  length of vectors
     3.983716857  3.983716857 40.000000000     0.289855072  0.289855072  0.025000000

  position of ions in fractional coordinates (direct lattice)
     0.333333333  0.666666667  0.100000000
     0.666666667  0.333333333  0.100000000

  ion indices of the primitive-cell ions
   primitive index   ion index
                 1           1
                 2           2

----------------------------------------------------------------------------------------

 
 
 KPOINTS: k-points                                

Automatic generation of k-mesh.
 Grid dimensions read from file:
 generate k-points for:    4    4    1

 Generating k-lattice:

  Cartesian coordinates                     Fractional coordinates (reciprocal lattice)
     0.036231884  0.062755464  0.000000000     0.250000000  0.000000000  0.000000000
    -0.036231884  0.062755464  0.000000000     0.000000000  0.250000000  0.000000000
     0.000000000  0.000000000  0.025000000     0.000000000  0.000000000  1.000000000

  Length of vectors
     0.072463768  0.072463768  0.025000000

  Shift w.r.t. Gamma in fractional coordinates (k-lattice)
     0.000000000  0.000000000  0.000000000

 
 Subroutine IBZKPT returns following result:
 ===========================================
 
 Found      4 irreducible k-points:
 
 Following reciprocal coordinates:
            Coordinates               Weight
  0.000000  0.000000  0.000000      1.000000
  0.250000  0.000000  0.000000      6.000000
  0.500000  0.000000  0.000000      3.000000
  0.250000  0.250000  0.000000      6.000000
 
 Following cartesian coordinates:
            Coordinates               Weight
  0.000000  0.000000  0.000000      1.000000
  0.036232  0.062755  0.000000      6.000000
  0.072464  0.125511  0.000000      3.000000
  0.000000  0.125511  0.000000      6.000000
 


--------------------------------------------------------------------------------------------------------




 Dimension of arrays:
   k-points           NKPTS =      4   k-points in BZ     NKDIM =      4   number of bands    NBANDS=     42
   number of dos      NEDOS =    301   number of ions     NIONS =      2
   non local maximal  LDIM  =      4   non local SUM 2l+1 LMDIM =      8
   total plane-waves  NPLWV = 327680
   max r-space proj   IRMAX =      1   max aug-charges    IRDMAX=  20435
   dimension x,y,z NGX =    32 NGY =   32 NGZ =  320
   dimension x,y,z NGXF=    64 NGYF=   64 NGZF=  640
   support grid    NGXF=    64 NGYF=   64 NGZF=  640
   ions per type =               2
   NGX,Y,Z   is equivalent  to a cutoff of  13.35, 13.35, 13.30 a.u.
   NGXF,Y,Z  is equivalent  to a cutoff of  26.71, 26.71, 26.60 a.u.

 SYSTEM =  Convergence                             
 POSCAR =  G-Beryllene with a=3.9837168574084174   

 Startparameter for this run:
   NWRITE =      2    write-flag & timer
   PREC   = accura    normal or accurate (medium, high low for compatibility)
   ISTART =      0    job   : 0-new  1-cont  2-samecut
   ICHARG =      2    charge: 1-file 2-atom 10-const
   ISPIN  =      1    spin polarized calculation?
   LNONCOLLINEAR =      F non collinear calculations
   LSORBIT =      F    spin-orbit coupling
   INIWAV =      1    electr: 0-lowe 1-rand  2-diag
   LASPH  =      F    aspherical Exc in radial PAW
 Electronic Relaxation 1
   ENCUT  =  600.0 eV  44.10 Ry    6.64 a.u.   7.96  7.96 79.89*2*pi/ulx,y,z
   ENINI  =  600.0     initial cutoff
   ENAUG  =  318.8 eV  augmentation charge cutoff
   NELM   =    100;   NELMIN=  2; NELMDL= -5     # of ELM steps 
   EDIFF  = 0.1E-05   stopping-criterion for ELM
   LREAL  =      F    real-space projection
   NLSPLINE    = F    spline interpolate recip. space projectors
   LCOMPAT=      F    compatible to vasp.4.4
   GGA_COMPAT  = T    GGA compatible to vasp.4.4-vasp.4.6
   LMAXPAW     = -100 max onsite density
   LMAXMIX     =    2 max onsite mixed and CHGCAR
   VOSKOWN=      0    Vosko Wilk Nusair interpolation
   ROPT   =    0.00000
 Ionic relaxation
   EDIFFG = -.1E-02   stopping-criterion for IOM
   NSW    =      0    number of steps for IOM
   NBLOCK =      1;   KBLOCK =      1    inner block; outer block 
   IBRION =     -1    ionic relax: 0-MD 1-quasi-New 2-CG
   NFREE  =      0    steps in history (QN), initial steepest desc. (CG)
   ISIF   =      2    stress and relaxation
   IWAVPR =     10    prediction:  0-non 1-charg 2-wave 3-comb
   ISYM   =      2    0-nonsym 1-usesym 2-fastsym
   LCORR  =      T    Harris-Foulkes like correction to forces

   POTIM  = 0.5000    time-step for ionic-motion
   TEIN   =    0.0    initial temperature
   TEBEG  =    0.0;   TEEND  =   0.0 temperature during run
   SMASS  =  -3.00    Nose mass-parameter (am)
   estimated Nose-frequenzy (Omega)   =  0.10E-29 period in steps = 0.13E+47 mass=  -0.363E-27a.u.
   SCALEE = 1.0000    scale energy and forces
   NPACO  =    256;   APACO  = 10.0  distance and # of slots for P.C.
   PSTRESS=    0.0 pullay stress

  Mass of Ions in am
   POMASS =   9.01
  Ionic Valenz
   ZVAL   =   2.00
  Atomic Wigner-Seitz radii
   RWIGS  =  -1.00
  virtual crystal weights 
   VCA    =   1.00
   NELECT =       4.0000    total number of electrons
   NUPDOWN=      -1.0000    fix difference up-down

 DOS related values:
   EMIN   =  10.00;   EMAX   =-10.00  energy-range for DOS
   EFERMI =   0.00;   METHOD = LEGACY      
   ISMEAR =     0;   SIGMA  =   0.05  broadening in eV -4-tet -1-fermi 0-gaus
   EFERMI_NEDOS =   21; number of points for ismear=-14 and -15

 Electronic relaxation 2 (details)
   IALGO  =     38    algorithm
   LDIAG  =      T    sub-space diagonalisation (order eigenvalues)
   LSUBROT=      F    optimize rotation matrix (better conditioning)
   TURBO    =      0    0=normal 1=particle mesh
   IRESTART =      0    0=no restart 2=restart with 2 vectors
   NREBOOT  =      0    no. of reboots
   NMIN     =      0    reboot dimension
   EREF     =   0.00    reference energy to select bands
   IMIX   =      4    mixing-type and parameters
     AMIX     =   0.40;   BMIX     =  1.00
     AMIX_MAG =   1.60;   BMIX_MAG =  1.00
     AMIN     =   0.10
     WC   =   100.;   INIMIX=   1;  MIXPRE=   1;  MAXMIX= -45

 Intra band minimization:
   WEIMIN = 0.0000     energy-eigenvalue tresh-hold
   EBREAK =  0.60E-08  absolut break condition
   DEPER  =   0.30     relativ break condition  

   TIME   =   0.40     timestep for ELM

  volume/ion in A,a.u.               =     274.88      1854.96
  Fermi-wavevector in a.u.,A,eV,Ry     =   0.317229  0.599475  1.369208  0.100634
  Thomas-Fermi vector in A             =   1.200992
 
 Write flags
   LWAVE        =      F    write WAVECAR
   LDOWNSAMPLE  =      F    k-point downsampling of WAVECAR
   LCHARG       =      F    write CHGCAR
   LVTOT        =      F    write LOCPOT, total local potential
   LVHAR        =      F    write LOCPOT, Hartree potential only
   WRT_POTENTIAL= false  ! write potential to hdf5 file
   LELF         =      F    write electronic localiz. function (ELF)
   LORBIT       =      0    0 simple, 1 ext, 2 COOP (PROOUT), +10 PAW based schemes


 Python interface
   PLUGINS active      =      F    recompile with -DPLUGINS to activate
 
 Dipole corrections
   LMONO      =      F    monopole corrections only (constant potential shift)
   LDIPOL     =      T    correct potential (dipole corrections)
   IDIPOL     =      3    1-x, 2-y, 3-z, 4-all directions 
   EPSILON    =  1.0000000 bulk dielectric constant
   LVACPOTAV  =      F  vacuum potentials using an averaging scheme for the charge density
   VACPOTFLAT =  0.1000000 required flatness to determine vacuum potential
 
Coulomb truncation method
  LTRUNCATE          =      F  Coulomb kernel truncation to be used
  IDIMENSIONALITY    =      3  Dimensionality of cutoff (0 molecules / 2 surfaces)
  ISURFACE           =     -1  Direction of surface normal
  LCOARSEN           =      F  Coarsen the charge grid before padding, preferred

 
 Exchange correlation treatment:
   GGA     = PE    functional components
   XC_C    = 1    coefficients multiplying the functional components
   LIBXC   =     F    Libxc                    
   VOSKOWN =     0    Vosko Wilk Nusair interpolation
   LHFCALC =     F    Hartree Fock is set to
   LHFONE  =     F    Hartree Fock one center treatment
   AEXX    =    0.0000 exact exchange contribution

 Parameters of functionals:
   PE:
     No parameter
 
 Van der Waals corrections
   IVDW    =     0    specifies the selected vdW correction

 Linear response parameters
   LEPSILON=     F    determine dielectric tensor
   LRPA    =     F    only Hartree local field effects (RPA)
   LNABLA  =     F    use nabla operator in PAW spheres
   LVEL    =     F    velocity operator in full k-point grid
   CSHIFT  =0.1000    complex shift for real part using Kramers Kronig
   OMEGAMAX=  -1.0    maximum frequency
   DEG_THRESHOLD= 0.2000000E-02 threshold for treating states as degnerate
   RTIME   =   -0.100 relaxation time in fs
  (WPLASMAI=    0.000 imaginary part of plasma frequency in eV, 0.658/RTIME)
   DFIELD  = 0.0000000 0.0000000 0.0000000 field for delta impulse in time
 
  Optional k-point grid parameters
   LKPOINTS_OPT  =     F    use optional k-point grid
   KPOINTS_OPT_MODE=     1    mode for optional k-point grid
 
 Orbital magnetization related:
   ORBITALMAG=     F  switch on orbital magnetization
   LCHIMAG   =     F  perturbation theory with respect to B field
   DQ        =  0.001000  dq finite difference perturbation B field
   LLRAUG    =     F  two centre corrections for induced B field
   LBONE     =     F  B-component reconstruction in AE one-centre
   LVGVCALC  =     T  calculate vGv susceptibility
   LVGVAPPL  =     F  apply vGv susceptibility instead of pGv for G=0

 Random number generation:
   RANDOM_GENERATOR = DEFAULT
   PCG_SEED         = not used


--------------------------------------------------------------------------------------------------------


 Static calculation
 charge density and potential will be updated during run
 non-spin polarized calculation
 Variant of blocked Davidson
 Davidson routine will perform the subspace rotation
 perform sub-space diagonalisation
    after iterative eigenvector-optimisation
 modified Broyden-mixing scheme, WC =      100.0
 initial mixing is a Kerker type mixing with AMIX =  0.4000 and BMIX =      1.0000
 Hartree-type preconditioning will be used
 using additional bands           40
 reciprocal scheme for non local part
 use partial core corrections
 calculate Harris-corrections to forces 
   (improved forces if not selfconsistent)
 use gradient corrections 
 use of overlap-Matrix (Vanderbilt PP)
 Gauss-broadening in eV      SIGMA  =   0.05


--------------------------------------------------------------------------------------------------------


  energy-cutoff  :      600.00
  volume of cell :      549.75
      direct lattice vectors                 reciprocal lattice vectors
     3.450000000  1.991858429  0.000000000     0.144927536  0.251021856  0.000000000
    -3.450000000  1.991858429  0.000000000    -0.144927536  0.251021856  0.000000000
     0.000000000  0.000000000 40.000000000     0.000000000  0.000000000  0.025000000

  length of vectors
     3.983716857  3.983716857 40.000000000     0.289855072  0.289855072  0.025000000


 
 k-points in units of 2pi/SCALE and weight: k-points                                
   0.00000000  0.00000000  0.00000000       0.062
   0.03623188  0.06275546  0.00000000       0.375
   0.07246377  0.12551093  0.00000000       0.188
   0.00000000  0.12551093  0.00000000       0.375
 
 k-points in reciprocal lattice and weights: k-points                                
   0.00000000  0.00000000  0.00000000       0.062
   0.25000000  0.00000000  0.00000000       0.375
   0.50000000  0.00000000  0.00000000       0.188
   0.25000000  0.25000000  0.00000000       0.375
 
 position of ions in fractional coordinates (direct lattice) 
   0.33333333  0.66666667  0.10000000
   0.66666667  0.33333333  0.10000000
 
 position of ions in cartesian coordinates  (Angst):
  -1.15000000  1.99185843  4.00000000
   1.15000000  1.99185843  4.00000000
 


--------------------------------------------------------------------------------------------------------


 k-point     1 :   0.0000 0.0000 0.0000  plane waves:   18177
 k-point     2 :   0.2500 0.0000 0.0000  plane waves:   18314
 k-point     3 :   0.5000 0.0000 0.0000  plane waves:   18394
 k-point     4 :   0.2500 0.2500 0.0000  plane waves:   18362

 maximum and minimum number of plane-waves per node :     18394    18177

 maximum number of plane-waves:     18394
 maximum index in each direction: 
   IXMAX=    7   IYMAX=    7   IZMAX=   79
   IXMIN=   -8   IYMIN=   -8   IZMIN=  -79


 serial   3D FFT for wavefunctions
 parallel 3D FFT for charge:
    minimum data exchange during FFTs selected (reduces bandwidth)


 total amount of memory used by VASP MPI-rank0    57456. kBytes
=======================================================================

   base                                    :      30000. kBytes
   nonl-proj                               :       5298. kBytes
   fftplans                                :       3909. kBytes
   grid                                    :      17063. kBytes
   one-center                              :          6. kBytes
   wavefun                                 :       1180. kBytes
 
     INWAV:  cpu time      0.0000: real time      0.0000
 Broyden mixing: mesh for mixing (old mesh)
   NGX = 15   NGY = 15   NGZ =159
  (NGX  = 64   NGY  = 64   NGZ  =640)
  gives a total of  35775 points

 initial charge density was supplied:
 charge density of overlapping atoms calculated
 number of electron       4.0000000 magnetization 
 keeping initial charge density in first step


--------------------------------------------------------------------------------------------------------


 Maximum index for augmentation-charges          793 (set IRDMAX)


--------------------------------------------------------------------------------------------------------


 First call to EWALD:  gamma=   0.216
 Maximum number of real-space cells   6x   6x   1
 Maximum number of reciprocal cells   2x   2x  12

    FEWALD:  cpu time      0.0005: real time      0.0005


--------------------------------------- Ionic step        1  -------------------------------------------




--------------------------------------- Iteration      1(   1)  ---------------------------------------


    POTLOK:  cpu time      0.0510: real time      0.0526
    SETDIJ:  cpu time      0.0013: real time      0.0013
     EDDAV:  cpu time      0.2241: real time      0.2253
       DOS:  cpu time      0.0003: real time      0.0003
    --------------------------------------------
      LOOP:  cpu time      0.2770: real time      0.2798

 eigenvalue-minimisations  :   336
 total energy-change (2. order) : 0.3855519E+01  (-0.1137258E+03)
 number of electron       4.0000000 magnetization 
 augmentation part        4.0000000 magnetization 

 DIPCOR: dipole corrections for dipol
 direction  3 min pos   385,
 dipolmoment           0.000000      0.000000      0.000000 electrons x Angstroem
 Tr[quadrupol]       -11.629474

 energy correction for charged system         0.000000 eV
 dipol+quadrupol energy correction           -0.000000 eV
 added-field ion interaction         -0.000000 eV  (added to PSCEN)


 Free energy of the ion-electron system (eV)
  ---------------------------------------------------
  alpha Z        PSCENC =         0.12710513
  Ewald energy   TEWEN  =       267.87820229
  -Hartree energ DENC   =      -302.84367504
  -exchange      EXHF   =         0.00000000
  -V(xc)+E(xc)   XCENC  =         5.20344317
  PAW double counting   =        30.51246266      -29.24515235
  entropy T*S    EENTRO =        -0.00000000
  eigenvalues    EBANDS =       -22.73537418
  atomic energy  EATOM  =        54.95850721
  Solvation  Ediel_sol  =         0.00000000
  ---------------------------------------------------
  free energy    TOTEN  =         3.85551889 eV

  energy without entropy =        3.85551889  energy(sigma->0) =        3.85551889


--------------------------------------------------------------------------------------------------------




--------------------------------------- Iteration      1(   2)  ---------------------------------------


     EDDAV:  cpu time      0.2797: real time      0.2813
       DOS:  cpu time      0.0004: real time      0.0004
    --------------------------------------------
      LOOP:  cpu time      0.2800: real time      0.2816

 eigenvalue-minimisations  :   462
 total energy-change (2. order) :-0.7076752E+01  (-0.6642274E+01)
 number of electron       4.0000000 magnetization 
 augmentation part        4.0000000 magnetization 

 DIPCOR: dipole corrections for dipol
 direction  3 min pos   385,
 dipolmoment           0.000000      0.000000      0.000000 electrons x Angstroem
 Tr[quadrupol]       -11.629474

 energy correction for charged system         0.000000 eV
 dipol+quadrupol energy correction           -0.000000 eV
 added-field ion interaction         -0.000000 eV  (added to PSCEN)


 Free energy of the ion-electron system (eV)
  ---------------------------------------------------
  alpha Z        PSCENC =         0.12710513
  Ewald energy   TEWEN  =       267.87820229
  -Hartree energ DENC   =      -302.84367504
  -exchange      EXHF   =         0.00000000
  -V(xc)+E(xc)   XCENC  =         5.20344317
  PAW double counting   =        30.51246266      -29.24515235
  entropy T*S    EENTRO =        -0.00387586
  eigenvalues    EBANDS =       -29.80824998
  atomic energy  EATOM  =        54.95850721
  Solvation  Ediel_sol  =         0.00000000
  ---------------------------------------------------
  free energy    TOTEN  =        -3.22123277 eV

  energy without entropy =       -3.21735691  energy(sigma->0) =       -3.21929484


--------------------------------------------------------------------------------------------------------




--------------------------------------- Iteration      1(   3)  ---------------------------------------


     EDDAV:  cpu time      0.3179: real time      0.3196
       DOS:  cpu time      0.0064: real time      0.0064
    --------------------------------------------
      LOOP:  cpu time      0.3242: real time      0.3260

 eigenvalue-minimisations  :   504
 total energy-change (2. order) :-0.6455486E-01  (-0.6423217E-01)
 number of electron       4.0000000 magnetization 
 augmentation part        4.0000000 magnetization 

 DIPCOR: dipole corrections for dipol
 direction  3 min pos   385,
 dipolmoment           0.000000      0.000000      0.000000 electrons x Angstroem
 Tr[quadrupol]       -11.629474

 energy correction for charged system         0.000000 eV
 dipol+quadrupol energy correction           -0.000000 eV
 added-field ion interaction         -0.000000 eV  (added to PSCEN)


 Free energy of the ion-electron system (eV)
  ---------------------------------------------------
  alpha Z        PSCENC =         0.12710513
  Ewald energy   TEWEN  =       267.87820229
  -Hartree energ DENC   =      -302.84367504
  -exchange      EXHF   =         0.00000000
  -V(xc)+E(xc)   XCENC  =         5.20344317
  PAW double counting   =        30.51246266      -29.24515235
  entropy T*S    EENTRO =        -0.00551873
  eigenvalues    EBANDS =       -29.87116197
  atomic energy  EATOM  =        54.95850721
  Solvation  Ediel_sol  =         0.00000000
  ---------------------------------------------------
  free energy    TOTEN  =        -3.28578763 eV

  energy without entropy =       -3.28026889  energy(sigma->0) =       -3.28302826


--------------------------------------------------------------------------------------------------------




--------------------------------------- Iteration      1(   4)  ---------------------------------------


     EDDAV:  cpu time      0.7309: real time      0.7349
       DOS:  cpu time      0.0004: real time      0.0004
    --------------------------------------------
      LOOP:  cpu time      0.7314: real time      0.7353

 eigenvalue-minimisations  :   546
 total energy-change (2. order) :-0.2149636E-03  (-0.2149633E-03)
 number of electron       4.0000000 magnetization 
 augmentation part        4.0000000 magnetization 

 DIPCOR: dipole corrections for dipol
 direction  3 min pos   385,
 dipolmoment           0.000000      0.000000      0.000000 electrons x Angstroem
 Tr[quadrupol]       -11.629474

 energy correction for charged system         0.000000 eV
 dipol+quadrupol energy correction           -0.000000 eV
 added-field ion interaction         -0.000000 eV  (added to PSCEN)


 Free energy of the ion-electron system (eV)
  ---------------------------------------------------
  alpha Z        PSCENC =         0.12710513
  Ewald energy   TEWEN  =       267.87820229
  -Hartree energ DENC   =      -302.84367504
  -exchange      EXHF   =         0.00000000
  -V(xc)+E(xc)   XCENC  =         5.20344317
  PAW double counting   =        30.51246266      -29.24515235
  entropy T*S    EENTRO =        -0.00551908
  eigenvalues    EBANDS =       -29.87137659
  atomic energy  EATOM  =        54.95850721
  Solvation  Ediel_sol  =         0.00000000
  ---------------------------------------------------
  free energy    TOTEN  =        -3.28600259 eV

  energy without entropy =       -3.28048351  energy(sigma->0) =       -3.28324305


--------------------------------------------------------------------------------------------------------




--------------------------------------- Iteration      1(   5)  ---------------------------------------


     EDDAV:  cpu time      0.6653: real time      0.6688
       DOS:  cpu time      0.0004: real time      0.0004
    CHARGE:  cpu time      0.0641: real time      0.0644
    MIXING:  cpu time      0.0064: real time      0.0065
    --------------------------------------------
      LOOP:  cpu time      0.7361: real time      0.7399

 eigenvalue-minimisations  :   588
 total energy-change (2. order) :-0.1263039E-06  (-0.1265446E-06)
 number of electron       4.0000000 magnetization 
 augmentation part       -0.1000988 magnetization 

 DIPCOR: dipole corrections for dipol
 direction  3 min pos   385,
 dipolmoment           0.000000      0.000000      0.000000 electrons x Angstroem
 Tr[quadrupol]       -11.629474

 energy correction for charged system         0.000000 eV
 dipol+quadrupol energy correction           -0.000000 eV
 added-field ion interaction         -0.000000 eV  (added to PSCEN)


 Broyden mixing:
  rms(total) = 0.17369E+00    rms(broyden)= 0.17369E+00
  rms(prec ) = 0.18201E+00
  weight for this iteration     100.00

 Free energy of the ion-electron system (eV)
  ---------------------------------------------------
  alpha Z        PSCENC =         0.12710513
  Ewald energy   TEWEN  =       267.87820229
  -Hartree energ DENC   =      -302.84367504
  -exchange      EXHF   =         0.00000000
  -V(xc)+E(xc)   XCENC  =         5.20344317
  PAW double counting   =        30.51246266      -29.24515235
  entropy T*S    EENTRO =        -0.00551908
  eigenvalues    EBANDS =       -29.87137671
  atomic energy  EATOM  =        54.95850721
  Solvation  Ediel_sol  =         0.00000000
  ---------------------------------------------------
  free energy    TOTEN  =        -3.28600272 eV

  energy without entropy =       -3.28048364  energy(sigma->0) =       -3.28324318


--------------------------------------------------------------------------------------------------------




--------------------------------------- Iteration      1(   6)  ---------------------------------------


    POTLOK:  cpu time      0.0727: real time      0.0732
    SETDIJ:  cpu time      0.0061: real time      0.0062
     EDDAV:  cpu time      1.4177: real time      1.4250
       DOS:  cpu time      0.1313: real time      0.1319
    CHARGE:  cpu time      0.6971: real time      0.7011
    MIXING:  cpu time      0.0627: real time      0.0631
    --------------------------------------------
      LOOP:  cpu time      2.3877: real time      2.4006

 eigenvalue-minimisations  :   462
 total energy-change (2. order) : 0.9314044E-01  (-0.3627969E-02)
 number of electron       4.0000000 magnetization 
 augmentation part       -0.0984579 magnetization 

 DIPCOR: dipole corrections for dipol
 direction  3 min pos   385,
 dipolmoment           0.000000      0.000000      0.000000 electrons x Angstroem
 Tr[quadrupol]       -11.727503

 energy correction for charged system         0.000000 eV
 dipol+quadrupol energy correction           -0.000000 eV
 added-field ion interaction         -0.000000 eV  (added to PSCEN)


 Broyden mixing:
  rms(total) = 0.99122E-01    rms(broyden)= 0.99122E-01
  rms(prec ) = 0.10457E+00
  weight for this iteration     100.00

 eigenvalues of (default mixing * dielectric matrix)
  average eigenvalue GAMMA=   2.2817
  2.2817

 Free energy of the ion-electron system (eV)
  ---------------------------------------------------
  alpha Z        PSCENC =         0.12710513
  Ewald energy   TEWEN  =       267.87820229
  -Hartree energ DENC   =      -304.11561873
  -exchange      EXHF   =         0.00000000
  -V(xc)+E(xc)   XCENC  =         5.25577013
  PAW double counting   =        40.02808934      -38.78771497
  entropy T*S    EENTRO =        -0.00015244
  eigenvalues    EBANDS =       -28.53705024
  atomic energy  EATOM  =        54.95850721
  Solvation  Ediel_sol  =         0.00000000
  ---------------------------------------------------
  free energy    TOTEN  =        -3.19286228 eV

  energy without entropy =       -3.19270984  energy(sigma->0) =       -3.19278606


--------------------------------------------------------------------------------------------------------




--------------------------------------- Iteration      1(   7)  ---------------------------------------


    POTLOK:  cpu time      0.5223: real time      0.5253
    SETDIJ:  cpu time      0.0304: real time      0.0306
     EDDAV:  cpu time      1.9363: real time      1.9460
       DOS:  cpu time      0.0717: real time      0.0720
    CHARGE:  cpu time      0.4528: real time      0.4549
    MIXING:  cpu time      0.0008: real time      0.0008
    --------------------------------------------
      LOOP:  cpu time      3.0142: real time      3.0295

 eigenvalue-minimisations  :   546
 total energy-change (2. order) : 0.6486213E-01  (-0.7041721E-02)
 number of electron       4.0000000 magnetization 
 augmentation part       -0.0973753 magnetization 

 DIPCOR: dipole corrections for dipol
 direction  3 min pos   385,
 dipolmoment           0.000000      0.000000     -0.000000 electrons x Angstroem
 Tr[quadrupol]       -11.899051

 energy correction for charged system         0.000000 eV
 dipol+quadrupol energy correction           -0.000000 eV
 added-field ion interaction          0.000000 eV  (added to PSCEN)


 Broyden mixing:
  rms(total) = 0.17977E-01    rms(broyden)= 0.17977E-01
  rms(prec ) = 0.21329E-01
  weight for this iteration     100.00

 eigenvalues of (default mixing * dielectric matrix)
  average eigenvalue GAMMA=   2.1287
  1.3264  2.9309

 Free energy of the ion-electron system (eV)
  ---------------------------------------------------
  alpha Z        PSCENC =         0.12710513
  Ewald energy   TEWEN  =       267.87820229
  -Hartree energ DENC   =      -306.22259072
  -exchange      EXHF   =         0.00000000
  -V(xc)+E(xc)   XCENC  =         5.36069441
  PAW double counting   =        54.32562785      -53.11507425
  entropy T*S    EENTRO =        -0.00000000
  eigenvalues    EBANDS =       -26.44047206
  atomic energy  EATOM  =        54.95850721
  Solvation  Ediel_sol  =         0.00000000
  ---------------------------------------------------
  free energy    TOTEN  =        -3.12800015 eV

  energy without entropy =       -3.12800015  energy(sigma->0) =       -3.12800015


--------------------------------------------------------------------------------------------------------




--------------------------------------- Iteration      1(   8)  ---------------------------------------


    POTLOK:  cpu time      0.0798: real time      0.0804
    SETDIJ:  cpu time      0.0060: real time      0.0060
     EDDAV:  cpu time      0.9763: real time      0.9809
       DOS:  cpu time      0.0002: real time      0.0002
    CHARGE:  cpu time      0.0396: real time      0.0398
    MIXING:  cpu time      0.0011: real time      0.0011
    --------------------------------------------
      LOOP:  cpu time      1.1029: real time      1.1083

 eigenvalue-minimisations  :   504
 total energy-change (2. order) : 0.9615113E-02  (-0.8907451E-03)
 number of electron       4.0000000 magnetization 
 augmentation part       -0.0970090 magnetization 

 DIPCOR: dipole corrections for dipol
 direction  3 min pos   385,
 dipolmoment           0.000000      0.000000     -0.000000 electrons x Angstroem
 Tr[quadrupol]       -12.009936

 energy correction for charged system         0.000000 eV
 dipol+quadrupol energy correction           -0.000000 eV
 added-field ion interaction          0.000000 eV  (added to PSCEN)


 Broyden mixing:
  rms(total) = 0.11664E-01    rms(broyden)= 0.11664E-01
  rms(prec ) = 0.13336E-01
  weight for this iteration     100.00

 eigenvalues of (default mixing * dielectric matrix)
  average eigenvalue GAMMA=   2.3702
  0.9807  2.6068  3.5231

 Free energy of the ion-electron system (eV)
  ---------------------------------------------------
  alpha Z        PSCENC =         0.12710513
  Ewald energy   TEWEN  =       267.87820229
  -Hartree energ DENC   =      -307.25709094
  -exchange      EXHF   =         0.00000000
  -V(xc)+E(xc)   XCENC  =         5.41043422
  PAW double counting   =        56.58305151      -55.37384487
  entropy T*S    EENTRO =        -0.00000000
  eigenvalues    EBANDS =       -25.44474958
  atomic energy  EATOM  =        54.95850721
  Solvation  Ediel_sol  =         0.00000000
  ---------------------------------------------------
  free energy    TOTEN  =        -3.11838503 eV

  energy without entropy =       -3.11838503  energy(sigma->0) =       -3.11838503


--------------------------------------------------------------------------------------------------------




--------------------------------------- Iteration      1(   9)  ---------------------------------------


    POTLOK:  cpu time      0.0374: real time      0.0376
    SETDIJ:  cpu time      0.0011: real time      0.0011
     EDDAV:  cpu time      0.3467: real time      0.3485
       DOS:  cpu time      0.0003: real time      0.0003
    CHARGE:  cpu time      0.0467: real time      0.0470
    MIXING:  cpu time      0.0012: real time      0.0012
    --------------------------------------------
      LOOP:  cpu time      0.4334: real time      0.4356

 eigenvalue-minimisations  :   504
 total energy-change (2. order) : 0.1313898E-02  (-0.1417614E-03)
 number of electron       4.0000000 magnetization 
 augmentation part       -0.0969887 magnetization 

 DIPCOR: dipole corrections for dipol
 direction  3 min pos   385,
 dipolmoment           0.000000      0.000000     -0.000000 electrons x Angstroem
 Tr[quadrupol]       -12.120580

 energy correction for charged system         0.000000 eV
 dipol+quadrupol energy correction           -0.000000 eV
 added-field ion interaction          0.000000 eV  (added to PSCEN)


 Broyden mixing:
  rms(total) = 0.34295E-02    rms(broyden)= 0.34295E-02
  rms(prec ) = 0.48103E-02
  weight for this iteration     100.00

 eigenvalues of (default mixing * dielectric matrix)
  average eigenvalue GAMMA=   2.6162
  1.0083  3.5118  3.5118  2.4330

 Free energy of the ion-electron system (eV)
  ---------------------------------------------------
  alpha Z        PSCENC =         0.12710513
  Ewald energy   TEWEN  =       267.87820229
  -Hartree energ DENC   =      -307.90611023
  -exchange      EXHF   =         0.00000000
  -V(xc)+E(xc)   XCENC  =         5.43165358
  PAW double counting   =        53.03438959      -51.81519164
  entropy T*S    EENTRO =        -0.00000000
  eigenvalues    EBANDS =       -24.82562706
  atomic energy  EATOM  =        54.95850721
  Solvation  Ediel_sol  =         0.00000000
  ---------------------------------------------------
  free energy    TOTEN  =        -3.11707114 eV

  energy without entropy =       -3.11707114  energy(sigma->0) =       -3.11707114


--------------------------------------------------------------------------------------------------------




--------------------------------------- Iteration      1(  10)  ---------------------------------------


    POTLOK:  cpu time      0.0395: real time      0.0398
    SETDIJ:  cpu time      0.0016: real time      0.0016
     EDDAV:  cpu time      0.3879: real time      0.3899
       DOS:  cpu time      0.0003: real time      0.0003
    CHARGE:  cpu time      0.0382: real time      0.0383
    MIXING:  cpu time      0.0010: real time      0.0010
    --------------------------------------------
      LOOP:  cpu time      0.4686: real time      0.4709

 eigenvalue-minimisations  :   546
 total energy-change (2. order) :-0.1134576E-02  (-0.6757929E-04)
 number of electron       4.0000000 magnetization 
 augmentation part       -0.0969188 magnetization 

 DIPCOR: dipole corrections for dipol
 direction  3 min pos   385,
 dipolmoment           0.000000      0.000000     -0.000000 electrons x Angstroem
 Tr[quadrupol]       -12.204135

 energy correction for charged system         0.000000 eV
 dipol+quadrupol energy correction           -0.000000 eV
 added-field ion interaction          0.000000 eV  (added to PSCEN)


 Broyden mixing:
  rms(total) = 0.19676E-02    rms(broyden)= 0.19676E-02
  rms(prec ) = 0.26053E-02
  weight for this iteration     100.00

 eigenvalues of (default mixing * dielectric matrix)
  average eigenvalue GAMMA=   2.5132
  4.8326  3.1506  2.6262  1.0199  0.9370

 Free energy of the ion-electron system (eV)
  ---------------------------------------------------
  alpha Z        PSCENC =         0.12710513
  Ewald energy   TEWEN  =       267.87820229
  -Hartree energ DENC   =      -308.31767775
  -exchange      EXHF   =         0.00000000
  -V(xc)+E(xc)   XCENC  =         5.43988655
  PAW double counting   =        53.44451561      -52.22858780
  entropy T*S    EENTRO =        -0.00000000
  eigenvalues    EBANDS =       -24.42015694
  atomic energy  EATOM  =        54.95850721
  Solvation  Ediel_sol  =         0.00000000
  ---------------------------------------------------
  free energy    TOTEN  =        -3.11820571 eV

  energy without entropy =       -3.11820571  energy(sigma->0) =       -3.11820571


--------------------------------------------------------------------------------------------------------




--------------------------------------- Iteration      1(  11)  ---------------------------------------


    POTLOK:  cpu time      0.0380: real time      0.0381
    SETDIJ:  cpu time      0.0012: real time      0.0012
     EDDAV:  cpu time      0.3421: real time      0.3435
       DOS:  cpu time      0.0002: real time      0.0002
    CHARGE:  cpu time      0.0393: real time      0.0395
    MIXING:  cpu time      0.0009: real time      0.0009
    --------------------------------------------
      LOOP:  cpu time      0.4216: real time      0.4235

 eigenvalue-minimisations  :   546
 total energy-change (2. order) :-0.3332837E-03  (-0.1974573E-04)
 number of electron       4.0000000 magnetization 
 augmentation part       -0.0968737 magnetization 

 DIPCOR: dipole corrections for dipol
 direction  3 min pos   385,
 dipolmoment           0.000000      0.000000     -0.000000 electrons x Angstroem
 Tr[quadrupol]       -12.244897

 energy correction for charged system         0.000000 eV
 dipol+quadrupol energy correction           -0.000000 eV
 added-field ion interaction          0.000000 eV  (added to PSCEN)


 Broyden mixing:
  rms(total) = 0.10888E-02    rms(broyden)= 0.10888E-02
  rms(prec ) = 0.15034E-02
  weight for this iteration     100.00

 eigenvalues of (default mixing * dielectric matrix)
  average eigenvalue GAMMA=   2.9507
  6.4309  3.9306  0.9904  1.0179  2.7400  2.5947

 Free energy of the ion-electron system (eV)
  ---------------------------------------------------
  alpha Z        PSCENC =         0.12710513
  Ewald energy   TEWEN  =       267.87820229
  -Hartree energ DENC   =      -308.53980465
  -exchange      EXHF   =         0.00000000
  -V(xc)+E(xc)   XCENC  =         5.44566220
  PAW double counting   =        53.76055289      -52.54524371
  entropy T*S    EENTRO =        -0.00000000
  eigenvalues    EBANDS =       -24.20352035
  atomic energy  EATOM  =        54.95850721
  Solvation  Ediel_sol  =         0.00000000
  ---------------------------------------------------
  free energy    TOTEN  =        -3.11853900 eV

  energy without entropy =       -3.11853900  energy(sigma->0) =       -3.11853900


--------------------------------------------------------------------------------------------------------




--------------------------------------- Iteration      1(  12)  ---------------------------------------


    POTLOK:  cpu time      0.0356: real time      0.0358
    SETDIJ:  cpu time      0.0011: real time      0.0011
     EDDAV:  cpu time      0.3043: real time      0.3058
       DOS:  cpu time      0.0002: real time      0.0002
    CHARGE:  cpu time      0.0412: real time      0.0414
    MIXING:  cpu time      0.0014: real time      0.0014
    --------------------------------------------
      LOOP:  cpu time      0.3838: real time      0.3857

 eigenvalue-minimisations  :   462
 total energy-change (2. order) :-0.6823230E-03  (-0.2081265E-04)
 number of electron       4.0000000 magnetization 
 augmentation part       -0.0968668 magnetization 

 DIPCOR: dipole corrections for dipol
 direction  3 min pos   385,
 dipolmoment           0.000000      0.000000     -0.000000 electrons x Angstroem
 Tr[quadrupol]       -12.289285

 energy correction for charged system         0.000000 eV
 dipol+quadrupol energy correction           -0.000000 eV
 added-field ion interaction          0.000000 eV  (added to PSCEN)


 Broyden mixing:
  rms(total) = 0.42022E-03    rms(broyden)= 0.42022E-03
  rms(prec ) = 0.55585E-03
  weight for this iteration     100.00

 eigenvalues of (default mixing * dielectric matrix)
  average eigenvalue GAMMA=   3.1740
  7.2043  4.4562  0.9925  1.0120  3.2728  2.7670  2.5134

 Free energy of the ion-electron system (eV)
  ---------------------------------------------------
  alpha Z        PSCENC =         0.12710513
  Ewald energy   TEWEN  =       267.87820229
  -Hartree energ DENC   =      -308.71313684
  -exchange      EXHF   =         0.00000000
  -V(xc)+E(xc)   XCENC  =         5.44665949
  PAW double counting   =        53.46523687      -52.24776601
  entropy T*S    EENTRO =        -0.00000000
  eigenvalues    EBANDS =       -24.03402945
  atomic energy  EATOM  =        54.95850721
  Solvation  Ediel_sol  =         0.00000000
  ---------------------------------------------------
  free energy    TOTEN  =        -3.11922132 eV

  energy without entropy =       -3.11922132  energy(sigma->0) =       -3.11922132


--------------------------------------------------------------------------------------------------------




--------------------------------------- Iteration      1(  13)  ---------------------------------------


    POTLOK:  cpu time      0.0373: real time      0.0375
    SETDIJ:  cpu time      0.0011: real time      0.0011
     EDDAV:  cpu time      0.2884: real time      0.2898
       DOS:  cpu time      0.0003: real time      0.0003
    CHARGE:  cpu time      0.0385: real time      0.0387
    MIXING:  cpu time      0.0009: real time      0.0009
    --------------------------------------------
      LOOP:  cpu time      0.3666: real time      0.3684

 eigenvalue-minimisations  :   462
 total energy-change (2. order) :-0.4006640E-03  (-0.6784417E-05)
 number of electron       4.0000000 magnetization 
 augmentation part       -0.0968613 magnetization 

 DIPCOR: dipole corrections for dipol
 direction  3 min pos   385,
 dipolmoment           0.000000      0.000000     -0.000000 electrons x Angstroem
 Tr[quadrupol]       -12.302059

 energy correction for charged system         0.000000 eV
 dipol+quadrupol energy correction           -0.000000 eV
 added-field ion interaction          0.000000 eV  (added to PSCEN)


 Broyden mixing:
  rms(total) = 0.15042E-03    rms(broyden)= 0.15042E-03
  rms(prec ) = 0.21334E-03
  weight for this iteration     100.00

 eigenvalues of (default mixing * dielectric matrix)
  average eigenvalue GAMMA=   3.0123
  7.9372  4.6155  3.5090  2.5586  2.5586  1.0267  0.9777  0.9154

 Free energy of the ion-electron system (eV)
  ---------------------------------------------------
  alpha Z        PSCENC =         0.12710513
  Ewald energy   TEWEN  =       267.87820229
  -Hartree energ DENC   =      -308.75739656
  -exchange      EXHF   =         0.00000000
  -V(xc)+E(xc)   XCENC  =         5.44683995
  PAW double counting   =        53.48604522      -52.26936905
  entropy T*S    EENTRO =        -0.00000000
  eigenvalues    EBANDS =       -23.98955616
  atomic energy  EATOM  =        54.95850721
  Solvation  Ediel_sol  =         0.00000000
  ---------------------------------------------------
  free energy    TOTEN  =        -3.11962198 eV

  energy without entropy =       -3.11962198  energy(sigma->0) =       -3.11962198


--------------------------------------------------------------------------------------------------------




--------------------------------------- Iteration      1(  14)  ---------------------------------------


    POTLOK:  cpu time      0.0344: real time      0.0346
    SETDIJ:  cpu time      0.0008: real time      0.0008
     EDDAV:  cpu time      0.3942: real time      0.3962
       DOS:  cpu time      0.0003: real time      0.0003
    CHARGE:  cpu time      0.0552: real time      0.0555
    MIXING:  cpu time      0.0012: real time      0.0012
    --------------------------------------------
      LOOP:  cpu time      0.4862: real time      0.4886

 eigenvalue-minimisations  :   588
 total energy-change (2. order) :-0.6593921E-04  (-0.3887157E-06)
 number of electron       4.0000000 magnetization 
 augmentation part       -0.0968591 magnetization 

 DIPCOR: dipole corrections for dipol
 direction  3 min pos   385,
 dipolmoment           0.000000      0.000000     -0.000000 electrons x Angstroem
 Tr[quadrupol]       -12.307556

 energy correction for charged system         0.000000 eV
 dipol+quadrupol energy correction           -0.000000 eV
 added-field ion interaction          0.000000 eV  (added to PSCEN)


 Broyden mixing:
  rms(total) = 0.15422E-03    rms(broyden)= 0.15422E-03
  rms(prec ) = 0.18257E-03
  weight for this iteration     100.00

 eigenvalues of (default mixing * dielectric matrix)
  average eigenvalue GAMMA=   3.1878
  8.3786  5.5752  3.3847  3.3847  2.4831  2.4831  1.0224  0.9890  0.9890

 Free energy of the ion-electron system (eV)
  ---------------------------------------------------
  alpha Z        PSCENC =         0.12710513
  Ewald energy   TEWEN  =       267.87820229
  -Hartree energ DENC   =      -308.77726783
  -exchange      EXHF   =         0.00000000
  -V(xc)+E(xc)   XCENC  =         5.44711838
  PAW double counting   =        53.49432190      -52.27766792
  entropy T*S    EENTRO =        -0.00000000
  eigenvalues    EBANDS =       -23.97000708
  atomic energy  EATOM  =        54.95850721
  Solvation  Ediel_sol  =         0.00000000
  ---------------------------------------------------
  free energy    TOTEN  =        -3.11968792 eV

  energy without entropy =       -3.11968792  energy(sigma->0) =       -3.11968792


--------------------------------------------------------------------------------------------------------




--------------------------------------- Iteration      1(  15)  ---------------------------------------


    POTLOK:  cpu time      0.0331: real time      0.0332
    SETDIJ:  cpu time      0.0012: real time      0.0012
     EDDAV:  cpu time      0.2996: real time      0.3012
       DOS:  cpu time      0.0003: real time      0.0003
    CHARGE:  cpu time      0.0481: real time      0.0483
    MIXING:  cpu time      0.0016: real time      0.0016
    --------------------------------------------
      LOOP:  cpu time      0.3839: real time      0.3858

 eigenvalue-minimisations  :   420
 total energy-change (2. order) :-0.8081172E-04  (-0.1212531E-05)
 number of electron       4.0000000 magnetization 
 augmentation part       -0.0968634 magnetization 

 DIPCOR: dipole corrections for dipol
 direction  3 min pos   385,
 dipolmoment           0.000000      0.000000     -0.000000 electrons x Angstroem
 Tr[quadrupol]       -12.311393

 energy correction for charged system         0.000000 eV
 dipol+quadrupol energy correction           -0.000000 eV
 added-field ion interaction          0.000000 eV  (added to PSCEN)


 Broyden mixing:
  rms(total) = 0.64195E-04    rms(broyden)= 0.64195E-04
  rms(prec ) = 0.73704E-04
  weight for this iteration     100.00

 eigenvalues of (default mixing * dielectric matrix)
  average eigenvalue GAMMA=   3.2828
  7.8580  7.2122  3.8058  3.5140  2.8818  2.4901  2.0535  1.0000  1.0000  1.0125

 Free energy of the ion-electron system (eV)
  ---------------------------------------------------
  alpha Z        PSCENC =         0.12710513
  Ewald energy   TEWEN  =       267.87820229
  -Hartree energ DENC   =      -308.78047287
  -exchange      EXHF   =         0.00000000
  -V(xc)+E(xc)   XCENC  =         5.44685439
  PAW double counting   =        53.50539549      -52.28851685
  entropy T*S    EENTRO =        -0.00000000
  eigenvalues    EBANDS =       -23.96684351
  atomic energy  EATOM  =        54.95850721
  Solvation  Ediel_sol  =         0.00000000
  ---------------------------------------------------
  free energy    TOTEN  =        -3.11976873 eV

  energy without entropy =       -3.11976873  energy(sigma->0) =       -3.11976873


--------------------------------------------------------------------------------------------------------




--------------------------------------- Iteration      1(  16)  ---------------------------------------


    POTLOK:  cpu time      0.0368: real time      0.0370
    SETDIJ:  cpu time      0.0011: real time      0.0011
     EDDAV:  cpu time      0.3853: real time      0.3873
       DOS:  cpu time      0.0005: real time      0.0005
    CHARGE:  cpu time      0.0451: real time      0.0453
    MIXING:  cpu time      0.0017: real time      0.0017
    --------------------------------------------
      LOOP:  cpu time      0.4705: real time      0.4729

 eigenvalue-minimisations  :   546
 total energy-change (2. order) :-0.1850492E-04  (-0.2907256E-06)
 number of electron       4.0000000 magnetization 
 augmentation part       -0.0968633 magnetization 

 DIPCOR: dipole corrections for dipol
 direction  3 min pos   385,
 dipolmoment           0.000000      0.000000     -0.000000 electrons x Angstroem
 Tr[quadrupol]       -12.312282

 energy correction for charged system         0.000000 eV
 dipol+quadrupol energy correction           -0.000000 eV
 added-field ion interaction          0.000000 eV  (added to PSCEN)


 Broyden mixing:
  rms(total) = 0.21416E-04    rms(broyden)= 0.21416E-04
  rms(prec ) = 0.29627E-04
  weight for this iteration     100.00

 eigenvalues of (default mixing * dielectric matrix)
  average eigenvalue GAMMA=   3.1534
  8.5126  6.6037  4.2380  3.3147  3.0328  2.5144  2.3997  0.9873  1.0092  1.0092
  1.0657

 Free energy of the ion-electron system (eV)
  ---------------------------------------------------
  alpha Z        PSCENC =         0.12710513
  Ewald energy   TEWEN  =       267.87820229
  -Hartree energ DENC   =      -308.77940238
  -exchange      EXHF   =         0.00000000
  -V(xc)+E(xc)   XCENC  =         5.44679290
  PAW double counting   =        53.49930185      -52.28244139
  entropy T*S    EENTRO =        -0.00000000
  eigenvalues    EBANDS =       -23.96785283
  atomic energy  EATOM  =        54.95850721
  Solvation  Ediel_sol  =         0.00000000
  ---------------------------------------------------
  free energy    TOTEN  =        -3.11978724 eV

  energy without entropy =       -3.11978724  energy(sigma->0) =       -3.11978724


--------------------------------------------------------------------------------------------------------




--------------------------------------- Iteration      1(  17)  ---------------------------------------


    POTLOK:  cpu time      0.0448: real time      0.0451
    SETDIJ:  cpu time      0.0012: real time      0.0012
     EDDAV:  cpu time      0.2955: real time      0.2969
       DOS:  cpu time      0.0002: real time      0.0002
    CHARGE:  cpu time      0.0570: real time      0.0573
    MIXING:  cpu time      0.0018: real time      0.0018
    --------------------------------------------
      LOOP:  cpu time      0.4005: real time      0.4025

 eigenvalue-minimisations  :   420
 total energy-change (2. order) :-0.2589954E-05  (-0.9726452E-08)
 number of electron       4.0000000 magnetization 
 augmentation part       -0.0968623 magnetization 

 DIPCOR: dipole corrections for dipol
 direction  3 min pos   385,
 dipolmoment           0.000000      0.000000     -0.000000 electrons x Angstroem
 Tr[quadrupol]       -12.313638

 energy correction for charged system         0.000000 eV
 dipol+quadrupol energy correction           -0.000000 eV
 added-field ion interaction          0.000000 eV  (added to PSCEN)


 Broyden mixing:
  rms(total) = 0.14661E-04    rms(broyden)= 0.14661E-04
  rms(prec ) = 0.17988E-04
  weight for this iteration     100.00

 eigenvalues of (default mixing * dielectric matrix)
  average eigenvalue GAMMA=   3.3132
  8.8950  6.8075  5.4575  3.4894  3.3857  2.9015  2.5218  2.2804  0.9850  1.0078
  1.0078  1.0194

 Free energy of the ion-electron system (eV)
  ---------------------------------------------------
  alpha Z        PSCENC =         0.12710513
  Ewald energy   TEWEN  =       267.87820229
  -Hartree energ DENC   =      -308.78379663
  -exchange      EXHF   =         0.00000000
  -V(xc)+E(xc)   XCENC  =         5.44688313
  PAW double counting   =        53.49483444      -52.27801335
  entropy T*S    EENTRO =        -0.00000000
  eigenvalues    EBANDS =       -23.96351204
  atomic energy  EATOM  =        54.95850721
  Solvation  Ediel_sol  =         0.00000000
  ---------------------------------------------------
  free energy    TOTEN  =        -3.11978983 eV

  energy without entropy =       -3.11978983  energy(sigma->0) =       -3.11978983


--------------------------------------------------------------------------------------------------------




--------------------------------------- Iteration      1(  18)  ---------------------------------------


    POTLOK:  cpu time      0.0405: real time      0.0407
    SETDIJ:  cpu time      0.0011: real time      0.0011
     EDDAV:  cpu time      0.3011: real time      0.3026
       DOS:  cpu time      0.0002: real time      0.0002
    CHARGE:  cpu time      0.0425: real time      0.0427
    MIXING:  cpu time      0.0018: real time      0.0018
    --------------------------------------------
      LOOP:  cpu time      0.3872: real time      0.3892

 eigenvalue-minimisations  :   420
 total energy-change (2. order) :-0.2751709E-05  (-0.7545764E-08)
 number of electron       4.0000000 magnetization 
 augmentation part       -0.0968624 magnetization 

 DIPCOR: dipole corrections for dipol
 direction  3 min pos   385,
 dipolmoment           0.000000      0.000000     -0.000000 electrons x Angstroem
 Tr[quadrupol]       -12.314669

 energy correction for charged system         0.000000 eV
 dipol+quadrupol energy correction           -0.000000 eV
 added-field ion interaction          0.000000 eV  (added to PSCEN)


 Broyden mixing:
  rms(total) = 0.64743E-05    rms(broyden)= 0.64743E-05
  rms(prec ) = 0.78783E-05
  weight for this iteration     100.00

 eigenvalues of (default mixing * dielectric matrix)
  average eigenvalue GAMMA=   3.2402
  8.4774  7.8070  5.0343  4.1106  3.1928  2.7843  2.4431  2.4431  1.7874  0.9927
  1.0081  1.0081  1.0342

 Free energy of the ion-electron system (eV)
  ---------------------------------------------------
  alpha Z        PSCENC =         0.12710513
  Ewald energy   TEWEN  =       267.87820229
  -Hartree energ DENC   =      -308.78514871
  -exchange      EXHF   =         0.00000000
  -V(xc)+E(xc)   XCENC  =         5.44688938
  PAW double counting   =        53.49822596      -52.28139854
  entropy T*S    EENTRO =        -0.00000000
  eigenvalues    EBANDS =       -23.96217529
  atomic energy  EATOM  =        54.95850721
  Solvation  Ediel_sol  =         0.00000000
  ---------------------------------------------------
  free energy    TOTEN  =        -3.11979258 eV

  energy without entropy =       -3.11979258  energy(sigma->0) =       -3.11979258


--------------------------------------------------------------------------------------------------------




--------------------------------------- Iteration      1(  19)  ---------------------------------------


    POTLOK:  cpu time      0.0412: real time      0.0414
    SETDIJ:  cpu time      0.0010: real time      0.0010
     EDDAV:  cpu time      0.4298: real time      0.4319
       DOS:  cpu time      0.0003: real time      0.0003
    --------------------------------------------
      LOOP:  cpu time      0.4726: real time      0.4749

 eigenvalue-minimisations  :   588
 total energy-change (2. order) :-0.3883815E-06  (-0.7226083E-09)
 number of electron       4.0000000 magnetization 
 augmentation part       -0.0968624 magnetization 

 DIPCOR: dipole corrections for dipol
 direction  3 min pos   385,
 dipolmoment           0.000000      0.000000     -0.000000 electrons x Angstroem
 Tr[quadrupol]       -12.314635

 energy correction for charged system         0.000000 eV
 dipol+quadrupol energy correction           -0.000000 eV
 added-field ion interaction          0.000000 eV  (added to PSCEN)


 Free energy of the ion-electron system (eV)
  ---------------------------------------------------
  alpha Z        PSCENC =         0.12710513
  Ewald energy   TEWEN  =       267.87820229
  -Hartree energ DENC   =      -308.78426410
  -exchange      EXHF   =         0.00000000
  -V(xc)+E(xc)   XCENC  =         5.44686396
  PAW double counting   =        53.49785708      -52.28102048
  entropy T*S    EENTRO =        -0.00000000
  eigenvalues    EBANDS =       -23.96304406
  atomic energy  EATOM  =        54.95850721
  Solvation  Ediel_sol  =         0.00000000
  ---------------------------------------------------
  free energy    TOTEN  =        -3.11979297 eV

  energy without entropy =       -3.11979297  energy(sigma->0) =       -3.11979297


--------------------------------------------------------------------------------------------------------




 average (electrostatic) potential at core
  the test charge radii are     0.9943
  (the norm of the test charge is              1.0000)
       1 -44.1003       2 -44.1003
 
 
 
 E-fermi :  -3.7209     XC(G=0):  -0.8899     alpha+bet : -0.4630

 val. band max:       -3.9758997227   @ k =   0.0000   0.0000   0.0000
 cond. band min:      -3.4654726853   @ k =   0.2500   0.0000   0.0000
 fundamental gap:      0.5104270374
 Fermi energy:        -3.7208528349

 k-point     1 :       0.0000    0.0000    0.0000
  band No.  band energies     occupation 
      1      -8.5918      2.00000
      2      -3.9759      2.00000
      3      -1.4575      0.00000
      4      -1.4575      0.00000
      5      -0.1138      0.00000
      6       0.2791      0.00000
      7       0.3443      0.00000
      8       0.5677      0.00000
      9       0.6472      0.00000
     10       1.0885      0.00000
     11       1.2211      0.00000
     12       1.8079      0.00000
     13       1.9808      0.00000
     14       2.7064      0.00000
     15       2.7064      0.00000
     16       2.7433      0.00000
     17       2.9656      0.00000
     18       3.8811      0.00000
     19       3.9271      0.00000
     20       4.1359      0.00000
     21       4.2849      0.00000
     22       5.2091      0.00000
     23       5.5004      0.00000
     24       6.7180      0.00000
     25       7.0594      0.00000
     26       7.3784      0.00000
     27       8.3805      0.00000
     28       8.8191      0.00000
     29       9.2634      0.00000
     30       9.2634      0.00000
     31      10.0603      0.00000
     32      10.6062      0.00000
     33      10.6062      0.00000
     34      10.7583      0.00000
     35      11.1758      0.00000
     36      12.0968      0.00000
     37      12.0968      0.00000
     38      12.3800      0.00000
     39      12.3800      0.00000
     40      12.5496      0.00000
     41      12.5700      0.00000
     42      12.6883      0.00000

 k-point     2 :       0.2500    0.0000    0.0000
  band No.  band energies     occupation 
      1      -7.9863      2.00000
      2      -3.4655      0.00000
      3      -3.2790      0.00000
      4      -2.3125      0.00000
      5       0.6560      0.00000
      6       1.0558      0.00000
      7       1.1335      0.00000
      8       1.3485      0.00000
      9       1.4337      0.00000
     10       1.8625      0.00000
     11       2.0020      0.00000
     12       2.2167      0.00000
     13       2.2537      0.00000
     14       2.5935      0.00000
     15       2.7632      0.00000
     16       3.5134      0.00000
     17       3.7439      0.00000
     18       4.6274      0.00000
     19       4.8714      0.00000
     20       4.9095      0.00000
     21       5.2695      0.00000
     22       5.8520      0.00000
     23       6.2710      0.00000
     24       6.5360      0.00000
     25       7.1522      0.00000
     26       7.4110      0.00000
     27       7.4571      0.00000
     28       7.5129      0.00000
     29       7.5887      0.00000
     30       7.7702      0.00000
     31       7.8243      0.00000
     32       7.8811      0.00000
     33       8.3186      0.00000
     34       8.3399      0.00000
     35       8.9590      0.00000
     36       9.0432      0.00000
     37       9.3617      0.00000
     38       9.4197      0.00000
     39       9.6304      0.00000
     40       9.8958      0.00000
     41       9.9050      0.00000
     42      10.0995      0.00000

 k-point     3 :       0.5000    0.0000    0.0000
  band No.  band energies     occupation 
      1      -6.4568      2.00000
      2      -5.9111      2.00000
      3      -2.8736      0.00000
      4      -1.7947      0.00000
      5      -0.2961      0.00000
      6       1.8390      0.00000
      7       2.9072      0.00000
      8       2.9752      0.00000
      9       3.3661      0.00000
     10       3.3910      0.00000
     11       3.4998      0.00000
     12       3.5017      0.00000
     13       3.6829      0.00000
     14       3.7021      0.00000
     15       3.7865      0.00000
     16       3.7941      0.00000
     17       4.1666      0.00000
     18       4.2190      0.00000
     19       4.3348      0.00000
     20       4.3486      0.00000
     21       4.7717      0.00000
     22       4.9256      0.00000
     23       5.0789      0.00000
     24       5.0929      0.00000
     25       5.5211      0.00000
     26       5.8570      0.00000
     27       6.0325      0.00000
     28       6.0474      0.00000
     29       6.3611      0.00000
     30       6.7513      0.00000
     31       6.9901      0.00000
     32       7.1460      0.00000
     33       7.1672      0.00000
     34       7.4064      0.00000
     35       7.9198      0.00000
     36       8.3118      0.00000
     37       8.3180      0.00000
     38       8.4177      0.00000
     39       8.6601      0.00000
     40       9.0420      0.00000
     41       9.1618      0.00000
     42       9.4114      0.00000

 k-point     4 :       0.2500    0.2500    0.0000
  band No.  band energies     occupation 
      1      -6.8183      2.00000
      2      -4.8246      2.00000
      3      -4.0430      2.00000
      4      -1.9833      0.00000
      5       0.3274      0.00000
      6       2.1828      0.00000
      7       2.5142      0.00000
      8       2.7117      0.00000
      9       2.8656      0.00000
     10       3.0051      0.00000
     11       3.2727      0.00000
     12       3.5627      0.00000
     13       3.6573      0.00000
     14       3.9612      0.00000
     15       4.2494      0.00000
     16       4.2696      0.00000
     17       4.3157      0.00000
     18       5.1393      0.00000
     19       5.2804      0.00000
     20       5.5443      0.00000
     21       5.6177      0.00000
     22       5.7243      0.00000
     23       5.8750      0.00000
     24       5.8804      0.00000
     25       5.8859      0.00000
     26       6.0567      0.00000
     27       6.1227      0.00000
     28       6.1799      0.00000
     29       6.2020      0.00000
     30       6.3302      0.00000
     31       6.4203      0.00000
     32       6.5663      0.00000
     33       6.7324      0.00000
     34       6.7403      0.00000
     35       6.7852      0.00000
     36       7.2545      0.00000
     37       7.3987      0.00000
     38       7.4750      0.00000
     39       7.5273      0.00000
     40       7.6857      0.00000
     41       7.7131      0.00000
     42       8.1641      0.00000


--------------------------------------------------------------------------------------------------------


 soft charge-density along one line, spin component           1
         0         1         2         3         4         5         6         7         8         9
 total charge-density along one line
 
 pseudopotential strength for first ion, spin component:           1
  5.236 -13.318  -0.000   0.000   0.000   0.000  -0.000  -0.000
-13.318  34.752   0.000  -0.000  -0.000  -0.000   0.000   0.000
 -0.000   0.000  -0.388   0.000  -0.000   0.915  -0.000   0.000
  0.000  -0.000   0.000  -0.394  -0.000  -0.000   0.933   0.000
  0.000  -0.000  -0.000  -0.000  -0.388   0.000   0.000   0.915
  0.000  -0.000   0.915  -0.000   0.000  -0.504   0.000  -0.000
 -0.000   0.000  -0.000   0.933   0.000   0.000  -0.557  -0.000
 -0.000   0.000   0.000   0.000   0.915  -0.000  -0.000  -0.504
 total augmentation occupancy for first ion, spin component:           1
  1.572   0.041   0.000  -0.000   0.000   0.000   0.000   0.000
  0.041   0.001   0.000  -0.000  -0.000   0.000   0.000   0.000
  0.000   0.000   0.676   0.000   0.000   0.024   0.000   0.000
 -0.000  -0.000   0.000   0.060  -0.000   0.000   0.002  -0.000
  0.000  -0.000   0.000  -0.000   0.676   0.000  -0.000   0.024
  0.000   0.000   0.024   0.000   0.000   0.001  -0.000   0.000
  0.000   0.000   0.000   0.002   0.000   0.000   0.000   0.000
  0.000   0.000   0.000   0.000   0.024   0.000   0.000   0.001


------------------------ aborting loop because EDIFF is reached ----------------------------------------


    CHARGE:  cpu time      0.0468: real time      0.0471
    FORLOC:  cpu time      0.0010: real time      0.0010
    FORNL :  cpu time      0.0100: real time      0.0101
    STRESS:  cpu time      0.1380: real time      0.1387
    FORCOR:  cpu time      0.0271: real time      0.0272
    FORHAR:  cpu time      0.0067: real time      0.0068
    MIXING:  cpu time      0.0016: real time      0.0016
    OFIELD:  cpu time      0.0000: real time      0.0000

  FORCE on cell =-STRESS in cart. coord.  units (eV):
  Direction    XX          YY          ZZ          XY          YZ          ZX
  --------------------------------------------------------------------------------------
  Alpha Z     0.12711     0.12711     0.12711
  Ewald     309.48760   309.48760  -351.09699    -0.00000     0.00000     0.00000
  Hartree   307.74375   307.74375  -306.70267    -0.00000    -0.00000    -0.00000
  E(xc)      -8.20117    -8.20117    -8.47334    -0.00000     0.00000    -0.00000
  Local    -640.60087  -640.60087   639.24462    -0.00000     0.00000     0.00000
  n-local    12.32437    11.69036    11.04715    -0.31056    -0.00000     0.00000
  augment    -0.90937    -0.90937    -1.01922    -0.00000    -0.00000     0.00000
  Kinetic    16.75926    19.69626    16.87345     2.62215    -0.00000    -0.00000
  Fock        0.00000     0.00000     0.00000     0.00000     0.00000     0.00000
  -------------------------------------------------------------------------------------
  Total      -2.11784    -2.11784     0.00010     0.00000    -0.00000    -0.00000
  in kB      -6.17214    -6.17214     0.00028     0.00000    -0.00000    -0.00000
  external pressure =       -4.11 kB  Pullay stress =        0.00 kB


 VOLUME and BASIS-vectors are now :
 -----------------------------------------------------------------------------
  energy-cutoff  :      600.00
  volume of cell :      549.75
      direct lattice vectors                 reciprocal lattice vectors
     3.450000000  1.991858429  0.000000000     0.144927536  0.251021856  0.000000000
    -3.450000000  1.991858429  0.000000000    -0.144927536  0.251021856  0.000000000
     0.000000000  0.000000000 40.000000000     0.000000000  0.000000000  0.025000000

  length of vectors
     3.983716857  3.983716857 40.000000000     0.289855072  0.289855072  0.025000000


 FORCES acting on ions
    electron-ion (+dipol)            ewald-force                    non-local-force                 convergence-correction
 -----------------------------------------------------------------------------------------------
   -.102E-07 0.730E-14 -.186E-10   -.352E-12 0.211E-14 0.000E+00   0.278E-16 0.867E-18 0.258E-25   0.213E-11 0.700E-16 0.241E-13
   0.102E-07 -.459E-14 -.189E-10   0.351E-12 -.169E-14 0.000E+00   -.278E-16 -.260E-17 0.323E-25   -.213E-11 0.156E-16 0.241E-13
 -----------------------------------------------------------------------------------------------
   0.162E-14 0.270E-14 -.375E-10   -.115E-15 0.414E-15 0.000E+00   0.000E+00 -.173E-17 0.582E-25   -.419E-18 0.856E-16 0.483E-13
 
 
 POSITION                                       TOTAL-FORCE (eV/Angst)
 -----------------------------------------------------------------------------------
     -1.15000      1.99186      4.00000        -0.000000     -0.000000     -0.000000
      1.15000      1.99186      4.00000         0.000000      0.000000      0.000000
 -----------------------------------------------------------------------------------
    total drift:                                0.000000      0.000000     -0.000000


--------------------------------------------------------------------------------------------------------



  FREE ENERGIE OF THE ION-ELECTRON SYSTEM (eV)
  ---------------------------------------------------
  free  energy   TOTEN  =        -3.11979297 eV

  energy  without entropy=       -3.11979297  energy(sigma->0) =       -3.11979297
 


--------------------------------------------------------------------------------------------------------


    POTLOK:  cpu time      0.0440: real time      0.0442


--------------------------------------------------------------------------------------------------------


     LOOP+:  cpu time     13.8074: real time     13.8797
 vacuum level on the upper side and lower side of the slab         0.308         0.308
    4ORBIT:  cpu time      0.0000: real time      0.0000

 total amount of memory used by VASP MPI-rank0    57456. kBytes
=======================================================================

   base                                    :      30000. kBytes
   nonl-proj                               :       5298. kBytes
   fftplans                                :       3909. kBytes
   grid                                    :      17063. kBytes
   one-center                              :          6. kBytes
   wavefun                                 :       1180. kBytes
 
  
  
 General timing and accounting informations for this job:
 ========================================================
  
                  Total CPU time used (sec):       14.580
                            User time (sec):       10.799
                          System time (sec):        3.782
                         Elapsed time (sec):       15.071
  
                   Maximum memory used (kb):      231112.
                   Average memory used (kb):          N/A
  
                          Minor page faults:        22112
                          Major page faults:           14
                 Voluntary context switches:          647
