       N       E                     dE             d eps       ncg     rms          rms(c)
DAV:   1     0.195585316250E+01    0.19559E+01   -0.18503E+03  1736   0.258E+02
DAV:   2    -0.126745214823E+02   -0.14630E+02   -0.12992E+02  2408   0.330E+01
DAV:   3    -0.129566239660E+02   -0.28210E+00   -0.28203E+00  2408   0.634E+00
DAV:   4    -0.129573032658E+02   -0.67930E-03   -0.67930E-03  2856   0.309E-01
DAV:   5    -0.129573035570E+02   -0.29120E-06   -0.29066E-06  2464   0.616E-03
DAV:   6    -0.129573035582E+02   -0.12287E-08   -0.11057E-08  2772   0.359E-04
   1 F= -.12957304E+02 E0= -.12957213E+02  d E =-.181909E-03  mag=     0.0000    -0.0000     0.0000
