   2   2   0   0
  0.7871146E+01  0.2506240E-09  0.2506240E-09  0.2506240E-09  0.5000000E-15
  1.000000000000000E-004
  CAR 
 Convergence                             
    114.81107183     -9.98751633  301      7.99234627      1.00000000
     -9.988  0.0000E+00  0.0000E+00
     -9.572  0.0000E+00  0.0000E+00
     -9.156  0.0000E+00  0.0000E+00
     -8.740  0.0000E+00  0.0000E+00
     -8.324  0.0000E+00  0.0000E+00
     -7.908  0.0000E+00  0.0000E+00
     -7.492  0.0000E+00  0.0000E+00
     -7.076  0.0000E+00  0.0000E+00
     -6.660  0.0000E+00  0.0000E+00
     -6.244  0.0000E+00  0.0000E+00
     -5.828  0.0000E+00  0.0000E+00
     -5.412  0.0000E+00  0.0000E+00
     -4.996  0.0000E+00  0.0000E+00
     -4.580  0.7310E-17  0.3041E-17
     -4.164  0.1637E-01  0.6810E-02
     -3.748  0.9765E-01  0.4875E-01
     -3.332  0.1412E+00  0.1105E+00
     -2.916  0.1822E+00  0.1881E+00
     -2.500  0.2035E+00  0.2772E+00
     -2.084  0.2348E+00  0.3791E+00
     -1.668  0.2452E+00  0.4884E+00
     -1.252  0.2626E+00  0.6053E+00
     -0.836  0.2984E+00  0.7392E+00
     -0.420  0.3214E+00  0.8799E+00
     -0.004  0.3268E+00  0.1022E+01
      0.412  0.3404E+00  0.1174E+01
      0.828  0.3852E+00  0.1343E+01
      1.244  0.3821E+00  0.1511E+01
      1.660  0.4191E+00  0.1698E+01
      2.076  0.4433E+00  0.1890E+01
      2.492  0.4842E+00  0.2106E+01
      2.908  0.5846E+00  0.2360E+01
      3.324  0.5708E+00  0.2607E+01
      3.740  0.5156E+00  0.2838E+01
      4.156  0.4466E+00  0.3043E+01
      4.572  0.4080E+00  0.3221E+01
      4.988  0.3638E+00  0.3383E+01
      5.404  0.3388E+00  0.3528E+01
      5.820  0.2370E+00  0.3639E+01
      6.236  0.2324E+00  0.3739E+01
      6.652  0.1300E+00  0.3801E+01
      7.068  0.8990E-01  0.3841E+01
      7.484  0.1653E+00  0.3916E+01
      7.900  0.1359E+00  0.3977E+01
      8.316  0.3482E+00  0.4131E+01
      8.732  0.8570E+00  0.4502E+01
      9.148  0.6755E+00  0.4809E+01
      9.564  0.5416E+00  0.5049E+01
      9.980  0.6106E+00  0.5313E+01
     10.396  0.5418E+00  0.5549E+01
     10.812  0.3779E+00  0.5721E+01
     11.228  0.5452E+00  0.5954E+01
     11.644  0.3372E+00  0.6102E+01
     12.060  0.5198E+00  0.6330E+01
     12.476  0.4288E+00  0.6514E+01
     12.892  0.5642E+00  0.6768E+01
     13.308  0.5808E+00  0.7024E+01
     13.724  0.6776E+00  0.7329E+01
     14.140  0.6808E+00  0.7634E+01
     14.556  0.6354E+00  0.7922E+01
     14.972  0.6223E+00  0.8198E+01
     15.388  0.6314E+00  0.8479E+01
     15.804  0.5183E+00  0.8704E+01
     16.220  0.6697E+00  0.9003E+01
     16.636  0.4578E+00  0.9198E+01
     17.052  0.6573E+00  0.9481E+01
     17.468  0.4825E+00  0.9704E+01
     17.884  0.7511E+00  0.1003E+02
     18.300  0.5949E+00  0.1029E+02
     18.716  0.7517E+00  0.1062E+02
     19.132  0.6412E+00  0.1090E+02
     19.548  0.7771E+00  0.1124E+02
     19.964  0.6487E+00  0.1153E+02
     20.380  0.7356E+00  0.1185E+02
     20.796  0.5985E+00  0.1212E+02
     21.212  0.6107E+00  0.1239E+02
     21.628  0.6189E+00  0.1266E+02
     22.044  0.5413E+00  0.1290E+02
     22.460  0.6658E+00  0.1319E+02
     22.876  0.6823E+00  0.1348E+02
     23.292  0.7713E+00  0.1383E+02
     23.708  0.1142E+01  0.1433E+02
     24.124  0.1108E+01  0.1482E+02
     24.540  0.1002E+01  0.1527E+02
     24.956  0.1079E+01  0.1573E+02
     25.372  0.7134E+00  0.1606E+02
     25.788  0.4306E+00  0.1626E+02
     26.204  0.4152E+00  0.1644E+02
     26.620  0.4893E+00  0.1666E+02
     27.036  0.4308E+00  0.1684E+02
     27.452  0.2153E+00  0.1694E+02
     27.868  0.1864E+00  0.1702E+02
     28.284  0.3089E+00  0.1715E+02
     28.700  0.2039E+00  0.1725E+02
     29.116  0.2915E+00  0.1738E+02
     29.532  0.3719E+00  0.1754E+02
     29.948  0.3643E+00  0.1770E+02
     30.364  0.3617E+00  0.1786E+02
     30.780  0.4674E+00  0.1807E+02
     31.196  0.4546E+00  0.1827E+02
     31.612  0.6320E+00  0.1855E+02
     32.028  0.5109E+00  0.1877E+02
     32.444  0.4527E+00  0.1897E+02
     32.860  0.7651E+00  0.1930E+02
     33.276  0.7622E+00  0.1964E+02
     33.692  0.8884E+00  0.2003E+02
     34.108  0.1224E+01  0.2057E+02
     34.524  0.1138E+01  0.2107E+02
     34.940  0.8621E+00  0.2146E+02
     35.356  0.9265E+00  0.2187E+02
     35.772  0.8492E+00  0.2224E+02
     36.188  0.6705E+00  0.2254E+02
     36.604  0.5526E+00  0.2279E+02
     37.020  0.5594E+00  0.2304E+02
     37.436  0.6666E+00  0.2333E+02
     37.852  0.6584E+00  0.2362E+02
     38.268  0.6674E+00  0.2393E+02
     38.684  0.6623E+00  0.2422E+02
     39.100  0.6964E+00  0.2453E+02
     39.516  0.7176E+00  0.2484E+02
     39.932  0.7195E+00  0.2517E+02
     40.348  0.7854E+00  0.2551E+02
     40.764  0.7085E+00  0.2582E+02
     41.180  0.6756E+00  0.2611E+02
     41.596  0.6177E+00  0.2639E+02
     42.012  0.6183E+00  0.2665E+02
     42.428  0.5890E+00  0.2692E+02
     42.844  0.6564E+00  0.2721E+02
     43.260  0.6562E+00  0.2751E+02
     43.676  0.7332E+00  0.2783E+02
     44.092  0.9924E+00  0.2827E+02
     44.508  0.9867E+00  0.2870E+02
     44.924  0.8751E+00  0.2908E+02
     45.340  0.9016E+00  0.2948E+02
     45.756  0.7708E+00  0.2982E+02
     46.172  0.8499E+00  0.3020E+02
     46.588  0.7676E+00  0.3054E+02
     47.004  0.8235E+00  0.3091E+02
     47.420  0.7339E+00  0.3124E+02
     47.836  0.9319E+00  0.3164E+02
     48.252  0.7158E+00  0.3196E+02
     48.668  0.8407E+00  0.3234E+02
     49.084  0.5203E+00  0.3257E+02
     49.500  0.7235E+00  0.3288E+02
     49.916  0.5633E+00  0.3313E+02
     50.332  0.6318E+00  0.3341E+02
     50.748  0.7686E+00  0.3374E+02
     51.164  0.7031E+00  0.3405E+02
     51.580  0.6545E+00  0.3434E+02
     51.996  0.5962E+00  0.3461E+02
     52.412  0.7592E+00  0.3495E+02
     52.828  0.9274E+00  0.3535E+02
     53.244  0.8930E+00  0.3574E+02
     53.660  0.8799E+00  0.3614E+02
     54.076  0.9983E+00  0.3658E+02
     54.492  0.9031E+00  0.3698E+02
     54.908  0.8919E+00  0.3737E+02
     55.324  0.1012E+01  0.3782E+02
     55.740  0.9937E+00  0.3826E+02
     56.156  0.9453E+00  0.3867E+02
     56.572  0.9918E+00  0.3911E+02
     56.988  0.9112E+00  0.3953E+02
     57.404  0.9044E+00  0.3993E+02
     57.820  0.8939E+00  0.4032E+02
     58.236  0.8234E+00  0.4069E+02
     58.652  0.7356E+00  0.4101E+02
     59.068  0.7474E+00  0.4133E+02
     59.484  0.7574E+00  0.4166E+02
     59.900  0.7946E+00  0.4201E+02
     60.316  0.8474E+00  0.4239E+02
     60.732  0.1020E+01  0.4283E+02
     61.148  0.1056E+01  0.4331E+02
     61.564  0.8333E+00  0.4368E+02
     61.980  0.7992E+00  0.4403E+02
     62.396  0.8843E+00  0.4441E+02
     62.812  0.7502E+00  0.4475E+02
     63.228  0.7422E+00  0.4507E+02
     63.644  0.6734E+00  0.4537E+02
     64.060  0.7747E+00  0.4571E+02
     64.476  0.8195E+00  0.4607E+02
     64.892  0.8082E+00  0.4643E+02
     65.308  0.1099E+01  0.4691E+02
     65.724  0.8990E+00  0.4732E+02
     66.140  0.1173E+01  0.4783E+02
     66.556  0.9438E+00  0.4826E+02
     66.972  0.9695E+00  0.4868E+02
     67.388  0.8733E+00  0.4908E+02
     67.804  0.8460E+00  0.4945E+02
     68.220  0.9159E+00  0.4985E+02
     68.636  0.9467E+00  0.5027E+02
     69.052  0.7904E+00  0.5063E+02
     69.468  0.9278E+00  0.5103E+02
     69.884  0.9211E+00  0.5145E+02
     70.300  0.8698E+00  0.5183E+02
     70.716  0.9925E+00  0.5227E+02
     71.132  0.9300E+00  0.5267E+02
     71.548  0.9272E+00  0.5308E+02
     71.964  0.8370E+00  0.5344E+02
     72.380  0.8465E+00  0.5382E+02
     72.796  0.1095E+01  0.5429E+02
     73.212  0.9932E+00  0.5473E+02
     73.628  0.9656E+00  0.5516E+02
     74.044  0.9064E+00  0.5556E+02
     74.460  0.8725E+00  0.5594E+02
     74.876  0.8917E+00  0.5634E+02
     75.292  0.9816E+00  0.5677E+02
     75.708  0.8288E+00  0.5713E+02
     76.124  0.7386E+00  0.5745E+02
     76.540  0.8147E+00  0.5781E+02
     76.956  0.7307E+00  0.5815E+02
     77.371  0.8390E+00  0.5852E+02
     77.787  0.1046E+01  0.5898E+02
     78.203  0.8070E+00  0.5934E+02
     78.619  0.9132E+00  0.5974E+02
     79.035  0.9236E+00  0.6015E+02
     79.451  0.9530E+00  0.6057E+02
     79.867  0.9876E+00  0.6101E+02
     80.283  0.1068E+01  0.6148E+02
     80.699  0.1065E+01  0.6195E+02
     81.115  0.1035E+01  0.6240E+02
     81.531  0.9988E+00  0.6284E+02
     81.947  0.1313E+01  0.6342E+02
     82.363  0.1084E+01  0.6391E+02
     82.779  0.1084E+01  0.6438E+02
     83.195  0.1102E+01  0.6487E+02
     83.611  0.9880E+00  0.6531E+02
     84.027  0.9958E+00  0.6574E+02
     84.443  0.9291E+00  0.6615E+02
     84.859  0.1002E+01  0.6659E+02
     85.275  0.1031E+01  0.6705E+02
     85.691  0.8916E+00  0.6745E+02
     86.107  0.9523E+00  0.6786E+02
     86.523  0.8587E+00  0.6825E+02
     86.939  0.9116E+00  0.6865E+02
     87.355  0.9466E+00  0.6906E+02
     87.771  0.9471E+00  0.6947E+02
     88.187  0.1142E+01  0.6997E+02
     88.603  0.8813E+00  0.7035E+02
     89.019  0.1050E+01  0.7082E+02
     89.435  0.1018E+01  0.7127E+02
     89.851  0.1040E+01  0.7174E+02
     90.267  0.1103E+01  0.7221E+02
     90.683  0.1020E+01  0.7266E+02
     91.099  0.1048E+01  0.7311E+02
     91.515  0.1171E+01  0.7363E+02
     91.931  0.1169E+01  0.7414E+02
     92.347  0.1067E+01  0.7461E+02
     92.763  0.1019E+01  0.7506E+02
     93.179  0.1026E+01  0.7551E+02
     93.595  0.1045E+01  0.7598E+02
     94.011  0.9844E+00  0.7641E+02
     94.427  0.8701E+00  0.7679E+02
     94.843  0.1117E+01  0.7728E+02
     95.259  0.9779E+00  0.7773E+02
     95.675  0.1016E+01  0.7819E+02
     96.091  0.1215E+01  0.7872E+02
     96.507  0.1049E+01  0.7918E+02
     96.923  0.1068E+01  0.7966E+02
     97.339  0.1203E+01  0.8019E+02
     97.755  0.1126E+01  0.8067E+02
     98.171  0.9104E+00  0.8107E+02
     98.587  0.8714E+00  0.8146E+02
     99.003  0.1005E+01  0.8190E+02
     99.419  0.7265E+00  0.8222E+02
     99.835  0.5544E+00  0.8246E+02
    100.251  0.6381E+00  0.8274E+02
    100.667  0.5632E+00  0.8299E+02
    101.083  0.4425E+00  0.8319E+02
    101.499  0.4392E+00  0.8339E+02
    101.915  0.3550E+00  0.8355E+02
    102.331  0.2526E+00  0.8367E+02
    102.747  0.2119E+00  0.8376E+02
    103.163  0.9917E-01  0.8380E+02
    103.579  0.1369E+00  0.8386E+02
    103.995  0.7717E-01  0.8390E+02
    104.411  0.4409E-01  0.8392E+02
    104.827  0.3903E-01  0.8394E+02
    105.243  0.2985E-01  0.8395E+02
    105.659  0.3457E-01  0.8397E+02
    106.075  0.3962E-01  0.8399E+02
    106.491  0.6863E-02  0.8399E+02
    106.907  0.3405E-02  0.8399E+02
    107.323  0.1471E-01  0.8400E+02
    107.739  0.2660E-02  0.8400E+02
    108.155  0.3316E-04  0.8400E+02
    108.571  0.2332E-02  0.8400E+02
    108.987  0.9076E-03  0.8400E+02
    109.403  0.1971E-03  0.8400E+02
    109.819  0.0000E+00  0.8400E+02
    110.235  0.0000E+00  0.8400E+02
    110.651  0.0000E+00  0.8400E+02
    111.067  0.0000E+00  0.8400E+02
    111.483  0.0000E+00  0.8400E+02
    111.899  0.0000E+00  0.8400E+02
    112.315  0.0000E+00  0.8400E+02
    112.731  0.0000E+00  0.8400E+02
    113.147  0.0000E+00  0.8400E+02
    113.563  0.0000E+00  0.8400E+02
    113.979  0.0000E+00  0.8400E+02
    114.395  0.0000E+00  0.8400E+02
    114.811  0.0000E+00  0.8400E+02
