   3   3   0   0
  0.8374985E+02  0.2506240E-09  0.2506240E-09  0.4000000E-08  0.5000000E-15
  1.000000000000000E-004
  CAR 
 Convergence                             
     21.74640134    -14.11284834  301     -2.21736560      1.00000000
    -14.113  0.0000E+00  0.0000E+00
    -13.993  0.0000E+00  0.0000E+00
    -13.874  0.0000E+00  0.0000E+00
    -13.754  0.0000E+00  0.0000E+00
    -13.635  0.0000E+00  0.0000E+00
    -13.515  0.0000E+00  0.0000E+00
    -13.396  0.0000E+00  0.0000E+00
    -13.276  0.0000E+00  0.0000E+00
    -13.157  0.0000E+00  0.0000E+00
    -13.037  0.0000E+00  0.0000E+00
    -12.918  0.0000E+00  0.0000E+00
    -12.798  0.0000E+00  0.0000E+00
    -12.678  0.2981E-09  0.3564E-10
    -12.559  0.5951E-03  0.7114E-04
    -12.439  0.1358E+00  0.1630E-01
    -12.320  0.3541E+00  0.5862E-01
    -12.200  0.3596E+00  0.1016E+00
    -12.081  0.3659E+00  0.1453E+00
    -11.961  0.3564E+00  0.1879E+00
    -11.842  0.3272E+00  0.2270E+00
    -11.722  0.3991E+00  0.2748E+00
    -11.603  0.3450E+00  0.3160E+00
    -11.483  0.3679E+00  0.3600E+00
    -11.364  0.3374E+00  0.4003E+00
    -11.244  0.3930E+00  0.4473E+00
    -11.125  0.3256E+00  0.4862E+00
    -11.005  0.3902E+00  0.5328E+00
    -10.886  0.3198E+00  0.5711E+00
    -10.766  0.4004E+00  0.6189E+00
    -10.646  0.3418E+00  0.6598E+00
    -10.527  0.3088E+00  0.6967E+00
    -10.407  0.4525E+00  0.7508E+00
    -10.288  0.2813E+00  0.7844E+00
    -10.168  0.4282E+00  0.8356E+00
    -10.049  0.3411E+00  0.8763E+00
     -9.929  0.3266E+00  0.9154E+00
     -9.810  0.3728E+00  0.9599E+00
     -9.690  0.4511E+00  0.1014E+01
     -9.571  0.2325E+00  0.1042E+01
     -9.451  0.4263E+00  0.1093E+01
     -9.332  0.4332E+00  0.1144E+01
     -9.212  0.2754E+00  0.1177E+01
     -9.093  0.3828E+00  0.1223E+01
     -8.973  0.4125E+00  0.1272E+01
     -8.853  0.3937E+00  0.1319E+01
     -8.734  0.5383E+00  0.1384E+01
     -8.614  0.7684E+00  0.1476E+01
     -8.495  0.8348E+00  0.1575E+01
     -8.375  0.7575E+00  0.1666E+01
     -8.256  0.7127E+00  0.1751E+01
     -8.136  0.6946E+00  0.1834E+01
     -8.017  0.5515E+00  0.1900E+01
     -7.897  0.7210E+00  0.1986E+01
     -7.778  0.5653E+00  0.2054E+01
     -7.658  0.5612E+00  0.2121E+01
     -7.539  0.7779E+00  0.2214E+01
     -7.419  0.6823E+00  0.2295E+01
     -7.300  0.8038E+00  0.2391E+01
     -7.180  0.7809E+00  0.2485E+01
     -7.061  0.6609E+00  0.2564E+01
     -6.941  0.7351E+00  0.2652E+01
     -6.821  0.9276E+00  0.2763E+01
     -6.702  0.6331E+00  0.2838E+01
     -6.582  0.7322E+00  0.2926E+01
     -6.463  0.8988E+00  0.3033E+01
     -6.343  0.7153E+00  0.3119E+01
     -6.224  0.1032E+01  0.3242E+01
     -6.104  0.5579E+00  0.3309E+01
     -5.985  0.9330E+00  0.3420E+01
     -5.865  0.9140E+00  0.3530E+01
     -5.746  0.9507E+00  0.3643E+01
     -5.626  0.1101E+01  0.3775E+01
     -5.507  0.8871E+00  0.3881E+01
     -5.387  0.1107E+01  0.4013E+01
     -5.268  0.1103E+01  0.4145E+01
     -5.148  0.9213E+00  0.4255E+01
     -5.029  0.1037E+01  0.4379E+01
     -4.909  0.1032E+01  0.4502E+01
     -4.789  0.1138E+01  0.4638E+01
     -4.670  0.1003E+01  0.4758E+01
     -4.550  0.8446E+00  0.4859E+01
     -4.431  0.1255E+01  0.5009E+01
     -4.311  0.9166E+00  0.5119E+01
     -4.192  0.1323E+01  0.5277E+01
     -4.072  0.9865E+00  0.5395E+01
     -3.953  0.5795E+00  0.5464E+01
     -3.833  0.7711E+00  0.5556E+01
     -3.714  0.5506E+00  0.5622E+01
     -3.594  0.3475E+00  0.5664E+01
     -3.475  0.4201E+00  0.5714E+01
     -3.355  0.5420E+00  0.5779E+01
     -3.236  0.1086E+00  0.5792E+01
     -3.116  0.3067E+00  0.5828E+01
     -2.996  0.2779E+00  0.5861E+01
     -2.877  0.1156E+00  0.5875E+01
     -2.757  0.1130E+00  0.5889E+01
     -2.638  0.1860E+00  0.5911E+01
     -2.518  0.4815E-01  0.5917E+01
     -2.399  0.2296E+00  0.5944E+01
     -2.279  0.2494E+00  0.5974E+01
     -2.160  0.8161E+00  0.6072E+01
     -2.040  0.1752E+01  0.6281E+01
     -1.921  0.1516E+01  0.6462E+01
     -1.801  0.1607E+01  0.6654E+01
     -1.682  0.1272E+01  0.6806E+01
     -1.562  0.1761E+01  0.7017E+01
     -1.443  0.1357E+01  0.7179E+01
     -1.323  0.1304E+01  0.7335E+01
     -1.204  0.1560E+01  0.7521E+01
     -1.084  0.1735E+01  0.7729E+01
     -0.964  0.2041E+01  0.7973E+01
     -0.845  0.1790E+01  0.8186E+01
     -0.725  0.1905E+01  0.8414E+01
     -0.606  0.1675E+01  0.8614E+01
     -0.486  0.2076E+01  0.8862E+01
     -0.367  0.1667E+01  0.9062E+01
     -0.247  0.1138E+01  0.9198E+01
     -0.128  0.1087E+01  0.9328E+01
     -0.008  0.6754E+00  0.9408E+01
      0.111  0.9599E+00  0.9523E+01
      0.231  0.7258E+00  0.9610E+01
      0.350  0.7073E+00  0.9694E+01
      0.470  0.2738E+00  0.9727E+01
      0.589  0.3458E+00  0.9769E+01
      0.709  0.3883E-01  0.9773E+01
      0.829  0.5952E+00  0.9844E+01
      0.948  0.7319E+00  0.9932E+01
      1.068  0.5038E+00  0.9992E+01
      1.187  0.6020E+00  0.1006E+02
      1.307  0.7641E+00  0.1016E+02
      1.426  0.1114E+01  0.1029E+02
      1.546  0.1674E+01  0.1049E+02
      1.665  0.2055E+01  0.1073E+02
      1.785  0.3607E+01  0.1117E+02
      1.904  0.3113E+01  0.1154E+02
      2.024  0.2637E+01  0.1185E+02
      2.143  0.3487E+01  0.1227E+02
      2.263  0.2608E+01  0.1258E+02
      2.382  0.3014E+01  0.1294E+02
      2.502  0.3248E+01  0.1333E+02
      2.621  0.3649E+01  0.1377E+02
      2.741  0.3233E+01  0.1415E+02
      2.861  0.3815E+01  0.1461E+02
      2.980  0.3818E+01  0.1506E+02
      3.100  0.3799E+01  0.1552E+02
      3.219  0.3747E+01  0.1597E+02
      3.339  0.3661E+01  0.1640E+02
      3.458  0.3733E+01  0.1685E+02
      3.578  0.4000E+01  0.1733E+02
      3.697  0.3637E+01  0.1776E+02
      3.817  0.3621E+01  0.1820E+02
      3.936  0.4188E+01  0.1870E+02
      4.056  0.3916E+01  0.1916E+02
      4.175  0.3688E+01  0.1961E+02
      4.295  0.3986E+01  0.2008E+02
      4.414  0.3200E+01  0.2046E+02
      4.534  0.3772E+01  0.2092E+02
      4.653  0.4194E+01  0.2142E+02
      4.773  0.4048E+01  0.2190E+02
      4.893  0.3918E+01  0.2237E+02
      5.012  0.4480E+01  0.2290E+02
      5.132  0.3950E+01  0.2338E+02
      5.251  0.4403E+01  0.2390E+02
      5.371  0.4665E+01  0.2446E+02
      5.490  0.4688E+01  0.2502E+02
      5.610  0.4356E+01  0.2554E+02
      5.729  0.4563E+01  0.2609E+02
      5.849  0.3884E+01  0.2655E+02
      5.968  0.4701E+01  0.2711E+02
      6.088  0.4276E+01  0.2762E+02
      6.207  0.5063E+01  0.2823E+02
      6.327  0.4172E+01  0.2873E+02
      6.446  0.4423E+01  0.2926E+02
      6.566  0.4564E+01  0.2980E+02
      6.686  0.4630E+01  0.3036E+02
      6.805  0.4855E+01  0.3094E+02
      6.925  0.4990E+01  0.3153E+02
      7.044  0.5531E+01  0.3219E+02
      7.164  0.5040E+01  0.3280E+02
      7.283  0.5142E+01  0.3341E+02
      7.403  0.5390E+01  0.3405E+02
      7.522  0.5289E+01  0.3469E+02
      7.642  0.5526E+01  0.3535E+02
      7.761  0.4841E+01  0.3593E+02
      7.881  0.5712E+01  0.3661E+02
      8.000  0.6070E+01  0.3733E+02
      8.120  0.5673E+01  0.3801E+02
      8.239  0.5594E+01  0.3868E+02
      8.359  0.5567E+01  0.3935E+02
      8.478  0.5759E+01  0.4004E+02
      8.598  0.5779E+01  0.4073E+02
      8.718  0.6068E+01  0.4145E+02
      8.837  0.5413E+01  0.4210E+02
      8.957  0.5368E+01  0.4274E+02
      9.076  0.5996E+01  0.4346E+02
      9.196  0.5210E+01  0.4408E+02
      9.315  0.6001E+01  0.4480E+02
      9.435  0.6256E+01  0.4554E+02
      9.554  0.5372E+01  0.4619E+02
      9.674  0.5480E+01  0.4684E+02
      9.793  0.6423E+01  0.4761E+02
      9.913  0.5544E+01  0.4827E+02
     10.032  0.5514E+01  0.4893E+02
     10.152  0.6191E+01  0.4967E+02
     10.271  0.6088E+01  0.5040E+02
     10.391  0.5587E+01  0.5107E+02
     10.511  0.5899E+01  0.5177E+02
     10.630  0.5469E+01  0.5243E+02
     10.750  0.5174E+01  0.5304E+02
     10.869  0.6476E+01  0.5382E+02
     10.989  0.6184E+01  0.5456E+02
     11.108  0.5522E+01  0.5522E+02
     11.228  0.5878E+01  0.5592E+02
     11.347  0.6010E+01  0.5664E+02
     11.467  0.5873E+01  0.5734E+02
     11.586  0.5783E+01  0.5803E+02
     11.706  0.6565E+01  0.5882E+02
     11.825  0.5794E+01  0.5951E+02
     11.945  0.5973E+01  0.6022E+02
     12.064  0.6384E+01  0.6099E+02
     12.184  0.6096E+01  0.6171E+02
     12.303  0.5911E+01  0.6242E+02
     12.423  0.6611E+01  0.6321E+02
     12.543  0.6395E+01  0.6398E+02
     12.662  0.6179E+01  0.6471E+02
     12.782  0.6194E+01  0.6545E+02
     12.901  0.6281E+01  0.6621E+02
     13.021  0.6539E+01  0.6699E+02
     13.140  0.6956E+01  0.6782E+02
     13.260  0.6287E+01  0.6857E+02
     13.379  0.6357E+01  0.6933E+02
     13.499  0.6440E+01  0.7010E+02
     13.618  0.5613E+01  0.7077E+02
     13.738  0.6629E+01  0.7156E+02
     13.857  0.5992E+01  0.7228E+02
     13.977  0.6378E+01  0.7304E+02
     14.096  0.6113E+01  0.7377E+02
     14.216  0.5924E+01  0.7448E+02
     14.335  0.5913E+01  0.7519E+02
     14.455  0.5669E+01  0.7586E+02
     14.575  0.5302E+01  0.7650E+02
     14.694  0.4775E+01  0.7707E+02
     14.814  0.4677E+01  0.7763E+02
     14.933  0.4209E+01  0.7813E+02
     15.053  0.3886E+01  0.7860E+02
     15.172  0.3596E+01  0.7903E+02
     15.292  0.3115E+01  0.7940E+02
     15.411  0.2825E+01  0.7974E+02
     15.531  0.2861E+01  0.8008E+02
     15.650  0.2038E+01  0.8032E+02
     15.770  0.2280E+01  0.8059E+02
     15.889  0.2231E+01  0.8086E+02
     16.009  0.2449E+01  0.8115E+02
     16.128  0.2269E+01  0.8142E+02
     16.248  0.2145E+01  0.8168E+02
     16.368  0.1965E+01  0.8192E+02
     16.487  0.1380E+01  0.8208E+02
     16.607  0.1742E+01  0.8229E+02
     16.726  0.1187E+01  0.8243E+02
     16.846  0.8844E+00  0.8254E+02
     16.965  0.6108E+00  0.8261E+02
     17.085  0.7624E+00  0.8270E+02
     17.204  0.1200E+01  0.8284E+02
     17.324  0.9910E+00  0.8296E+02
     17.443  0.1324E+01  0.8312E+02
     17.563  0.9298E+00  0.8323E+02
     17.682  0.6793E+00  0.8331E+02
     17.802  0.6366E+00  0.8339E+02
     17.921  0.6418E+00  0.8347E+02
     18.041  0.3452E+00  0.8351E+02
     18.160  0.2876E+00  0.8354E+02
     18.280  0.4126E+00  0.8359E+02
     18.400  0.4495E+00  0.8364E+02
     18.519  0.2947E+00  0.8368E+02
     18.639  0.3112E+00  0.8372E+02
     18.758  0.3082E+00  0.8375E+02
     18.878  0.4335E+00  0.8381E+02
     18.997  0.3564E+00  0.8385E+02
     19.117  0.1634E+00  0.8387E+02
     19.236  0.1761E+00  0.8389E+02
     19.356  0.8810E-01  0.8390E+02
     19.475  0.3193E+00  0.8394E+02
     19.595  0.3684E+00  0.8398E+02
     19.714  0.7201E-01  0.8399E+02
     19.834  0.2727E-01  0.8399E+02
     19.953  0.2330E-04  0.8399E+02
     20.073  0.1263E-01  0.8400E+02
     20.193  0.3874E-01  0.8400E+02
     20.312  0.2762E-03  0.8400E+02
     20.432  0.1358E-09  0.8400E+02
     20.551  0.0000E+00  0.8400E+02
     20.671  0.0000E+00  0.8400E+02
     20.790  0.0000E+00  0.8400E+02
     20.910  0.0000E+00  0.8400E+02
     21.029  0.0000E+00  0.8400E+02
     21.149  0.0000E+00  0.8400E+02
     21.268  0.0000E+00  0.8400E+02
     21.388  0.0000E+00  0.8400E+02
     21.507  0.0000E+00  0.8400E+02
     21.627  0.0000E+00  0.8400E+02
     21.746  0.0000E+00  0.8400E+02
