 running   42 mpi-ranks, on    1 nodes
 distrk:  each k-point on   42 cores,    1 groups
 distr:  one band on    1 cores,   42 groups
 vasp.6.5.0 16Dec24 (build Jan 08 2025 16:17:04) complex                        
  
 POSCAR found type information on POSCAR Be
 POSCAR found :  1 types and       2 ions
 Reading from existing POTCAR
 scaLAPACK will be used
 -----------------------------------------------------------------------------
|                                                                             |
|           W    W    AA    RRRRR   N    N  II  N    N   GGGG   !!!           |
|           W    W   A  A   R    R  NN   N  II  NN   N  G    G  !!!           |
|           W    W  A    A  R    R  N N  N  II  N N  N  G       !!!           |
|           W WW W  AAAAAA  RRRRR   N  N N  II  N  N N  G  GGG   !            |
|           WW  WW  A    A  R   R   N   NN  II  N   NN  G    G                |
|           W    W  A    A  R    R  N    N  II  N    N   GGGG   !!!           |
|                                                                             |
|     For optimal performance we recommend to set                             |
|       NCORE = 2 up to number-of-cores-per-socket                            |
|     NCORE specifies how many cores store one orbital (NPAR=cpu/NCORE).      |
|     This setting can greatly improve the performance of VASP for DFT.       |
|     The default, NCORE=1 might be grossly inefficient on modern             |
|     multi-core architectures or massively parallel machines. Do your        |
|     own testing! More info at https://www.vasp.at/wiki/index.php/NCORE      |
|     Unfortunately you need to use the default for GW and RPA                |
|     calculations (for HF NCORE is supported but not extensively tested      |
|     yet).                                                                   |
|                                                                             |
 -----------------------------------------------------------------------------

 Reading from existing POTCAR
 LDA part: xc-table for (Slater+PW92), standard interpolation
 POSCAR, INCAR and KPOINTS ok, starting setup
 FFT: planning ... GRIDC
 FFT: planning ... GRID_SOFT
 FFT: planning ... GRID
 WAVECAR not read
 entering main loop
       N       E                     dE             d eps       ncg     rms          rms(c)
DAV:   1     0.849197064772E+00    0.84920E+00   -0.16197E+03 19404   0.684E+01
DAV:   2    -0.684600430421E+01   -0.76952E+01   -0.69288E+01 28224   0.975E+00
DAV:   3    -0.686964684901E+01   -0.23643E-01   -0.23643E-01 20748   0.623E-01
DAV:   4    -0.686970206729E+01   -0.55218E-04   -0.55218E-04 36036   0.320E-02
DAV:   5    -0.686970207178E+01   -0.44877E-08   -0.49220E-08 20916   0.245E-04    0.267E+00
DAV:   6    -0.617583888938E+01    0.69386E+00   -0.10371E+00 27384   0.493E-01    0.132E+00
DAV:   7    -0.592203722670E+01    0.25380E+00   -0.10178E+00 28056   0.478E-01    0.346E-01
DAV:   8    -0.591119742083E+01    0.10840E-01   -0.38130E-03 31542   0.629E-02    0.113E-01
DAV:   9    -0.590550601043E+01    0.56914E-02   -0.93156E-03 31920   0.443E-02    0.705E-02
DAV:  10    -0.590494639097E+01    0.55962E-03   -0.70818E-03 31458   0.398E-02    0.391E-02
DAV:  11    -0.590621347082E+01   -0.12671E-02   -0.96761E-04 26292   0.212E-02    0.160E-02
DAV:  12    -0.590661660430E+01   -0.40313E-03   -0.11919E-04 27678   0.748E-03    0.105E-02
DAV:  13    -0.590698942111E+01   -0.37282E-03   -0.13344E-04 27720   0.485E-03    0.315E-03
DAV:  14    -0.590719882190E+01   -0.20940E-03   -0.36155E-05 26166   0.253E-03    0.326E-03
DAV:  15    -0.590729799786E+01   -0.99176E-04   -0.19930E-05 26082   0.185E-03    0.731E-04
DAV:  16    -0.590731977015E+01   -0.21772E-04   -0.14602E-06 25074   0.585E-04    0.545E-04
DAV:  17    -0.590733178206E+01   -0.12012E-04   -0.23098E-06 26586   0.465E-04    0.187E-04
DAV:  18    -0.590733627237E+01   -0.44903E-05   -0.19264E-07 25704   0.104E-04    0.741E-05
DAV:  19    -0.590733701282E+01   -0.74045E-06   -0.17132E-08 27384   0.351E-05
   1 F= -.59073370E+01 E0= -.59071231E+01  d E =-.427816E-03
