    3    3    1    1
  0.8374985E+02  0.2506240E-09  0.2506240E-09  0.4000000E-08  0.5000000E-15
  1.000000000000000E-004
  CAR 
 Convergence                             
      6     28     42
 
  0.1276756E-14  0.1276756E-14  0.1276756E-14  0.6944444E-02
      1        -12.466511   1.000000
      2         -8.800799   1.000000
      3         -5.140006   1.000000
      4         -1.989033   0.000000
      5          0.738738   0.000000
      6          1.001918   0.000000
      7          1.039547   0.000000
      8          1.328842   0.000000
      9          1.398465   0.000000
     10          1.887441   0.000000
     11          2.137692   0.000000
     12          2.743556   0.000000
     13          2.995766   0.000000
     14          3.770735   0.000000
     15          3.814467   0.000000
     16          3.814467   0.000000
     17          4.119717   0.000000
     18          5.045153   0.000000
     19          5.438934   0.000000
     20          6.538209   0.000000
     21          6.949155   0.000000
     22          7.885482   0.000000
     23          7.885482   0.000000
     24          8.228976   0.000000
     25          8.650037   0.000000
     26          9.727006   0.000000
     27         10.133330   0.000000
     28         10.505148   0.000000
     29         12.246802   0.000000
     30         12.446305   0.000000
     31         13.538399   0.000000
     32         13.538399   0.000000
     33         13.972096   0.000000
     34         14.325876   0.000000
     35         14.560630   0.000000
     36         15.840820   0.000000
     37         16.299555   0.000000
     38         16.537064   0.000000
     39         17.072168   0.000000
     40         18.337220   0.000000
     41         18.822376   0.000000
     42         19.345183   0.000000
 
  0.8333333E-01  0.1276756E-14  0.1276756E-14  0.2777778E-01
      1        -12.344997   1.000000
      2         -8.677091   1.000000
      3         -5.010571   1.000000
      4         -1.842396   0.000000
      5          0.881510   0.000000
      6          1.166744   0.000000
      7          1.203964   0.000000
      8          1.493744   0.000000
      9          1.555167   0.000000
     10          2.052533   0.000000
     11          2.250776   0.000000
     12          2.617289   0.000000
     13          2.908033   0.000000
     14          3.210933   0.000000
     15          3.934686   0.000000
     16          3.964129   0.000000
     17          4.309103   0.000000
     18          5.208419   0.000000
     19          5.623134   0.000000
     20          6.695971   0.000000
     21          6.813026   0.000000
     22          7.131610   0.000000
     23          8.006097   0.000000
     24          8.391265   0.000000
     25          8.828930   0.000000
     26         10.294007   0.000000
     27         10.590829   0.000000
     28         11.001526   0.000000
     29         12.319053   0.000000
     30         12.404860   0.000000
     31         12.750481   0.000000
     32         13.528778   0.000000
     33         14.588007   0.000000
     34         14.707994   0.000000
     35         14.954615   0.000000
     36         15.937066   0.000000
     37         16.203539   0.000000
     38         16.601403   0.000000
     39         17.160402   0.000000
     40         17.739839   0.000000
     41         18.311681   0.000000
     42         19.480705   0.000000
 
  0.1666667E+00  0.1276756E-14  0.1276756E-14  0.2777778E-01
      1        -11.980404   1.000000
      2         -8.309619   1.000000
      3         -4.650153   1.000000
      4         -1.416194   0.000000
      5          0.253561   0.000000
      6          1.485362   0.000000
      7          1.659092   0.000000
      8          1.710848   0.000000
      9          1.986479   0.000000
     10          2.079398   0.000000
     11          2.545753   0.000000
     12          2.821774   0.000000
     13          3.396778   0.000000
     14          3.683038   0.000000
     15          4.406890   0.000000
     16          4.411059   0.000000
     17          4.787356   0.000000
     18          4.806002   0.000000
     19          5.706581   0.000000
     20          6.125557   0.000000
     21          7.191190   0.000000
     22          7.635813   0.000000
     23          8.356913   0.000000
     24          8.875369   0.000000
     25          9.329052   0.000000
     26         10.065644   0.000000
     27         10.769769   0.000000
     28         11.143131   0.000000
     29         12.530941   0.000000
     30         12.851822   0.000000
     31         13.414232   0.000000
     32         13.655009   0.000000
     33         14.119923   0.000000
     34         15.221201   0.000000
     35         15.490158   0.000000
     36         15.939235   0.000000
     37         16.127380   0.000000
     38         16.501551   0.000000
     39         17.359622   0.000000
     40         17.400840   0.000000
     41         17.659728   0.000000
     42         17.677363   0.000000
 
  0.2500000E+00  0.1276756E-14  0.1276756E-14  0.2777778E-01
      1        -11.372937   1.000000
      2         -7.712199   1.000000
      3         -4.263078   1.000000
      4         -1.631632   0.000000
      5         -0.797628   0.000000
      6          2.260055   0.000000
      7          2.380267   0.000000
      8          2.537891   0.000000
      9          2.679640   0.000000
     10          2.900505   0.000000
     11          2.941096   0.000000
     12          3.405224   0.000000
     13          3.642015   0.000000
     14          4.241528   0.000000
     15          4.501990   0.000000
     16          5.148404   0.000000
     17          5.256195   0.000000
     18          5.625362   0.000000
     19          6.518735   0.000000
     20          6.940799   0.000000
     21          7.655003   0.000000
     22          7.995819   0.000000
     23          8.464768   0.000000
     24          8.898889   0.000000
     25          9.653012   0.000000
     26         10.157263   0.000000
     27         11.192913   0.000000
     28         11.789214   0.000000
     29         11.963884   0.000000
     30         12.947241   0.000000
     31         13.405168   0.000000
     32         13.719089   0.000000
     33         13.899965   0.000000
     34         14.329955   0.000000
     35         14.494961   0.000000
     36         14.572640   0.000000
     37         14.692077   0.000000
     38         14.804300   0.000000
     39         15.187249   0.000000
     40         15.412937   0.000000
     41         15.675942   0.000000
     42         15.902474   0.000000
 
  0.3333333E+00  0.1276756E-14  0.1276756E-14  0.2777778E-01
      1        -10.524883   1.000000
      2         -6.923008   1.000000
      3         -4.902757   1.000000
      4         -2.105193   0.000020
      5         -0.607743   0.000000
      6          1.613865   0.000000
      7          3.376342   0.000000
      8          3.663645   0.000000
      9          3.698467   0.000000
     10          3.986060   0.000000
     11          4.050585   0.000000
     12          4.539665   0.000000
     13          4.766068   0.000000
     14          5.324291   0.000000
     15          5.380747   0.000000
     16          5.730508   0.000000
     17          6.161928   0.000000
     18          6.385155   0.000000
     19          6.799040   0.000000
     20          7.602127   0.000000
     21          8.108441   0.000000
     22          8.601941   0.000000
     23          9.312177   0.000000
     24          9.544217   0.000000
     25          9.614634   0.000000
     26         10.868250   0.000000
     27         11.225819   0.000000
     28         11.311696   0.000000
     29         11.631456   0.000000
     30         11.674582   0.000000
     31         11.918276   0.000000
     32         11.948367   0.000000
     33         12.006171   0.000000
     34         12.489977   0.000000
     35         12.703791   0.000000
     36         12.757670   0.000000
     37         13.105106   0.000000
     38         13.300574   0.000000
     39         13.506597   0.000000
     40         14.150919   0.000000
     41         14.212118   0.000000
     42         14.593960   0.000000
 
  0.4166667E+00  0.1276756E-14  0.1276756E-14  0.2777778E-01
      1         -9.450978   1.000000
      2         -6.455043   1.000000
      3         -6.066487   1.000000
      4         -1.616489   0.000000
      5         -1.278343   0.000000
      6          2.416631   0.000000
      7          3.307675   0.000000
      8          4.938741   0.000000
      9          5.098337   0.000000
     10          5.199406   0.000000
     11          5.423729   0.000000
     12          5.561556   0.000000
     13          5.925550   0.000000
     14          6.298479   0.000000
     15          6.331337   0.000000
     16          6.975500   0.000000
     17          7.151676   0.000000
     18          7.422694   0.000000
     19          7.938964   0.000000
     20          8.269082   0.000000
     21          8.817727   0.000000
     22          9.066501   0.000000
     23          9.183741   0.000000
     24          9.244693   0.000000
     25          9.502150   0.000000
     26          9.528984   0.000000
     27          9.583050   0.000000
     28         10.028928   0.000000
     29         10.118581   0.000000
     30         10.249626   0.000000
     31         10.473292   0.000000
     32         10.643718   0.000000
     33         10.902901   0.000000
     34         11.077389   0.000000
     35         11.095130   0.000000
     36         11.859309   0.000000
     37         12.186010   0.000000
     38         12.322250   0.000000
     39         12.786476   0.000000
     40         13.065829   0.000000
     41         13.469788   0.000000
     42         14.094706   0.000000
 
  0.5000000E+00  0.1276756E-14  0.1276756E-14  0.1388889E-01
      1         -8.464459   1.000000
      2         -7.647469   1.000000
      3         -5.597093   1.000000
      4         -2.247120   0.464319
      5         -0.653963   0.000000
      6          2.395570   0.000000
      7          3.538525   0.000000
      8          4.634774   0.000000
      9          6.649326   0.000000
     10          6.760112   0.000000
     11          6.889834   0.000000
     12          7.021975   0.000000
     13          7.028237   0.000000
     14          7.052063   0.000000
     15          7.250868   0.000000
     16          7.369447   0.000000
     17          7.389329   0.000000
     18          7.400079   0.000000
     19          7.815322   0.000000
     20          7.946646   0.000000
     21          8.098916   0.000000
     22          8.122347   0.000000
     23          8.638204   0.000000
     24          8.714143   0.000000
     25          8.820565   0.000000
     26          8.949017   0.000000
     27          8.965697   0.000000
     28          9.086058   0.000000
     29          9.647999   0.000000
     30          9.845083   0.000000
     31         10.069342   0.000000
     32         10.072440   0.000000
     33         10.361005   0.000000
     34         10.908912   0.000000
     35         11.080695   0.000000
     36         11.364253   0.000000
     37         11.391152   0.000000
     38         12.391221   0.000000
     39         12.467285   0.000000
     40         12.855740   0.000000
     41         12.896413   0.000000
     42         13.920810   0.000000
 
  0.8333333E-01  0.8333333E-01  0.1276756E-14  0.2777778E-01
      1        -12.223387   1.000000
      2         -8.552734   1.000000
      3         -4.878975   1.000000
      4         -1.694794   0.000000
      5          1.033923   0.000000
      6          1.331628   0.000000
      7          1.369412   0.000000
      8          1.658717   0.000000
      9          1.718253   0.000000
     10          2.183082   0.000000
     11          2.217684   0.000000
     12          2.428815   0.000000
     13          3.072595   0.000000
     14          3.133836   0.000000
     15          3.614938   0.000000
     16          4.098766   0.000000
     17          4.535086   0.000000
     18          5.371974   0.000000
     19          5.826509   0.000000
     20          6.357439   0.000000
     21          6.862819   0.000000
     22          7.332208   0.000000
     23          7.616259   0.000000
     24          8.553521   0.000000
     25          9.037245   0.000000
     26         10.454332   0.000000
     27         10.904183   0.000000
     28         11.975330   0.000000
     29         12.218340   0.000000
     30         12.543509   0.000000
     31         12.562258   0.000000
     32         12.995364   0.000000
     33         14.813843   0.000000
     34         14.857591   0.000000
     35         15.827684   0.000000
     36         15.946499   0.000000
     37         15.982503   0.000000
     38         16.577756   0.000000
     39         17.193536   0.000000
     40         17.716512   0.000000
     41         18.289892   0.000000
     42         19.246603   0.000000
 
  0.1666667E+00  0.8333333E-01  0.1276756E-14  0.5555556E-01
      1        -11.858547   1.000000
      2         -8.183260   1.000000
      3         -4.510680   1.000000
      4         -1.265277   0.000000
      5          0.245641   0.000000
      6          1.574331   0.000000
      7          1.824219   0.000000
      8          1.870063   0.000000
      9          2.151745   0.000000
     10          2.220732   0.000000
     11          2.711154   0.000000
     12          2.914110   0.000000
     13          3.484200   0.000000
     14          3.561574   0.000000
     15          4.009519   0.000000
     16          4.543789   0.000000
     17          4.695963   0.000000
     18          5.035055   0.000000
     19          5.865168   0.000000
     20          6.338168   0.000000
     21          7.347923   0.000000
     22          7.758284   0.000000
     23          7.848679   0.000000
     24          9.037126   0.000000
     25          9.557551   0.000000
     26         10.133285   0.000000
     27         10.928684   0.000000
     28         11.427779   0.000000
     29         12.528958   0.000000
     30         13.004036   0.000000
     31         13.307107   0.000000
     32         14.074384   0.000000
     33         14.146015   0.000000
     34         15.348202   0.000000
     35         15.407847   0.000000
     36         15.816121   0.000000
     37         16.243303   0.000000
     38         16.554767   0.000000
     39         17.456771   0.000000
     40         17.487121   0.000000
     41         17.823661   0.000000
     42         17.871235   0.000000
 
  0.2500000E+00  0.8333333E-01  0.1276756E-14  0.5555556E-01
      1        -11.250800   1.000000
      2         -7.582218   1.000000
      3         -4.107290   1.000000
      4         -1.619884   0.000000
      5         -0.640392   0.000000
      6          2.377328   0.000000
      7          2.491730   0.000000
      8          2.700205   0.000000
      9          2.782059   0.000000
     10          3.046421   0.000000
     11          3.048340   0.000000
     12          3.559241   0.000000
     13          3.734458   0.000000
     14          4.234171   0.000000
     15          4.400871   0.000000
     16          4.787482   0.000000
     17          5.416495   0.000000
     18          5.843957   0.000000
     19          6.678238   0.000000
     20          7.142888   0.000000
     21          7.764488   0.000000
     22          8.134963   0.000000
     23          8.294725   0.000000
     24          8.679458   0.000000
     25          9.813217   0.000000
     26         10.383755   0.000000
     27         11.322020   0.000000
     28         11.923402   0.000000
     29         12.194093   0.000000
     30         12.380743   0.000000
     31         13.855920   0.000000
     32         13.953756   0.000000
     33         14.079977   0.000000
     34         14.411127   0.000000
     35         14.512668   0.000000
     36         14.663990   0.000000
     37         14.830007   0.000000
     38         14.935581   0.000000
     39         15.226560   0.000000
     40         15.295115   0.000000
     41         15.741066   0.000000
     42         15.742945   0.000000
 
  0.3333333E+00  0.8333333E-01  0.1276756E-14  0.5555556E-01
      1        -10.402537   1.000000
      2         -6.786872   1.000000
      3         -4.769634   1.000000
      4         -2.039986   0.000000
      5         -0.474736   0.000000
      6          1.659506   0.000000
      7          3.501228   0.000000
      8          3.824083   0.000000
      9          3.862027   0.000000
     10          4.147397   0.000000
     11          4.202648   0.000000
     12          4.702165   0.000000
     13          4.871290   0.000000
     14          5.196705   0.000000
     15          5.472808   0.000000
     16          5.541687   0.000000
     17          5.990767   0.000000
     18          6.544515   0.000000
     19          7.014059   0.000000
     20          7.756148   0.000000
     21          8.312430   0.000000
     22          8.707925   0.000000
     23          9.007904   0.000000
     24          9.463793   0.000000
     25          9.817378   0.000000
     26         11.021333   0.000000
     27         11.165703   0.000000
     28         11.422434   0.000000
     29         11.581008   0.000000
     30         11.782849   0.000000
     31         11.841629   0.000000
     32         12.102270   0.000000
     33         12.172868   0.000000
     34         12.645516   0.000000
     35         12.863596   0.000000
     36         12.873770   0.000000
     37         13.413859   0.000000
     38         13.415025   0.000000
     39         13.641383   0.000000
     40         14.054288   0.000000
     41         14.231946   0.000000
     42         14.717071   0.000000
 
  0.4166667E+00  0.8333333E-01  0.1276756E-14  0.5555556E-01
      1         -9.328148   1.000000
      2         -6.337598   1.000000
      3         -5.919338   1.000000
      4         -1.530361   0.000000
      5         -1.176322   0.000000
      6          2.511834   0.000000
      7          3.411755   0.000000
      8          5.053688   0.000000
      9          5.254612   0.000000
     10          5.361026   0.000000
     11          5.583935   0.000000
     12          5.705170   0.000000
     13          6.082180   0.000000
     14          6.314600   0.000000
     15          6.482538   0.000000
     16          6.644550   0.000000
     17          7.136473   0.000000
     18          7.374319   0.000000
     19          8.099299   0.000000
     20          8.465980   0.000000
     21          8.940893   0.000000
     22          9.228941   0.000000
     23          9.346399   0.000000
     24          9.401409   0.000000
     25          9.614454   0.000000
     26          9.625862   0.000000
     27          9.694667   0.000000
     28          9.729153   0.000000
     29          9.820780   0.000000
     30         10.191287   0.000000
     31         10.427159   0.000000
     32         10.796037   0.000000
     33         11.043022   0.000000
     34         11.237495   0.000000
     35         11.304557   0.000000
     36         11.991803   0.000000
     37         12.350902   0.000000
     38         12.408541   0.000000
     39         12.996794   0.000000
     40         13.114373   0.000000
     41         13.611289   0.000000
     42         13.931335   0.000000
 
  0.5000000E+00  0.8333333E-01  0.1276756E-14  0.2777778E-01
      1         -8.335990   1.000000
      2         -7.537204   1.000000
      3         -5.438976   1.000000
      4         -2.176004   0.017820
      5         -0.537272   0.000000
      6          2.487620   0.000000
      7          3.620257   0.000000
      8          4.792619   0.000000
      9          6.731513   0.000000
     10          6.900223   0.000000
     11          7.052355   0.000000
     12          7.182328   0.000000
     13          7.192213   0.000000
     14          7.216387   0.000000
     15          7.415606   0.000000
     16          7.476255   0.000000
     17          7.545506   0.000000
     18          7.562014   0.000000
     19          7.758151   0.000000
     20          7.980133   0.000000
     21          8.107397   0.000000
     22          8.209678   0.000000
     23          8.321897   0.000000
     24          8.404709   0.000000
     25          8.801915   0.000000
     26          8.974980   0.000000
     27          9.140325   0.000000
     28          9.157235   0.000000
     29          9.807207   0.000000
     30          9.984004   0.000000
     31         10.006133   0.000000
     32         10.232865   0.000000
     33         10.272961   0.000000
     34         11.073663   0.000000
     35         11.175490   0.000000
     36         11.521477   0.000000
     37         11.592377   0.000000
     38         12.422126   0.000000
     39         12.554842   0.000000
     40         13.005788   0.000000
     41         13.101106   0.000000
     42         13.617720   0.000000
 
  0.1666667E+00  0.1666667E+00  0.1276756E-14  0.2777778E-01
      1        -11.493129   1.000000
      2         -7.807655   1.000000
      3         -4.113050   1.000000
      4         -0.823915   0.000000
      5         -0.319336   0.000000
      6          1.709132   0.000000
      7          2.318237   0.000000
      8          2.347449   0.000000
      9          2.561181   0.000000
     10          2.646452   0.000000
     11          2.908358   0.000000
     12          3.206475   0.000000
     13          3.577078   0.000000
     14          3.941709   0.000000
     15          4.055880   0.000000
     16          4.428823   0.000000
     17          5.076221   0.000000
     18          5.537583   0.000000
     19          6.334339   0.000000
     20          6.856137   0.000000
     21          7.028968   0.000000
     22          7.849470   0.000000
     23          8.375998   0.000000
     24          9.518312   0.000000
     25          9.934230   0.000000
     26         10.098204   0.000000
     27         10.973613   0.000000
     28         11.397006   0.000000
     29         12.016591   0.000000
     30         13.363147   0.000000
     31         13.781683   0.000000
     32         13.910485   0.000000
     33         14.091348   0.000000
     34         15.574058   0.000000
     35         15.990439   0.000000
     36         16.146824   0.000000
     37         16.341183   0.000000
     38         16.398734   0.000000
     39         16.625172   0.000000
     40         17.325622   0.000000
     41         18.058732   0.000000
     42         18.212660   0.000000
 
  0.2500000E+00  0.1666667E+00  0.1276756E-14  0.5555556E-01
      1        -10.884934   1.000000
      2         -7.195669   1.000000
      3         -3.643410   1.000000
      4         -1.742618   0.000000
      5         -0.173297   0.000000
      6          2.238088   0.000000
      7          2.491989   0.000000
      8          3.139241   0.000000
      9          3.158277   0.000000
     10          3.261822   0.000000
     11          3.479098   0.000000
     12          3.633844   0.000000
     13          4.034572   0.000000
     14          4.365768   0.000000
     15          4.876540   0.000000
     16          5.228991   0.000000
     17          5.885497   0.000000
     18          6.345393   0.000000
     19          7.000170   0.000000
     20          7.284613   0.000000
     21          7.646630   0.000000
     22          8.020419   0.000000
     23          8.648406   0.000000
     24          9.201094   0.000000
     25         10.286208   0.000000
     26         10.822066   0.000000
     27         10.943941   0.000000
     28         11.607936   0.000000
     29         12.123439   0.000000
     30         12.278537   0.000000
     31         12.848719   0.000000
     32         13.957393   0.000000
     33         14.449668   0.000000
     34         14.555506   0.000000
     35         14.944852   0.000000
     36         15.162697   0.000000
     37         15.240820   0.000000
     38         15.471160   0.000000
     39         15.580376   0.000000
     40         15.970349   0.000000
     41         16.089299   0.000000
     42         16.311957   0.000000
 
  0.3333333E+00  0.1666667E+00  0.1276756E-14  0.5555556E-01
      1        -10.036900   1.000000
      2         -6.382024   1.000000
      3         -4.395977   1.000000
      4         -1.893272   0.000000
      5         -0.096630   0.000000
      6          1.758514   0.000000
      7          3.206424   0.000000
      8          4.216672   0.000000
      9          4.300903   0.000000
     10          4.379567   0.000000
     11          4.628803   0.000000
     12          4.745144   0.000000
     13          5.186071   0.000000
     14          5.428193   0.000000
     15          5.805173   0.000000
     16          6.014753   0.000000
     17          6.422780   0.000000
     18          6.991996   0.000000
     19          7.507900   0.000000
     20          7.702355   0.000000
     21          8.291512   0.000000
     22          8.812637   0.000000
     23          9.149265   0.000000
     24          9.693697   0.000000
     25          9.895078   0.000000
     26         10.350115   0.000000
     27         11.430605   0.000000
     28         11.506358   0.000000
     29         12.038097   0.000000
     30         12.081424   0.000000
     31         12.117112   0.000000
     32         12.345716   0.000000
     33         12.491017   0.000000
     34         12.686524   0.000000
     35         12.859538   0.000000
     36         13.177715   0.000000
     37         13.382567   0.000000
     38         13.649713   0.000000
     39         13.948404   0.000000
     40         14.218594   0.000000
     41         14.250430   0.000000
     42         15.067677   0.000000
 
  0.4166667E+00  0.1666667E+00  0.1276756E-14  0.5555556E-01
      1         -8.962832   1.000000
      2         -5.999975   1.000000
      3         -5.481450   1.000000
      4         -1.286215   0.000000
      5         -0.898077   0.000000
      6          2.774992   0.000000
      7          3.688701   0.000000
      8          4.466705   0.000000
      9          5.709420   0.000000
     10          5.712213   0.000000
     11          5.877595   0.000000
     12          6.061409   0.000000
     13          6.252531   0.000000
     14          6.544842   0.000000
     15          6.929287   0.000000
     16          6.990752   0.000000
     17          7.606155   0.000000
     18          7.824818   0.000000
     19          7.922905   0.000000
     20          8.469893   0.000000
     21          8.660612   0.000000
     22          8.962715   0.000000
     23          9.475487   0.000000
     24          9.714757   0.000000
     25          9.836591   0.000000
     26          9.847969   0.000000
     27         10.097431   0.000000
     28         10.184738   0.000000
     29         10.278460   0.000000
     30         10.621242   0.000000
     31         10.895720   0.000000
     32         11.011880   0.000000
     33         11.371725   0.000000
     34         11.665923   0.000000
     35         11.785721   0.000000
     36         11.934166   0.000000
     37         12.209610   0.000000
     38         12.611192   0.000000
     39         12.892798   0.000000
     40         13.213921   0.000000
     41         13.489871   0.000000
     42         13.972588   0.000000
 
  0.5000000E+00  0.1666667E+00  0.1276756E-14  0.2777778E-01
      1         -7.955704   1.000000
      2         -7.215039   1.000000
      3         -4.966279   1.000000
      4         -1.972906   0.000000
      5         -0.206657   0.000000
      6          2.731899   0.000000
      7          3.844043   0.000000
      8          5.254415   0.000000
      9          5.567631   0.000000
     10          6.603371   0.000000
     11          7.415749   0.000000
     12          7.454285   0.000000
     13          7.537167   0.000000
     14          7.692559   0.000000
     15          7.694309   0.000000
     16          7.701146   0.000000
     17          7.908942   0.000000
     18          8.029895   0.000000
     19          8.052585   0.000000
     20          8.052969   0.000000
     21          8.473648   0.000000
     22          8.561848   0.000000
     23          8.775702   0.000000
     24          8.791232   0.000000
     25          9.190978   0.000000
     26          9.292179   0.000000
     27          9.336780   0.000000
     28          9.605106   0.000000
     29          9.648136   0.000000
     30         10.078096   0.000000
     31         10.299581   0.000000
     32         10.694552   0.000000
     33         10.768175   0.000000
     34         10.910347   0.000000
     35         11.557089   0.000000
     36         11.968346   0.000000
     37         12.013926   0.000000
     38         12.074275   0.000000
     39         12.461176   0.000000
     40         13.033814   0.000000
     41         13.423583   0.000000
     42         13.522932   0.000000
 
  0.2500000E+00  0.2500000E+00  0.1276756E-14  0.2777778E-01
      1        -10.277296   1.000000
      2         -6.564765   1.000000
      3         -2.915813   1.000000
      4         -2.451520   1.000000
      5          0.562941   0.000000
      6          1.714752   0.000000
      7          1.857390   0.000000
      8          3.850691   0.000000
      9          3.941810   0.000000
     10          4.044466   0.000000
     11          4.278996   0.000000
     12          4.421141   0.000000
     13          4.837261   0.000000
     14          5.167721   0.000000
     15          5.639245   0.000000
     16          6.033186   0.000000
     17          6.353157   0.000000
     18          6.841463   0.000000
     19          7.153624   0.000000
     20          7.917937   0.000000
     21          8.000450   0.000000
     22          8.462248   0.000000
     23          9.389793   0.000000
     24          9.438070   0.000000
     25          9.687651   0.000000
     26         10.098914   0.000000
     27         10.965753   0.000000
     28         11.210754   0.000000
     29         11.749224   0.000000
     30         12.708533   0.000000
     31         13.634198   0.000000
     32         13.750232   0.000000
     33         13.824626   0.000000
     34         15.109769   0.000000
     35         15.250284   0.000000
     36         15.309482   0.000000
     37         15.802006   0.000000
     38         15.988959   0.000000
     39         15.990446   0.000000
     40         15.997186   0.000000
     41         16.051887   0.000000
     42         16.288293   0.000000
 
  0.3333333E+00  0.2500000E+00  0.1276756E-14  0.5555556E-01
      1         -9.432661   1.000000
      2         -5.720840   1.000000
      3         -3.934265   1.000000
      4         -1.806112   0.000000
      5          0.390354   0.000000
      6          1.826534   0.000000
      7          2.059236   0.000000
      8          4.921617   0.000000
      9          5.049443   0.000000
     10          5.197487   0.000000
     11          5.407407   0.000000
     12          5.549155   0.000000
     13          5.940205   0.000000
     14          6.090101   0.000000
     15          6.386832   0.000000
     16          6.468685   0.000000
     17          6.986234   0.000000
     18          7.186527   0.000000
     19          7.757057   0.000000
     20          7.888384   0.000000
     21          8.319895   0.000000
     22          9.022768   0.000000
     23          9.387424   0.000000
     24          9.420557   0.000000
     25          9.662281   0.000000
     26         10.436347   0.000000
     27         11.132949   0.000000
     28         11.366076   0.000000
     29         12.366108   0.000000
     30         12.599516   0.000000
     31         12.872956   0.000000
     32         13.169780   0.000000
     33         13.183105   0.000000
     34         13.446257   0.000000
     35         13.491050   0.000000
     36         13.854840   0.000000
     37         14.151636   0.000000
     38         14.274693   0.000000
     39         14.600387   0.000000
     40         14.660919   0.000000
     41         15.003843   0.000000
     42         15.044283   0.000000
 
  0.4166667E+00  0.2500000E+00  0.1276756E-14  0.5555556E-01
      1         -8.365898   1.000000
      2         -5.501833   1.000000
      3         -4.765581   1.000000
      4         -0.935483   0.000000
      5         -0.582591   0.000000
      6          2.911976   0.000000
      7          3.102976   0.000000
      8          4.078085   0.000000
      9          6.111779   0.000000
     10          6.346982   0.000000
     11          6.434385   0.000000
     12          6.696052   0.000000
     13          6.829040   0.000000
     14          7.058243   0.000000
     15          7.136311   0.000000
     16          7.264905   0.000000
     17          7.679954   0.000000
     18          7.793978   0.000000
     19          8.406206   0.000000
     20          8.642371   0.000000
     21          9.161559   0.000000
     22          9.626258   0.000000
     23          9.730027   0.000000
     24          9.829898   0.000000
     25         10.397444   0.000000
     26         10.512719   0.000000
     27         10.680974   0.000000
     28         10.789134   0.000000
     29         10.997052   0.000000
     30         11.076974   0.000000
     31         11.093893   0.000000
     32         11.546632   0.000000
     33         11.728800   0.000000
     34         12.118320   0.000000
     35         12.428578   0.000000
     36         12.535953   0.000000
     37         12.639298   0.000000
     38         13.348860   0.000000
     39         13.584235   0.000000
     40         13.933048   0.000000
     41         14.122215   0.000000
     42         14.653647   0.000000
 
  0.5000000E+00  0.2500000E+00  0.1276756E-14  0.2777778E-01
      1         -7.342541   1.000000
      2         -6.711685   1.000000
      3         -4.185404   1.000000
      4         -1.670330   0.000000
      5          0.223883   0.000000
      6          2.933957   0.000000
      7          3.736962   0.000000
      8          4.124115   0.000000
      9          5.122844   0.000000
     10          5.869063   0.000000
     11          7.496290   0.000000
     12          8.152306   0.000000
     13          8.180694   0.000000
     14          8.253472   0.000000
     15          8.474215   0.000000
     16          8.517885   0.000000
     17          8.520130   0.000000
     18          8.587403   0.000000
     19          8.739648   0.000000
     20          8.857775   0.000000
     21          8.871019   0.000000
     22          8.976329   0.000000
     23          9.295872   0.000000
     24          9.521247   0.000000
     25          9.560640   0.000000
     26          9.593719   0.000000
     27         10.102411   0.000000
     28         10.216901   0.000000
     29         10.365075   0.000000
     30         10.412624   0.000000
     31         10.549693   0.000000
     32         11.100478   0.000000
     33         11.426399   0.000000
     34         11.472275   0.000000
     35         11.622289   0.000000
     36         12.343550   0.000000
     37         12.637836   0.000000
     38         12.762509   0.000000
     39         12.946655   0.000000
     40         13.792405   0.000000
     41         13.920325   0.000000
     42         14.257340   0.000000
 
  0.3333333E+00  0.3333333E+00  0.1276756E-14  0.2777778E-01
      1         -8.599848   1.000000
      2         -4.832588   1.000000
      3         -4.016639   1.000000
      4         -1.547985   0.000000
      5          0.319559   0.000000
      6          1.779824   0.000000
      7          2.191434   0.000000
      8          5.410755   0.000000
      9          5.556621   0.000000
     10          6.097836   0.000000
     11          6.362325   0.000000
     12          6.392284   0.000000
     13          6.411795   0.000000
     14          6.696693   0.000000
     15          6.719852   0.000000
     16          7.207100   0.000000
     17          7.440317   0.000000
     18          7.958977   0.000000
     19          7.987314   0.000000
     20          8.292644   0.000000
     21          8.349737   0.000000
     22          8.979751   0.000000
     23          9.429605   0.000000
     24         10.069633   0.000000
     25         10.715939   0.000000
     26         11.074421   0.000000
     27         12.110169   0.000000
     28         12.143969   0.000000
     29         12.144686   0.000000
     30         13.330911   0.000000
     31         13.517844   0.000000
     32         13.573357   0.000000
     33         14.061509   0.000000
     34         14.281667   0.000000
     35         14.327179   0.000000
     36         14.331520   0.000000
     37         14.389716   0.000000
     38         14.586535   0.000000
     39         14.587504   0.000000
     40         14.620428   0.000000
     41         14.764122   0.000000
     42         14.919516   0.000000
 
  0.4166667E+00  0.3333333E+00  0.1276756E-14  0.5555556E-01
      1         -7.561480   1.000000
      2         -5.018616   1.000000
      3         -3.802789   1.000000
      4         -0.617999   0.000000
      5         -0.608484   0.000000
      6          2.272033   0.000000
      7          3.192205   0.000000
      8          3.525051   0.000000
      9          5.368564   0.000000
     10          5.545366   0.000000
     11          7.060928   0.000000
     12          7.481586   0.000000
     13          7.851106   0.000000
     14          7.871734   0.000000
     15          8.002426   0.000000
     16          8.149747   0.000000
     17          8.207446   0.000000
     18          8.626922   0.000000
     19          8.918709   0.000000
     20          9.147986   0.000000
     21          9.733288   0.000000
     22          9.736965   0.000000
     23         10.593135   0.000000
     24         10.772800   0.000000
     25         11.268599   0.000000
     26         11.531803   0.000000
     27         11.831122   0.000000
     28         11.924795   0.000000
     29         11.996011   0.000000
     30         12.192921   0.000000
     31         12.199670   0.000000
     32         12.575670   0.000000
     33         12.760912   0.000000
     34         12.989322   0.000000
     35         13.122918   0.000000
     36         13.540296   0.000000
     37         13.718602   0.000000
     38         13.721167   0.000000
     39         14.072266   0.000000
     40         14.626140   0.000000
     41         14.723116   0.000000
     42         15.043725   0.000000
 
  0.5000000E+00  0.3333333E+00  0.1276756E-14  0.2777778E-01
      1         -6.546276   1.000000
      2         -6.098739   1.000000
      3         -3.115202   1.000000
      4         -1.328757   0.000000
      5          0.178691   0.000000
      6          2.386653   0.000000
      7          2.772524   0.000000
      8          4.279545   0.000000
      9          4.640109   0.000000
     10          4.678442   0.000000
     11          7.486768   0.000000
     12          8.023446   0.000000
     13          8.223792   0.000000
     14          9.091145   0.000000
     15          9.320665   0.000000
     16          9.460890   0.000000
     17          9.673987   0.000000
     18          9.683007   0.000000
     19          9.729455   0.000000
     20          9.876983   0.000000
     21          9.978678   0.000000
     22         10.030950   0.000000
     23         10.096979   0.000000
     24         10.432419   0.000000
     25         10.608423   0.000000
     26         10.647318   0.000000
     27         10.759600   0.000000
     28         11.206080   0.000000
     29         11.331388   0.000000
     30         11.541585   0.000000
     31         11.607832   0.000000
     32         12.164893   0.000000
     33         12.239596   0.000000
     34         12.599425   0.000000
     35         12.728469   0.000000
     36         13.170748   0.000000
     37         13.306389   0.000000
     38         13.880945   0.000000
     39         14.041589   0.000000
     40         14.229773   0.000000
     41         14.433697   0.000000
     42         15.092540   0.000000
 
  0.4166667E+00  0.4166667E+00  0.1276756E-14  0.2777778E-01
      1         -6.604460   1.000000
      2         -4.966036   1.000000
      3         -2.676481   1.000000
      4         -0.850162   0.000000
      5         -0.615539   0.000000
      6          2.135496   0.000000
      7          2.744979   0.000000
      8          2.824207   0.000000
      9          4.576367   0.000000
     10          5.491005   0.000000
     11          6.564451   0.000000
     12          7.522866   0.000000
     13          8.825689   0.000000
     14          9.004142   0.000000
     15          9.343231   0.000000
     16          9.475273   0.000000
     17          9.656350   0.000000
     18          9.898153   0.000000
     19         10.283224   0.000000
     20         10.382692   0.000000
     21         10.909073   0.000000
     22         11.121655   0.000000
     23         11.175309   0.000000
     24         11.578366   0.000000
     25         12.102104   0.000000
     26         12.492207   0.000000
     27         12.550253   0.000000
     28         13.007551   0.000000
     29         13.224573   0.000000
     30         13.329920   0.000000
     31         13.367356   0.000000
     32         13.392288   0.000000
     33         13.414061   0.000000
     34         13.626052   0.000000
     35         13.659665   0.000000
     36         13.700161   0.000000
     37         13.767078   0.000000
     38         13.859478   0.000000
     39         14.096323   0.000000
     40         14.267700   0.000000
     41         14.320810   0.000000
     42         14.450492   0.000000
 
  0.5000000E+00  0.4166667E+00  0.1276756E-14  0.2777778E-01
      1         -5.713367   1.000000
      2         -5.532326   1.000000
      3         -1.831672   0.000000
      4         -1.043450   0.000000
      5         -0.770719   0.000000
      6          1.417212   0.000000
      7          2.617325   0.000000
      8          3.326411   0.000000
      9          4.213913   0.000000
     10          4.971384   0.000000
     11          6.405244   0.000000
     12          8.305485   0.000000
     13          8.873032   0.000000
     14          9.818920   0.000000
     15         10.632385   0.000000
     16         10.727063   0.000000
     17         11.144429   0.000000
     18         11.175975   0.000000
     19         11.220203   0.000000
     20         11.304763   0.000000
     21         11.309142   0.000000
     22         11.510423   0.000000
     23         11.579952   0.000000
     24         11.676686   0.000000
     25         11.781609   0.000000
     26         12.125214   0.000000
     27         12.218791   0.000000
     28         12.305427   0.000000
     29         12.358233   0.000000
     30         12.739378   0.000000
     31         13.038630   0.000000
     32         13.046772   0.000000
     33         13.062553   0.000000
     34         13.127138   0.000000
     35         13.929561   0.000000
     36         14.068303   0.000000
     37         14.072209   0.000000
     38         14.099045   0.000000
     39         14.565800   0.000000
     40         14.873567   0.000000
     41         14.921743   0.000000
     42         15.201239   0.000000
 
  0.5000000E+00  0.5000000E+00  0.1276756E-14  0.6944444E-02
      1         -5.283834   1.000000
      2         -5.283834   1.000000
      3         -1.335740   0.000000
      4         -0.928866   0.000000
      5         -0.928866   0.000000
      6          0.994889   0.000000
      7          1.433573   0.000000
      8          4.139366   0.000000
      9          4.212263   0.000000
     10          5.181811   0.000000
     11          5.181811   0.000000
     12          8.666189   0.000000
     13          9.877528   0.000000
     14         10.512371   0.000000
     15         10.791701   0.000000
     16         10.791701   0.000000
     17         12.226350   0.000000
     18         12.226350   0.000000
     19         12.644363   0.000000
     20         12.691955   0.000000
     21         12.943536   0.000000
     22         12.997481   0.000000
     23         12.997481   0.000000
     24         13.009146   0.000000
     25         13.034947   0.000000
     26         13.059795   0.000000
     27         13.059795   0.000000
     28         13.078750   0.000000
     29         13.187677   0.000000
     30         13.294448   0.000000
     31         13.294448   0.000000
     32         13.359937   0.000000
     33         13.381917   0.000000
     34         13.434698   0.000000
     35         13.434698   0.000000
     36         13.487345   0.000000
     37         13.746779   0.000000
     38         13.932449   0.000000
     39         13.937837   0.000000
     40         13.937837   0.000000
     41         13.988428   0.000000
     42         13.988429   0.000000
