       N       E                     dE             d eps       ncg     rms          rms(c)
DAV:   1     0.223082238788E+03    0.22308E+03   -0.55074E+04  8536   0.128E+03
DAV:   2    -0.208959151580E+03   -0.43204E+03   -0.39931E+03 10969   0.218E+02
DAV:   3    -0.235877750107E+03   -0.26919E+02   -0.25769E+02 10688   0.434E+01
DAV:   4    -0.236564986229E+03   -0.68724E+00   -0.67751E+00 10936   0.806E+00
DAV:   5    -0.236576426402E+03   -0.11440E-01   -0.11409E-01 10374   0.785E-01    0.629E+00
DAV:   6    -0.235182962044E+03    0.13935E+01   -0.16326E-01 10216   0.233E+00    0.387E+00
DAV:   7    -0.234637270439E+03    0.54569E+00   -0.15613E-01  9579   0.242E+00    0.148E-01
DAV:   8    -0.234635657304E+03    0.16131E-02   -0.78286E-04 11032   0.119E-01    0.589E-02
DAV:   9    -0.234635670357E+03   -0.13053E-04   -0.70971E-05 10132   0.345E-02    0.351E-03
DAV:  10    -0.234635676213E+03   -0.58558E-05   -0.96632E-07 10984   0.254E-03    0.137E-03
DAV:  11    -0.234635671508E+03    0.47048E-05   -0.16117E-07 10317   0.168E-03    0.587E-04
DAV:  12    -0.234635671713E+03   -0.20491E-06   -0.75895E-09  6910   0.465E-04    0.166E-04
DAV:  13    -0.234635671159E+03    0.55425E-06   -0.19244E-09  6094   0.189E-04    0.192E-05
DAV:  14    -0.234635671135E+03    0.23627E-07   -0.23079E-10  5926   0.692E-05    0.699E-06
DAV:  15    -0.234635671148E+03   -0.12427E-07   -0.50838E-11  5794   0.232E-05    0.281E-06
DAV:  16    -0.234635671147E+03    0.12069E-08   -0.17485E-11  5721   0.138E-05
   1 F= -.23463567E+03 E0= -.23462672E+03  d E =-.179059E-01
