       N       E                     dE             d eps       ncg     rms          rms(c)
DAV:   1    -0.396299141926E+00   -0.39630E+00   -0.17947E+03463092   0.742E+01
DAV:   2    -0.664641646775E+01   -0.62501E+01   -0.59161E+01694638   0.106E+01
DAV:   3    -0.665573486372E+01   -0.93184E-02   -0.93153E-02470106   0.425E-01
DAV:   4    -0.665574610971E+01   -0.11246E-04   -0.11246E-04907200   0.153E-02
DAV:   5    -0.665574610961E+01    0.97998E-10   -0.74809E-10471450   0.344E-05
DAV:   6    -0.665574610969E+01   -0.82828E-10    0.20892E-10874650   0.149E-06
   1 F= -.66557461E+01 E0= -.66543349E+01  d E =-.282250E-02
