 running   16 mpi-ranks, on    1 nodes
 distrk:  each k-point on   16 cores,    1 groups
 distr:  one band on    1 cores,   16 groups
 vasp.6.5.0 16Dec24 (build Jan 08 2025 16:17:04) complex                        
  
 POSCAR found type information on POSCAR Be
 POSCAR found :  1 types and       4 ions
 Reading from existing POTCAR
 scaLAPACK will be used
 -----------------------------------------------------------------------------
|                                                                             |
|           W    W    AA    RRRRR   N    N  II  N    N   GGGG   !!!           |
|           W    W   A  A   R    R  NN   N  II  NN   N  G    G  !!!           |
|           W    W  A    A  R    R  N N  N  II  N N  N  G       !!!           |
|           W WW W  AAAAAA  RRRRR   N  N N  II  N  N N  G  GGG   !            |
|           WW  WW  A    A  R   R   N   NN  II  N   NN  G    G                |
|           W    W  A    A  R    R  N    N  II  N    N   GGGG   !!!           |
|                                                                             |
|     For optimal performance we recommend to set                             |
|       NCORE = 2 up to number-of-cores-per-socket                            |
|     NCORE specifies how many cores store one orbital (NPAR=cpu/NCORE).      |
|     This setting can greatly improve the performance of VASP for DFT.       |
|     The default, NCORE=1 might be grossly inefficient on modern             |
|     multi-core architectures or massively parallel machines. Do your        |
|     own testing! More info at https://www.vasp.at/wiki/index.php/NCORE      |
|     Unfortunately you need to use the default for GW and RPA                |
|     calculations (for HF NCORE is supported but not extensively tested      |
|     yet).                                                                   |
|                                                                             |
 -----------------------------------------------------------------------------

 Reading from existing POTCAR
 LDA part: xc-table for (Slater+PW92), standard interpolation
 POSCAR, INCAR and KPOINTS ok, starting setup
 FFT: planning ... GRIDC
 FFT: planning ... GRID_SOFT
 FFT: planning ... GRID
 WAVECAR not read
 entering main loop
       N       E                     dE             d eps       ncg     rms          rms(c)
DAV:   1     0.251076333065E+02    0.25108E+02   -0.23475E+03  3456   0.329E+02
DAV:   2    -0.835469584429E+01   -0.33462E+02   -0.32711E+02  5408   0.436E+01
DAV:   3    -0.949002868216E+01   -0.11353E+01   -0.11184E+01  4768   0.110E+01
DAV:   4    -0.949734274250E+01   -0.73141E-02   -0.73126E-02  6016   0.995E-01
DAV:   5    -0.949735009022E+01   -0.73477E-05   -0.73482E-05  4864   0.297E-02    0.264E+00
DAV:   6    -0.892351653698E+01    0.57383E+00   -0.13251E+00  6288   0.208E+00    0.122E+00
DAV:   7    -0.879423842713E+01    0.12928E+00   -0.49374E-01  6144   0.139E+00    0.426E-01
DAV:   8    -0.877898267627E+01    0.15256E-01   -0.22751E-02  6032   0.509E-01    0.102E-01
DAV:   9    -0.877558033022E+01    0.34023E-02   -0.68760E-03  6096   0.153E-01    0.835E-02
DAV:  10    -0.877459019827E+01    0.99013E-03   -0.22376E-03  5856   0.112E-01    0.334E-02
DAV:  11    -0.877576469584E+01   -0.11745E-02   -0.38893E-04  5248   0.642E-02    0.176E-02
DAV:  12    -0.877656009777E+01   -0.79540E-03   -0.35642E-04  4640   0.458E-02    0.842E-03
DAV:  13    -0.877710257872E+01   -0.54248E-03   -0.31580E-05  4256   0.174E-02    0.344E-03
DAV:  14    -0.877728424319E+01   -0.18166E-03   -0.11262E-05  4352   0.709E-03    0.207E-03
DAV:  15    -0.877737177730E+01   -0.87534E-04   -0.64224E-06  4432   0.535E-03    0.107E-03
DAV:  16    -0.877742451345E+01   -0.52736E-04   -0.60029E-06  4640   0.376E-03    0.527E-04
DAV:  17    -0.877743078805E+01   -0.62746E-05   -0.19103E-07  5008   0.959E-04    0.331E-04
DAV:  18    -0.877743969086E+01   -0.89028E-05   -0.50007E-07  5040   0.109E-03    0.174E-04
DAV:  19    -0.877744153054E+01   -0.18397E-05   -0.31247E-08  4656   0.404E-04    0.686E-05
DAV:  20    -0.877744223221E+01   -0.70167E-06   -0.20797E-09  4896   0.136E-04
   1 F= -.87774422E+01 E0= -.87756957E+01  d E =-.877744E+01
 curvature:   0.00 expect dE= 0.000E+00 dE for cont linesearch  0.000E+00
 trial: gam= 0.00000 g(F)=  0.296E+00 g(S)=  0.482E-03 ort = 0.000E+00 (trialstep = 0.100E+01)
 search vector abs. value=  0.297E+00
 bond charge predicted
       N       E                     dE             d eps       ncg     rms          rms(c)
DAV:   1    -0.909171876763E+01   -0.31428E+00   -0.19274E+00  3792   0.474E+00    0.284E-01
DAV:   2    -0.908950768385E+01    0.22111E-02   -0.27992E-02  4880   0.581E-01    0.145E-01
DAV:   3    -0.908927775336E+01    0.22993E-03   -0.59193E-03  5664   0.179E-01    0.383E-02
DAV:   4    -0.908937087631E+01   -0.93123E-04   -0.29530E-04  4384   0.587E-02    0.157E-02
DAV:   5    -0.908940315386E+01   -0.32278E-04   -0.29278E-05  4640   0.213E-02    0.402E-03
DAV:   6    -0.908941009846E+01   -0.69446E-05   -0.45059E-06  4672   0.634E-03    0.118E-03
DAV:   7    -0.908941358579E+01   -0.34873E-05   -0.25283E-07  4672   0.161E-03    0.639E-04
DAV:   8    -0.908941758369E+01   -0.39979E-05   -0.35047E-07  4512   0.125E-03    0.310E-04
DAV:   9    -0.908942120877E+01   -0.36251E-05   -0.30251E-07  4400   0.738E-04    0.161E-04
DAV:  10    -0.908942226002E+01   -0.10512E-05   -0.83040E-08  4384   0.383E-04    0.893E-05
DAV:  11    -0.908942282901E+01   -0.56899E-06   -0.26912E-08  4288   0.223E-04
   2 F= -.90894228E+01 E0= -.90877232E+01  d E =-.311981E+00
 ZBRENT: can't locate minimum, use default step
 trial-energy change:   -0.311981  1 .order   -0.311562   -0.296884   -0.326239
 step:   4.0000(harm=  4.0000)  dis= 0.33456  next Energy=   -10.199818 (dE=-0.142E+01)
 bond charge predicted
       N       E                     dE             d eps       ncg     rms          rms(c)
DAV:   1    -0.101858609989E+02   -0.10964E+01   -0.18165E+01  3568   0.147E+01    0.956E-01
DAV:   2    -0.101439182672E+02    0.41943E-01   -0.35350E-01  5776   0.207E+00    0.460E-01
DAV:   3    -0.101351464439E+02    0.87718E-02   -0.87904E-02  5888   0.644E-01    0.112E-01
DAV:   4    -0.101359468093E+02   -0.80037E-03   -0.20731E-03  4800   0.179E-01    0.563E-02
DAV:   5    -0.101362631821E+02   -0.31637E-03   -0.34279E-04  4960   0.723E-02    0.101E-02
DAV:   6    -0.101362965151E+02   -0.33333E-04   -0.20864E-05  4528   0.110E-02    0.576E-03
DAV:   7    -0.101363446039E+02   -0.48089E-04   -0.12245E-05  4272   0.848E-03    0.313E-03
DAV:   8    -0.101363902914E+02   -0.45687E-04   -0.69931E-06  4048   0.541E-03    0.161E-03
DAV:   9    -0.101364211998E+02   -0.30908E-04   -0.64853E-06  4176   0.423E-03    0.571E-04
DAV:  10    -0.101364278026E+02   -0.66028E-05   -0.49651E-07  4128   0.158E-03    0.401E-04
DAV:  11    -0.101364382517E+02   -0.10449E-04   -0.43615E-07  3984   0.169E-03    0.168E-04
DAV:  12    -0.101364404880E+02   -0.22363E-05   -0.36994E-08  4640   0.579E-04    0.129E-04
DAV:  13    -0.101364415606E+02   -0.10726E-05   -0.24717E-08  4576   0.291E-04    0.411E-05
DAV:  14    -0.101364420643E+02   -0.50373E-06   -0.81172E-10  4720   0.110E-04
   3 F= -.10136442E+02 E0= -.10135309E+02  d E =-.135900E+01
 curvature:  -3.10 expect dE=-0.167E+01 dE for cont linesearch -0.130E+01
 ZBRENT: increasing intervall
 opt :  10.0000  next Energy=   -12.416266 (dE=-0.364E+01)
 bond charge predicted
       N       E                     dE             d eps       ncg     rms          rms(c)
DAV:   1    -0.118412950761E+02   -0.17049E+01   -0.63617E+01  3456   0.289E+01    0.210E+00
DAV:   2    -0.115887354776E+02    0.25256E+00   -0.15763E+00  5808   0.451E+00    0.905E-01
DAV:   3    -0.115510671477E+02    0.37668E-01   -0.41190E-01  6176   0.134E+00    0.257E-01
DAV:   4    -0.115514462725E+02   -0.37912E-03   -0.23213E-02  4224   0.436E-01    0.129E-01
DAV:   5    -0.115518140302E+02   -0.36776E-03   -0.18191E-03  5280   0.150E-01    0.218E-02
DAV:   6    -0.115517862653E+02    0.27765E-04   -0.40874E-04  4976   0.418E-02    0.152E-02
DAV:   7    -0.115518139376E+02   -0.27672E-04   -0.71945E-05  3968   0.222E-02    0.656E-03
DAV:   8    -0.115519190832E+02   -0.10515E-03   -0.34175E-05  3968   0.143E-02    0.478E-03
DAV:   9    -0.115519313080E+02   -0.12225E-04   -0.11270E-05  3984   0.665E-03    0.218E-03
DAV:  10    -0.115519873577E+02   -0.56050E-04   -0.99686E-06  3872   0.716E-03    0.137E-03
DAV:  11    -0.115519925317E+02   -0.51740E-05   -0.76903E-07  4080   0.316E-03    0.796E-04
DAV:  12    -0.115520048288E+02   -0.12297E-04   -0.93366E-07  3808   0.253E-03    0.384E-04
DAV:  13    -0.115520072208E+02   -0.23920E-05   -0.10574E-07  4624   0.816E-04    0.163E-04
DAV:  14    -0.115520086364E+02   -0.14156E-05   -0.16177E-08  4464   0.312E-04    0.852E-05
DAV:  15    -0.115520096765E+02   -0.10401E-05   -0.19071E-08  4288   0.182E-04    0.322E-05
DAV:  16    -0.115520099469E+02   -0.27031E-06   -0.85727E-10  4432   0.795E-05
   4 F= -.11552010E+02 E0= -.11551580E+02  d E =-.277457E+01
 curvature:  -5.43 expect dE=-0.347E+01 dE for cont linesearch -0.873E-01
 ZBRENT: extrapolating
 opt :  11.4594  next Energy=   -11.602420 (dE=-0.282E+01)
 bond charge predicted
       N       E                     dE             d eps       ncg     rms          rms(c)
DAV:   1    -0.115916199495E+02   -0.39610E-01   -0.43726E+00  3456   0.804E+00    0.324E-01
DAV:   2    -0.115909940627E+02    0.62589E-03   -0.21822E-02  6240   0.600E-01    0.184E-01
DAV:   3    -0.115907536198E+02    0.24044E-03   -0.46546E-03  4640   0.169E-01    0.415E-02
DAV:   4    -0.115907350524E+02    0.18567E-04   -0.48601E-04  4496   0.579E-02    0.111E-02
DAV:   5    -0.115907416417E+02   -0.65892E-05   -0.14949E-05  4432   0.149E-02    0.340E-03
DAV:   6    -0.115907429029E+02   -0.12613E-05   -0.45174E-06  4048   0.450E-03    0.119E-03
DAV:   7    -0.115907438950E+02   -0.99204E-06   -0.43484E-07  4240   0.196E-03
   5 F= -.11590744E+02 E0= -.11590282E+02  d E =-.281330E+01
 curvature:  -3.14 expect dE=-0.209E+01 dE for cont linesearch -0.241E-02
 trial: gam= 2.29969 g(F)=  0.423E+00 g(S)=  0.244E+00 ort =-0.151E-01 (trialstep = 0.423E+00)
 search vector abs. value=  0.217E+01
 bond charge predicted
       N       E                     dE             d eps       ncg     rms          rms(c)
DAV:   1    -0.118126928714E+02   -0.22195E+00   -0.27462E+00  3456   0.632E+00    0.366E-01
DAV:   2    -0.118079549145E+02    0.47380E-02   -0.47721E-02  6384   0.847E-01    0.175E-01
DAV:   3    -0.118073280938E+02    0.62682E-03   -0.58513E-03  4752   0.173E-01    0.592E-02
DAV:   4    -0.118073470976E+02   -0.19004E-04   -0.55379E-04  4080   0.749E-02    0.122E-02
DAV:   5    -0.118073565465E+02   -0.94489E-05   -0.30959E-05  4208   0.194E-02    0.424E-03
DAV:   6    -0.118073681531E+02   -0.11607E-04   -0.51220E-06  3904   0.694E-03    0.157E-03
DAV:   7    -0.118073716609E+02   -0.35078E-05   -0.79089E-07  4416   0.234E-03    0.845E-04
DAV:   8    -0.118073800058E+02   -0.83449E-05   -0.11425E-06  3920   0.161E-03    0.461E-04
DAV:   9    -0.118073854659E+02   -0.54601E-05   -0.97753E-07  4096   0.105E-03    0.195E-04
DAV:  10    -0.118073863513E+02   -0.88536E-06   -0.47597E-08  4176   0.313E-04
   6 F= -.11807386E+02 E0= -.11806554E+02  d E =-.216642E+00
 trial-energy change:   -0.216642  1 .order   -0.214183   -0.267938   -0.160428
 step:   0.9110(harm=  1.0551)  dis= 0.18203  next Energy=   -11.903550 (dE=-0.313E+00)
 bond charge predicted
       N       E                     dE             d eps       ncg     rms          rms(c)
DAV:   1    -0.119119856809E+02   -0.10460E+00   -0.35416E+00  3504   0.740E+00    0.356E-01
DAV:   2    -0.119104896820E+02    0.14960E-02   -0.40151E-02  5200   0.868E-01    0.194E-01
DAV:   3    -0.119100057737E+02    0.48391E-03   -0.47234E-03  5600   0.189E-01    0.540E-02
DAV:   4    -0.119099866293E+02    0.19144E-04   -0.62211E-04  4304   0.697E-02    0.120E-02
DAV:   5    -0.119099970892E+02   -0.10460E-04   -0.23700E-05  4848   0.194E-02    0.476E-03
DAV:   6    -0.119100044813E+02   -0.73921E-05   -0.47646E-06  4064   0.674E-03    0.120E-03
DAV:   7    -0.119100066090E+02   -0.21277E-05   -0.52383E-07  4560   0.205E-03    0.652E-04
DAV:   8    -0.119100101430E+02   -0.35340E-05   -0.35486E-07  4032   0.106E-03    0.310E-04
DAV:   9    -0.119100131073E+02   -0.29643E-05   -0.37731E-07  4032   0.696E-04    0.170E-04
DAV:  10    -0.119100139241E+02   -0.81676E-06   -0.83224E-08  4016   0.305E-04
   7 F= -.11910014E+02 E0= -.11908930E+02  d E =-.319270E+00
 curvature:  -1.71 expect dE=-0.437E+00 dE for cont linesearch -0.396E-03
 trial: gam=-0.12529 g(F)=  0.244E+00 g(S)=  0.115E-01 ort = 0.224E-01 (trialstep = 0.521E+00)
 search vector abs. value=  0.284E+00
 bond charge predicted
       N       E                     dE             d eps       ncg     rms          rms(c)
DAV:   1    -0.120359468550E+02   -0.12593E+00   -0.78067E-01  3648   0.300E+00    0.240E-01
DAV:   2    -0.120320665379E+02    0.38803E-02   -0.17363E-02  3840   0.412E-01    0.115E-01
DAV:   3    -0.120314249697E+02    0.64157E-03   -0.71033E-03  6448   0.180E-01    0.283E-02
DAV:   4    -0.120314546122E+02   -0.29642E-04   -0.52886E-04  4256   0.618E-02    0.130E-02
DAV:   5    -0.120314610638E+02   -0.64516E-05   -0.50522E-05  4432   0.198E-02    0.461E-03
DAV:   6    -0.120314690716E+02   -0.80078E-05   -0.66733E-06  3984   0.849E-03    0.940E-04
DAV:   7    -0.120314719139E+02   -0.28422E-05   -0.52273E-07  4416   0.184E-03    0.723E-04
DAV:   8    -0.120314766217E+02   -0.47078E-05   -0.72533E-07  3984   0.154E-03    0.340E-04
DAV:   9    -0.120314789248E+02   -0.23031E-05   -0.30222E-07  4096   0.689E-04    0.164E-04
DAV:  10    -0.120314800914E+02   -0.11666E-05   -0.15800E-07  3808   0.392E-04    0.764E-05
DAV:  11    -0.120314805266E+02   -0.43518E-06   -0.20414E-08  3776   0.160E-04
   8 F= -.12031481E+02 E0= -.12030805E+02  d E =-.121467E+00
 trial-energy change:   -0.121467  1 .order   -0.120606   -0.131429   -0.109784
 step:   1.9252(harm=  3.1627)  dis= 0.11845  next Energy=   -12.196321 (dE=-0.286E+00)
 bond charge predicted
       N       E                     dE             d eps       ncg     rms          rms(c)
DAV:   1    -0.122294708156E+02   -0.19799E+00   -0.55694E+00  3616   0.823E+00    0.607E-01
DAV:   2    -0.122121110027E+02    0.17360E-01   -0.85223E-02  4688   0.104E+00    0.311E-01
DAV:   3    -0.122082862934E+02    0.38247E-02   -0.39971E-02  6160   0.454E-01    0.578E-02
DAV:   4    -0.122084496312E+02   -0.16334E-03   -0.14085E-03  4288   0.120E-01    0.261E-02
DAV:   5    -0.122085607391E+02   -0.11111E-03   -0.11813E-04  4160   0.407E-02    0.820E-03
DAV:   6    -0.122085891062E+02   -0.28367E-04   -0.20959E-05  4208   0.145E-02    0.232E-03
DAV:   7    -0.122085989730E+02   -0.98669E-05   -0.18578E-06  3936   0.356E-03    0.136E-03
DAV:   8    -0.122086110791E+02   -0.12106E-04   -0.15933E-06  3888   0.252E-03    0.555E-04
DAV:   9    -0.122086196017E+02   -0.85226E-05   -0.96798E-07  3936   0.116E-03    0.320E-04
DAV:  10    -0.122086229077E+02   -0.33060E-05   -0.42266E-07  3984   0.704E-04    0.180E-04
DAV:  11    -0.122086241459E+02   -0.12382E-05   -0.13684E-07  3744   0.432E-04    0.649E-05
DAV:  12    -0.122086243791E+02   -0.23321E-06   -0.34153E-09  4464   0.185E-04
   9 F= -.12208624E+02 E0= -.12207954E+02  d E =-.298610E+00
 curvature:  -1.39 expect dE=-0.655E-02 dE for cont linesearch -0.452E-02
 ZBRENT: extrapolating
 opt :   2.1618  next Energy=   -12.212221 (dE=-0.302E+00)
 bond charge predicted
       N       E                     dE             d eps       ncg     rms          rms(c)
DAV:   1    -0.122113107126E+02   -0.26866E-02   -0.15925E-01  3600   0.143E+00    0.986E-02
DAV:   2    -0.122109949993E+02    0.31571E-03   -0.19533E-03  3712   0.168E-01    0.527E-02
DAV:   3    -0.122109358227E+02    0.59177E-04   -0.86548E-04  5088   0.735E-02    0.903E-03
DAV:   4    -0.122109413426E+02   -0.55199E-05   -0.37763E-05  4320   0.200E-02    0.393E-03
DAV:   5    -0.122109449561E+02   -0.36135E-05   -0.32417E-06  4176   0.681E-03    0.953E-04
DAV:   6    -0.122109454393E+02   -0.48325E-06   -0.25615E-07  4016   0.154E-03
  10 F= -.12210945E+02 E0= -.12210221E+02  d E =-.300932E+00
 curvature:  -1.10 expect dE=-0.697E-02 dE for cont linesearch -0.534E-03
 ZBRENT: bracketing found
 ZBRENT: interpolating
 opt :   2.0960  next Energy=   -12.211331 (dE=-0.301E+00)
 bond charge predicted
       N       E                     dE             d eps       ncg     rms          rms(c)
DAV:   1    -0.122113423741E+02   -0.39742E-03   -0.12292E-02  3552   0.398E-01    0.272E-02
DAV:   2    -0.122113172978E+02    0.25076E-04   -0.14833E-04  3904   0.477E-02    0.147E-02
DAV:   3    -0.122113101645E+02    0.71333E-05   -0.61557E-05  3776   0.200E-02    0.255E-03
DAV:   4    -0.122113103716E+02   -0.20709E-06   -0.31153E-06  3936   0.588E-03
  11 F= -.12211310E+02 E0= -.12210621E+02  d E =-.301296E+00
 curvature:  -0.80 expect dE=-0.333E-02 dE for cont linesearch -0.611E-06
 trial: gam= 0.05832 g(F)=  0.280E-02 g(S)=  0.139E-02 ort = 0.466E-03 (trialstep = 0.836E+00)
 search vector abs. value=  0.520E-02
 bond charge predicted
       N       E                     dE             d eps       ncg     rms          rms(c)
DAV:   1    -0.122141161240E+02   -0.28060E-02   -0.25165E-02  3504   0.643E-01    0.346E-02
DAV:   2    -0.122140724009E+02    0.43723E-04   -0.27973E-04  3792   0.746E-02    0.192E-02
DAV:   3    -0.122140548356E+02    0.17565E-04   -0.10833E-04  4752   0.267E-02    0.446E-03
DAV:   4    -0.122140542735E+02    0.56216E-06   -0.76735E-06  4000   0.819E-03
  12 F= -.12214054E+02 E0= -.12213396E+02  d E =-.274390E-02
 trial-energy change:   -0.002744  1 .order   -0.002756   -0.003518   -0.001994
 step:   2.0773(harm=  1.9293)  dis= 0.02013  next Energy=   -12.215495 (dE=-0.418E-02)
 bond charge predicted
       N       E                     dE             d eps       ncg     rms          rms(c)
DAV:   1    -0.122154832378E+02   -0.14284E-02   -0.55630E-02  3520   0.953E-01    0.523E-02
DAV:   2    -0.122153777076E+02    0.10553E-03   -0.63799E-04  5056   0.110E-01    0.286E-02
DAV:   3    -0.122153390027E+02    0.38705E-04   -0.24676E-04  4896   0.390E-02    0.668E-03
DAV:   4    -0.122153382481E+02    0.75458E-06   -0.16440E-05  4064   0.122E-02    0.271E-03
DAV:   5    -0.122153375598E+02    0.68831E-06   -0.66468E-07  4384   0.327E-03
  13 F= -.12215338E+02 E0= -.12214725E+02  d E =-.402719E-02
 curvature:  -1.17 expect dE=-0.934E-03 dE for cont linesearch -0.180E-04
 ZBRENT: interpolating
 opt :   1.9456  next Energy=   -12.215356 (dE=-0.405E-02)
 bond charge predicted
       N       E                     dE             d eps       ncg     rms          rms(c)
DAV:   1    -0.122153588100E+02   -0.20562E-04   -0.63100E-04  4080   0.101E-01    0.571E-03
DAV:   2    -0.122153589860E+02   -0.17603E-06   -0.69355E-06  4496   0.111E-02
  14 F= -.12215359E+02 E0= -.12214742E+02  d E =-.404861E-02
 curvature:  -1.21 expect dE=-0.832E-03 dE for cont linesearch -0.249E-07
 trial: gam= 0.17700 g(F)=  0.209E-03 g(S)=  0.479E-03 ort =-0.103E-04 (trialstep = 0.106E+01)
 search vector abs. value=  0.847E-03
 bond charge predicted
       N       E                     dE             d eps       ncg     rms          rms(c)
DAV:   1    -0.122158652183E+02   -0.50641E-03   -0.63153E-03  4016   0.328E-01    0.209E-02
DAV:   2    -0.122158536271E+02    0.11591E-04   -0.60966E-05  4336   0.347E-02    0.104E-02
DAV:   3    -0.122158530174E+02    0.60961E-06   -0.25322E-05  4160   0.147E-02    0.251E-03
DAV:   4    -0.122158538416E+02   -0.82417E-06   -0.14288E-06  4288   0.398E-03
  15 F= -.12215854E+02 E0= -.12215235E+02  d E =-.494856E-03
 trial-energy change:   -0.000495  1 .order   -0.000490   -0.000726   -0.000255
 step:   1.5873(harm=  1.6316)  dis= 0.00534  next Energy=   -12.215918 (dE=-0.559E-03)
 bond charge predicted
       N       E                     dE             d eps       ncg     rms          rms(c)
DAV:   1    -0.122159270416E+02   -0.74024E-04   -0.15731E-03  4032   0.164E-01    0.105E-02
DAV:   2    -0.122159240555E+02    0.29861E-05   -0.15706E-05  3872   0.174E-02    0.525E-03
DAV:   3    -0.122159239614E+02    0.94136E-07   -0.68660E-06  3936   0.763E-03
  16 F= -.12215924E+02 E0= -.12215302E+02  d E =-.564975E-03
 curvature:  -1.00 expect dE=-0.342E-04 dE for cont linesearch -0.364E-06
 ZBRENT: extrapolating
 opt :   1.6288  next Energy=   -12.215924 (dE=-0.565E-03)
 bond charge predicted
       N       E                     dE             d eps       ncg     rms          rms(c)
DAV:   1    -0.122159246677E+02   -0.61222E-06   -0.10651E-05  4240   0.133E-02    0.123E-03
DAV:   2    -0.122159246936E+02   -0.25923E-07   -0.16744E-07  4656   0.164E-03
  17 F= -.12215925E+02 E0= -.12215302E+02  d E =-.565708E-03
 curvature:  -1.00 expect dE=-0.354E-04 dE for cont linesearch -0.987E-08
 trial: gam= 0.04576 g(F)=  0.322E-04 g(S)=  0.314E-05 ort = 0.289E-05 (trialstep = 0.117E+01)
 search vector abs. value=  0.374E-04
 bond charge predicted
       N       E                     dE             d eps       ncg     rms          rms(c)
DAV:   1    -0.122159474819E+02   -0.22814E-04   -0.51741E-04  3648   0.800E-02    0.641E-03
DAV:   2    -0.122159462167E+02    0.12652E-05   -0.97319E-06  4560   0.124E-02    0.347E-03
DAV:   3    -0.122159465762E+02   -0.35951E-06   -0.46237E-06  4240   0.509E-03
  18 F= -.12215947E+02 E0= -.12215317E+02  d E =-.218826E-04
 trial-energy change:   -0.000022  1 .order   -0.000020   -0.000042    0.000001
 step:   1.1408(harm=  1.1408)  dis= 0.00087  next Energy=   -12.215945 (dE=-0.202E-04)
 bond charge predicted
       N       E                     dE             d eps       ncg     rms          rms(c)
DAV:   1    -0.122159467258E+02   -0.50904E-06   -0.32435E-07  3920   0.239E-03    0.247E-04
DAV:   2    -0.122159467816E+02   -0.55848E-07   -0.46312E-09  4224   0.261E-04
  19 F= -.12215947E+02 E0= -.12215318E+02  d E =-.220880E-04
 curvature:  -0.60 expect dE=-0.122E-05 dE for cont linesearch -0.140E-08
 trial: gam= 0.05222 g(F)=  0.880E-06 g(S)=  0.115E-05 ort = 0.295E-06 (trialstep = 0.117E+01)
 search vector abs. value=  0.216E-05
 bond charge predicted
       N       E                     dE             d eps       ncg     rms          rms(c)
DAV:   1    -0.122159485841E+02   -0.18583E-05   -0.17655E-05  3936   0.179E-02    0.121E-03
DAV:   2    -0.122159484695E+02    0.11462E-06   -0.22818E-07  4272   0.197E-03
  20 F= -.12215948E+02 E0= -.12215320E+02  d E =-.168784E-05
 trial-energy change:   -0.000002  1 .order   -0.000002   -0.000002   -0.000001
 step:   1.9270(harm=  1.9270)  dis= 0.00032  next Energy=   -12.215949 (dE=-0.197E-05)
 bond charge predicted
       N       E                     dE             d eps       ncg     rms          rms(c)
DAV:   1    -0.122159486762E+02   -0.92109E-07   -0.71956E-06  3904   0.117E-02    0.816E-04
DAV:   2    -0.122159486018E+02    0.74371E-07   -0.83984E-08  4288   0.120E-03
  21 F= -.12215949E+02 E0= -.12215320E+02  d E =-.182021E-05
 curvature:  -1.02 expect dE=-0.458E-06 dE for cont linesearch -0.963E-09
 trial: gam= 0.24941 g(F)=  0.306E-06 g(S)=  0.143E-06 ort =-0.452E-07 (trialstep = 0.132E+01)
 search vector abs. value=  0.561E-06
 bond charge predicted
       N       E                     dE             d eps       ncg     rms          rms(c)
DAV:   1    -0.122159489400E+02   -0.26383E-06   -0.76629E-06  3888   0.108E-02    0.570E-04
DAV:   2    -0.122159489232E+02    0.16787E-07   -0.46710E-08  4752   0.966E-04
  22 F= -.12215949E+02 E0= -.12215321E+02  d E =-.321415E-06
 trial-energy change:   -0.000000  1 .order   -0.000000   -0.000001   -0.000000
 step:   2.2383(harm=  2.2383)  dis= 0.00024  next Energy=   -12.215949 (dE=-0.490E-06)
 reached required accuracy - stopping structural energy minimisation
