beta-beryllene full hollow-hollow_3     
   1.00000000000000     
     7.7883048058000002    0.0000000000000000    0.0000000000000000
    -2.5051932701999999    5.7205207641999998    0.0000000000000000
     0.0000000000000000    0.0000000000000000   40.0000000000000000
  Be              H             
    18    18
Direct
     0.0949661209999988    0.2138823869999982    0.1223215460000020
     0.0949661209999988    0.5472157000000024    0.1223215460000020
     0.0949661209999988    0.8805490729999974    0.1223215460000020
     0.4282994570000014    0.2138823869999982    0.1223215460000020
     0.4282994570000014    0.5472157000000024    0.1223215460000020
     0.4282994570000014    0.8805490729999974    0.1223215460000020
     0.7616328000000010    0.2138823869999982    0.1223215460000020
     0.7616328000000010    0.5472157000000024    0.1223215460000020
     0.7616328000000010    0.8805490729999974    0.1223215460000020
     0.2383672149999967    0.1194509489999973    0.0776784489999969
     0.2383672149999967    0.4527842700000022    0.0776784489999969
     0.2383672149999967    0.7861176130000018    0.0776784489999969
     0.5717005730000011    0.1194509489999973    0.0776784489999969
     0.5717005730000011    0.4527842700000022    0.0776784489999969
     0.5717005730000011    0.7861176130000018    0.0776784489999969
     0.9050338859999982    0.1194509489999973    0.0776784489999969
     0.9050338859999982    0.4527842700000022    0.0776784489999969
     0.9050338859999982    0.7861176130000018    0.0776784489999969
     0.0890393029999998    0.0442388210000004    0.1470367189999973
     0.0890393029999998    0.3775721490000024    0.1474117189999973
     0.0890393029999998    0.7109054920000020    0.1474117189999973
     0.4223726390000024    0.0442388210000004    0.1474117189999973
     0.4223726390000024    0.3775721490000024    0.1474117189999973
     0.4223726390000024    0.7109054920000020    0.1474117189999973
     0.7557059530000032    0.0442388210000004    0.1474117189999973
     0.7557059530000032    0.3775721490000024    0.1474117189999973
     0.7557059530000032    0.7109054920000020    0.1474117189999973
     0.2442940319999991    0.2890945079999980    0.0525882800000019
     0.2442940319999991    0.6224278210000023    0.0525882800000019
     0.2442940319999991    0.9557611939999973    0.0525882800000019
     0.5776273609999976    0.2890945079999980    0.0525882800000019
     0.5776273609999976    0.6224278210000023    0.0525882800000019
     0.5776273609999976    0.9557611939999973    0.0525882800000019
     0.9109606740000018    0.2890945079999980    0.0525882800000019
     0.9109606740000018    0.6224278210000023    0.0525882800000019
     0.9109606740000018    0.9557611939999973    0.0525882800000019
 
  0.00000000E+00  0.00000000E+00  0.00000000E+00
  0.00000000E+00  0.00000000E+00  0.00000000E+00
  0.00000000E+00  0.00000000E+00  0.00000000E+00
  0.00000000E+00  0.00000000E+00  0.00000000E+00
  0.00000000E+00  0.00000000E+00  0.00000000E+00
  0.00000000E+00  0.00000000E+00  0.00000000E+00
  0.00000000E+00  0.00000000E+00  0.00000000E+00
  0.00000000E+00  0.00000000E+00  0.00000000E+00
  0.00000000E+00  0.00000000E+00  0.00000000E+00
  0.00000000E+00  0.00000000E+00  0.00000000E+00
  0.00000000E+00  0.00000000E+00  0.00000000E+00
  0.00000000E+00  0.00000000E+00  0.00000000E+00
  0.00000000E+00  0.00000000E+00  0.00000000E+00
  0.00000000E+00  0.00000000E+00  0.00000000E+00
  0.00000000E+00  0.00000000E+00  0.00000000E+00
  0.00000000E+00  0.00000000E+00  0.00000000E+00
  0.00000000E+00  0.00000000E+00  0.00000000E+00
  0.00000000E+00  0.00000000E+00  0.00000000E+00
  0.00000000E+00  0.00000000E+00  0.00000000E+00
  0.00000000E+00  0.00000000E+00  0.00000000E+00
  0.00000000E+00  0.00000000E+00  0.00000000E+00
  0.00000000E+00  0.00000000E+00  0.00000000E+00
  0.00000000E+00  0.00000000E+00  0.00000000E+00
  0.00000000E+00  0.00000000E+00  0.00000000E+00
  0.00000000E+00  0.00000000E+00  0.00000000E+00
  0.00000000E+00  0.00000000E+00  0.00000000E+00
  0.00000000E+00  0.00000000E+00  0.00000000E+00
  0.00000000E+00  0.00000000E+00  0.00000000E+00
  0.00000000E+00  0.00000000E+00  0.00000000E+00
  0.00000000E+00  0.00000000E+00  0.00000000E+00
  0.00000000E+00  0.00000000E+00  0.00000000E+00
  0.00000000E+00  0.00000000E+00  0.00000000E+00
  0.00000000E+00  0.00000000E+00  0.00000000E+00
  0.00000000E+00  0.00000000E+00  0.00000000E+00
  0.00000000E+00  0.00000000E+00  0.00000000E+00
  0.00000000E+00  0.00000000E+00  0.00000000E+00
