   1   1   0   0
  0.2512496E+03  0.2506240E-09  0.2506240E-09  0.4000000E-08  0.5000000E-15
  1.000000000000000E-004
  CAR 
 Convergence                             
     24.68992746    -10.98203616  301     -3.77779241      1.00000000
    -10.982  0.0000E+00  0.0000E+00
    -10.863  0.0000E+00  0.0000E+00
    -10.744  0.0000E+00  0.0000E+00
    -10.625  0.0000E+00  0.0000E+00
    -10.506  0.0000E+00  0.0000E+00
    -10.388  0.0000E+00  0.0000E+00
    -10.269  0.0000E+00  0.0000E+00
    -10.150  0.0000E+00  0.0000E+00
    -10.031  0.0000E+00  0.0000E+00
     -9.912  0.0000E+00  0.0000E+00
     -9.793  0.0000E+00  0.0000E+00
     -9.674  0.0000E+00  0.0000E+00
     -9.555  0.3152E-09  0.3748E-10
     -9.436  0.5681E-03  0.6755E-04
     -9.317  0.1248E+00  0.1490E-01
     -9.198  0.3256E+00  0.5362E-01
     -9.080  0.3333E+00  0.9325E-01
     -8.961  0.3339E+00  0.1330E+00
     -8.842  0.3352E+00  0.1728E+00
     -8.723  0.3222E+00  0.2111E+00
     -8.604  0.3238E+00  0.2496E+00
     -8.485  0.3599E+00  0.2924E+00
     -8.366  0.3172E+00  0.3301E+00
     -8.247  0.3225E+00  0.3685E+00
     -8.128  0.3522E+00  0.4104E+00
     -8.009  0.3105E+00  0.4473E+00
     -7.890  0.3854E+00  0.4931E+00
     -7.772  0.2762E+00  0.5260E+00
     -7.653  0.3820E+00  0.5714E+00
     -7.534  0.3164E+00  0.6090E+00
     -7.415  0.3438E+00  0.6499E+00
     -7.296  0.3464E+00  0.6911E+00
     -7.177  0.3248E+00  0.7297E+00
     -7.058  0.3674E+00  0.7734E+00
     -6.939  0.3079E+00  0.8100E+00
     -6.820  0.3771E+00  0.8548E+00
     -6.701  0.3360E+00  0.8948E+00
     -6.582  0.3030E+00  0.9308E+00
     -6.464  0.4225E+00  0.9810E+00
     -6.345  0.2693E+00  0.1013E+01
     -6.226  0.4552E+00  0.1067E+01
     -6.107  0.2943E+00  0.1102E+01
     -5.988  0.3615E+00  0.1145E+01
     -5.869  0.3891E+00  0.1191E+01
     -5.750  0.3757E+00  0.1236E+01
     -5.631  0.4000E+00  0.1284E+01
     -5.512  0.3958E+00  0.1331E+01
     -5.393  0.4817E+00  0.1388E+01
     -5.275  0.4976E+00  0.1447E+01
     -5.156  0.3760E+00  0.1492E+01
     -5.037  0.2903E+00  0.1526E+01
     -4.918  0.3359E+00  0.1566E+01
     -4.799  0.2342E+00  0.1594E+01
     -4.680  0.2873E+00  0.1628E+01
     -4.561  0.2118E+00  0.1654E+01
     -4.442  0.3432E+00  0.1694E+01
     -4.323  0.4736E+00  0.1751E+01
     -4.204  0.4540E+00  0.1805E+01
     -4.085  0.4866E+00  0.1863E+01
     -3.967  0.4393E+00  0.1915E+01
     -3.848  0.4679E+00  0.1970E+01
     -3.729  0.4455E+00  0.2023E+01
     -3.610  0.4886E+00  0.2081E+01
     -3.491  0.8050E+00  0.2177E+01
     -3.372  0.4958E+00  0.2236E+01
     -3.253  0.8253E+00  0.2334E+01
     -3.134  0.6276E+00  0.2409E+01
     -3.015  0.6831E+00  0.2490E+01
     -2.896  0.6400E+00  0.2566E+01
     -2.777  0.8038E+00  0.2662E+01
     -2.659  0.6557E+00  0.2740E+01
     -2.540  0.6212E+00  0.2814E+01
     -2.421  0.8093E+00  0.2910E+01
     -2.302  0.7119E+00  0.2995E+01
     -2.183  0.7513E+00  0.3084E+01
     -2.064  0.7134E+00  0.3169E+01
     -1.945  0.8672E+00  0.3272E+01
     -1.826  0.9831E+00  0.3389E+01
     -1.707  0.8038E+00  0.3484E+01
     -1.588  0.7652E+00  0.3575E+01
     -1.470  0.7884E+00  0.3669E+01
     -1.351  0.7905E+00  0.3763E+01
     -1.232  0.6231E+00  0.3837E+01
     -1.113  0.6777E+00  0.3918E+01
     -0.994  0.5458E+00  0.3983E+01
     -0.875  0.8330E+00  0.4082E+01
     -0.756  0.6348E+00  0.4157E+01
     -0.637  0.5431E+00  0.4222E+01
     -0.518  0.5874E+00  0.4292E+01
     -0.399  0.8142E+00  0.4388E+01
     -0.280  0.6787E+00  0.4469E+01
     -0.162  0.8849E+00  0.4574E+01
     -0.043  0.1086E+01  0.4703E+01
      0.076  0.8249E+00  0.4801E+01
      0.195  0.8393E+00  0.4901E+01
      0.314  0.9585E+00  0.5015E+01
      0.433  0.1066E+01  0.5142E+01
      0.552  0.1177E+01  0.5282E+01
      0.671  0.1436E+01  0.5453E+01
      0.790  0.1678E+01  0.5652E+01
      0.909  0.2012E+01  0.5891E+01
      1.028  0.1558E+01  0.6077E+01
      1.146  0.1819E+01  0.6293E+01
      1.265  0.1715E+01  0.6497E+01
      1.384  0.2088E+01  0.6745E+01
      1.503  0.1910E+01  0.6972E+01
      1.622  0.1976E+01  0.7207E+01
      1.741  0.2331E+01  0.7484E+01
      1.860  0.2017E+01  0.7724E+01
      1.979  0.2631E+01  0.8037E+01
      2.098  0.2666E+01  0.8354E+01
      2.217  0.2653E+01  0.8669E+01
      2.335  0.2664E+01  0.8986E+01
      2.454  0.2437E+01  0.9276E+01
      2.573  0.2666E+01  0.9593E+01
      2.692  0.2792E+01  0.9925E+01
      2.811  0.2649E+01  0.1024E+02
      2.930  0.3003E+01  0.1060E+02
      3.049  0.3040E+01  0.1096E+02
      3.168  0.3314E+01  0.1135E+02
      3.287  0.3981E+01  0.1183E+02
      3.406  0.3649E+01  0.1226E+02
      3.525  0.3805E+01  0.1271E+02
      3.643  0.3503E+01  0.1313E+02
      3.762  0.3562E+01  0.1355E+02
      3.881  0.3525E+01  0.1397E+02
      4.000  0.4047E+01  0.1445E+02
      4.119  0.3552E+01  0.1487E+02
      4.238  0.3948E+01  0.1534E+02
      4.357  0.4056E+01  0.1583E+02
      4.476  0.4082E+01  0.1631E+02
      4.595  0.3665E+01  0.1675E+02
      4.714  0.3880E+01  0.1721E+02
      4.833  0.3955E+01  0.1768E+02
      4.951  0.4195E+01  0.1818E+02
      5.070  0.3950E+01  0.1865E+02
      5.189  0.4048E+01  0.1913E+02
      5.308  0.4295E+01  0.1964E+02
      5.427  0.4307E+01  0.2015E+02
      5.546  0.4110E+01  0.2064E+02
      5.665  0.4861E+01  0.2122E+02
      5.784  0.4612E+01  0.2177E+02
      5.903  0.4321E+01  0.2228E+02
      6.022  0.4926E+01  0.2287E+02
      6.141  0.4471E+01  0.2340E+02
      6.259  0.5036E+01  0.2400E+02
      6.378  0.4803E+01  0.2457E+02
      6.497  0.4243E+01  0.2507E+02
      6.616  0.4966E+01  0.2566E+02
      6.735  0.4509E+01  0.2620E+02
      6.854  0.4570E+01  0.2674E+02
      6.973  0.5461E+01  0.2739E+02
      7.092  0.4783E+01  0.2796E+02
      7.211  0.5327E+01  0.2859E+02
      7.330  0.5411E+01  0.2924E+02
      7.448  0.5325E+01  0.2987E+02
      7.567  0.4864E+01  0.3045E+02
      7.686  0.5093E+01  0.3105E+02
      7.805  0.4623E+01  0.3160E+02
      7.924  0.5142E+01  0.3222E+02
      8.043  0.5677E+01  0.3289E+02
      8.162  0.4792E+01  0.3346E+02
      8.281  0.4922E+01  0.3405E+02
      8.400  0.5144E+01  0.3466E+02
      8.519  0.5448E+01  0.3531E+02
      8.638  0.5071E+01  0.3591E+02
      8.756  0.5054E+01  0.3651E+02
      8.875  0.5506E+01  0.3716E+02
      8.994  0.5432E+01  0.3781E+02
      9.113  0.5865E+01  0.3851E+02
      9.232  0.5711E+01  0.3919E+02
      9.351  0.5220E+01  0.3981E+02
      9.470  0.5518E+01  0.4046E+02
      9.589  0.5181E+01  0.4108E+02
      9.708  0.5728E+01  0.4176E+02
      9.827  0.5301E+01  0.4239E+02
      9.946  0.5403E+01  0.4303E+02
     10.064  0.4823E+01  0.4361E+02
     10.183  0.5178E+01  0.4422E+02
     10.302  0.5307E+01  0.4485E+02
     10.421  0.5076E+01  0.4546E+02
     10.540  0.5644E+01  0.4613E+02
     10.659  0.5905E+01  0.4683E+02
     10.778  0.5660E+01  0.4750E+02
     10.897  0.6026E+01  0.4822E+02
     11.016  0.6560E+01  0.4900E+02
     11.135  0.5846E+01  0.4969E+02
     11.253  0.6106E+01  0.5042E+02
     11.372  0.5388E+01  0.5106E+02
     11.491  0.5445E+01  0.5171E+02
     11.610  0.5920E+01  0.5241E+02
     11.729  0.5031E+01  0.5301E+02
     11.848  0.6340E+01  0.5376E+02
     11.967  0.6194E+01  0.5450E+02
     12.086  0.5587E+01  0.5517E+02
     12.205  0.5443E+01  0.5581E+02
     12.324  0.6077E+01  0.5654E+02
     12.443  0.6503E+01  0.5731E+02
     12.561  0.6454E+01  0.5808E+02
     12.680  0.6242E+01  0.5882E+02
     12.799  0.6523E+01  0.5959E+02
     12.918  0.6137E+01  0.6032E+02
     13.037  0.5512E+01  0.6098E+02
     13.156  0.6715E+01  0.6178E+02
     13.275  0.6309E+01  0.6253E+02
     13.394  0.6131E+01  0.6326E+02
     13.513  0.6110E+01  0.6398E+02
     13.632  0.6472E+01  0.6475E+02
     13.751  0.6495E+01  0.6553E+02
     13.869  0.6947E+01  0.6635E+02
     13.988  0.6811E+01  0.6716E+02
     14.107  0.6486E+01  0.6793E+02
     14.226  0.5906E+01  0.6863E+02
     14.345  0.6391E+01  0.6939E+02
     14.464  0.6865E+01  0.7021E+02
     14.583  0.6065E+01  0.7093E+02
     14.702  0.6905E+01  0.7175E+02
     14.821  0.6552E+01  0.7253E+02
     14.940  0.5472E+01  0.7318E+02
     15.058  0.5797E+01  0.7387E+02
     15.177  0.5563E+01  0.7453E+02
     15.296  0.5154E+01  0.7515E+02
     15.415  0.5217E+01  0.7577E+02
     15.534  0.4646E+01  0.7632E+02
     15.653  0.4762E+01  0.7689E+02
     15.772  0.4531E+01  0.7742E+02
     15.891  0.3630E+01  0.7786E+02
     16.010  0.3773E+01  0.7830E+02
     16.129  0.2878E+01  0.7865E+02
     16.248  0.2666E+01  0.7896E+02
     16.366  0.3013E+01  0.7932E+02
     16.485  0.3054E+01  0.7969E+02
     16.604  0.2296E+01  0.7996E+02
     16.723  0.2408E+01  0.8024E+02
     16.842  0.2712E+01  0.8057E+02
     16.961  0.1660E+01  0.8076E+02
     17.080  0.1669E+01  0.8096E+02
     17.199  0.1594E+01  0.8115E+02
     17.318  0.1137E+01  0.8129E+02
     17.437  0.9719E+00  0.8140E+02
     17.556  0.1440E+01  0.8157E+02
     17.674  0.9615E+00  0.8169E+02
     17.793  0.8536E+00  0.8179E+02
     17.912  0.9109E+00  0.8190E+02
     18.031  0.1201E+01  0.8204E+02
     18.150  0.1844E+01  0.8226E+02
     18.269  0.1406E+01  0.8243E+02
     18.388  0.1061E+01  0.8255E+02
     18.507  0.9288E+00  0.8266E+02
     18.626  0.1203E+01  0.8281E+02
     18.745  0.7702E+00  0.8290E+02
     18.864  0.4531E+00  0.8295E+02
     18.982  0.5146E+00  0.8301E+02
     19.101  0.3810E+00  0.8306E+02
     19.220  0.2909E+00  0.8309E+02
     19.339  0.7563E+00  0.8318E+02
     19.458  0.4675E+00  0.8324E+02
     19.577  0.4184E+00  0.8329E+02
     19.696  0.5159E+00  0.8335E+02
     19.815  0.1756E+00  0.8337E+02
     19.934  0.3579E-01  0.8338E+02
     20.053  0.3644E+00  0.8342E+02
     20.171  0.7304E+00  0.8351E+02
     20.290  0.4510E+00  0.8356E+02
     20.409  0.3952E+00  0.8361E+02
     20.528  0.5192E+00  0.8367E+02
     20.647  0.5096E+00  0.8373E+02
     20.766  0.4189E+00  0.8378E+02
     20.885  0.6041E-01  0.8379E+02
     21.004  0.5674E-01  0.8379E+02
     21.123  0.1042E+00  0.8381E+02
     21.242  0.3003E+00  0.8384E+02
     21.361  0.2359E+00  0.8387E+02
     21.479  0.2640E+00  0.8390E+02
     21.598  0.1385E+00  0.8392E+02
     21.717  0.6717E-01  0.8392E+02
     21.836  0.1430E-01  0.8393E+02
     21.955  0.5628E-05  0.8393E+02
     22.074  0.1810E-02  0.8393E+02
     22.193  0.1123E+00  0.8394E+02
     22.312  0.2516E+00  0.8397E+02
     22.431  0.8600E-01  0.8398E+02
     22.550  0.3055E-01  0.8398E+02
     22.669  0.4288E-02  0.8398E+02
     22.787  0.1068E-06  0.8398E+02
     22.906  0.2141E-03  0.8398E+02
     23.025  0.6085E-01  0.8399E+02
     23.144  0.6892E-01  0.8400E+02
     23.263  0.3340E-03  0.8400E+02
     23.382  0.2030E-09  0.8400E+02
     23.501  0.0000E+00  0.8400E+02
     23.620  0.0000E+00  0.8400E+02
     23.739  0.0000E+00  0.8400E+02
     23.858  0.0000E+00  0.8400E+02
     23.976  0.0000E+00  0.8400E+02
     24.095  0.0000E+00  0.8400E+02
     24.214  0.0000E+00  0.8400E+02
     24.333  0.0000E+00  0.8400E+02
     24.452  0.0000E+00  0.8400E+02
     24.571  0.0000E+00  0.8400E+02
     24.690  0.0000E+00  0.8400E+02
