alpha-beryllene third hollow-hollow_1
1.0
       11.1143627167         0.0000000000         0.0000000000
       -5.5850088976         9.6413443358         0.0000000000
        0.0000000000         0.0000000000        40.0000000000
   Be    H
   27   18
Direct
     0.003152993         0.001576613         0.099999994
     0.003152993         0.334909946         0.099999994
     0.003152993         0.668243289         0.099999994
     0.336486340         0.001576613         0.099999994
     0.336486340         0.334909946         0.099999994
     0.336486340         0.668243289         0.099999994
     0.669819653         0.001576613         0.099999994
     0.669819653         0.334909946         0.099999994
     0.669819653         0.668243289         0.099999994
     0.219069228         0.109534502         0.100000001
     0.219069228         0.442867845         0.100000001
     0.219069228         0.776201189         0.100000001
     0.552402556         0.109534502         0.100000001
     0.552402556         0.442867845         0.100000001
     0.552402556         0.776201189         0.100000001
     0.885735869         0.109534502         0.100000001
     0.885735869         0.442867845         0.100000001
     0.885735869         0.776201189         0.100000001
     0.111111112         0.222222224         0.100000001
     0.111111112         0.555555582         0.100000001
     0.111111112         0.888888896         0.100000001
     0.444444448         0.222222224         0.100000001
     0.444444448         0.555555582         0.100000001
     0.444444448         0.888888896         0.100000001
     0.777777791         0.222222224         0.100000001
     0.777777791         0.555555582         0.100000001
     0.777777791         0.888888896         0.100000001
     0.111111067         0.055958211         0.126388505
     0.111111067         0.389291555         0.126388505
     0.111111067         0.722624898         0.126388505
     0.444444388         0.055958211         0.126388505
     0.444444388         0.389291555         0.126388505
     0.444444388         0.722624898         0.126388505
     0.777777731         0.055958211         0.126388505
     0.777777731         0.389291555         0.126388505
     0.777777731         0.722624898         0.126388505
     0.111111157         0.055152897         0.073611498
     0.111111157         0.388486236         0.073611498
     0.111111157         0.721819580         0.073611498
     0.444444478         0.055152897         0.073611498
     0.444444478         0.388486236         0.073611498
     0.444444478         0.721819580         0.073611498
     0.777777851         0.055152897         0.073611498
     0.777777851         0.388486236         0.073611498
     0.777777851         0.721819580         0.073611498
