       N       E                     dE             d eps       ncg     rms          ort
DAV:   1    -0.656298685327E+01   -0.65630E+01   -0.33490E+03 23520   0.126E+02
DAV:   2    -0.739326509689E+01   -0.83028E+00   -0.81959E+00 23520   0.566E+00
DAV:   3    -0.739332305762E+01   -0.57961E-04   -0.57960E-04 23520   0.549E-02
DAV:   4    -0.739332305808E+01   -0.45819E-09   -0.83733E-09 23520   0.183E-04
DAV:   5    -0.739332305878E+01   -0.69427E-09    0.10100E-13 23520   0.388E-08
SDA:   6    -0.733174905459E+01    0.61574E-01    0.10100E-13 23520   0.302E-02 0.000E+00
CGA:   7    -0.733307681592E+01   -0.13278E-02   -0.13466E-02 23520   0.612E-03-0.710E-04
CGA:   8    -0.733360585106E+01   -0.52904E-03   -0.51924E-03 23520   0.147E-04 0.147E-04
CGA:   9    -0.733361262718E+01   -0.67761E-05   -0.65874E-05 23520   0.102E-05 0.983E-06
CGA:  10    -0.733361320518E+01   -0.57799E-06   -0.79110E-06 23520   0.261E-06-0.455E-06
   1 F= -.73336132E+01 E0= -.73334437E+01  d E =-.733361E+01
       N       E                     dE             d eps       ncg     rms          ort
SDA:   1    -0.733379745716E+01   -0.18483E-03    0.00000E+00 23520   0.433E-04 0.000E+00
CGA:   2    -0.733381401448E+01   -0.16557E-04   -0.17252E-04 23520   0.175E-05-0.709E-05
CGA:   3    -0.733381433426E+01   -0.31977E-06   -0.35850E-06 23520   0.330E-06 0.645E-06
   2 F= -.73338143E+01 E0= -.73336456E+01  d E =-.201129E-03
       N       E                     dE             d eps       ncg     rms          ort
SDA:   1    -0.733381758724E+01   -0.35728E-05    0.00000E+00 23520   0.423E-06 0.000E+00
CGA:   2    -0.733381786896E+01   -0.28173E-06    0.46003E-06 23520   0.310E-07 0.933E-07
   3 F= -.73338179E+01 E0= -.73336493E+01  d E =-.204664E-03
