 running   42 mpi-ranks, on    1 nodes
 distrk:  each k-point on    6 cores,    7 groups
 distr:  one band on    6 cores,    1 groups
 vasp.6.5.0 16Dec24 (build Jan 08 2025 16:49:20) complex                        
  
 POSCAR found type information on POSCAR BeH 
 POSCAR found :  2 types and       3 ions
 Reading from existing POTCAR
 scaLAPACK will be used
 Reading from existing POTCAR
 LDA part: xc-table for (Slater+PW92), standard interpolation
 POSCAR, INCAR and KPOINTS ok, starting setup
 FFT: planning ... GRIDC
 FFT: planning ... GRID_SOFT
 FFT: planning ... GRID
 WAVECAR not read
 charge-density read from file: Dielectric                              
 magnetization density of overlapping atoms calculated
 entering main loop
       N       E                     dE             d eps       ncg     rms          rms(c)
DAV:   1     0.112393254357E+02    0.11239E+02   -0.13361E+03158864   0.218E+02
DAV:   2    -0.916002805929E+01   -0.20399E+02   -0.14014E+02207308   0.381E+01
DAV:   3    -0.103973961335E+02   -0.12374E+01   -0.12336E+01225344   0.119E+01
DAV:   4    -0.104087467481E+02   -0.11351E-01   -0.11347E-01214228   0.120E+00
DAV:   5    -0.104089009326E+02   -0.15418E-03   -0.15418E-03218456   0.118E-01    0.986E-04
DAV:   6    -0.104089033790E+02   -0.24463E-05   -0.24617E-05206984   0.125E-02    0.624E-04
DAV:   7    -0.104089034544E+02   -0.75434E-07   -0.75924E-07206560   0.174E-03    0.564E-04
DAV:   8    -0.104089034693E+02   -0.14875E-07   -0.41554E-08189712   0.485E-04    0.143E-04
DAV:   9    -0.104089034710E+02   -0.17045E-08   -0.42434E-09185720   0.163E-04
   1 F= -.10408903E+02 E0= -.10408903E+02  d E =-.495113E-24  mag=    -0.0000     0.0000    -0.0000
