 vasp.6.5.0 16Dec24 (build Jan 08 2025 16:17:04) complex                        
  
 executed on             LinuxIFC date 2026.03.14  14:51:25
 running   42 mpi-ranks, on    1 nodes
 distrk:  each k-point on   42 cores,    1 groups
 distr:  one band on NCORE=   7 cores,    6 groups


--------------------------------------------------------------------------------------------------------


 INCAR:
   SYSTEM = Phonopy
   PREC = Accurate
   ENCUT = 600
   LCHARG = .FALSE.
   LWAVE = .FALSE.
   IALGO = 38
   NELM = 150
   EDIFF = 1E-8
   SIGMA = 0.1
   ISMEAR = 0
   NSW = 0
   IBRION = -1
   NCORE = 7
   LREAL = .FALSE.
   GGA = PE
   IVDW = 12
   LDIPOL = .TRUE.
   IDIPOL = 3
   DIPOL = 0.5 0.5 0.1

 POTCAR:    PAW_PBE Be 06Sep2000                  
 POTCAR:    PAW_PBE H 15Jun2001                   
 POTCAR:    PAW_PBE Be 06Sep2000                  
   SHA256 =  98a2d1e63100a984719ed1fa4aa623d62d7fd86152f07ada9bb3796889d1bbc8 Be/POTCAR             
   COPYR  = (c) Copyright 06Sep2000 Georg Kresse                                                    
   COPYR  = This file is part of the software VASP. Any use, copying, and all other rights are regul
   COPYR  = If you do not have a valid VASP license, you may not use, copy or distribute this file. 
   VRHFIN =Be: s2p0                                                                                 
   LEXCH  = PE                                                                                      
   EATOM  =    27.4793 eV,    2.0197 Ry                                                             
                                                                                                    
   TITEL  = PAW_PBE Be 06Sep2000                                                                    
   LULTRA =        F    use ultrasoft PP ?                                                          
   IUNSCR =        1    unscreen: 0-lin 1-nonlin 2-no                                               
   RPACOR =    1.580    partial core radius                                                         
   POMASS =    9.013; ZVAL   =    2.000    mass and valenz                                          
   RCORE  =    1.900    outmost cutoff radius                                                       
   RWIGS  =    1.880; RWIGS  =    0.995    wigner-seitz radius (au A)                               
   ENMAX  =  247.543; ENMIN  =  185.658 eV                                                          
   ICORE  =        2    local potential                                                             
   LCOR   =        T    correct aug charges                                                         
   LPAW   =        T    paw PP                                                                      
   EAUG   =  318.781                                                                                
   DEXC   =    0.000                                                                                
   RMAX   =    1.944    core radius for proj-oper                                                   
   RAUG   =    1.300    factor for augmentation sphere                                              
   RDEP   =    2.003    radius for radial grids                                                     
   RDEPT  =    1.802    core radius for aug-charge                                                  
                                                                                                    
   Atomic configuration                                                                             
    4 entries                                                                                       
     n  l   j            E        occ.                                                              
     1  0  0.50      -106.2287   2.0000                                                             
     2  0  0.50        -5.6162   1.9900                                                             
     2  1  0.50        -2.0244   0.0100                                                             
     3  2  1.50        -1.3606   0.0000                                                             
   Description                                                                                      
     l       E           TYP  RCUT    TYP  RCUT                                                     
     0     -5.6161739     23  1.900                                                                 
     0     27.2116520     23  1.900                                                                 
     1     -2.0243505     23  1.900                                                                 
     1     27.2116520     23  1.900                                                                 
     2     -1.3605826     15  1.500                                                                 
  local pseudopotential read in
  partial core-charges read in
  partial kinetic energy density read in
  atomic valenz-charges read in
  non local Contribution for L=           0  read in
    real space projection operators read in
  non local Contribution for L=           0  read in
    real space projection operators read in
  non local Contribution for L=           1  read in
    real space projection operators read in
  non local Contribution for L=           1  read in
    real space projection operators read in
    PAW grid and wavefunctions read in
 
   number of l-projection  operators is LMAX  =           4
   number of lm-projection operators is LMMAX =           8
 
 POTCAR:    PAW_PBE H 15Jun2001                   
   SHA256 =  030f79b5d3ab3cf0e668861823c8fb652ff669f3e15e46930bd03bfd63a607b6 H/POTCAR              
   COPYR  = (c) Copyright 15Jun2001 Georg Kresse                                                    
   COPYR  = This file is part of the software VASP. Any use, copying, and all other rights are regul
   COPYR  = If you do not have a valid VASP license, you may not use, copy or distribute this file. 
   VRHFIN =H: ultrasoft test                                                                        
   LEXCH  = PE                                                                                      
   EATOM  =    12.4884 eV,    0.9179 Ry                                                             
                                                                                                    
   TITEL  = PAW_PBE H 15Jun2001                                                                     
   LULTRA =        F    use ultrasoft PP ?                                                          
   IUNSCR =        0    unscreen: 0-lin 1-nonlin 2-no                                               
   RPACOR =    0.000    partial core radius                                                         
   POMASS =    1.000; ZVAL   =    1.000    mass and valenz                                          
   RCORE  =    1.100    outmost cutoff radius                                                       
   RWIGS  =    0.700; RWIGS  =    0.370    wigner-seitz radius (au A)                               
   ENMAX  =  250.000; ENMIN  =  200.000 eV                                                          
   RCLOC  =    0.701    cutoff for local pot                                                        
   LCOR   =        T    correct aug charges                                                         
   LPAW   =        T    paw PP                                                                      
   EAUG   =  400.000                                                                                
   RMAX   =    1.123    core radius for proj-oper                                                   
   RAUG   =    1.200    factor for augmentation sphere                                              
   RDEP   =    1.112    radius for radial grids                                                     
   RDEPT  =    0.926    core radius for aug-charge                                                  
                                                                                                    
   Atomic configuration                                                                             
    2 entries                                                                                       
     n  l   j            E        occ.                                                              
     1  0  0.50        -6.4927   1.0000                                                             
     2  1  0.50        -3.4015   0.0000                                                             
   Description                                                                                      
     l       E           TYP  RCUT    TYP  RCUT                                                     
     0     -6.4927494     23  1.100                                                                 
     0      6.8029130     23  1.100                                                                 
     1     -4.0817478     23  1.100                                                                 
  local pseudopotential read in
  atomic valenz-charges read in
  non local Contribution for L=           0  read in
    real space projection operators read in
  non local Contribution for L=           0  read in
    real space projection operators read in
  non local Contribution for L=           1  read in
    real space projection operators read in
    PAW grid and wavefunctions read in
 
   number of l-projection  operators is LMAX  =           3
   number of lm-projection operators is LMMAX =           5
 
 -----------------------------------------------------------------------------
|                                                                             |
|               ----> ADVICE to this user running VASP <----                  |
|                                                                             |
|     You have a (more or less) 'large supercell' and for larger cells it     |
|     might be more efficient to use real-space projection operators.         |
|     Therefore, try LREAL= Auto in the INCAR file.                           |
|     Mind: For very accurate calculation, you might also keep the            |
|     reciprocal projection scheme (i.e. LREAL=.FALSE.).                      |
|                                                                             |
 -----------------------------------------------------------------------------

  PAW_PBE Be 06Sep2000                  :
 energy of atom  1       EATOM=  -27.4793
 kinetic energy error for atom=    0.0000 (will be added to EATOM!!)
  PAW_PBE H 15Jun2001                   :
 energy of atom  2       EATOM=  -12.4884
 kinetic energy error for atom=    0.0004 (will be added to EATOM!!)
 
 
 POSCAR: generated by phonopy
  positions in direct lattice
  No initial velocities read in
 IVDW         = 12
 VDW_S6       =    1.0000
 VDW_S8       =    0.7875
 VDW_A1       =    0.4289
 VDW_A2       =    4.4407
 VDW_RADIUS   =   50.2022 A
 VDW_CNRADIUS =   21.1671 A


 exchange-correlation table for PE
   RHO(1)=    0.500       N(1)  =     2000
   RHO(2)=  100.500       N(2)  =     4000
 


--------------------------------------------------------------------------------------------------------


 ion  position               nearest neighbor table
   1  0.024  0.113  0.122-  51 1.44  56 1.45  21 2.08   6 2.08  30 2.24  26 2.31  31 2.31
   2  0.224  0.113  0.122-  52 1.45  57 1.45  22 2.08   7 2.08  26 2.24  27 2.31  32 2.31
   3  0.424  0.113  0.122-  53 1.45  58 1.45  23 2.08   8 2.08  27 2.24  28 2.31  33 2.31
   4  0.624  0.113  0.122-  54 1.45  59 1.45  24 2.08   9 2.08  28 2.24  29 2.31  34 2.31
   5  0.824  0.113  0.122-  55 1.45  60 1.45  25 2.08  10 2.08  29 2.24  30 2.31  35 2.31
   6  0.024  0.313  0.122-  56 1.45  61 1.45  11 2.08   1 2.08  35 2.24  31 2.31  36 2.31
   7  0.224  0.313  0.122-  57 1.45  62 1.45  12 2.08   2 2.08  31 2.24  32 2.31  37 2.31
   8  0.424  0.313  0.122-  58 1.45  63 1.45  13 2.08   3 2.08  32 2.24  33 2.31  38 2.31
   9  0.624  0.313  0.122-  59 1.45  64 1.45  14 2.08   4 2.08  33 2.24  34 2.31  39 2.31
  10  0.824  0.313  0.122-  60 1.45  65 1.45  15 2.08   5 2.08  34 2.24  35 2.31  40 2.31
  11  0.024  0.513  0.122-  61 1.45  66 1.45   6 2.08  16 2.08  40 2.24  36 2.31  41 2.31
  12  0.224  0.513  0.122-  62 1.45  67 1.45   7 2.08  17 2.08  36 2.24  37 2.31  42 2.31
  13  0.424  0.513  0.122-  63 1.45  68 1.45   8 2.08  18 2.08  37 2.24  38 2.31  43 2.31
  14  0.624  0.513  0.122-  64 1.45  69 1.45   9 2.08  19 2.08  38 2.24  39 2.31  44 2.31
  15  0.824  0.513  0.122-  65 1.45  70 1.45  10 2.08  20 2.08  39 2.24  40 2.31  45 2.31
  16  0.024  0.713  0.122-  66 1.45  71 1.45  11 2.08  21 2.08  45 2.24  41 2.31  46 2.31
  17  0.224  0.713  0.122-  67 1.45  72 1.45  12 2.08  22 2.08  41 2.24  42 2.31  47 2.31
  18  0.424  0.713  0.122-  68 1.45  73 1.45  13 2.08  23 2.08  42 2.24  43 2.31  48 2.31
  19  0.624  0.713  0.122-  69 1.45  74 1.45  14 2.08  24 2.08  43 2.24  44 2.31  49 2.31
  20  0.824  0.713  0.122-  70 1.45  75 1.45  15 2.08  25 2.08  44 2.24  45 2.31  50 2.31
  21  0.024  0.913  0.122-  51 1.44  71 1.45   1 2.08  16 2.08  50 2.24  46 2.31  26 2.31
  22  0.224  0.913  0.122-  72 1.45  52 1.45   2 2.08  17 2.08  46 2.24  47 2.31  27 2.31
  23  0.424  0.913  0.122-  73 1.45  53 1.45   3 2.08  18 2.08  47 2.24  48 2.31  28 2.31
  24  0.624  0.913  0.122-  74 1.45  54 1.45   4 2.08  19 2.08  48 2.24  49 2.31  29 2.31
  25  0.824  0.913  0.122-  75 1.45  55 1.45   5 2.08  20 2.08  49 2.24  50 2.31  30 2.31
  26  0.110  0.056  0.078-  96 1.45  76 1.45  31 2.08  46 2.08   2 2.24   1 2.31  21 2.31
  27  0.310  0.056  0.078-  97 1.45  77 1.45  32 2.08  47 2.08   3 2.24   2 2.31  22 2.31
  28  0.510  0.056  0.078-  98 1.45  78 1.45  33 2.08  48 2.08   4 2.24   3 2.31  23 2.31
  29  0.710  0.056  0.078-  99 1.45  79 1.45  34 2.08  49 2.08   5 2.24   4 2.31  24 2.31
  30  0.910  0.056  0.078- 100 1.45  80 1.45  35 2.08  50 2.08   1 2.24   5 2.31  25 2.31
  31  0.110  0.256  0.078-  76 1.45  81 1.45  26 2.08  36 2.08   7 2.24   6 2.31   1 2.31
  32  0.310  0.256  0.078-  77 1.45  82 1.45  27 2.08  37 2.08   8 2.24   7 2.31   2 2.31
  33  0.510  0.256  0.078-  78 1.45  83 1.45  28 2.08  38 2.08   9 2.24   8 2.31   3 2.31
  34  0.710  0.256  0.078-  79 1.45  84 1.45  29 2.08  39 2.08  10 2.24   9 2.31   4 2.31
  35  0.910  0.256  0.078-  80 1.45  85 1.45  30 2.08  40 2.08   6 2.24  10 2.31   5 2.31
  36  0.110  0.456  0.078-  81 1.45  86 1.45  31 2.08  41 2.08  12 2.24  11 2.31   6 2.31
  37  0.310  0.456  0.078-  82 1.45  87 1.45  32 2.08  42 2.08  13 2.24  12 2.31   7 2.31
  38  0.510  0.456  0.078-  83 1.45  88 1.45  33 2.08  43 2.08  14 2.24  13 2.31   8 2.31
  39  0.710  0.456  0.078-  84 1.45  89 1.45  34 2.08  44 2.08  15 2.24  14 2.31   9 2.31
  40  0.910  0.456  0.078-  85 1.45  90 1.45  35 2.08  45 2.08  11 2.24  15 2.31  10 2.31
  41  0.110  0.656  0.078-  86 1.45  91 1.45  46 2.08  36 2.08  17 2.24  16 2.31  11 2.31
  42  0.310  0.656  0.078-  87 1.45  92 1.45  47 2.08  37 2.08  18 2.24  17 2.31  12 2.31
  43  0.510  0.656  0.078-  88 1.45  93 1.45  48 2.08  38 2.08  19 2.24  18 2.31  13 2.31
  44  0.710  0.656  0.078-  89 1.45  94 1.45  49 2.08  39 2.08  20 2.24  19 2.31  14 2.31
  45  0.910  0.656  0.078-  90 1.45  95 1.45  50 2.08  40 2.08  16 2.24  20 2.31  15 2.31
  46  0.110  0.856  0.078-  91 1.45  96 1.45  41 2.08  26 2.08  22 2.24  21 2.31  16 2.31
  47  0.310  0.856  0.078-  92 1.45  97 1.45  42 2.08  27 2.08  23 2.24  22 2.31  17 2.31
  48  0.510  0.856  0.078-  93 1.45  98 1.45  43 2.08  28 2.08  24 2.24  23 2.31  18 2.31
  49  0.710  0.856  0.078-  94 1.45  99 1.45  44 2.08  29 2.08  25 2.24  24 2.31  19 2.31
  50  0.910  0.856  0.078-  95 1.45 100 1.45  45 2.08  30 2.08  21 2.24  25 2.31  20 2.31
  51  0.021  0.011  0.147-   1 1.44  21 1.44
  52  0.221  0.011  0.147-   2 1.45  22 1.45
  53  0.421  0.011  0.147-   3 1.45  23 1.45
  54  0.621  0.011  0.147-   4 1.45  24 1.45
  55  0.821  0.011  0.147-   5 1.45  25 1.45
  56  0.021  0.211  0.147-   6 1.45   1 1.45
  57  0.221  0.211  0.147-   7 1.45   2 1.45
  58  0.421  0.211  0.147-   8 1.45   3 1.45
  59  0.621  0.211  0.147-   9 1.45   4 1.45
  60  0.821  0.211  0.147-  10 1.45   5 1.45
  61  0.021  0.411  0.147-  11 1.45   6 1.45
  62  0.221  0.411  0.147-  12 1.45   7 1.45
  63  0.421  0.411  0.147-  13 1.45   8 1.45
  64  0.621  0.411  0.147-  14 1.45   9 1.45
  65  0.821  0.411  0.147-  15 1.45  10 1.45
  66  0.021  0.611  0.147-  16 1.45  11 1.45
  67  0.221  0.611  0.147-  17 1.45  12 1.45
  68  0.421  0.611  0.147-  18 1.45  13 1.45
  69  0.621  0.611  0.147-  19 1.45  14 1.45
  70  0.821  0.611  0.147-  20 1.45  15 1.45
  71  0.021  0.811  0.147-  21 1.45  16 1.45
  72  0.221  0.811  0.147-  22 1.45  17 1.45
  73  0.421  0.811  0.147-  23 1.45  18 1.45
  74  0.621  0.811  0.147-  24 1.45  19 1.45
  75  0.821  0.811  0.147-  25 1.45  20 1.45
  76  0.114  0.157  0.053-  31 1.45  26 1.45
  77  0.314  0.157  0.053-  32 1.45  27 1.45
  78  0.514  0.157  0.053-  33 1.45  28 1.45
  79  0.714  0.157  0.053-  34 1.45  29 1.45
  80  0.914  0.157  0.053-  35 1.45  30 1.45
  81  0.114  0.357  0.053-  36 1.45  31 1.45
  82  0.314  0.357  0.053-  37 1.45  32 1.45
  83  0.514  0.357  0.053-  38 1.45  33 1.45
  84  0.714  0.357  0.053-  39 1.45  34 1.45
  85  0.914  0.357  0.053-  40 1.45  35 1.45
  86  0.114  0.557  0.053-  41 1.45  36 1.45
  87  0.314  0.557  0.053-  42 1.45  37 1.45
  88  0.514  0.557  0.053-  43 1.45  38 1.45
  89  0.714  0.557  0.053-  44 1.45  39 1.45
  90  0.914  0.557  0.053-  45 1.45  40 1.45
  91  0.114  0.757  0.053-  46 1.45  41 1.45
  92  0.314  0.757  0.053-  47 1.45  42 1.45
  93  0.514  0.757  0.053-  48 1.45  43 1.45
  94  0.714  0.757  0.053-  49 1.45  44 1.45
  95  0.914  0.757  0.053-  50 1.45  45 1.45
  96  0.114  0.957  0.053-  26 1.45  46 1.45
  97  0.314  0.957  0.053-  27 1.45  47 1.45
  98  0.514  0.957  0.053-  28 1.45  48 1.45
  99  0.714  0.957  0.053-  29 1.45  49 1.45
 100  0.914  0.957  0.053-  30 1.45  50 1.45
 
  Warning from LATTYP: Monoclinic adjustment (A1->A3, A2->A1, A3->A2)!
  LATTYP: Found a simple monoclinic cell.
 ALAT       =    10.4091384146
 B/A-ratio  =     3.8427772220
 C/A-ratio  =     1.2468813316
 COS(beta)  =    -0.4008930594
  
  Lattice vectors:
  
 A1 = (  -8.9950445409,   5.2382569850,   0.0000000000)
 A2 = (   0.0000000000,   0.0000000000,  40.0000000000)
 A3 = (  10.4799732037,   7.6566032852,   0.0000000000)


Analysis of symmetry for initial positions (statically):
=====================================================================
 Subroutine PRICEL returns:
 Original cell was already a primitive cell.
 

 Routine SETGRP: Setting up the symmetry group for a 
 simple monoclinic supercell.


 Subroutine GETGRP returns: Found  1 space group operations
 (whereof  1 operations were pure point group operations)
 out of a pool of  4 trial point group operations.


The static configuration has the point symmetry C_1 .


Analysis of symmetry for dynamics (positions and initial velocities):
=====================================================================
 Subroutine PRICEL returns:
 Original cell was already a primitive cell.
 

 Routine SETGRP: Setting up the symmetry group for a 
 simple monoclinic supercell.


 Subroutine GETGRP returns: Found  1 space group operations
 (whereof  1 operations were pure point group operations)
 out of a pool of  4 trial point group operations.


The dynamic configuration has the point symmetry C_1 .


 Subroutine INISYM returns: Found  1 space group operations
 (whereof  1 operations are pure point group operations),
 and found     1 'primitive' translations


----------------------------------------------------------------------------------------

                                     Primitive cell                                     

  volume of cell :    4950.7312

  direct lattice vectors                    reciprocal lattice vectors
    10.479973204  7.656603285  0.000000000     0.042323097  0.072676493  0.000000000
    -8.995044541  5.238256985  0.000000000    -0.061862403  0.084674144  0.000000000
     0.000000000  0.000000000 40.000000000     0.000000000  0.000000000  0.025000000

  length of vectors
    12.978960367 10.409138415 40.000000000     0.084101826  0.104864997  0.025000000

  position of ions in fractional coordinates (direct lattice)
     0.024290424  0.112595563  0.122326194
     0.224290424  0.112595563  0.122326194
     0.424290424  0.112595563  0.122326194
     0.624290424  0.112595563  0.122326194
     0.824290424  0.112595563  0.122326194
     0.024290424  0.312595563  0.122326194
     0.224290424  0.312595563  0.122326194
     0.424290424  0.312595563  0.122326194
     0.624290424  0.312595563  0.122326194
     0.824290424  0.312595563  0.122326194
     0.024290424  0.512595563  0.122326194
     0.224290424  0.512595563  0.122326194
     0.424290424  0.512595563  0.122326194
     0.624290424  0.512595563  0.122326194
     0.824290424  0.512595563  0.122326194
     0.024290424  0.712595563  0.122326194
     0.224290424  0.712595563  0.122326194
     0.424290424  0.712595563  0.122326194
     0.624290424  0.712595563  0.122326194
     0.824290424  0.712595563  0.122326194
     0.024290424  0.912595563  0.122326194
     0.224290424  0.912595563  0.122326194
     0.424290424  0.912595563  0.122326194
     0.624290424  0.912595563  0.122326194
     0.824290424  0.912595563  0.122326194
     0.110402686  0.055656208  0.077673702
     0.310402686  0.055656208  0.077673702
     0.510402686  0.055656208  0.077673702
     0.710402686  0.055656208  0.077673702
     0.910402686  0.055656208  0.077673702
     0.110402686  0.255656208  0.077673702
     0.310402686  0.255656208  0.077673702
     0.510402686  0.255656208  0.077673702
     0.710402686  0.255656208  0.077673702
     0.910402686  0.255656208  0.077673702
     0.110402686  0.455656208  0.077673702
     0.310402686  0.455656208  0.077673702
     0.510402686  0.455656208  0.077673702
     0.710402686  0.455656208  0.077673702
     0.910402686  0.455656208  0.077673702
     0.110402686  0.655656208  0.077673702
     0.310402686  0.655656208  0.077673702
     0.510402686  0.655656208  0.077673702
     0.710402686  0.655656208  0.077673702
     0.910402686  0.655656208  0.077673702
     0.110402686  0.855656208  0.077673702
     0.310402686  0.855656208  0.077673702
     0.510402686  0.855656208  0.077673702
     0.710402686  0.855656208  0.077673702
     0.910402686  0.855656208  0.077673702
     0.020752293  0.010829516  0.147167232
     0.220752293  0.010829516  0.147417232
     0.420752293  0.010829516  0.147417232
     0.620752293  0.010829516  0.147417232
     0.820752293  0.010829516  0.147417232
     0.020752293  0.210829516  0.147417232
     0.220752293  0.210829516  0.147417232
     0.420752293  0.210829516  0.147417232
     0.620752293  0.210829516  0.147417232
     0.820752293  0.210829516  0.147417232
     0.020752293  0.410829516  0.147417232
     0.220752293  0.410829516  0.147417232
     0.420752293  0.410829516  0.147417232
     0.620752293  0.410829516  0.147417232
     0.820752293  0.410829516  0.147417232
     0.020752293  0.610829516  0.147417232
     0.220752293  0.610829516  0.147417232
     0.420752293  0.610829516  0.147417232
     0.620752293  0.610829516  0.147417232
     0.820752293  0.610829516  0.147417232
     0.020752293  0.810829516  0.147417232
     0.220752293  0.810829516  0.147417232
     0.420752293  0.810829516  0.147417232
     0.620752293  0.810829516  0.147417232
     0.820752293  0.810829516  0.147417232
     0.113913428  0.157416157  0.052582872
     0.313913428  0.157416157  0.052582872
     0.513913428  0.157416157  0.052582872
     0.713913428  0.157416157  0.052582872
     0.913913428  0.157416157  0.052582872
     0.113913428  0.357416157  0.052582872
     0.313913428  0.357416157  0.052582872
     0.513913428  0.357416157  0.052582872
     0.713913428  0.357416157  0.052582872
     0.913913428  0.357416157  0.052582872
     0.113913428  0.557416157  0.052582872
     0.313913428  0.557416157  0.052582872
     0.513913428  0.557416157  0.052582872
     0.713913428  0.557416157  0.052582872
     0.913913428  0.557416157  0.052582872
     0.113913428  0.757416157  0.052582872
     0.313913428  0.757416157  0.052582872
     0.513913428  0.757416157  0.052582872
     0.713913428  0.757416157  0.052582872
     0.913913428  0.757416157  0.052582872
     0.113913428  0.957416157  0.052582872
     0.313913428  0.957416157  0.052582872
     0.513913428  0.957416157  0.052582872
     0.713913428  0.957416157  0.052582872
     0.913913428  0.957416157  0.052582872

  ion indices of the primitive-cell ions
   primitive index   ion index
                 1           1
                 2           2
                 3           3
                 4           4
                 5           5
                 6           6
                 7           7
                 8           8
                 9           9
                10          10
                11          11
                12          12
                13          13
                14          14
                15          15
                16          16
                17          17
                18          18
                19          19
                20          20
                21          21
                22          22
                23          23
                24          24
                25          25
                26          26
                27          27
                28          28
                29          29
                30          30
                31          31
                32          32
                33          33
                34          34
                35          35
                36          36
                37          37
                38          38
                39          39
                40          40
                41          41
                42          42
                43          43
                44          44
                45          45
                46          46
                47          47
                48          48
                49          49
                50          50
                51          51
                52          52
                53          53
                54          54
                55          55
                56          56
                57          57
                58          58
                59          59
                60          60
                61          61
                62          62
                63          63
                64          64
                65          65
                66          66
                67          67
                68          68
                69          69
                70          70
                71          71
                72          72
                73          73
                74          74
                75          75
                76          76
                77          77
                78          78
                79          79
                80          80
                81          81
                82          82
                83          83
                84          84
                85          85
                86          86
                87          87
                88          88
                89          89
                90          90
                91          91
                92          92
                93          93
                94          94
                95          95
                96          96
                97          97
                98          98
                99          99
               100         100

----------------------------------------------------------------------------------------

 
 
 KPOINTS: k-points                                

Automatic generation of k-mesh.
 Grid dimensions read from file:
 generate k-points for:    7    7    1

 Generating k-lattice:

  Cartesian coordinates                     Fractional coordinates (reciprocal lattice)
     0.006046157  0.010382356  0.000000000     0.142857143 -0.000000000  0.000000000
    -0.008837486  0.012096306  0.000000000     0.000000000  0.142857143  0.000000000
     0.000000000  0.000000000  0.025000000     0.000000000  0.000000000  1.000000000

  Length of vectors
     0.012014547  0.014980714  0.025000000

  Shift w.r.t. Gamma in fractional coordinates (k-lattice)
     0.000000000  0.000000000  0.000000000

 
 Subroutine IBZKPT returns following result:
 ===========================================
 
 Found     25 irreducible k-points:
 
 Following reciprocal coordinates:
            Coordinates               Weight
  0.000000  0.000000  0.000000      1.000000
  0.142857  0.000000  0.000000      2.000000
  0.285714  0.000000  0.000000      2.000000
  0.428571  0.000000  0.000000      2.000000
  0.000000  0.142857  0.000000      2.000000
  0.142857  0.142857  0.000000      2.000000
  0.285714  0.142857  0.000000      2.000000
  0.428571  0.142857  0.000000      2.000000
 -0.428571  0.142857  0.000000      2.000000
 -0.285714  0.142857  0.000000      2.000000
 -0.142857  0.142857  0.000000      2.000000
  0.000000  0.285714  0.000000      2.000000
  0.142857  0.285714  0.000000      2.000000
  0.285714  0.285714  0.000000      2.000000
  0.428571  0.285714  0.000000      2.000000
 -0.428571  0.285714  0.000000      2.000000
 -0.285714  0.285714  0.000000      2.000000
 -0.142857  0.285714  0.000000      2.000000
  0.000000  0.428571  0.000000      2.000000
  0.142857  0.428571  0.000000      2.000000
  0.285714  0.428571  0.000000      2.000000
  0.428571  0.428571  0.000000      2.000000
 -0.428571  0.428571  0.000000      2.000000
 -0.285714  0.428571  0.000000      2.000000
 -0.142857  0.428571  0.000000      2.000000
 
 Following cartesian coordinates:
            Coordinates               Weight
 -0.000000  0.000000  0.000000      1.000000
  0.006046  0.010382  0.000000      2.000000
  0.012092  0.020765  0.000000      2.000000
  0.018138  0.031147  0.000000      2.000000
 -0.008837  0.012096  0.000000      2.000000
 -0.002791  0.022479  0.000000      2.000000
  0.003255  0.032861  0.000000      2.000000
  0.009301  0.043243  0.000000      2.000000
 -0.026976 -0.019051  0.000000      2.000000
 -0.020930 -0.008668  0.000000      2.000000
 -0.014884  0.001714  0.000000      2.000000
 -0.017675  0.024193  0.000000      2.000000
 -0.011629  0.034575  0.000000      2.000000
 -0.005583  0.044957  0.000000      2.000000
  0.000463  0.055340  0.000000      2.000000
 -0.035813 -0.006954  0.000000      2.000000
 -0.029767  0.003428  0.000000      2.000000
 -0.023721  0.013810  0.000000      2.000000
 -0.026512  0.036289  0.000000      2.000000
 -0.020466  0.046671  0.000000      2.000000
 -0.014420  0.057054  0.000000      2.000000
 -0.008374  0.067436  0.000000      2.000000
 -0.044651  0.005142  0.000000      2.000000
 -0.038605  0.015524  0.000000      2.000000
 -0.032559  0.025907  0.000000      2.000000
 


--------------------------------------------------------------------------------------------------------




 Dimension of arrays:
   k-points           NKPTS =     25   k-points in BZ     NKDIM =     25   number of bands    NBANDS=    126
   number of dos      NEDOS =    301   number of ions     NIONS =    100
   non local maximal  LDIM  =      4   non local SUM 2l+1 LMDIM =      8
   total plane-waves  NPLWV = ******
   max r-space proj   IRMAX =      1   max aug-charges    IRDMAX=  20107
   dimension x,y,z NGX =   108 NGY =   84 NGZ =  320
   dimension x,y,z NGXF=   216 NGYF=  168 NGZF=  640
   support grid    NGXF=   216 NGYF=  168 NGZF=  640
   ions per type =              50  50
   NGX,Y,Z   is equivalent  to a cutoff of  13.83, 13.42, 13.30 a.u.
   NGXF,Y,Z  is equivalent  to a cutoff of  27.67, 26.83, 26.60 a.u.

 SYSTEM =  Phonopy                                 
 POSCAR =  generated by phonopy                    

 Startparameter for this run:
   NWRITE =      2    write-flag & timer
   PREC   = accura    normal or accurate (medium, high low for compatibility)
   ISTART =      0    job   : 0-new  1-cont  2-samecut
   ICHARG =      2    charge: 1-file 2-atom 10-const
   ISPIN  =      1    spin polarized calculation?
   LNONCOLLINEAR =      F non collinear calculations
   LSORBIT =      F    spin-orbit coupling
   INIWAV =      1    electr: 0-lowe 1-rand  2-diag
   LASPH  =      F    aspherical Exc in radial PAW
 Electronic Relaxation 1
   ENCUT  =  600.0 eV  44.10 Ry    6.64 a.u.  25.92 20.79 79.89*2*pi/ulx,y,z
   ENINI  =  600.0     initial cutoff
   ENAUG  =  400.0 eV  augmentation charge cutoff
   NELM   =    150;   NELMIN=  2; NELMDL= -5     # of ELM steps 
   EDIFF  = 0.1E-07   stopping-criterion for ELM
   LREAL  =      F    real-space projection
   NLSPLINE    = F    spline interpolate recip. space projectors
   LCOMPAT=      F    compatible to vasp.4.4
   GGA_COMPAT  = T    GGA compatible to vasp.4.4-vasp.4.6
   LMAXPAW     = -100 max onsite density
   LMAXMIX     =    2 max onsite mixed and CHGCAR
   VOSKOWN=      0    Vosko Wilk Nusair interpolation
   ROPT   =    0.00000   0.00000
 Ionic relaxation
   EDIFFG = 0.1E-06   stopping-criterion for IOM
   NSW    =      0    number of steps for IOM
   NBLOCK =      1;   KBLOCK =      1    inner block; outer block 
   IBRION =     -1    ionic relax: 0-MD 1-quasi-New 2-CG
   NFREE  =      0    steps in history (QN), initial steepest desc. (CG)
   ISIF   =      2    stress and relaxation
   IWAVPR =     10    prediction:  0-non 1-charg 2-wave 3-comb
   ISYM   =      2    0-nonsym 1-usesym 2-fastsym
   LCORR  =      T    Harris-Foulkes like correction to forces

   POTIM  = 0.5000    time-step for ionic-motion
   TEIN   =    0.0    initial temperature
   TEBEG  =    0.0;   TEEND  =   0.0 temperature during run
   SMASS  =  -3.00    Nose mass-parameter (am)
   estimated Nose-frequenzy (Omega)   =  0.10E-29 period in steps = 0.13E+47 mass=  -0.385E-26a.u.
   SCALEE = 1.0000    scale energy and forces
   NPACO  =    256;   APACO  = 10.0  distance and # of slots for P.C.
   PSTRESS=    0.0 pullay stress

  Mass of Ions in am
   POMASS =   9.01  1.00
  Ionic Valenz
   ZVAL   =   2.00  1.00
  Atomic Wigner-Seitz radii
   RWIGS  =  -1.00 -1.00
  virtual crystal weights 
   VCA    =   1.00  1.00
   NELECT =     150.0000    total number of electrons
   NUPDOWN=      -1.0000    fix difference up-down

 DOS related values:
   EMIN   =  10.00;   EMAX   =-10.00  energy-range for DOS
   EFERMI =   0.00;   METHOD = LEGACY      
   ISMEAR =     0;   SIGMA  =   0.10  broadening in eV -4-tet -1-fermi 0-gaus
   EFERMI_NEDOS =   21; number of points for ismear=-14 and -15

 Electronic relaxation 2 (details)
   IALGO  =     38    algorithm
   LDIAG  =      T    sub-space diagonalisation (order eigenvalues)
   LSUBROT=      F    optimize rotation matrix (better conditioning)
   TURBO    =      0    0=normal 1=particle mesh
   IRESTART =      0    0=no restart 2=restart with 2 vectors
   NREBOOT  =      0    no. of reboots
   NMIN     =      0    reboot dimension
   EREF     =   0.00    reference energy to select bands
   IMIX   =      4    mixing-type and parameters
     AMIX     =   0.40;   BMIX     =  1.00
     AMIX_MAG =   1.60;   BMIX_MAG =  1.00
     AMIN     =   0.10
     WC   =   100.;   INIMIX=   1;  MIXPRE=   1;  MAXMIX= -45

 Intra band minimization:
   WEIMIN = 0.0000     energy-eigenvalue tresh-hold
   EBREAK =  0.20E-10  absolut break condition
   DEPER  =   0.30     relativ break condition  

   TIME   =   0.40     timestep for ELM

  volume/ion in A,a.u.               =      49.51       334.09
  Fermi-wavevector in a.u.,A,eV,Ry     =   0.510366  0.964453  3.543963  0.260474
  Thomas-Fermi vector in A             =   1.523333
 
 Write flags
   LWAVE        =      F    write WAVECAR
   LDOWNSAMPLE  =      F    k-point downsampling of WAVECAR
   LCHARG       =      F    write CHGCAR
   LVTOT        =      F    write LOCPOT, total local potential
   LVHAR        =      F    write LOCPOT, Hartree potential only
   WRT_POTENTIAL= false  ! write potential to hdf5 file
   LELF         =      F    write electronic localiz. function (ELF)
   LORBIT       =      0    0 simple, 1 ext, 2 COOP (PROOUT), +10 PAW based schemes


 Python interface
   PLUGINS active      =      F    recompile with -DPLUGINS to activate
 
 Dipole corrections
   LMONO      =      F    monopole corrections only (constant potential shift)
   LDIPOL     =      T    correct potential (dipole corrections)
   IDIPOL     =      3    1-x, 2-y, 3-z, 4-all directions 
   EPSILON    =  1.0000000 bulk dielectric constant
   LVACPOTAV  =      F  vacuum potentials using an averaging scheme for the charge density
   VACPOTFLAT =  0.1000000 required flatness to determine vacuum potential
 
Coulomb truncation method
  LTRUNCATE          =      F  Coulomb kernel truncation to be used
  IDIMENSIONALITY    =      3  Dimensionality of cutoff (0 molecules / 2 surfaces)
  ISURFACE           =     -1  Direction of surface normal
  LCOARSEN           =      F  Coarsen the charge grid before padding, preferred

 
 Exchange correlation treatment:
   GGA     = PE    functional components
   XC_C    = 1    coefficients multiplying the functional components
   LIBXC   =     F    Libxc                    
   VOSKOWN =     0    Vosko Wilk Nusair interpolation
   LHFCALC =     F    Hartree Fock is set to
   LHFONE  =     F    Hartree Fock one center treatment
   AEXX    =    0.0000 exact exchange contribution

 Parameters of functionals:
   PE:
     No parameter
 
 Van der Waals corrections
   IVDW    =    12    specifies the selected vdW correction

 Linear response parameters
   LEPSILON=     F    determine dielectric tensor
   LRPA    =     F    only Hartree local field effects (RPA)
   LNABLA  =     F    use nabla operator in PAW spheres
   LVEL    =     F    velocity operator in full k-point grid
   CSHIFT  =0.1000    complex shift for real part using Kramers Kronig
   OMEGAMAX=  -1.0    maximum frequency
   DEG_THRESHOLD= 0.2000000E-02 threshold for treating states as degnerate
   RTIME   =   -0.100 relaxation time in fs
  (WPLASMAI=    0.000 imaginary part of plasma frequency in eV, 0.658/RTIME)
   DFIELD  = 0.0000000 0.0000000 0.0000000 field for delta impulse in time
 
  Optional k-point grid parameters
   LKPOINTS_OPT  =     F    use optional k-point grid
   KPOINTS_OPT_MODE=     1    mode for optional k-point grid
 
 Orbital magnetization related:
   ORBITALMAG=     F  switch on orbital magnetization
   LCHIMAG   =     F  perturbation theory with respect to B field
   DQ        =  0.001000  dq finite difference perturbation B field
   LLRAUG    =     F  two centre corrections for induced B field
   LBONE     =     F  B-component reconstruction in AE one-centre
   LVGVCALC  =     T  calculate vGv susceptibility
   LVGVAPPL  =     F  apply vGv susceptibility instead of pGv for G=0

 Random number generation:
   RANDOM_GENERATOR = DEFAULT
   PCG_SEED         = not used


--------------------------------------------------------------------------------------------------------


 Static calculation
 charge density and potential will be updated during run
 non-spin polarized calculation
 Variant of blocked Davidson
 Davidson routine will perform the subspace rotation
 perform sub-space diagonalisation
    after iterative eigenvector-optimisation
 modified Broyden-mixing scheme, WC =      100.0
 initial mixing is a Kerker type mixing with AMIX =  0.4000 and BMIX =      1.0000
 Hartree-type preconditioning will be used
 using additional bands           51
 reciprocal scheme for non local part
 use partial core corrections
 calculate Harris-corrections to forces 
   (improved forces if not selfconsistent)
 use gradient corrections 
 use of overlap-Matrix (Vanderbilt PP)
 Gauss-broadening in eV      SIGMA  =   0.10


--------------------------------------------------------------------------------------------------------


  energy-cutoff  :      600.00
  volume of cell :     4950.73
      direct lattice vectors                 reciprocal lattice vectors
    10.479973204  7.656603285  0.000000000     0.042323097  0.072676493  0.000000000
    -8.995044541  5.238256985  0.000000000    -0.061862403  0.084674144  0.000000000
     0.000000000  0.000000000 40.000000000     0.000000000  0.000000000  0.025000000

  length of vectors
    12.978960367 10.409138415 40.000000000     0.084101826  0.104864997  0.025000000


 
 k-points in units of 2pi/SCALE and weight: k-points                                
  -0.00000000  0.00000000  0.00000000       0.020
   0.00604616  0.01038236  0.00000000       0.041
   0.01209231  0.02076471  0.00000000       0.041
   0.01813847  0.03114707  0.00000000       0.041
  -0.00883749  0.01209631  0.00000000       0.041
  -0.00279133  0.02247866  0.00000000       0.041
   0.00325483  0.03286102  0.00000000       0.041
   0.00930098  0.04324337  0.00000000       0.041
  -0.02697596 -0.01905076  0.00000000       0.041
  -0.02092980 -0.00866841  0.00000000       0.041
  -0.01488364  0.00171395  0.00000000       0.041
  -0.01767497  0.02419261  0.00000000       0.041
  -0.01162882  0.03457497  0.00000000       0.041
  -0.00558266  0.04495732  0.00000000       0.041
   0.00046350  0.05533968  0.00000000       0.041
  -0.03581344 -0.00695446  0.00000000       0.041
  -0.02976729  0.00342790  0.00000000       0.041
  -0.02372113  0.01381026  0.00000000       0.041
  -0.02651246  0.03628892  0.00000000       0.041
  -0.02046630  0.04667127  0.00000000       0.041
  -0.01442015  0.05705363  0.00000000       0.041
  -0.00837399  0.06743599  0.00000000       0.041
  -0.04465093  0.00514185  0.00000000       0.041
  -0.03860477  0.01552421  0.00000000       0.041
  -0.03255862  0.02590656  0.00000000       0.041
 
 k-points in reciprocal lattice and weights: k-points                                
   0.00000000  0.00000000  0.00000000       0.020
   0.14285714  0.00000000  0.00000000       0.041
   0.28571429  0.00000000  0.00000000       0.041
   0.42857143  0.00000000  0.00000000       0.041
   0.00000000  0.14285714  0.00000000       0.041
   0.14285714  0.14285714  0.00000000       0.041
   0.28571429  0.14285714  0.00000000       0.041
   0.42857143  0.14285714  0.00000000       0.041
  -0.42857143  0.14285714  0.00000000       0.041
  -0.28571429  0.14285714  0.00000000       0.041
  -0.14285714  0.14285714  0.00000000       0.041
   0.00000000  0.28571429  0.00000000       0.041
   0.14285714  0.28571429  0.00000000       0.041
   0.28571429  0.28571429  0.00000000       0.041
   0.42857143  0.28571429  0.00000000       0.041
  -0.42857143  0.28571429  0.00000000       0.041
  -0.28571429  0.28571429  0.00000000       0.041
  -0.14285714  0.28571429  0.00000000       0.041
   0.00000000  0.42857143  0.00000000       0.041
   0.14285714  0.42857143  0.00000000       0.041
   0.28571429  0.42857143  0.00000000       0.041
   0.42857143  0.42857143  0.00000000       0.041
  -0.42857143  0.42857143  0.00000000       0.041
  -0.28571429  0.42857143  0.00000000       0.041
  -0.14285714  0.42857143  0.00000000       0.041
 
 position of ions in fractional coordinates (direct lattice) 
   0.02429042  0.11259556  0.12232619
   0.22429042  0.11259556  0.12232619
   0.42429042  0.11259556  0.12232619
   0.62429042  0.11259556  0.12232619
   0.82429042  0.11259556  0.12232619
   0.02429042  0.31259556  0.12232619
   0.22429042  0.31259556  0.12232619
   0.42429042  0.31259556  0.12232619
   0.62429042  0.31259556  0.12232619
   0.82429042  0.31259556  0.12232619
   0.02429042  0.51259556  0.12232619
   0.22429042  0.51259556  0.12232619
   0.42429042  0.51259556  0.12232619
   0.62429042  0.51259556  0.12232619
   0.82429042  0.51259556  0.12232619
   0.02429042  0.71259556  0.12232619
   0.22429042  0.71259556  0.12232619
   0.42429042  0.71259556  0.12232619
   0.62429042  0.71259556  0.12232619
   0.82429042  0.71259556  0.12232619
   0.02429042  0.91259556  0.12232619
   0.22429042  0.91259556  0.12232619
   0.42429042  0.91259556  0.12232619
   0.62429042  0.91259556  0.12232619
   0.82429042  0.91259556  0.12232619
   0.11040269  0.05565621  0.07767370
   0.31040269  0.05565621  0.07767370
   0.51040269  0.05565621  0.07767370
   0.71040269  0.05565621  0.07767370
   0.91040269  0.05565621  0.07767370
   0.11040269  0.25565621  0.07767370
   0.31040269  0.25565621  0.07767370
   0.51040269  0.25565621  0.07767370
   0.71040269  0.25565621  0.07767370
   0.91040269  0.25565621  0.07767370
   0.11040269  0.45565621  0.07767370
   0.31040269  0.45565621  0.07767370
   0.51040269  0.45565621  0.07767370
   0.71040269  0.45565621  0.07767370
   0.91040269  0.45565621  0.07767370
   0.11040269  0.65565621  0.07767370
   0.31040269  0.65565621  0.07767370
   0.51040269  0.65565621  0.07767370
   0.71040269  0.65565621  0.07767370
   0.91040269  0.65565621  0.07767370
   0.11040269  0.85565621  0.07767370
   0.31040269  0.85565621  0.07767370
   0.51040269  0.85565621  0.07767370
   0.71040269  0.85565621  0.07767370
   0.91040269  0.85565621  0.07767370
   0.02075229  0.01082952  0.14716723
   0.22075229  0.01082952  0.14741723
   0.42075229  0.01082952  0.14741723
   0.62075229  0.01082952  0.14741723
   0.82075229  0.01082952  0.14741723
   0.02075229  0.21082952  0.14741723
   0.22075229  0.21082952  0.14741723
   0.42075229  0.21082952  0.14741723
   0.62075229  0.21082952  0.14741723
   0.82075229  0.21082952  0.14741723
   0.02075229  0.41082952  0.14741723
   0.22075229  0.41082952  0.14741723
   0.42075229  0.41082952  0.14741723
   0.62075229  0.41082952  0.14741723
   0.82075229  0.41082952  0.14741723
   0.02075229  0.61082952  0.14741723
   0.22075229  0.61082952  0.14741723
   0.42075229  0.61082952  0.14741723
   0.62075229  0.61082952  0.14741723
   0.82075229  0.61082952  0.14741723
   0.02075229  0.81082952  0.14741723
   0.22075229  0.81082952  0.14741723
   0.42075229  0.81082952  0.14741723
   0.62075229  0.81082952  0.14741723
   0.82075229  0.81082952  0.14741723
   0.11391343  0.15741616  0.05258287
   0.31391343  0.15741616  0.05258287
   0.51391343  0.15741616  0.05258287
   0.71391343  0.15741616  0.05258287
   0.91391343  0.15741616  0.05258287
   0.11391343  0.35741616  0.05258287
   0.31391343  0.35741616  0.05258287
   0.51391343  0.35741616  0.05258287
   0.71391343  0.35741616  0.05258287
   0.91391343  0.35741616  0.05258287
   0.11391343  0.55741616  0.05258287
   0.31391343  0.55741616  0.05258287
   0.51391343  0.55741616  0.05258287
   0.71391343  0.55741616  0.05258287
   0.91391343  0.55741616  0.05258287
   0.11391343  0.75741616  0.05258287
   0.31391343  0.75741616  0.05258287
   0.51391343  0.75741616  0.05258287
   0.71391343  0.75741616  0.05258287
   0.91391343  0.75741616  0.05258287
   0.11391343  0.95741616  0.05258287
   0.31391343  0.95741616  0.05258287
   0.51391343  0.95741616  0.05258287
   0.71391343  0.95741616  0.05258287
   0.91391343  0.95741616  0.05258287
 
 position of ions in cartesian coordinates  (Angst):
  -0.75823911  0.77578664  4.89304777
   1.33775553  2.30710729  4.89304777
   3.43375017  3.83842795  4.89304777
   5.52974481  5.36974861  4.89304777
   7.62573945  6.90106927  4.89304777
  -2.55724802  1.82343803  4.89304777
  -0.46125338  3.35475869  4.89304777
   1.63474126  4.88607935  4.89304777
   3.73073590  6.41740001  4.89304777
   5.82673054  7.94872066  4.89304777
  -4.35625693  2.87108943  4.89304777
  -2.26026229  4.40241009  4.89304777
  -0.16426765  5.93373075  4.89304777
   1.93172700  7.46505140  4.89304777
   4.02772164  8.99637206  4.89304777
  -6.15526584  3.91874083  4.89304777
  -4.05927119  5.45006149  4.89304777
  -1.96327655  6.98138214  4.89304777
   0.13271809  8.51270280  4.89304777
   2.22871273 10.04402346  4.89304777
  -7.95427474  4.96639223  4.89304777
  -5.85828010  6.49771288  4.89304777
  -3.76228546  8.02903354  4.89304777
  -1.66629082  9.56035420  4.89304777
   0.42970382 11.09167485  4.89304777
   0.65638712  1.13685109  3.10694809
   2.75238176  2.66817174  3.10694809
   4.84837640  4.19949240  3.10694809
   6.94437104  5.73081306  3.10694809
   9.04036568  7.26213372  3.10694809
  -1.14262179  2.18450248  3.10694809
   0.95337285  3.71582314  3.10694809
   3.04936749  5.24714380  3.10694809
   5.14536213  6.77846446  3.10694809
   7.24135677  8.30978511  3.10694809
  -2.94163070  3.23215388  3.10694809
  -0.84563606  4.76347454  3.10694809
   1.25035858  6.29479519  3.10694809
   3.34635322  7.82611585  3.10694809
   5.44234786  9.35743651  3.10694809
  -4.74063961  4.27980528  3.10694809
  -2.64464497  5.81112593  3.10694809
  -0.54865033  7.34244659  3.10694809
   1.54734431  8.87376725  3.10694809
   3.64333895 10.40508791  3.10694809
  -6.53964852  5.32745667  3.10694809
  -4.44365388  6.85877733  3.10694809
  -2.34765923  8.39009799  3.10694809
  -0.25166459  9.92141865  3.10694809
   1.84433005 11.45273930  3.10694809
   0.12007150  0.21561986  5.88668926
   2.21606614  1.74694052  5.89668926
   4.31206078  3.27826118  5.89668926
   6.40805542  4.80958184  5.89668926
   8.50405006  6.34090249  5.89668926
  -1.67893741  1.26327126  5.89668926
   0.41705723  2.79459192  5.89668926
   2.51305187  4.32591258  5.89668926
   4.60904651  5.85723323  5.89668926
   6.70504115  7.38855389  5.89668926
  -3.47794632  2.31092266  5.89668926
  -1.38195168  3.84224332  5.89668926
   0.71404296  5.37356397  5.89668926
   2.81003761  6.90488463  5.89668926
   4.90603225  8.43620529  5.89668926
  -5.27695523  3.35857406  5.89668926
  -3.18096058  4.88989471  5.89668926
  -1.08496594  6.42121537  5.89668926
   1.01102870  7.95253603  5.89668926
   3.10702334  9.48385668  5.89668926
  -7.07596413  4.40622545  5.89668926
  -4.97996949  5.93754611  5.89668926
  -2.88397485  7.46886677  5.89668926
  -0.78798021  9.00018742  5.89668926
   1.30801443 10.53150808  5.89668926
  -0.22215567  1.69677621  2.10331488
   1.87383897  3.22809686  2.10331488
   3.96983361  4.75941752  2.10331488
   6.06582825  6.29073818  2.10331488
   8.16182289  7.82205883  2.10331488
  -2.02116458  2.74442760  2.10331488
   0.07483006  4.27574826  2.10331488
   2.17082470  5.80706892  2.10331488
   4.26681934  7.33838957  2.10331488
   6.36281398  8.86971023  2.10331488
  -3.82017349  3.79207900  2.10331488
  -1.72417885  5.32339966  2.10331488
   0.37181579  6.85472031  2.10331488
   2.46781043  8.38604097  2.10331488
   4.56380507  9.91736163  2.10331488
  -5.61918240  4.83973040  2.10331488
  -3.52318776  6.37105105  2.10331488
  -1.42719312  7.90237171  2.10331488
   0.66880153  9.43369237  2.10331488
   2.76479617 10.96501303  2.10331488
  -7.41819130  5.88738179  2.10331488
  -5.32219666  7.41870245  2.10331488
  -3.22620202  8.95002311  2.10331488
  -1.13020738 10.48134377  2.10331488
   0.96578726 12.01266442  2.10331488
 


--------------------------------------------------------------------------------------------------------


 k-point     1 :   0.0000 0.0000 0.0000  plane waves:  165129
 k-point     2 :   0.1429 0.0000 0.0000  plane waves:  165169
 k-point     3 :   0.2857 0.0000 0.0000  plane waves:  165264
 k-point     4 :   0.4286 0.0000 0.0000  plane waves:  165316
 k-point     5 :   0.0000 0.1429 0.0000  plane waves:  165094
 k-point     6 :   0.1429 0.1429 0.0000  plane waves:  165138
 k-point     7 :   0.2857 0.1429 0.0000  plane waves:  165261
 k-point     8 :   0.4286 0.1429 0.0000  plane waves:  165323
 k-point     9 :  -0.4286 0.1429 0.0000  plane waves:  165260
 k-point    10 :  -0.2857 0.1429 0.0000  plane waves:  165135
 k-point    11 :  -0.1429 0.1429 0.0000  plane waves:  165100
 k-point    12 :   0.0000 0.2857 0.0000  plane waves:  165181
 k-point    13 :   0.1429 0.2857 0.0000  plane waves:  165218
 k-point    14 :   0.2857 0.2857 0.0000  plane waves:  165258
 k-point    15 :   0.4286 0.2857 0.0000  plane waves:  165265
 k-point    16 :  -0.4286 0.2857 0.0000  plane waves:  165220
 k-point    17 :  -0.2857 0.2857 0.0000  plane waves:  165187
 k-point    18 :  -0.1429 0.2857 0.0000  plane waves:  165219
 k-point    19 :   0.0000 0.4286 0.0000  plane waves:  165186
 k-point    20 :   0.1429 0.4286 0.0000  plane waves:  165239
 k-point    21 :   0.2857 0.4286 0.0000  plane waves:  165295
 k-point    22 :   0.4286 0.4286 0.0000  plane waves:  165223
 k-point    23 :  -0.4286 0.4286 0.0000  plane waves:  165198
 k-point    24 :  -0.2857 0.4286 0.0000  plane waves:  165216
 k-point    25 :  -0.1429 0.4286 0.0000  plane waves:  165214

 maximum and minimum number of plane-waves per node :     23656    23538

 maximum number of plane-waves:    165323
 maximum index in each direction: 
   IXMAX=   26   IYMAX=   20   IZMAX=   79
   IXMIN=  -26   IYMIN=  -21   IZMIN=  -79


 parallel 3D FFT for wavefunctions:
    minimum data exchange during FFTs selected (reduces bandwidth)
 parallel 3D FFT for charge:
    minimum data exchange during FFTs selected (reduces bandwidth)


 total amount of memory used by VASP MPI-rank0   429906. kBytes
=======================================================================

   base                                    :      30000. kBytes
   nonl-proj                               :     113443. kBytes
   fftplans                                :      33603. kBytes
   grid                                    :      53432. kBytes
   one-center                              :         46. kBytes
   wavefun                                 :     199382. kBytes
 
     INWAV:  cpu time      0.0001: real time      0.0001
 Broyden mixing: mesh for mixing (old mesh)
   NGX = 51   NGY = 41   NGZ =159
  (NGX  =216   NGY  =168   NGZ  =640)
  gives a total of 332469 points

 initial charge density was supplied:
 charge density of overlapping atoms calculated
 number of electron     150.0000000 magnetization 
 keeping initial charge density in first step


--------------------------------------------------------------------------------------------------------


 Maximum index for augmentation-charges         1229 (set IRDMAX)


--------------------------------------------------------------------------------------------------------


 First call to EWALD:  gamma=   0.104
 Maximum number of real-space cells   4x   5x   1
 Maximum number of reciprocal cells   2x   2x   6

    FEWALD:  cpu time      0.0054: real time      0.0054


--------------------------------------- Ionic step        1  -------------------------------------------




--------------------------------------- Iteration      1(   1)  ---------------------------------------


    POTLOK:  cpu time      0.3701: real time      0.3749
    SETDIJ:  cpu time      0.0037: real time      0.0037
     EDDAV:  cpu time    113.3292: real time    114.2254
       DOS:  cpu time      0.0013: real time      0.0013
    --------------------------------------------
      LOOP:  cpu time    113.7046: real time    114.6057

 eigenvalue-minimisations  :  6300
 total energy-change (2. order) : 0.9826531E+03  (-0.4153452E+04)
 number of electron     150.0000000 magnetization 
 augmentation part      150.0000000 magnetization 

 DIPCOR: dipole corrections for dipol
 direction  3 min pos   385,
 dipolmoment           0.000000      0.000000     -0.000000 electrons x Angstroem
 Tr[quadrupol]     -3415.681376

 energy correction for charged system         0.000000 eV
 dipol+quadrupol energy correction           -0.000000 eV
 added-field ion interaction         -0.000000 eV  (added to PSCEN)


 Free energy of the ion-electron system (eV)
  ---------------------------------------------------
  alpha Z        PSCENC =        16.92283288
  Ewald energy   TEWEN  =     40456.67151554
  -Hartree energ DENC   =    -41329.24490220
  -exchange      EXHF   =         0.00000000
  -V(xc)+E(xc)   XCENC  =       303.16270069
  PAW double counting   =       869.51293836     -838.27406964
  entropy T*S    EENTRO =        -0.13626578
  eigenvalues    EBANDS =      -494.32373942
  atomic energy  EATOM  =      1998.36210175
  Solvation  Ediel_sol  =         0.00000000
  ---------------------------------------------------
  free energy    TOTEN  =       982.65311218 eV

  energy without entropy =      982.78937795  energy(sigma->0) =      982.72124506


--------------------------------------------------------------------------------------------------------




--------------------------------------- Iteration      1(   2)  ---------------------------------------


     EDDAV:  cpu time    172.0435: real time    173.4679
       DOS:  cpu time      0.0012: real time      0.0012
    --------------------------------------------
      LOOP:  cpu time    172.0447: real time    173.4690

 eigenvalue-minimisations  :  9936
 total energy-change (2. order) :-0.1192887E+04  (-0.1153843E+04)
 number of electron     150.0000000 magnetization 
 augmentation part      150.0000000 magnetization 

 DIPCOR: dipole corrections for dipol
 direction  3 min pos   385,
 dipolmoment           0.000000      0.000000     -0.000000 electrons x Angstroem
 Tr[quadrupol]     -3415.681376

 energy correction for charged system         0.000000 eV
 dipol+quadrupol energy correction           -0.000000 eV
 added-field ion interaction         -0.000000 eV  (added to PSCEN)


 Free energy of the ion-electron system (eV)
  ---------------------------------------------------
  alpha Z        PSCENC =        16.92283288
  Ewald energy   TEWEN  =     40456.67151554
  -Hartree energ DENC   =    -41329.24490220
  -exchange      EXHF   =         0.00000000
  -V(xc)+E(xc)   XCENC  =       303.16270069
  PAW double counting   =       869.51293836     -838.27406964
  entropy T*S    EENTRO =        -0.05188146
  eigenvalues    EBANDS =     -1687.29497628
  atomic energy  EATOM  =      1998.36210175
  Solvation  Ediel_sol  =         0.00000000
  ---------------------------------------------------
  free energy    TOTEN  =      -210.23374036 eV

  energy without entropy =     -210.18185890  energy(sigma->0) =     -210.20779963


--------------------------------------------------------------------------------------------------------




--------------------------------------- Iteration      1(   3)  ---------------------------------------


     EDDAV:  cpu time    146.1828: real time    147.3841
       DOS:  cpu time      0.0009: real time      0.0009
    --------------------------------------------
      LOOP:  cpu time    146.1837: real time    147.3849

 eigenvalue-minimisations  :  8052
 total energy-change (2. order) :-0.1490867E+03  (-0.1468846E+03)
 number of electron     150.0000000 magnetization 
 augmentation part      150.0000000 magnetization 

 DIPCOR: dipole corrections for dipol
 direction  3 min pos   385,
 dipolmoment           0.000000      0.000000     -0.000000 electrons x Angstroem
 Tr[quadrupol]     -3415.681376

 energy correction for charged system         0.000000 eV
 dipol+quadrupol energy correction           -0.000000 eV
 added-field ion interaction         -0.000000 eV  (added to PSCEN)


 Free energy of the ion-electron system (eV)
  ---------------------------------------------------
  alpha Z        PSCENC =        16.92283288
  Ewald energy   TEWEN  =     40456.67151554
  -Hartree energ DENC   =    -41329.24490220
  -exchange      EXHF   =         0.00000000
  -V(xc)+E(xc)   XCENC  =       303.16270069
  PAW double counting   =       869.51293836     -838.27406964
  entropy T*S    EENTRO =        -0.03705445
  eigenvalues    EBANDS =     -1836.39646230
  atomic energy  EATOM  =      1998.36210175
  Solvation  Ediel_sol  =         0.00000000
  ---------------------------------------------------
  free energy    TOTEN  =      -359.32039937 eV

  energy without entropy =     -359.28334492  energy(sigma->0) =     -359.30187215


--------------------------------------------------------------------------------------------------------




--------------------------------------- Iteration      1(   4)  ---------------------------------------


     EDDAV:  cpu time    148.3198: real time    149.4734
       DOS:  cpu time      0.0011: real time      0.0011
    --------------------------------------------
      LOOP:  cpu time    148.3210: real time    149.4746

 eigenvalue-minimisations  :  8196
 total energy-change (2. order) :-0.4049016E+01  (-0.4037243E+01)
 number of electron     150.0000000 magnetization 
 augmentation part      150.0000000 magnetization 

 DIPCOR: dipole corrections for dipol
 direction  3 min pos   385,
 dipolmoment           0.000000      0.000000     -0.000000 electrons x Angstroem
 Tr[quadrupol]     -3415.681376

 energy correction for charged system         0.000000 eV
 dipol+quadrupol energy correction           -0.000000 eV
 added-field ion interaction         -0.000000 eV  (added to PSCEN)


 Free energy of the ion-electron system (eV)
  ---------------------------------------------------
  alpha Z        PSCENC =        16.92283288
  Ewald energy   TEWEN  =     40456.67151554
  -Hartree energ DENC   =    -41329.24490220
  -exchange      EXHF   =         0.00000000
  -V(xc)+E(xc)   XCENC  =       303.16270069
  PAW double counting   =       869.51293836     -838.27406964
  entropy T*S    EENTRO =        -0.03686881
  eigenvalues    EBANDS =     -1840.44566354
  atomic energy  EATOM  =      1998.36210175
  Solvation  Ediel_sol  =         0.00000000
  ---------------------------------------------------
  free energy    TOTEN  =      -363.36941498 eV

  energy without entropy =     -363.33254617  energy(sigma->0) =     -363.35098057


--------------------------------------------------------------------------------------------------------




--------------------------------------- Iteration      1(   5)  ---------------------------------------


     EDDAV:  cpu time    158.4759: real time    159.6996
       DOS:  cpu time      0.0012: real time      0.0012
    CHARGE:  cpu time      5.1791: real time      5.2152
    MIXING:  cpu time      0.0135: real time      0.0136
    --------------------------------------------
      LOOP:  cpu time    163.6694: real time    164.9293

 eigenvalue-minimisations  :  8910
 total energy-change (2. order) :-0.9306872E-01  (-0.9298150E-01)
 number of electron     149.9999989 magnetization 
 augmentation part        0.0494193 magnetization 

 DIPCOR: dipole corrections for dipol
 direction  3 min pos   385,
 dipolmoment           0.000000      0.000000     -0.000000 electrons x Angstroem
 Tr[quadrupol]     -3415.681376

 energy correction for charged system         0.000000 eV
 dipol+quadrupol energy correction           -0.000000 eV
 added-field ion interaction         -0.000000 eV  (added to PSCEN)


 Broyden mixing:
  rms(total) = 0.21014E+01    rms(broyden)= 0.21013E+01
  rms(prec ) = 0.21573E+01
  weight for this iteration     100.00

 Free energy of the ion-electron system (eV)
  ---------------------------------------------------
  alpha Z        PSCENC =        16.92283288
  Ewald energy   TEWEN  =     40456.67151554
  -Hartree energ DENC   =    -41329.24490220
  -exchange      EXHF   =         0.00000000
  -V(xc)+E(xc)   XCENC  =       303.16270069
  PAW double counting   =       869.51293836     -838.27406964
  entropy T*S    EENTRO =        -0.03682641
  eigenvalues    EBANDS =     -1840.53877467
  atomic energy  EATOM  =      1998.36210175
  Solvation  Ediel_sol  =         0.00000000
  ---------------------------------------------------
  free energy    TOTEN  =      -363.46248370 eV

  energy without entropy =     -363.42565730  energy(sigma->0) =     -363.44407050


--------------------------------------------------------------------------------------------------------




--------------------------------------- Iteration      1(   6)  ---------------------------------------


    POTLOK:  cpu time      0.5007: real time      0.5045
    SETDIJ:  cpu time      0.0056: real time      0.0057
     EDDAV:  cpu time    134.2862: real time    135.3379
       DOS:  cpu time      0.0009: real time      0.0009
    CHARGE:  cpu time      5.1954: real time      5.2267
    MIXING:  cpu time      0.0138: real time      0.0139
    --------------------------------------------
      LOOP:  cpu time    140.0026: real time    141.0895

 eigenvalue-minimisations  :  7164
 total energy-change (2. order) : 0.1122963E+02  (-0.4336396E+00)
 number of electron     149.9999990 magnetization 
 augmentation part        0.0120410 magnetization 

 DIPCOR: dipole corrections for dipol
 direction  3 min pos   385,
 dipolmoment           0.000000      0.000000      0.000099 electrons x Angstroem
 Tr[quadrupol]     -3420.081796

 energy correction for charged system         0.000000 eV
 dipol+quadrupol energy correction           -0.000000 eV
 added-field ion interaction          0.000000 eV  (added to PSCEN)


 Broyden mixing:
  rms(total) = 0.12140E+01    rms(broyden)= 0.12140E+01
  rms(prec ) = 0.12530E+01
  weight for this iteration     100.00

 eigenvalues of (default mixing * dielectric matrix)
  average eigenvalue GAMMA=   2.3370
  2.3370

 Free energy of the ion-electron system (eV)
  ---------------------------------------------------
  alpha Z        PSCENC =        16.92283291
  Ewald energy   TEWEN  =     40456.67151554
  -Hartree energ DENC   =    -41446.76036886
  -exchange      EXHF   =         0.00000000
  -V(xc)+E(xc)   XCENC  =       309.36837441
  PAW double counting   =      1857.17869832    -1827.85717728
  entropy T*S    EENTRO =        -0.03626614
  eigenvalues    EBANDS =     -1716.08256522
  atomic energy  EATOM  =      1998.36210175
  Solvation  Ediel_sol  =         0.00000000
  ---------------------------------------------------
  free energy    TOTEN  =      -352.23285457 eV

  energy without entropy =     -352.19658843  energy(sigma->0) =     -352.21472150


--------------------------------------------------------------------------------------------------------




--------------------------------------- Iteration      1(   7)  ---------------------------------------


    POTLOK:  cpu time      0.4898: real time      0.4944
    SETDIJ:  cpu time      0.0042: real time      0.0043
     EDDAV:  cpu time    129.6978: real time    130.7473
       DOS:  cpu time      0.0009: real time      0.0009
    CHARGE:  cpu time      5.1850: real time      5.2233
    MIXING:  cpu time      0.0143: real time      0.0145
    --------------------------------------------
      LOOP:  cpu time    135.3920: real time    136.4846

 eigenvalue-minimisations  :  6858
 total energy-change (2. order) : 0.7182995E+01  (-0.9968344E+00)
 number of electron     149.9999990 magnetization 
 augmentation part       -0.0416653 magnetization 

 DIPCOR: dipole corrections for dipol
 direction  3 min pos   385,
 dipolmoment           0.000000      0.000000     -0.000107 electrons x Angstroem
 Tr[quadrupol]     -3428.463576

 energy correction for charged system         0.000000 eV
 dipol+quadrupol energy correction           -0.000000 eV
 added-field ion interaction         -0.000000 eV  (added to PSCEN)


 Broyden mixing:
  rms(total) = 0.14388E+00    rms(broyden)= 0.14388E+00
  rms(prec ) = 0.17302E+00
  weight for this iteration     100.00

 eigenvalues of (default mixing * dielectric matrix)
  average eigenvalue GAMMA=   2.6494
  2.6494  2.6494

 Free energy of the ion-electron system (eV)
  ---------------------------------------------------
  alpha Z        PSCENC =        16.92283284
  Ewald energy   TEWEN  =     40456.67151554
  -Hartree energ DENC   =    -41662.37954659
  -exchange      EXHF   =         0.00000000
  -V(xc)+E(xc)   XCENC  =       320.69966145
  PAW double counting   =      3928.61909423    -3901.62579436
  entropy T*S    EENTRO =        -0.03531006
  eigenvalues    EBANDS =     -1502.28441454
  atomic energy  EATOM  =      1998.36210175
  Solvation  Ediel_sol  =         0.00000000
  ---------------------------------------------------
  free energy    TOTEN  =      -345.04985976 eV

  energy without entropy =     -345.01454969  energy(sigma->0) =     -345.03220472


--------------------------------------------------------------------------------------------------------




--------------------------------------- Iteration      1(   8)  ---------------------------------------


    POTLOK:  cpu time      0.5046: real time      0.5096
    SETDIJ:  cpu time      0.0051: real time      0.0051
     EDDAV:  cpu time    145.3199: real time    146.5089
       DOS:  cpu time      0.0008: real time      0.0008
    CHARGE:  cpu time      5.2147: real time      5.2502
    MIXING:  cpu time      0.0547: real time      0.0563
    --------------------------------------------
      LOOP:  cpu time    151.0998: real time    152.3310

 eigenvalue-minimisations  :  7944
 total energy-change (2. order) : 0.4256019E+00  (-0.1032600E+00)
 number of electron     149.9999990 magnetization 
 augmentation part       -0.0300846 magnetization 

 DIPCOR: dipole corrections for dipol
 direction  3 min pos   385,
 dipolmoment           0.000000      0.000000     -0.000589 electrons x Angstroem
 Tr[quadrupol]     -3434.373403

 energy correction for charged system         0.000000 eV
 dipol+quadrupol energy correction           -0.000000 eV
 added-field ion interaction         -0.000000 eV  (added to PSCEN)


 Broyden mixing:
  rms(total) = 0.85570E-01    rms(broyden)= 0.85569E-01
  rms(prec ) = 0.97897E-01
  weight for this iteration     100.00

 eigenvalues of (default mixing * dielectric matrix)
  average eigenvalue GAMMA=   2.0872
  3.1088  2.4989  0.6538

 Free energy of the ion-electron system (eV)
  ---------------------------------------------------
  alpha Z        PSCENC =        16.92283265
  Ewald energy   TEWEN  =     40456.67151554
  -Hartree energ DENC   =    -41761.37548861
  -exchange      EXHF   =         0.00000000
  -V(xc)+E(xc)   XCENC  =       321.78309804
  PAW double counting   =      3952.25921662    -3924.89982996
  entropy T*S    EENTRO =        -0.03755801
  eigenvalues    EBANDS =     -1404.31014592
  atomic energy  EATOM  =      1998.36210175
  Solvation  Ediel_sol  =         0.00000000
  ---------------------------------------------------
  free energy    TOTEN  =      -344.62425790 eV

  energy without entropy =     -344.58669990  energy(sigma->0) =     -344.60547890


--------------------------------------------------------------------------------------------------------




--------------------------------------- Iteration      1(   9)  ---------------------------------------


    POTLOK:  cpu time      0.4970: real time      0.5011
    SETDIJ:  cpu time      0.0039: real time      0.0039
     EDDAV:  cpu time    150.8122: real time    152.1108
       DOS:  cpu time      0.0008: real time      0.0008
    CHARGE:  cpu time      5.1785: real time      5.2266
    MIXING:  cpu time      0.0169: real time      0.0170
    --------------------------------------------
      LOOP:  cpu time    156.5093: real time    157.8602

 eigenvalue-minimisations  :  8340
 total energy-change (2. order) : 0.7660923E-01  (-0.1329846E-01)
 number of electron     149.9999990 magnetization 
 augmentation part       -0.0306694 magnetization 

 DIPCOR: dipole corrections for dipol
 direction  3 min pos   385,
 dipolmoment           0.000000      0.000000     -0.000559 electrons x Angstroem
 Tr[quadrupol]     -3435.779126

 energy correction for charged system         0.000000 eV
 dipol+quadrupol energy correction           -0.000000 eV
 added-field ion interaction         -0.000000 eV  (added to PSCEN)


 Broyden mixing:
  rms(total) = 0.61475E-01    rms(broyden)= 0.61475E-01
  rms(prec ) = 0.72273E-01
  weight for this iteration     100.00

 eigenvalues of (default mixing * dielectric matrix)
  average eigenvalue GAMMA=   2.0651
  2.7226  2.7226  1.4076  1.4076

 Free energy of the ion-electron system (eV)
  ---------------------------------------------------
  alpha Z        PSCENC =        16.92283266
  Ewald energy   TEWEN  =     40456.67151554
  -Hartree energ DENC   =    -41786.71197519
  -exchange      EXHF   =         0.00000000
  -V(xc)+E(xc)   XCENC  =       322.50051822
  PAW double counting   =      4010.96555023    -3983.64909334
  entropy T*S    EENTRO =        -0.03751349
  eigenvalues    EBANDS =     -1379.57158506
  atomic energy  EATOM  =      1998.36210175
  Solvation  Ediel_sol  =         0.00000000
  ---------------------------------------------------
  free energy    TOTEN  =      -344.54764868 eV

  energy without entropy =     -344.51013519  energy(sigma->0) =     -344.52889193


--------------------------------------------------------------------------------------------------------




--------------------------------------- Iteration      1(  10)  ---------------------------------------


    POTLOK:  cpu time      0.4764: real time      0.4810
    SETDIJ:  cpu time      0.0040: real time      0.0040
     EDDAV:  cpu time    136.3289: real time    137.4254
       DOS:  cpu time      0.0009: real time      0.0009
    CHARGE:  cpu time      5.2003: real time      5.2340
    MIXING:  cpu time      0.0201: real time      0.0203
    --------------------------------------------
      LOOP:  cpu time    142.0305: real time    143.1656

 eigenvalue-minimisations  :  7284
 total energy-change (2. order) : 0.3690484E-01  (-0.5246877E-02)
 number of electron     149.9999990 magnetization 
 augmentation part       -0.0367993 magnetization 

 DIPCOR: dipole corrections for dipol
 direction  3 min pos   385,
 dipolmoment           0.000000      0.000000     -0.000458 electrons x Angstroem
 Tr[quadrupol]     -3437.794406

 energy correction for charged system         0.000000 eV
 dipol+quadrupol energy correction           -0.000000 eV
 added-field ion interaction         -0.000000 eV  (added to PSCEN)


 Broyden mixing:
  rms(total) = 0.22931E-01    rms(broyden)= 0.22931E-01
  rms(prec ) = 0.34342E-01
  weight for this iteration     100.00

 eigenvalues of (default mixing * dielectric matrix)
  average eigenvalue GAMMA=   1.9729
  2.9225  2.9225  2.1399  0.9397  0.9397

 Free energy of the ion-electron system (eV)
  ---------------------------------------------------
  alpha Z        PSCENC =        16.92283270
  Ewald energy   TEWEN  =     40456.67151554
  -Hartree energ DENC   =    -41818.81923057
  -exchange      EXHF   =         0.00000000
  -V(xc)+E(xc)   XCENC  =       323.19457678
  PAW double counting   =      3982.22766759    -3954.93569800
  entropy T*S    EENTRO =        -0.03719343
  eigenvalues    EBANDS =     -1348.09731620
  atomic energy  EATOM  =      1998.36210175
  Solvation  Ediel_sol  =         0.00000000
  ---------------------------------------------------
  free energy    TOTEN  =      -344.51074384 eV

  energy without entropy =     -344.47355041  energy(sigma->0) =     -344.49214712


--------------------------------------------------------------------------------------------------------




--------------------------------------- Iteration      1(  11)  ---------------------------------------


    POTLOK:  cpu time      0.4750: real time      0.4786
    SETDIJ:  cpu time      0.0040: real time      0.0040
     EDDAV:  cpu time    137.5682: real time    138.6349
       DOS:  cpu time      0.0009: real time      0.0009
    CHARGE:  cpu time      5.1622: real time      5.1964
    MIXING:  cpu time      0.0160: real time      0.0161
    --------------------------------------------
      LOOP:  cpu time    143.2264: real time    144.3310

 eigenvalue-minimisations  :  7374
 total energy-change (2. order) : 0.2345435E-02  (-0.2194711E-02)
 number of electron     149.9999990 magnetization 
 augmentation part       -0.0383963 magnetization 

 DIPCOR: dipole corrections for dipol
 direction  3 min pos   385,
 dipolmoment           0.000000      0.000000     -0.000488 electrons x Angstroem
 Tr[quadrupol]     -3439.137212

 energy correction for charged system         0.000000 eV
 dipol+quadrupol energy correction           -0.000000 eV
 added-field ion interaction         -0.000000 eV  (added to PSCEN)


 Broyden mixing:
  rms(total) = 0.23248E-01    rms(broyden)= 0.23248E-01
  rms(prec ) = 0.29987E-01
  weight for this iteration     100.00

 eigenvalues of (default mixing * dielectric matrix)
  average eigenvalue GAMMA=   2.4072
  5.3903  2.9879  2.3490  0.9848  1.3657  1.3657

 Free energy of the ion-electron system (eV)
  ---------------------------------------------------
  alpha Z        PSCENC =        16.92283269
  Ewald energy   TEWEN  =     40456.67151554
  -Hartree energ DENC   =    -41838.99133452
  -exchange      EXHF   =         0.00000000
  -V(xc)+E(xc)   XCENC  =       323.42233564
  PAW double counting   =      3969.42389579    -3942.13607054
  entropy T*S    EENTRO =        -0.03725038
  eigenvalues    EBANDS =     -1328.14642438
  atomic energy  EATOM  =      1998.36210175
  Solvation  Ediel_sol  =         0.00000000
  ---------------------------------------------------
  free energy    TOTEN  =      -344.50839840 eV

  energy without entropy =     -344.47114802  energy(sigma->0) =     -344.48977321


--------------------------------------------------------------------------------------------------------




--------------------------------------- Iteration      1(  12)  ---------------------------------------


    POTLOK:  cpu time      0.5026: real time      0.5067
    SETDIJ:  cpu time      0.0038: real time      0.0039
     EDDAV:  cpu time    131.7052: real time    132.8067
       DOS:  cpu time      0.0008: real time      0.0008
    CHARGE:  cpu time      5.1720: real time      5.2081
    MIXING:  cpu time      0.0147: real time      0.0148
    --------------------------------------------
      LOOP:  cpu time    137.3991: real time    138.5410

 eigenvalue-minimisations  :  6966
 total energy-change (2. order) :-0.1052390E-01  (-0.2412776E-02)
 number of electron     149.9999990 magnetization 
 augmentation part       -0.0372590 magnetization 

 DIPCOR: dipole corrections for dipol
 direction  3 min pos   385,
 dipolmoment           0.000000      0.000000     -0.000552 electrons x Angstroem
 Tr[quadrupol]     -3441.788120

 energy correction for charged system         0.000000 eV
 dipol+quadrupol energy correction           -0.000000 eV
 added-field ion interaction         -0.000000 eV  (added to PSCEN)


 Broyden mixing:
  rms(total) = 0.80149E-02    rms(broyden)= 0.80149E-02
  rms(prec ) = 0.10304E-01
  weight for this iteration     100.00

 eigenvalues of (default mixing * dielectric matrix)
  average eigenvalue GAMMA=   2.4989
  5.9490  3.3518  2.6496  2.0849  0.9784  1.2394  1.2394

 Free energy of the ion-electron system (eV)
  ---------------------------------------------------
  alpha Z        PSCENC =        16.92283267
  Ewald energy   TEWEN  =     40456.67151554
  -Hartree energ DENC   =    -41875.68011507
  -exchange      EXHF   =         0.00000000
  -V(xc)+E(xc)   XCENC  =       323.53866604
  PAW double counting   =      3954.29715125    -3927.02293945
  entropy T*S    EENTRO =        -0.03751115
  eigenvalues    EBANDS =     -1291.57062389
  atomic energy  EATOM  =      1998.36210175
  Solvation  Ediel_sol  =         0.00000000
  ---------------------------------------------------
  free energy    TOTEN  =      -344.51892231 eV

  energy without entropy =     -344.48141116  energy(sigma->0) =     -344.50016673


--------------------------------------------------------------------------------------------------------




--------------------------------------- Iteration      1(  13)  ---------------------------------------


    POTLOK:  cpu time      0.5089: real time      0.5135
    SETDIJ:  cpu time      0.0041: real time      0.0041
     EDDAV:  cpu time    137.0640: real time    138.1481
       DOS:  cpu time      0.0008: real time      0.0008
    CHARGE:  cpu time      5.1528: real time      5.1874
    MIXING:  cpu time      0.0181: real time      0.0182
    --------------------------------------------
      LOOP:  cpu time    142.7487: real time    143.8721

 eigenvalue-minimisations  :  7380
 total energy-change (2. order) :-0.1735172E-01  (-0.7359111E-03)
 number of electron     149.9999990 magnetization 
 augmentation part       -0.0358790 magnetization 

 DIPCOR: dipole corrections for dipol
 direction  3 min pos   385,
 dipolmoment           0.000000      0.000000     -0.000514 electrons x Angstroem
 Tr[quadrupol]     -3442.660113

 energy correction for charged system         0.000000 eV
 dipol+quadrupol energy correction           -0.000000 eV
 added-field ion interaction         -0.000000 eV  (added to PSCEN)


 Broyden mixing:
  rms(total) = 0.11888E-01    rms(broyden)= 0.11888E-01
  rms(prec ) = 0.12773E-01
  weight for this iteration     100.00

 eigenvalues of (default mixing * dielectric matrix)
  average eigenvalue GAMMA=   2.6033
  6.6379  4.2543  2.5651  2.5651  1.4275  1.4275  1.0044  0.9444

 Free energy of the ion-electron system (eV)
  ---------------------------------------------------
  alpha Z        PSCENC =        16.92283268
  Ewald energy   TEWEN  =     40456.67151554
  -Hartree energ DENC   =    -41886.63181774
  -exchange      EXHF   =         0.00000000
  -V(xc)+E(xc)   XCENC  =       323.55551512
  PAW double counting   =      3973.12581221    -3945.85305253
  entropy T*S    EENTRO =        -0.03761184
  eigenvalues    EBANDS =     -1280.65156921
  atomic energy  EATOM  =      1998.36210175
  Solvation  Ediel_sol  =         0.00000000
  ---------------------------------------------------
  free energy    TOTEN  =      -344.53627402 eV

  energy without entropy =     -344.49866218  energy(sigma->0) =     -344.51746810


--------------------------------------------------------------------------------------------------------




--------------------------------------- Iteration      1(  14)  ---------------------------------------


    POTLOK:  cpu time      0.4957: real time      0.4995
    SETDIJ:  cpu time      0.0051: real time      0.0051
     EDDAV:  cpu time    131.4044: real time    132.5078
       DOS:  cpu time      0.0007: real time      0.0007
    CHARGE:  cpu time      5.1765: real time      5.2083
    MIXING:  cpu time      0.0175: real time      0.0176
    --------------------------------------------
      LOOP:  cpu time    137.0999: real time    138.2391

 eigenvalue-minimisations  :  6936
 total energy-change (2. order) :-0.1379334E-01  (-0.5945251E-03)
 number of electron     149.9999990 magnetization 
 augmentation part       -0.0369044 magnetization 

 DIPCOR: dipole corrections for dipol
 direction  3 min pos   385,
 dipolmoment           0.000000      0.000000     -0.000489 electrons x Angstroem
 Tr[quadrupol]     -3442.941865

 energy correction for charged system         0.000000 eV
 dipol+quadrupol energy correction           -0.000000 eV
 added-field ion interaction         -0.000000 eV  (added to PSCEN)


 Broyden mixing:
  rms(total) = 0.58416E-02    rms(broyden)= 0.58416E-02
  rms(prec ) = 0.61449E-02
  weight for this iteration     100.00

 eigenvalues of (default mixing * dielectric matrix)
  average eigenvalue GAMMA=   2.4898
  6.6460  4.2705  2.7699  2.5531  1.6831  1.3096  1.3096  0.9640  0.9023

 Free energy of the ion-electron system (eV)
  ---------------------------------------------------
  alpha Z        PSCENC =        16.92283269
  Ewald energy   TEWEN  =     40456.67151554
  -Hartree energ DENC   =    -41888.84275123
  -exchange      EXHF   =         0.00000000
  -V(xc)+E(xc)   XCENC  =       323.62844764
  PAW double counting   =      3959.62904597    -3932.33148358
  entropy T*S    EENTRO =        -0.03747015
  eigenvalues    EBANDS =     -1278.55230600
  atomic energy  EATOM  =      1998.36210175
  Solvation  Ediel_sol  =         0.00000000
  ---------------------------------------------------
  free energy    TOTEN  =      -344.55006736 eV

  energy without entropy =     -344.51259721  energy(sigma->0) =     -344.53133228


--------------------------------------------------------------------------------------------------------




--------------------------------------- Iteration      1(  15)  ---------------------------------------


    POTLOK:  cpu time      0.4890: real time      0.4924
    SETDIJ:  cpu time      0.0048: real time      0.0048
     EDDAV:  cpu time    145.2569: real time    146.3571
       DOS:  cpu time      0.0008: real time      0.0009
    CHARGE:  cpu time      5.1442: real time      5.1885
    MIXING:  cpu time      0.0149: real time      0.0152
    --------------------------------------------
      LOOP:  cpu time    150.9107: real time    152.0588

 eigenvalue-minimisations  :  7938
 total energy-change (2. order) :-0.2341664E-02  (-0.5737376E-04)
 number of electron     149.9999990 magnetization 
 augmentation part       -0.0371401 magnetization 

 DIPCOR: dipole corrections for dipol
 direction  3 min pos   385,
 dipolmoment           0.000000      0.000000     -0.000557 electrons x Angstroem
 Tr[quadrupol]     -3443.066010

 energy correction for charged system         0.000000 eV
 dipol+quadrupol energy correction           -0.000000 eV
 added-field ion interaction         -0.000000 eV  (added to PSCEN)


 Broyden mixing:
  rms(total) = 0.48617E-02    rms(broyden)= 0.48617E-02
  rms(prec ) = 0.50977E-02
  weight for this iteration     100.00

 eigenvalues of (default mixing * dielectric matrix)
  average eigenvalue GAMMA=   2.6054
  7.5133  4.8720  2.9474  2.5044  2.5044  1.4304  1.4304  0.9762  0.9762  0.8995

 Free energy of the ion-electron system (eV)
  ---------------------------------------------------
  alpha Z        PSCENC =        16.92283267
  Ewald energy   TEWEN  =     40456.67151554
  -Hartree energ DENC   =    -41890.09194442
  -exchange      EXHF   =         0.00000000
  -V(xc)+E(xc)   XCENC  =       323.62736204
  PAW double counting   =      3960.14914038    -3932.85529476
  entropy T*S    EENTRO =        -0.03748727
  eigenvalues    EBANDS =     -1277.30063495
  atomic energy  EATOM  =      1998.36210175
  Solvation  Ediel_sol  =         0.00000000
  ---------------------------------------------------
  free energy    TOTEN  =      -344.55240902 eV

  energy without entropy =     -344.51492175  energy(sigma->0) =     -344.53366539


--------------------------------------------------------------------------------------------------------




--------------------------------------- Iteration      1(  16)  ---------------------------------------


    POTLOK:  cpu time      0.4882: real time      0.4938
    SETDIJ:  cpu time      0.0038: real time      0.0041
     EDDAV:  cpu time    128.7503: real time    129.7562
       DOS:  cpu time      0.0008: real time      0.0008
    CHARGE:  cpu time      5.1711: real time      5.2165
    MIXING:  cpu time      0.0179: real time      0.0182
    --------------------------------------------
      LOOP:  cpu time    134.4321: real time    135.4896

 eigenvalue-minimisations  :  6756
 total energy-change (2. order) :-0.2919369E-02  (-0.4824935E-04)
 number of electron     149.9999990 magnetization 
 augmentation part       -0.0367521 magnetization 

 DIPCOR: dipole corrections for dipol
 direction  3 min pos   385,
 dipolmoment           0.000000      0.000000     -0.000584 electrons x Angstroem
 Tr[quadrupol]     -3443.244606

 energy correction for charged system         0.000000 eV
 dipol+quadrupol energy correction           -0.000000 eV
 added-field ion interaction         -0.000000 eV  (added to PSCEN)


 Broyden mixing:
  rms(total) = 0.22652E-02    rms(broyden)= 0.22652E-02
  rms(prec ) = 0.23607E-02
  weight for this iteration     100.00

 eigenvalues of (default mixing * dielectric matrix)
  average eigenvalue GAMMA=   2.6184
  7.7209  5.3547  3.3839  2.4590  2.4590  1.6354  1.4164  1.4164  1.0053  1.0053
  0.9461

 Free energy of the ion-electron system (eV)
  ---------------------------------------------------
  alpha Z        PSCENC =        16.92283266
  Ewald energy   TEWEN  =     40456.67151554
  -Hartree energ DENC   =    -41891.38621759
  -exchange      EXHF   =         0.00000000
  -V(xc)+E(xc)   XCENC  =       323.58103919
  PAW double counting   =      3962.91743730    -3935.63273527
  entropy T*S    EENTRO =        -0.03753619
  eigenvalues    EBANDS =     -1275.95376578
  atomic energy  EATOM  =      1998.36210175
  Solvation  Ediel_sol  =         0.00000000
  ---------------------------------------------------
  free energy    TOTEN  =      -344.55532839 eV

  energy without entropy =     -344.51779220  energy(sigma->0) =     -344.53656030


--------------------------------------------------------------------------------------------------------




--------------------------------------- Iteration      1(  17)  ---------------------------------------


    POTLOK:  cpu time      0.4937: real time      0.4983
    SETDIJ:  cpu time      0.0047: real time      0.0047
     EDDAV:  cpu time    138.9684: real time    139.9849
       DOS:  cpu time      0.0009: real time      0.0009
    CHARGE:  cpu time      5.1596: real time      5.1918
    MIXING:  cpu time      0.0161: real time      0.0162
    --------------------------------------------
      LOOP:  cpu time    144.6434: real time    145.6967

 eigenvalue-minimisations  :  7542
 total energy-change (2. order) :-0.8526309E-03  (-0.1241789E-04)
 number of electron     149.9999990 magnetization 
 augmentation part       -0.0368280 magnetization 

 DIPCOR: dipole corrections for dipol
 direction  3 min pos   385,
 dipolmoment           0.000000      0.000000     -0.000526 electrons x Angstroem
 Tr[quadrupol]     -3443.298886

 energy correction for charged system         0.000000 eV
 dipol+quadrupol energy correction           -0.000000 eV
 added-field ion interaction         -0.000000 eV  (added to PSCEN)


 Broyden mixing:
  rms(total) = 0.53173E-03    rms(broyden)= 0.53173E-03
  rms(prec ) = 0.63487E-03
  weight for this iteration     100.00

 eigenvalues of (default mixing * dielectric matrix)
  average eigenvalue GAMMA=   2.6950
  7.9587  5.8960  3.8311  2.9823  2.3951  2.3951  1.4281  1.4281  0.9643  0.9816
  0.9816  1.0978

 Free energy of the ion-electron system (eV)
  ---------------------------------------------------
  alpha Z        PSCENC =        16.92283268
  Ewald energy   TEWEN  =     40456.67151554
  -Hartree energ DENC   =    -41891.69303955
  -exchange      EXHF   =         0.00000000
  -V(xc)+E(xc)   XCENC  =       323.59927077
  PAW double counting   =      3961.54890275    -3934.26182177
  entropy T*S    EENTRO =        -0.03751692
  eigenvalues    EBANDS =     -1275.66842625
  atomic energy  EATOM  =      1998.36210175
  Solvation  Ediel_sol  =         0.00000000
  ---------------------------------------------------
  free energy    TOTEN  =      -344.55618102 eV

  energy without entropy =     -344.51866410  energy(sigma->0) =     -344.53742256


--------------------------------------------------------------------------------------------------------




--------------------------------------- Iteration      1(  18)  ---------------------------------------


    POTLOK:  cpu time      0.4981: real time      0.5017
    SETDIJ:  cpu time      0.0046: real time      0.0047
     EDDAV:  cpu time    132.7328: real time    133.7715
       DOS:  cpu time      0.0011: real time      0.0011
    CHARGE:  cpu time      5.1638: real time      5.1948
    MIXING:  cpu time      0.0203: real time      0.0204
    --------------------------------------------
      LOOP:  cpu time    138.4207: real time    139.4943

 eigenvalue-minimisations  :  7098
 total energy-change (2. order) :-0.5166700E-03  (-0.2246012E-05)
 number of electron     149.9999990 magnetization 
 augmentation part       -0.0368132 magnetization 

 DIPCOR: dipole corrections for dipol
 direction  3 min pos   385,
 dipolmoment           0.000000      0.000000     -0.000525 electrons x Angstroem
 Tr[quadrupol]     -3443.369429

 energy correction for charged system         0.000000 eV
 dipol+quadrupol energy correction           -0.000000 eV
 added-field ion interaction         -0.000000 eV  (added to PSCEN)


 Broyden mixing:
  rms(total) = 0.64077E-03    rms(broyden)= 0.64077E-03
  rms(prec ) = 0.66413E-03
  weight for this iteration     100.00

 eigenvalues of (default mixing * dielectric matrix)
  average eigenvalue GAMMA=   2.6592
  7.9876  6.2574  3.8071  3.0041  2.4863  2.4863  1.4223  1.4223  1.6401  1.1561
  0.9721  0.9640  0.9640

 Free energy of the ion-electron system (eV)
  ---------------------------------------------------
  alpha Z        PSCENC =        16.92283268
  Ewald energy   TEWEN  =     40456.67151554
  -Hartree energ DENC   =    -41892.13147833
  -exchange      EXHF   =         0.00000000
  -V(xc)+E(xc)   XCENC  =       323.60238301
  PAW double counting   =      3961.71812745    -3934.43064791
  entropy T*S    EENTRO =        -0.03751778
  eigenvalues    EBANDS =     -1275.23401409
  atomic energy  EATOM  =      1998.36210175
  Solvation  Ediel_sol  =         0.00000000
  ---------------------------------------------------
  free energy    TOTEN  =      -344.55669769 eV

  energy without entropy =     -344.51917991  energy(sigma->0) =     -344.53793880


--------------------------------------------------------------------------------------------------------




--------------------------------------- Iteration      1(  19)  ---------------------------------------


    POTLOK:  cpu time      0.4903: real time      0.4944
    SETDIJ:  cpu time      0.0048: real time      0.0048
     EDDAV:  cpu time    148.0428: real time    149.2079
       DOS:  cpu time      0.0009: real time      0.0009
    CHARGE:  cpu time      5.1717: real time      5.2047
    MIXING:  cpu time      0.0162: real time      0.0165
    --------------------------------------------
      LOOP:  cpu time    153.7266: real time    154.9292

 eigenvalue-minimisations  :  8196
 total energy-change (2. order) :-0.1174856E-03  (-0.2484603E-06)
 number of electron     149.9999990 magnetization 
 augmentation part       -0.0367740 magnetization 

 DIPCOR: dipole corrections for dipol
 direction  3 min pos   385,
 dipolmoment           0.000000      0.000000     -0.000563 electrons x Angstroem
 Tr[quadrupol]     -3443.387616

 energy correction for charged system         0.000000 eV
 dipol+quadrupol energy correction           -0.000000 eV
 added-field ion interaction         -0.000000 eV  (added to PSCEN)


 Broyden mixing:
  rms(total) = 0.11576E-03    rms(broyden)= 0.11576E-03
  rms(prec ) = 0.15263E-03
  weight for this iteration     100.00

 eigenvalues of (default mixing * dielectric matrix)
  average eigenvalue GAMMA=   2.7143
  8.2050  6.6728  4.5504  3.3527  2.6419  2.3213  2.2044  1.4234  1.4234  1.1909
  1.0841  0.9823  0.9823  0.9648

 Free energy of the ion-electron system (eV)
  ---------------------------------------------------
  alpha Z        PSCENC =        16.92283266
  Ewald energy   TEWEN  =     40456.67151554
  -Hartree energ DENC   =    -41892.13867611
  -exchange      EXHF   =         0.00000000
  -V(xc)+E(xc)   XCENC  =       323.59746653
  PAW double counting   =      3961.88631265    -3934.59882429
  entropy T*S    EENTRO =        -0.03752024
  eigenvalues    EBANDS =     -1275.22202368
  atomic energy  EATOM  =      1998.36210175
  Solvation  Ediel_sol  =         0.00000000
  ---------------------------------------------------
  free energy    TOTEN  =      -344.55681518 eV

  energy without entropy =     -344.51929494  energy(sigma->0) =     -344.53805506


--------------------------------------------------------------------------------------------------------




--------------------------------------- Iteration      1(  20)  ---------------------------------------


    POTLOK:  cpu time      0.5034: real time      0.5073
    SETDIJ:  cpu time      0.0047: real time      0.0047
     EDDAV:  cpu time    131.0996: real time    132.1227
       DOS:  cpu time      0.0009: real time      0.0009
    CHARGE:  cpu time      5.1804: real time      5.2162
    MIXING:  cpu time      0.0166: real time      0.0167
    --------------------------------------------
      LOOP:  cpu time    136.8056: real time    137.8685

 eigenvalue-minimisations  :  6942
 total energy-change (2. order) :-0.9302049E-04  (-0.8345903E-07)
 number of electron     149.9999990 magnetization 
 augmentation part       -0.0367742 magnetization 

 DIPCOR: dipole corrections for dipol
 direction  3 min pos   385,
 dipolmoment           0.000000      0.000000     -0.000558 electrons x Angstroem
 Tr[quadrupol]     -3443.413271

 energy correction for charged system         0.000000 eV
 dipol+quadrupol energy correction           -0.000000 eV
 added-field ion interaction         -0.000000 eV  (added to PSCEN)


 Broyden mixing:
  rms(total) = 0.15053E-03    rms(broyden)= 0.15052E-03
  rms(prec ) = 0.15900E-03
  weight for this iteration     100.00

 eigenvalues of (default mixing * dielectric matrix)
  average eigenvalue GAMMA=   2.6441
  8.3147  6.9070  4.6882  3.4728  2.6662  2.3308  2.3308  1.4203  1.4203  1.1380
  1.1380  0.9969  0.9969  0.9204  0.9204

 Free energy of the ion-electron system (eV)
  ---------------------------------------------------
  alpha Z        PSCENC =        16.92283267
  Ewald energy   TEWEN  =     40456.67151554
  -Hartree energ DENC   =    -41892.25012217
  -exchange      EXHF   =         0.00000000
  -V(xc)+E(xc)   XCENC  =       323.59706074
  PAW double counting   =      3961.97027691    -3934.68294464
  entropy T*S    EENTRO =        -0.03752062
  eigenvalues    EBANDS =     -1275.11010837
  atomic energy  EATOM  =      1998.36210175
  Solvation  Ediel_sol  =         0.00000000
  ---------------------------------------------------
  free energy    TOTEN  =      -344.55690820 eV

  energy without entropy =     -344.51938758  energy(sigma->0) =     -344.53814789


--------------------------------------------------------------------------------------------------------




--------------------------------------- Iteration      1(  21)  ---------------------------------------


    POTLOK:  cpu time      0.4949: real time      0.4988
    SETDIJ:  cpu time      0.0043: real time      0.0043
     EDDAV:  cpu time    136.4801: real time    137.5495
       DOS:  cpu time      0.0007: real time      0.0007
    CHARGE:  cpu time      5.2434: real time      5.2787
    MIXING:  cpu time      0.0204: real time      0.0206
    --------------------------------------------
      LOOP:  cpu time    142.2439: real time    143.3527

 eigenvalue-minimisations  :  7326
 total energy-change (2. order) :-0.2182793E-04  (-0.7721645E-08)
 number of electron     149.9999990 magnetization 
 augmentation part       -0.0367697 magnetization 

 DIPCOR: dipole corrections for dipol
 direction  3 min pos   385,
 dipolmoment           0.000000      0.000000     -0.000550 electrons x Angstroem
 Tr[quadrupol]     -3443.419614

 energy correction for charged system         0.000000 eV
 dipol+quadrupol energy correction           -0.000000 eV
 added-field ion interaction         -0.000000 eV  (added to PSCEN)


 Broyden mixing:
  rms(total) = 0.19077E-03    rms(broyden)= 0.19077E-03
  rms(prec ) = 0.19671E-03
  weight for this iteration     100.00

 eigenvalues of (default mixing * dielectric matrix)
  average eigenvalue GAMMA=   2.7724
  8.6246  7.4449  5.2764  3.8445  3.1312  2.5327  2.3824  2.0506  1.4248  1.4248
  1.2667  1.0475  1.0025  1.0025  0.9510  0.9510

 Free energy of the ion-electron system (eV)
  ---------------------------------------------------
  alpha Z        PSCENC =        16.92283267
  Ewald energy   TEWEN  =     40456.67151554
  -Hartree energ DENC   =    -41892.27175024
  -exchange      EXHF   =         0.00000000
  -V(xc)+E(xc)   XCENC  =       323.59670650
  PAW double counting   =      3961.96594521    -3934.67869475
  entropy T*S    EENTRO =        -0.03752114
  eigenvalues    EBANDS =     -1275.08806556
  atomic energy  EATOM  =      1998.36210175
  Solvation  Ediel_sol  =         0.00000000
  ---------------------------------------------------
  free energy    TOTEN  =      -344.55693003 eV

  energy without entropy =     -344.51940889  energy(sigma->0) =     -344.53816946


--------------------------------------------------------------------------------------------------------




--------------------------------------- Iteration      1(  22)  ---------------------------------------


    POTLOK:  cpu time      0.5302: real time      0.5348
    SETDIJ:  cpu time      0.0040: real time      0.0041
     EDDAV:  cpu time    125.0106: real time    125.9865
       DOS:  cpu time      0.0007: real time      0.0007
    CHARGE:  cpu time      5.1536: real time      5.1871
    MIXING:  cpu time      0.0185: real time      0.0187
    --------------------------------------------
      LOOP:  cpu time    130.7177: real time    131.7319

 eigenvalue-minimisations  :  6504
 total energy-change (2. order) :-0.3247792E-04  (-0.3786771E-07)
 number of electron     149.9999990 magnetization 
 augmentation part       -0.0367815 magnetization 

 DIPCOR: dipole corrections for dipol
 direction  3 min pos   385,
 dipolmoment           0.000000      0.000000     -0.000544 electrons x Angstroem
 Tr[quadrupol]     -3443.429637

 energy correction for charged system         0.000000 eV
 dipol+quadrupol energy correction           -0.000000 eV
 added-field ion interaction         -0.000000 eV  (added to PSCEN)


 Broyden mixing:
  rms(total) = 0.48953E-04    rms(broyden)= 0.48952E-04
  rms(prec ) = 0.50863E-04
  weight for this iteration     100.00

 eigenvalues of (default mixing * dielectric matrix)
  average eigenvalue GAMMA=   2.7474
  8.8694  7.5592  5.5015  4.0452  3.1635  2.5706  2.4365  2.0897  1.4236  1.4236
  1.3442  1.3442  1.0202  1.0202  0.9668  0.9668  0.9604

 Free energy of the ion-electron system (eV)
  ---------------------------------------------------
  alpha Z        PSCENC =        16.92283267
  Ewald energy   TEWEN  =     40456.67151554
  -Hartree energ DENC   =    -41892.31426074
  -exchange      EXHF   =         0.00000000
  -V(xc)+E(xc)   XCENC  =       323.59851631
  PAW double counting   =      3961.84286149    -3934.55556689
  entropy T*S    EENTRO =        -0.03751991
  eigenvalues    EBANDS =     -1275.04744272
  atomic energy  EATOM  =      1998.36210175
  Solvation  Ediel_sol  =         0.00000000
  ---------------------------------------------------
  free energy    TOTEN  =      -344.55696251 eV

  energy without entropy =     -344.51944259  energy(sigma->0) =     -344.53820255


--------------------------------------------------------------------------------------------------------




--------------------------------------- Iteration      1(  23)  ---------------------------------------


    POTLOK:  cpu time      0.4908: real time      0.4947
    SETDIJ:  cpu time      0.0043: real time      0.0044
     EDDAV:  cpu time    136.2109: real time    137.3184
       DOS:  cpu time      0.0008: real time      0.0008
    CHARGE:  cpu time      5.2528: real time      5.2898
    MIXING:  cpu time      0.0203: real time      0.0205
    --------------------------------------------
      LOOP:  cpu time    141.9799: real time    143.1285

 eigenvalue-minimisations  :  7290
 total energy-change (2. order) :-0.5408592E-05  (-0.4045082E-08)
 number of electron     149.9999990 magnetization 
 augmentation part       -0.0367830 magnetization 

 DIPCOR: dipole corrections for dipol
 direction  3 min pos   385,
 dipolmoment           0.000000      0.000000     -0.000551 electrons x Angstroem
 Tr[quadrupol]     -3443.431217

 energy correction for charged system         0.000000 eV
 dipol+quadrupol energy correction           -0.000000 eV
 added-field ion interaction         -0.000000 eV  (added to PSCEN)


 Broyden mixing:
  rms(total) = 0.31561E-04    rms(broyden)= 0.31561E-04
  rms(prec ) = 0.32534E-04
  weight for this iteration     100.00

 eigenvalues of (default mixing * dielectric matrix)
  average eigenvalue GAMMA=   2.7866
  9.1477  7.8202  5.7787  4.3545  3.3205  2.7810  2.3866  2.3866  1.4263  1.4263
  1.6859  1.6859  1.0240  1.0240  0.9903  0.9903  0.9649  0.9649

 Free energy of the ion-electron system (eV)
  ---------------------------------------------------
  alpha Z        PSCENC =        16.92283267
  Ewald energy   TEWEN  =     40456.67151554
  -Hartree energ DENC   =    -41892.31833825
  -exchange      EXHF   =         0.00000000
  -V(xc)+E(xc)   XCENC  =       323.59831889
  PAW double counting   =      3961.86337578    -3934.57609187
  entropy T*S    EENTRO =        -0.03752007
  eigenvalues    EBANDS =     -1275.04316234
  atomic energy  EATOM  =      1998.36210175
  Solvation  Ediel_sol  =         0.00000000
  ---------------------------------------------------
  free energy    TOTEN  =      -344.55696791 eV

  energy without entropy =     -344.51944784  energy(sigma->0) =     -344.53820788


--------------------------------------------------------------------------------------------------------




--------------------------------------- Iteration      1(  24)  ---------------------------------------


    POTLOK:  cpu time      0.5481: real time      0.5520
    SETDIJ:  cpu time      0.0039: real time      0.0039
     EDDAV:  cpu time    118.6895: real time    119.5403
       DOS:  cpu time      0.0008: real time      0.0008
    CHARGE:  cpu time      5.3240: real time      5.3735
    MIXING:  cpu time      0.0204: real time      0.0206
    --------------------------------------------
      LOOP:  cpu time    124.5867: real time    125.4910

 eigenvalue-minimisations  :  6042
 total energy-change (2. order) :-0.4161679E-05  (-0.1075422E-08)
 number of electron     149.9999990 magnetization 
 augmentation part       -0.0367821 magnetization 

 DIPCOR: dipole corrections for dipol
 direction  3 min pos   385,
 dipolmoment           0.000000      0.000000     -0.000551 electrons x Angstroem
 Tr[quadrupol]     -3443.432240

 energy correction for charged system         0.000000 eV
 dipol+quadrupol energy correction           -0.000000 eV
 added-field ion interaction         -0.000000 eV  (added to PSCEN)


 Broyden mixing:
  rms(total) = 0.94875E-05    rms(broyden)= 0.94874E-05
  rms(prec ) = 0.98739E-05
  weight for this iteration     100.00

 eigenvalues of (default mixing * dielectric matrix)
  average eigenvalue GAMMA=   2.7418
  9.2028  7.9504  5.8088  4.5175  3.2941  2.8547  2.4303  2.4303  1.7509  1.4285
  1.4285  1.5291  1.5291  1.0239  1.0239  1.0198  0.9677  0.9677  0.9353

 Free energy of the ion-electron system (eV)
  ---------------------------------------------------
  alpha Z        PSCENC =        16.92283267
  Ewald energy   TEWEN  =     40456.67151554
  -Hartree energ DENC   =    -41892.31856966
  -exchange      EXHF   =         0.00000000
  -V(xc)+E(xc)   XCENC  =       323.59813479
  PAW double counting   =      3961.87215501    -3934.58483972
  entropy T*S    EENTRO =        -0.03752014
  eigenvalues    EBANDS =     -1275.04278231
  atomic energy  EATOM  =      1998.36210175
  Solvation  Ediel_sol  =         0.00000000
  ---------------------------------------------------
  free energy    TOTEN  =      -344.55697208 eV

  energy without entropy =     -344.51945194  energy(sigma->0) =     -344.53821201


--------------------------------------------------------------------------------------------------------




--------------------------------------- Iteration      1(  25)  ---------------------------------------


    POTLOK:  cpu time      0.5307: real time      0.5352
    SETDIJ:  cpu time      0.0041: real time      0.0041
     EDDAV:  cpu time    112.4655: real time    113.3370
       DOS:  cpu time      0.0008: real time      0.0008
    CHARGE:  cpu time      5.0820: real time      5.1151
    MIXING:  cpu time      0.0185: real time      0.0187
    --------------------------------------------
      LOOP:  cpu time    118.1016: real time    119.0109

 eigenvalue-minimisations  :  5562
 total energy-change (2. order) :-0.8144007E-06  ( 0.1985538E-09)
 number of electron     149.9999990 magnetization 
 augmentation part       -0.0367821 magnetization 

 DIPCOR: dipole corrections for dipol
 direction  3 min pos   385,
 dipolmoment           0.000000      0.000000     -0.000550 electrons x Angstroem
 Tr[quadrupol]     -3443.432352

 energy correction for charged system         0.000000 eV
 dipol+quadrupol energy correction           -0.000000 eV
 added-field ion interaction         -0.000000 eV  (added to PSCEN)


 Broyden mixing:
  rms(total) = 0.77801E-05    rms(broyden)= 0.77801E-05
  rms(prec ) = 0.80242E-05
  weight for this iteration     100.00

 eigenvalues of (default mixing * dielectric matrix)
  average eigenvalue GAMMA=   2.7528
  9.3612  7.9564  5.9928  4.6986  3.6075  3.1238  2.5541  2.3877  2.1806  1.6567
  1.6567  1.4272  1.4272  1.0719  1.0719  1.0067  1.0067  0.9621  0.9621  0.9438

 Free energy of the ion-electron system (eV)
  ---------------------------------------------------
  alpha Z        PSCENC =        16.92283267
  Ewald energy   TEWEN  =     40456.67151554
  -Hartree energ DENC   =    -41892.31826161
  -exchange      EXHF   =         0.00000000
  -V(xc)+E(xc)   XCENC  =       323.59812259
  PAW double counting   =      3961.87592128    -3934.58860650
  entropy T*S    EENTRO =        -0.03752013
  eigenvalues    EBANDS =     -1275.04307847
  atomic energy  EATOM  =      1998.36210175
  Solvation  Ediel_sol  =         0.00000000
  ---------------------------------------------------
  free energy    TOTEN  =      -344.55697289 eV

  energy without entropy =     -344.51945276  energy(sigma->0) =     -344.53821282


--------------------------------------------------------------------------------------------------------




--------------------------------------- Iteration      1(  26)  ---------------------------------------


    POTLOK:  cpu time      0.5022: real time      0.5063
    SETDIJ:  cpu time      0.0039: real time      0.0039
     EDDAV:  cpu time     99.3323: real time    100.2192
       DOS:  cpu time      0.0009: real time      0.0009
    CHARGE:  cpu time      5.2161: real time      5.2536
    MIXING:  cpu time      0.0186: real time      0.0187
    --------------------------------------------
      LOOP:  cpu time    105.0741: real time    106.0027

 eigenvalue-minimisations  :  4638
 total energy-change (2. order) :-0.6109717E-06  ( 0.1933882E-09)
 number of electron     149.9999990 magnetization 
 augmentation part       -0.0367816 magnetization 

 DIPCOR: dipole corrections for dipol
 direction  3 min pos   385,
 dipolmoment           0.000000      0.000000     -0.000550 electrons x Angstroem
 Tr[quadrupol]     -3443.432519

 energy correction for charged system         0.000000 eV
 dipol+quadrupol energy correction           -0.000000 eV
 added-field ion interaction         -0.000000 eV  (added to PSCEN)


 Broyden mixing:
  rms(total) = 0.45730E-05    rms(broyden)= 0.45730E-05
  rms(prec ) = 0.46489E-05
  weight for this iteration     100.00

 eigenvalues of (default mixing * dielectric matrix)
  average eigenvalue GAMMA=   2.7165
  9.3635  7.9968  6.0150  4.7987  3.6957  3.1952  2.6447  2.3893  2.2225  1.6820
  1.6820  1.4271  1.4271  1.5697  1.0859  1.0050  1.0050  0.9532  0.9618  0.9633
  0.9633

 Free energy of the ion-electron system (eV)
  ---------------------------------------------------
  alpha Z        PSCENC =        16.92283267
  Ewald energy   TEWEN  =     40456.67151554
  -Hartree energ DENC   =    -41892.31893433
  -exchange      EXHF   =         0.00000000
  -V(xc)+E(xc)   XCENC  =       323.59804429
  PAW double counting   =      3961.88059162    -3934.59328198
  entropy T*S    EENTRO =        -0.03752020
  eigenvalues    EBANDS =     -1275.04232285
  atomic energy  EATOM  =      1998.36210175
  Solvation  Ediel_sol  =         0.00000000
  ---------------------------------------------------
  free energy    TOTEN  =      -344.55697350 eV

  energy without entropy =     -344.51945330  energy(sigma->0) =     -344.53821340


--------------------------------------------------------------------------------------------------------




--------------------------------------- Iteration      1(  27)  ---------------------------------------


    POTLOK:  cpu time      0.5054: real time      0.5095
    SETDIJ:  cpu time      0.0038: real time      0.0038
     EDDAV:  cpu time    105.5756: real time    106.3882
       DOS:  cpu time      0.0012: real time      0.0012
    CHARGE:  cpu time      5.1680: real time      5.2556
    MIXING:  cpu time      0.0189: real time      0.0191
    --------------------------------------------
      LOOP:  cpu time    111.2728: real time    112.1774

 eigenvalue-minimisations  :  5094
 total energy-change (2. order) :-0.1205449E-06  ( 0.3575343E-09)
 number of electron     149.9999990 magnetization 
 augmentation part       -0.0367814 magnetization 

 DIPCOR: dipole corrections for dipol
 direction  3 min pos   385,
 dipolmoment           0.000000      0.000000     -0.000550 electrons x Angstroem
 Tr[quadrupol]     -3443.432535

 energy correction for charged system         0.000000 eV
 dipol+quadrupol energy correction           -0.000000 eV
 added-field ion interaction         -0.000000 eV  (added to PSCEN)


 Broyden mixing:
  rms(total) = 0.33170E-05    rms(broyden)= 0.33170E-05
  rms(prec ) = 0.33810E-05
  weight for this iteration     100.00

 eigenvalues of (default mixing * dielectric matrix)
  average eigenvalue GAMMA=   2.7025
  9.3868  8.0007  6.0762  4.9163  3.9108  3.1104  2.8809  2.4686  2.4686  1.9260
  1.6503  1.6503  1.4265  1.4265  1.2630  1.0307  1.0307  0.9459  0.9736  0.9736
  0.9699  0.9699

 Free energy of the ion-electron system (eV)
  ---------------------------------------------------
  alpha Z        PSCENC =        16.92283267
  Ewald energy   TEWEN  =     40456.67151554
  -Hartree energ DENC   =    -41892.31921508
  -exchange      EXHF   =         0.00000000
  -V(xc)+E(xc)   XCENC  =       323.59805819
  PAW double counting   =      3961.87971061    -3934.59240181
  entropy T*S    EENTRO =        -0.03752020
  eigenvalues    EBANDS =     -1275.04205529
  atomic energy  EATOM  =      1998.36210175
  Solvation  Ediel_sol  =         0.00000000
  ---------------------------------------------------
  free energy    TOTEN  =      -344.55697362 eV

  energy without entropy =     -344.51945342  energy(sigma->0) =     -344.53821352


--------------------------------------------------------------------------------------------------------




--------------------------------------- Iteration      1(  28)  ---------------------------------------


    POTLOK:  cpu time      0.4989: real time      0.5039
    SETDIJ:  cpu time      0.0047: real time      0.0048
     EDDAV:  cpu time     97.0213: real time     97.7776
       DOS:  cpu time      0.0007: real time      0.0007
    CHARGE:  cpu time      5.0694: real time      5.1016
    MIXING:  cpu time      0.0193: real time      0.0194
    --------------------------------------------
      LOOP:  cpu time    102.6144: real time    103.4080

 eigenvalue-minimisations  :  4470
 total energy-change (2. order) :-0.5509492E-07  ( 0.3922702E-09)
 number of electron     149.9999990 magnetization 
 augmentation part       -0.0367815 magnetization 

 DIPCOR: dipole corrections for dipol
 direction  3 min pos   385,
 dipolmoment           0.000000      0.000000     -0.000550 electrons x Angstroem
 Tr[quadrupol]     -3443.432544

 energy correction for charged system         0.000000 eV
 dipol+quadrupol energy correction           -0.000000 eV
 added-field ion interaction         -0.000000 eV  (added to PSCEN)


 Broyden mixing:
  rms(total) = 0.48889E-06    rms(broyden)= 0.48889E-06
  rms(prec ) = 0.51040E-06
  weight for this iteration     100.00

 eigenvalues of (default mixing * dielectric matrix)
  average eigenvalue GAMMA=   2.6606
  9.3945  7.9931  6.1168  4.9153  4.0564  3.2010  2.8692  2.4188  2.4188  2.0264
  1.6923  1.6923  1.4264  1.4264  1.4906  1.1355  1.0479  1.0479  0.9700  0.9550
  0.9550  0.9726  0.9726

 Free energy of the ion-electron system (eV)
  ---------------------------------------------------
  alpha Z        PSCENC =        16.92283267
  Ewald energy   TEWEN  =     40456.67151554
  -Hartree energ DENC   =    -41892.31949223
  -exchange      EXHF   =         0.00000000
  -V(xc)+E(xc)   XCENC  =       323.59808293
  PAW double counting   =      3961.87794340    -3934.59063642
  entropy T*S    EENTRO =        -0.03752018
  eigenvalues    EBANDS =     -1275.04180112
  atomic energy  EATOM  =      1998.36210175
  Solvation  Ediel_sol  =         0.00000000
  ---------------------------------------------------
  free energy    TOTEN  =      -344.55697368 eV

  energy without entropy =     -344.51945349  energy(sigma->0) =     -344.53821359


--------------------------------------------------------------------------------------------------------




--------------------------------------- Iteration      1(  29)  ---------------------------------------


    POTLOK:  cpu time      0.5049: real time      0.5091
    SETDIJ:  cpu time      0.0038: real time      0.0038
     EDDAV:  cpu time     99.6890: real time    100.4457
       DOS:  cpu time      0.0010: real time      0.0010
    CHARGE:  cpu time      5.1415: real time      5.1758
    MIXING:  cpu time      0.0223: real time      0.0225
    --------------------------------------------
      LOOP:  cpu time    105.3627: real time    106.1581

 eigenvalue-minimisations  :  4632
 total energy-change (2. order) :-0.1357421E-07  ( 0.3944428E-09)
 number of electron     149.9999990 magnetization 
 augmentation part       -0.0367816 magnetization 

 DIPCOR: dipole corrections for dipol
 direction  3 min pos   385,
 dipolmoment           0.000000      0.000000     -0.000550 electrons x Angstroem
 Tr[quadrupol]     -3443.432550

 energy correction for charged system         0.000000 eV
 dipol+quadrupol energy correction           -0.000000 eV
 added-field ion interaction         -0.000000 eV  (added to PSCEN)


 Broyden mixing:
  rms(total) = 0.13767E-06    rms(broyden)= 0.13766E-06
  rms(prec ) = 0.16510E-06
  weight for this iteration     100.00

 eigenvalues of (default mixing * dielectric matrix)
  average eigenvalue GAMMA=   2.6462
  9.3919  8.0063  6.0930  5.0139  4.0174  3.3967  2.7454  2.7454  2.3789  2.0795
  2.0795  1.6687  1.6687  1.4267  1.4267  1.3976  1.1008  1.0304  1.0304  0.9745
  0.9745  0.9616  0.9616  0.9393

 Free energy of the ion-electron system (eV)
  ---------------------------------------------------
  alpha Z        PSCENC =        16.92283267
  Ewald energy   TEWEN  =     40456.67151554
  -Hartree energ DENC   =    -41892.31961053
  -exchange      EXHF   =         0.00000000
  -V(xc)+E(xc)   XCENC  =       323.59808599
  PAW double counting   =      3961.87782515    -3934.59051713
  entropy T*S    EENTRO =        -0.03752018
  eigenvalues    EBANDS =     -1275.04168695
  atomic energy  EATOM  =      1998.36210175
  Solvation  Ediel_sol  =         0.00000000
  ---------------------------------------------------
  free energy    TOTEN  =      -344.55697369 eV

  energy without entropy =     -344.51945351  energy(sigma->0) =     -344.53821360


--------------------------------------------------------------------------------------------------------




--------------------------------------- Iteration      1(  30)  ---------------------------------------


    POTLOK:  cpu time      0.4956: real time      0.4995
    SETDIJ:  cpu time      0.0037: real time      0.0037
     EDDAV:  cpu time     97.3789: real time     98.2209
       DOS:  cpu time      0.0012: real time      0.0012
    --------------------------------------------
      LOOP:  cpu time     97.8797: real time     98.7256

 eigenvalue-minimisations  :  4500
 total energy-change (2. order) :-0.7159088E-08  ( 0.3927710E-09)
 number of electron     149.9999990 magnetization 
 augmentation part       -0.0367816 magnetization 

 DIPCOR: dipole corrections for dipol
 direction  3 min pos   385,
 dipolmoment           0.000000      0.000000     -0.000550 electrons x Angstroem
 Tr[quadrupol]     -3443.432548

 energy correction for charged system         0.000000 eV
 dipol+quadrupol energy correction           -0.000000 eV
 added-field ion interaction         -0.000000 eV  (added to PSCEN)


 Free energy of the ion-electron system (eV)
  ---------------------------------------------------
  alpha Z        PSCENC =        16.92283267
  Ewald energy   TEWEN  =     40456.67151554
  -Hartree energ DENC   =    -41892.31959944
  -exchange      EXHF   =         0.00000000
  -V(xc)+E(xc)   XCENC  =       323.59808474
  PAW double counting   =      3961.87773754    -3934.59042938
  entropy T*S    EENTRO =        -0.03752018
  eigenvalues    EBANDS =     -1275.04169693
  atomic energy  EATOM  =      1998.36210175
  Solvation  Ediel_sol  =         0.00000000
  ---------------------------------------------------
  free energy    TOTEN  =      -344.55697370 eV

  energy without entropy =     -344.51945352  energy(sigma->0) =     -344.53821361


--------------------------------------------------------------------------------------------------------




 average (electrostatic) potential at core
  the test charge radii are     0.9943  0.5201
  (the norm of the test charge is              1.0000)
       1 -43.0009       2 -43.0018       3 -43.0012       4 -43.0012       5 -43.0014
       6 -43.0020       7 -43.0015       8 -43.0012       9 -43.0012      10 -43.0013
      11 -43.0014      12 -43.0013      13 -43.0012      14 -43.0012      15 -43.0013
      16 -43.0020      17 -43.0013      18 -43.0012      19 -43.0012      20 -43.0014
      21 -43.0009      22 -43.0015      23 -43.0012      24 -43.0012      25 -43.0017
      26 -43.0004      27 -43.0011      28 -43.0012      29 -43.0011      30 -43.0002
      31 -43.0010      32 -43.0011      33 -43.0012      34 -43.0011      35 -43.0011
      36 -43.0011      37 -43.0011      38 -43.0012      39 -43.0011      40 -43.0012
      41 -43.0011      42 -43.0011      43 -43.0011      44 -43.0011      45 -43.0011
      46 -43.0010      47 -43.0011      48 -43.0011      49 -43.0011      50 -43.0002
      51 -40.3696      52 -40.3367      53 -40.3360      54 -40.3359      55 -40.3366
      56 -40.3365      57 -40.3367      58 -40.3360      59 -40.3359      60 -40.3360
      61 -40.3356      62 -40.3360      63 -40.3360      64 -40.3359      65 -40.3359
      66 -40.3356      67 -40.3359      68 -40.3359      69 -40.3359      70 -40.3360
      71 -40.3365      72 -40.3360      73 -40.3359      74 -40.3360      75 -40.3366
      76 -40.3348      77 -40.3357      78 -40.3358      79 -40.3359      80 -40.3357
      81 -40.3359      82 -40.3358      83 -40.3359      84 -40.3359      85 -40.3358
      86 -40.3361      87 -40.3359      88 -40.3359      89 -40.3359      90 -40.3358
      91 -40.3359      92 -40.3359      93 -40.3359      94 -40.3359      95 -40.3358
      96 -40.3349      97 -40.3358      98 -40.3359      99 -40.3359     100 -40.3352
 
 
 
 E-fermi :  -3.0600     XC(G=0):  -1.5757     alpha+bet : -1.5643

 val. band max:       -3.0833569513   @ k =  -0.2857   0.4286   0.0000
 cond. band min:      -3.0512999494   @ k =   0.0000   0.1429   0.0000
 fundamental gap:      0.0320570019
 Fermi energy:        -3.0600265976

 k-point     1 :       0.0000    0.0000    0.0000
  band No.  band energies     occupation 
      1     -13.6520      2.00000
      2     -12.8164      2.00000
      3     -12.8157      2.00000
      4     -12.4763      2.00000
      5     -12.4746      2.00000
      6     -12.4745      2.00000
      7     -12.4744      2.00000
      8     -12.1615      2.00000
      9     -11.3610      2.00000
     10     -11.3602      2.00000
     11     -10.9393      2.00000
     12     -10.9373      2.00000
     13     -10.9372      2.00000
     14     -10.9371      2.00000
     15     -10.8458      2.00000
     16     -10.8443      2.00000
     17     -10.8439      2.00000
     18     -10.8436      2.00000
     19     -10.3598      2.00000
     20     -10.3589      2.00000
     21     -10.0102      2.00000
     22     -10.0089      2.00000
     23      -9.4574      2.00000
     24      -9.4553      2.00000
     25      -9.4550      2.00000
     26      -9.4547      2.00000
     27      -9.3762      2.00000
     28      -9.3737      2.00000
     29      -9.3733      2.00000
     30      -9.3728      2.00000
     31      -9.2628      2.00000
     32      -9.2617      2.00000
     33      -8.9476      2.00000
     34      -8.5096      2.00000
     35      -8.5079      2.00000
     36      -8.2082      2.00000
     37      -8.2078      2.00000
     38      -8.1489      2.00000
     39      -8.1474      2.00000
     40      -8.1124      2.00000
     41      -8.1110      2.00000
     42      -8.0400      2.00000
     43      -8.0369      2.00000
     44      -8.0366      2.00000
     45      -8.0361      2.00000
     46      -7.8417      2.00000
     47      -7.8386      2.00000
     48      -7.8379      2.00000
     49      -7.8376      2.00000
     50      -7.4333      2.00000
     51      -7.4332      2.00000
     52      -7.4331      2.00000
     53      -7.4322      2.00000
     54      -7.1094      2.00000
     55      -7.1057      2.00000
     56      -7.1052      2.00000
     57      -7.1051      2.00000
     58      -7.0252      2.00000
     59      -7.0252      2.00000
     60      -6.1754      2.00000
     61      -6.1753      2.00000
     62      -6.1750      2.00000
     63      -6.1745      2.00000
     64      -5.9826      2.00000
     65      -5.9825      2.00000
     66      -5.7842      2.00000
     67      -5.7842      2.00000
     68      -5.7688      2.00000
     69      -5.7687      2.00000
     70      -3.7702      2.00000
     71      -3.7697      2.00000
     72      -3.1287      1.66830
     73      -3.1285      1.66727
     74      -3.1279      1.66268
     75      -3.1273      1.65852
     76      -2.3244      0.00000
     77      -2.3242      0.00000
     78      -2.3237      0.00000
     79      -2.3236      0.00000
     80      -2.0882      0.00000
     81      -2.0882      0.00000
     82      -2.0868      0.00000
     83      -2.0867      0.00000
     84      -1.0482      0.00000
     85      -1.0480      0.00000
     86      -1.0471      0.00000
     87      -1.0469      0.00000
     88      -0.8467      0.00000
     89      -0.8456      0.00000
     90      -0.5780      0.00000
     91      -0.3190      0.00000
     92      -0.3188      0.00000
     93       0.1654      0.00000
     94       0.1657      0.00000
     95       0.1661      0.00000
     96       0.1676      0.00000
     97       0.3496      0.00000
     98       0.3499      0.00000
     99       0.3515      0.00000
    100       0.3520      0.00000
    101       0.5751      0.00000
    102       0.6039      0.00000
    103       0.6042      0.00000
    104       0.6116      0.00000
    105       0.6117      0.00000
    106       0.6118      0.00000
    107       0.6148      0.00000
    108       1.1204      0.00000
    109       1.1877      0.00000
    110       1.2983      0.00000
    111       1.2985      0.00000
    112       1.4670      0.00000
    113       1.5368      0.00000
    114       1.5950      0.00000
    115       1.5951      0.00000
    116       1.6352      0.00000
    117       1.6358      0.00000
    118       1.9273      0.00000
    119       1.9284      0.00000
    120       1.9291      0.00000
    121       1.9786      0.00000
    122       1.9793      0.00000
    123       2.0280      0.00000
    124       2.0288      0.00000
    125       2.0295      0.00000
    126       2.0296      0.00000

 k-point     2 :       0.1429    0.0000    0.0000
  band No.  band energies     occupation 
      1     -13.6350      2.00000
      2     -13.0375      2.00000
      3     -12.5761      2.00000
      4     -12.5752      2.00000
      5     -12.5609      2.00000
      6     -12.3412      2.00000
      7     -12.3403      2.00000
      8     -12.1448      2.00000
      9     -11.5701      2.00000
     10     -11.1745      2.00000
     11     -11.1734      2.00000
     12     -11.1220      2.00000
     13     -11.0340      2.00000
     14     -11.0330      2.00000
     15     -10.8113      2.00000
     16     -10.8102      2.00000
     17     -10.7985      2.00000
     18     -10.4857      2.00000
     19     -10.4845      2.00000
     20      -9.9969      2.00000
     21      -9.9955      2.00000
     22      -9.9024      2.00000
     23      -9.7430      2.00000
     24      -9.7418      2.00000
     25      -9.5910      2.00000
     26      -9.5397      2.00000
     27      -9.5381      2.00000
     28      -9.1886      2.00000
     29      -9.1868      2.00000
     30      -9.1539      2.00000
     31      -9.1526      2.00000
     32      -8.9671      2.00000
     33      -8.9316      2.00000
     34      -8.4993      2.00000
     35      -8.4976      2.00000
     36      -8.4391      2.00000
     37      -8.4376      2.00000
     38      -8.3938      2.00000
     39      -8.1567      2.00000
     40      -8.1548      2.00000
     41      -8.0589      2.00000
     42      -8.0568      2.00000
     43      -8.0050      2.00000
     44      -7.9949      2.00000
     45      -7.9935      2.00000
     46      -7.9083      2.00000
     47      -7.9064      2.00000
     48      -7.6506      2.00000
     49      -7.6486      2.00000
     50      -7.5270      2.00000
     51      -7.5265      2.00000
     52      -7.3104      2.00000
     53      -7.3098      2.00000
     54      -7.2172      2.00000
     55      -7.2151      2.00000
     56      -7.0812      2.00000
     57      -7.0467      2.00000
     58      -7.0211      2.00000
     59      -7.0190      2.00000
     60      -6.3787      2.00000
     61      -6.3781      2.00000
     62      -6.3762      2.00000
     63      -5.9941      2.00000
     64      -5.9937      2.00000
     65      -5.9167      2.00000
     66      -5.9165      2.00000
     67      -5.6911      2.00000
     68      -5.6907      2.00000
     69      -5.0944      2.00000
     70      -3.7556      2.00000
     71      -3.7551      2.00000
     72      -3.2830      1.99839
     73      -3.2822      1.99832
     74      -2.9670      0.18821
     75      -2.9661      0.18391
     76      -2.8495      0.00290
     77      -2.8481      0.00272
     78      -2.3731      0.00000
     79      -2.3724      0.00000
     80      -2.2824      0.00000
     81      -2.2819      0.00000
     82      -1.4192      0.00000
     83      -1.3839      0.00000
     84      -1.3829      0.00000
     85      -1.3100      0.00000
     86      -1.3085      0.00000
     87      -0.6757      0.00000
     88      -0.6748      0.00000
     89      -0.5654      0.00000
     90      -0.5092      0.00000
     91      -0.4604      0.00000
     92      -0.0391      0.00000
     93       0.1317      0.00000
     94       0.1327      0.00000
     95       0.1692      0.00000
     96       0.1710      0.00000
     97       0.2160      0.00000
     98       0.2171      0.00000
     99       0.5438      0.00000
    100       0.5451      0.00000
    101       0.5585      0.00000
    102       0.5589      0.00000
    103       0.5658      0.00000
    104       0.5679      0.00000
    105       0.5963      0.00000
    106       0.6824      0.00000
    107       0.6840      0.00000
    108       1.1421      0.00000
    109       1.2085      0.00000
    110       1.3233      0.00000
    111       1.3248      0.00000
    112       1.4261      0.00000
    113       1.4270      0.00000
    114       1.4668      0.00000
    115       1.4674      0.00000
    116       1.4886      0.00000
    117       1.5557      0.00000
    118       1.6641      0.00000
    119       1.6647      0.00000
    120       1.7662      0.00000
    121       1.7670      0.00000
    122       1.8757      0.00000
    123       1.8768      0.00000
    124       1.8771      0.00000
    125       1.9015      0.00000
    126       2.0207      0.00000

 k-point     3 :       0.2857    0.0000    0.0000
  band No.  band energies     occupation 
      1     -13.5837      2.00000
      2     -13.2251      2.00000
      3     -12.6433      2.00000
      4     -12.6424      2.00000
      5     -12.2723      2.00000
      6     -12.1737      2.00000
      7     -12.1727      2.00000
      8     -12.0950      2.00000
      9     -11.7491      2.00000
     10     -11.4729      2.00000
     11     -11.4718      2.00000
     12     -11.2124      2.00000
     13     -11.0980      2.00000
     14     -11.0970      2.00000
     15     -10.8562      2.00000
     16     -10.6538      2.00000
     17     -10.6527      2.00000
     18     -10.0991      2.00000
     19     -10.0978      2.00000
     20     -10.0092      2.00000
     21     -10.0080      2.00000
     22      -9.9571      2.00000
     23      -9.9557      2.00000
     24      -9.9261      2.00000
     25      -9.6815      2.00000
     26      -9.6799      2.00000
     27      -9.4451      2.00000
     28      -8.9833      2.00000
     29      -8.9814      2.00000
     30      -8.8836      2.00000
     31      -8.8444      2.00000
     32      -8.8429      2.00000
     33      -8.8362      2.00000
     34      -8.8350      2.00000
     35      -8.7642      2.00000
     36      -8.5573      2.00000
     37      -8.4686      2.00000
     38      -8.4670      2.00000
     39      -8.2927      2.00000
     40      -8.2906      2.00000
     41      -8.2606      2.00000
     42      -8.2589      2.00000
     43      -8.0602      2.00000
     44      -8.0587      2.00000
     45      -7.7917      2.00000
     46      -7.7697      2.00000
     47      -7.7677      2.00000
     48      -7.5903      2.00000
     49      -7.5897      2.00000
     50      -7.5082      2.00000
     51      -7.5062      2.00000
     52      -7.3444      2.00000
     53      -7.3423      2.00000
     54      -7.2045      2.00000
     55      -7.1608      2.00000
     56      -7.1602      2.00000
     57      -7.1415      2.00000
     58      -6.9627      2.00000
     59      -6.9607      2.00000
     60      -6.8574      2.00000
     61      -6.5890      2.00000
     62      -6.5885      2.00000
     63      -5.8532      2.00000
     64      -5.8529      2.00000
     65      -5.8137      2.00000
     66      -5.8136      2.00000
     67      -5.3739      2.00000
     68      -5.3731      2.00000
     69      -4.3775      2.00000
     70      -3.7123      2.00000
     71      -3.7118      2.00000
     72      -3.5779      2.00000
     73      -3.5766      2.00000
     74      -3.4233      2.00000
     75      -3.4226      2.00000
     76      -2.8076      0.00036
     77      -2.8067      0.00034
     78      -2.4412      0.00000
     79      -2.4404      0.00000
     80      -2.2358      0.00000
     81      -2.2353      0.00000
     82      -2.1222      0.00000
     83      -1.6513      0.00000
     84      -1.6505      0.00000
     85      -0.5430      0.00000
     86      -0.5415      0.00000
     87      -0.5295      0.00000
     88      -0.4808      0.00000
     89      -0.4059      0.00000
     90      -0.3388      0.00000
     91      -0.3387      0.00000
     92       0.0279      0.00000
     93       0.0297      0.00000
     94       0.1865      0.00000
     95       0.1870      0.00000
     96       0.2569      0.00000
     97       0.2579      0.00000
     98       0.3685      0.00000
     99       0.4936      0.00000
    100       0.4950      0.00000
    101       0.5035      0.00000
    102       0.5037      0.00000
    103       0.6596      0.00000
    104       0.7142      0.00000
    105       0.7157      0.00000
    106       0.8119      0.00000
    107       0.8140      0.00000
    108       1.0053      0.00000
    109       1.0059      0.00000
    110       1.0525      0.00000
    111       1.0996      0.00000
    112       1.2072      0.00000
    113       1.2687      0.00000
    114       1.2690      0.00000
    115       1.2707      0.00000
    116       1.4673      0.00000
    117       1.5535      0.00000
    118       1.6079      0.00000
    119       1.6112      0.00000
    120       1.6414      0.00000
    121       1.6433      0.00000
    122       1.6629      0.00000
    123       1.8665      0.00000
    124       1.9666      0.00000
    125       2.0078      0.00000
    126       2.0111      0.00000

 k-point     4 :       0.4286    0.0000    0.0000
  band No.  band energies     occupation 
      1     -13.4983      2.00000
      2     -13.3787      2.00000
      3     -12.6769      2.00000
      4     -12.6760      2.00000
      5     -12.0122      2.00000
      6     -11.9729      2.00000
      7     -11.9719      2.00000
      8     -11.9508      2.00000
      9     -11.8967      2.00000
     10     -11.7392      2.00000
     11     -11.7382      2.00000
     12     -11.5971      2.00000
     13     -11.1301      2.00000
     14     -11.1292      2.00000
     15     -10.5656      2.00000
     16     -10.4667      2.00000
     17     -10.4655      2.00000
     18     -10.2540      2.00000
     19     -10.2510      2.00000
     20     -10.2500      2.00000
     21      -9.8909      2.00000
     22      -9.8895      2.00000
     23      -9.7988      2.00000
     24      -9.7973      2.00000
     25      -9.6891      2.00000
     26      -9.6878      2.00000
     27      -9.2633      2.00000
     28      -9.2619      2.00000
     29      -9.0334      2.00000
     30      -8.8044      2.00000
     31      -8.7642      2.00000
     32      -8.7617      2.00000
     33      -8.7602      2.00000
     34      -8.6950      2.00000
     35      -8.5404      2.00000
     36      -8.5388      2.00000
     37      -8.5297      2.00000
     38      -8.5279      2.00000
     39      -8.4180      2.00000
     40      -8.4163      2.00000
     41      -8.3483      2.00000
     42      -8.3466      2.00000
     43      -8.2648      2.00000
     44      -8.2634      2.00000
     45      -7.6264      2.00000
     46      -7.6243      2.00000
     47      -7.6221      2.00000
     48      -7.6216      2.00000
     49      -7.5779      2.00000
     50      -7.4828      2.00000
     51      -7.4807      2.00000
     52      -7.4307      2.00000
     53      -7.4288      2.00000
     54      -7.3766      2.00000
     55      -7.2735      2.00000
     56      -7.0959      2.00000
     57      -6.9874      2.00000
     58      -6.9868      2.00000
     59      -6.9339      2.00000
     60      -6.9318      2.00000
     61      -6.7948      2.00000
     62      -6.7942      2.00000
     63      -5.7708      2.00000
     64      -5.7707      2.00000
     65      -5.7584      2.00000
     66      -5.7584      2.00000
     67      -4.8712      2.00000
     68      -4.8702      2.00000
     69      -4.2590      2.00000
     70      -4.2578      2.00000
     71      -3.6412      2.00000
     72      -3.6406      2.00000
     73      -3.6325      2.00000
     74      -3.5440      2.00000
     75      -3.5433      2.00000
     76      -2.8736      0.00838
     77      -2.6609      0.00000
     78      -2.6600      0.00000
     79      -2.5368      0.00000
     80      -2.5360      0.00000
     81      -2.1883      0.00000
     82      -2.1881      0.00000
     83      -1.8168      0.00000
     84      -1.8164      0.00000
     85      -0.4768      0.00000
     86      -0.4429      0.00000
     87      -0.4231      0.00000
     88      -0.1634      0.00000
     89      -0.1622      0.00000
     90      -0.0753      0.00000
     91      -0.0737      0.00000
     92       0.1430      0.00000
     93       0.1444      0.00000
     94       0.2786      0.00000
     95       0.2796      0.00000
     96       0.4534      0.00000
     97       0.4540      0.00000
     98       0.4674      0.00000
     99       0.4688      0.00000
    100       0.5381      0.00000
    101       0.5382      0.00000
    102       0.5884      0.00000
    103       0.5898      0.00000
    104       0.7037      0.00000
    105       0.7041      0.00000
    106       0.7649      0.00000
    107       0.7919      0.00000
    108       0.8528      0.00000
    109       0.8533      0.00000
    110       0.8745      0.00000
    111       0.9118      0.00000
    112       1.0811      0.00000
    113       1.0832      0.00000
    114       1.3157      0.00000
    115       1.3635      0.00000
    116       1.3656      0.00000
    117       1.3724      0.00000
    118       1.3889      0.00000
    119       1.4676      0.00000
    120       1.5056      0.00000
    121       1.6616      0.00000
    122       1.6979      0.00000
    123       1.7964      0.00000
    124       1.8138      0.00000
    125       1.9209      0.00000
    126       1.9491      0.00000

 k-point     5 :       0.0000    0.1429    0.0000
  band No.  band energies     occupation 
      1     -13.6277      2.00000
      2     -12.9110      2.00000
      3     -12.7834      2.00000
      4     -12.6728      2.00000
      5     -12.6650      2.00000
      6     -12.2397      2.00000
      7     -12.1358      2.00000
      8     -12.1235      2.00000
      9     -11.4479      2.00000
     10     -11.2564      2.00000
     11     -11.2549      2.00000
     12     -11.2239      2.00000
     13     -11.1422      2.00000
     14     -10.9078      2.00000
     15     -10.7385      2.00000
     16     -10.6889      2.00000
     17     -10.5795      2.00000
     18     -10.5626      2.00000
     19     -10.4601      2.00000
     20     -10.3991      2.00000
     21     -10.1136      2.00000
     22      -9.8630      2.00000
     23      -9.8475      2.00000
     24      -9.6675      2.00000
     25      -9.5465      2.00000
     26      -9.5437      2.00000
     27      -9.4051      2.00000
     28      -9.3273      2.00000
     29      -9.0892      2.00000
     30      -9.0695      2.00000
     31      -9.0402      2.00000
     32      -8.9220      2.00000
     33      -8.9187      2.00000
     34      -8.9165      2.00000
     35      -8.4570      2.00000
     36      -8.4320      2.00000
     37      -8.2791      2.00000
     38      -8.2763      2.00000
     39      -8.2136      2.00000
     40      -8.1089      2.00000
     41      -8.1018      2.00000
     42      -8.0813      2.00000
     43      -8.0669      2.00000
     44      -7.9022      2.00000
     45      -7.8446      2.00000
     46      -7.8330      2.00000
     47      -7.8290      2.00000
     48      -7.8077      2.00000
     49      -7.7749      2.00000
     50      -7.7240      2.00000
     51      -7.7194      2.00000
     52      -7.2410      2.00000
     53      -7.1350      2.00000
     54      -7.1173      2.00000
     55      -7.0815      2.00000
     56      -7.0536      2.00000
     57      -7.0176      2.00000
     58      -7.0000      2.00000
     59      -6.9736      2.00000
     60      -6.6188      2.00000
     61      -6.4219      2.00000
     62      -6.3102      2.00000
     63      -6.1156      2.00000
     64      -6.0584      2.00000
     65      -5.8806      2.00000
     66      -5.6895      2.00000
     67      -5.5653      2.00000
     68      -5.4138      2.00000
     69      -5.3549      2.00000
     70      -4.4527      2.00000
     71      -3.8643      2.00000
     72      -3.6912      2.00000
     73      -3.0513      0.90178
     74      -2.8871      0.01447
     75      -2.8625      0.00521
     76      -2.7735      0.00005
     77      -2.5476      0.00000
     78      -2.4158      0.00000
     79      -2.1298      0.00000
     80      -2.0024      0.00000
     81      -1.8921      0.00000
     82      -1.8591      0.00000
     83      -1.7810      0.00000
     84      -1.4610      0.00000
     85      -1.3587      0.00000
     86      -1.0832      0.00000
     87      -0.6182      0.00000
     88      -0.5524      0.00000
     89      -0.5072      0.00000
     90      -0.3862      0.00000
     91      -0.2686      0.00000
     92      -0.1763      0.00000
     93      -0.1202      0.00000
     94       0.0375      0.00000
     95       0.0457      0.00000
     96       0.0566      0.00000
     97       0.3107      0.00000
     98       0.3235      0.00000
     99       0.3760      0.00000
    100       0.3791      0.00000
    101       0.4300      0.00000
    102       0.6081      0.00000
    103       0.7196      0.00000
    104       0.8672      0.00000
    105       0.8902      0.00000
    106       0.9284      0.00000
    107       0.9420      0.00000
    108       1.1542      0.00000
    109       1.2210      0.00000
    110       1.3082      0.00000
    111       1.3747      0.00000
    112       1.4742      0.00000
    113       1.4856      0.00000
    114       1.4909      0.00000
    115       1.5006      0.00000
    116       1.5474      0.00000
    117       1.5692      0.00000
    118       1.7199      0.00000
    119       1.7507      0.00000
    120       1.7524      0.00000
    121       1.7625      0.00000
    122       1.8151      0.00000
    123       1.8386      0.00000
    124       1.8969      0.00000
    125       1.9936      0.00000
    126       2.0630      0.00000

 k-point     6 :       0.1429    0.1429    0.0000
  band No.  band energies     occupation 
      1     -13.5935      2.00000
      2     -13.1155      2.00000
      3     -12.8678      2.00000
      4     -12.5131      2.00000
      5     -12.4010      2.00000
      6     -12.3230      2.00000
      7     -12.1026      2.00000
      8     -11.9741      2.00000
      9     -11.6422      2.00000
     10     -11.5728      2.00000
     11     -11.3360      2.00000
     12     -11.0490      2.00000
     13     -10.9981      2.00000
     14     -10.9895      2.00000
     15     -10.9715      2.00000
     16     -10.7676      2.00000
     17     -10.5304      2.00000
     18     -10.4397      2.00000
     19     -10.4312      2.00000
     20     -10.1291      2.00000
     21     -10.0322      2.00000
     22     -10.0309      2.00000
     23      -9.7389      2.00000
     24      -9.6538      2.00000
     25      -9.5980      2.00000
     26      -9.5206      2.00000
     27      -9.4483      2.00000
     28      -9.2323      2.00000
     29      -9.2009      2.00000
     30      -8.8947      2.00000
     31      -8.8845      2.00000
     32      -8.8335      2.00000
     33      -8.8306      2.00000
     34      -8.7590      2.00000
     35      -8.7421      2.00000
     36      -8.5667      2.00000
     37      -8.4515      2.00000
     38      -8.4101      2.00000
     39      -8.3866      2.00000
     40      -8.1893      2.00000
     41      -8.1124      2.00000
     42      -8.0933      2.00000
     43      -8.0556      2.00000
     44      -7.9119      2.00000
     45      -7.8885      2.00000
     46      -7.8722      2.00000
     47      -7.8082      2.00000
     48      -7.6795      2.00000
     49      -7.6241      2.00000
     50      -7.5893      2.00000
     51      -7.5871      2.00000
     52      -7.3956      2.00000
     53      -7.2262      2.00000
     54      -7.1599      2.00000
     55      -7.1090      2.00000
     56      -7.0595      2.00000
     57      -7.0382      2.00000
     58      -6.9868      2.00000
     59      -6.8376      2.00000
     60      -6.8290      2.00000
     61      -6.6133      2.00000
     62      -6.2560      2.00000
     63      -6.1995      2.00000
     64      -6.0869      2.00000
     65      -5.9058      2.00000
     66      -5.5295      2.00000
     67      -5.4733      2.00000
     68      -5.1626      2.00000
     69      -4.7163      2.00000
     70      -4.4225      2.00000
     71      -4.0224      2.00000
     72      -3.5214      2.00000
     73      -3.5120      2.00000
     74      -3.0243      0.61364
     75      -2.9442      0.10131
     76      -2.8728      0.00809
     77      -2.8557      0.00386
     78      -2.6764      0.00000
     79      -2.2881      0.00000
     80      -2.2353      0.00000
     81      -1.9284      0.00000
     82      -1.7351      0.00000
     83      -1.6862      0.00000
     84      -1.2312      0.00000
     85      -0.9709      0.00000
     86      -0.7709      0.00000
     87      -0.5748      0.00000
     88      -0.5277      0.00000
     89      -0.4621      0.00000
     90      -0.4104      0.00000
     91      -0.2225      0.00000
     92      -0.1973      0.00000
     93       0.0702      0.00000
     94       0.1693      0.00000
     95       0.2303      0.00000
     96       0.2429      0.00000
     97       0.2519      0.00000
     98       0.2676      0.00000
     99       0.3588      0.00000
    100       0.4274      0.00000
    101       0.4905      0.00000
    102       0.5191      0.00000
    103       0.6503      0.00000
    104       0.8067      0.00000
    105       0.8074      0.00000
    106       1.0048      0.00000
    107       1.0128      0.00000
    108       1.1480      0.00000
    109       1.1976      0.00000
    110       1.2354      0.00000
    111       1.2626      0.00000
    112       1.2673      0.00000
    113       1.2881      0.00000
    114       1.3926      0.00000
    115       1.4070      0.00000
    116       1.4373      0.00000
    117       1.5289      0.00000
    118       1.5439      0.00000
    119       1.5919      0.00000
    120       1.6067      0.00000
    121       1.6487      0.00000
    122       1.7659      0.00000
    123       1.8051      0.00000
    124       1.9150      0.00000
    125       1.9516      0.00000
    126       2.0400      0.00000

 k-point     7 :       0.2857    0.1429    0.0000
  band No.  band energies     occupation 
      1     -13.5252      2.00000
      2     -13.2861      2.00000
      3     -12.9185      2.00000
      4     -12.3730      2.00000
      5     -12.3277      2.00000
      6     -12.0960      2.00000
      7     -12.0363      2.00000
      8     -11.8574      2.00000
      9     -11.8056      2.00000
     10     -11.7916      2.00000
     11     -11.3890      2.00000
     12     -11.3846      2.00000
     13     -11.3284      2.00000
     14     -10.8234      2.00000
     15     -10.8149      2.00000
     16     -10.6931      2.00000
     17     -10.3874      2.00000
     18     -10.3736      2.00000
     19     -10.2702      2.00000
     20     -10.1737      2.00000
     21     -10.1264      2.00000
     22     -10.0712      2.00000
     23      -9.8473      2.00000
     24      -9.6394      2.00000
     25      -9.4741      2.00000
     26      -9.3131      2.00000
     27      -9.2632      2.00000
     28      -9.2111      2.00000
     29      -9.2068      2.00000
     30      -8.9148      2.00000
     31      -8.8466      2.00000
     32      -8.8208      2.00000
     33      -8.8116      2.00000
     34      -8.7146      2.00000
     35      -8.6818      2.00000
     36      -8.6713      2.00000
     37      -8.6025      2.00000
     38      -8.5854      2.00000
     39      -8.4446      2.00000
     40      -8.3494      2.00000
     41      -8.2262      2.00000
     42      -8.0629      2.00000
     43      -7.9596      2.00000
     44      -7.9590      2.00000
     45      -7.9361      2.00000
     46      -7.9344      2.00000
     47      -7.6574      2.00000
     48      -7.6210      2.00000
     49      -7.5696      2.00000
     50      -7.5249      2.00000
     51      -7.4246      2.00000
     52      -7.4106      2.00000
     53      -7.3232      2.00000
     54      -7.2591      2.00000
     55      -7.2075      2.00000
     56      -7.1841      2.00000
     57      -7.0395      2.00000
     58      -7.0070      2.00000
     59      -6.9849      2.00000
     60      -6.9423      2.00000
     61      -6.6764      2.00000
     62      -6.2945      2.00000
     63      -6.1396      2.00000
     64      -6.1124      2.00000
     65      -5.4683      2.00000
     66      -5.4192      2.00000
     67      -5.3957      2.00000
     68      -4.7596      2.00000
     69      -4.3628      2.00000
     70      -4.2329      2.00000
     71      -4.1607      2.00000
     72      -3.9836      2.00000
     73      -3.5721      2.00000
     74      -3.3358      1.99990
     75      -3.0411      0.78879
     76      -2.9711      0.20867
     77      -2.8495      0.00291
     78      -2.7934      0.00016
     79      -2.4700      0.00000
     80      -2.4661      0.00000
     81      -2.1737      0.00000
     82      -1.9975      0.00000
     83      -1.5816      0.00000
     84      -0.9910      0.00000
     85      -0.5022      0.00000
     86      -0.4820      0.00000
     87      -0.4555      0.00000
     88      -0.4414      0.00000
     89      -0.3827      0.00000
     90      -0.2698      0.00000
     91      -0.2312      0.00000
     92       0.0892      0.00000
     93       0.1790      0.00000
     94       0.2135      0.00000
     95       0.2624      0.00000
     96       0.3109      0.00000
     97       0.3784      0.00000
     98       0.4092      0.00000
     99       0.4925      0.00000
    100       0.4998      0.00000
    101       0.5357      0.00000
    102       0.6252      0.00000
    103       0.6306      0.00000
    104       0.7346      0.00000
    105       0.7677      0.00000
    106       0.7690      0.00000
    107       0.9164      0.00000
    108       0.9977      0.00000
    109       1.0184      0.00000
    110       1.0283      0.00000
    111       1.0319      0.00000
    112       1.0534      0.00000
    113       1.0981      0.00000
    114       1.2844      0.00000
    115       1.3449      0.00000
    116       1.3696      0.00000
    117       1.5231      0.00000
    118       1.5863      0.00000
    119       1.5879      0.00000
    120       1.6003      0.00000
    121       1.6304      0.00000
    122       1.6790      0.00000
    123       1.7789      0.00000
    124       1.8435      0.00000
    125       1.8638      0.00000
    126       1.9335      0.00000

 k-point     8 :       0.4286    0.1429    0.0000
  band No.  band energies     occupation 
      1     -13.4231      2.00000
      2     -13.4223      2.00000
      3     -12.9354      2.00000
      4     -12.3897      2.00000
      5     -12.1095      2.00000
      6     -12.1086      2.00000
      7     -11.9376      2.00000
      8     -11.9367      2.00000
      9     -11.7587      2.00000
     10     -11.7579      2.00000
     11     -11.5767      2.00000
     12     -11.5757      2.00000
     13     -11.4009      2.00000
     14     -10.8308      2.00000
     15     -10.6199      2.00000
     16     -10.6189      2.00000
     17     -10.3920      2.00000
     18     -10.3911      2.00000
     19     -10.2883      2.00000
     20     -10.2870      2.00000
     21     -10.0728      2.00000
     22     -10.0716      2.00000
     23      -9.7015      2.00000
     24      -9.7002      2.00000
     25      -9.4054      2.00000
     26      -9.4038      2.00000
     27      -9.2297      2.00000
     28      -9.2282      2.00000
     29      -8.9476      2.00000
     30      -8.9458      2.00000
     31      -8.8825      2.00000
     32      -8.8254      2.00000
     33      -8.7761      2.00000
     34      -8.7745      2.00000
     35      -8.7265      2.00000
     36      -8.7261      2.00000
     37      -8.6111      2.00000
     38      -8.6097      2.00000
     39      -8.4065      2.00000
     40      -8.4045      2.00000
     41      -8.1661      2.00000
     42      -8.1644      2.00000
     43      -8.0186      2.00000
     44      -8.0167      2.00000
     45      -7.9756      2.00000
     46      -7.7530      2.00000
     47      -7.7510      2.00000
     48      -7.6012      2.00000
     49      -7.4481      2.00000
     50      -7.4478      2.00000
     51      -7.4248      2.00000
     52      -7.4227      2.00000
     53      -7.3396      2.00000
     54      -7.2717      2.00000
     55      -7.2407      2.00000
     56      -7.2401      2.00000
     57      -7.2234      2.00000
     58      -7.0945      2.00000
     59      -7.0047      2.00000
     60      -6.9266      2.00000
     61      -6.4938      2.00000
     62      -6.4932      2.00000
     63      -6.0896      2.00000
     64      -6.0896      2.00000
     65      -5.3735      2.00000
     66      -5.3734      2.00000
     67      -4.8915      2.00000
     68      -4.8905      2.00000
     69      -4.2753      2.00000
     70      -4.2746      2.00000
     71      -4.2116      2.00000
     72      -4.2104      2.00000
     73      -3.2294      1.98339
     74      -3.2291      1.98322
     75      -3.1752      1.89661
     76      -3.1744      1.89408
     77      -2.8936      0.01857
     78      -2.8928      0.01803
     79      -2.8430      0.00214
     80      -2.5518      0.00000
     81      -2.0777      0.00000
     82      -2.0765      0.00000
     83      -1.5212      0.00000
     84      -1.0921      0.00000
     85      -0.4263      0.00000
     86      -0.4250      0.00000
     87      -0.4123      0.00000
     88      -0.2678      0.00000
     89      -0.2663      0.00000
     90       0.0088      0.00000
     91       0.0090      0.00000
     92       0.0809      0.00000
     93       0.0823      0.00000
     94       0.0960      0.00000
     95       0.2003      0.00000
     96       0.3749      0.00000
     97       0.3752      0.00000
     98       0.5520      0.00000
     99       0.5917      0.00000
    100       0.5923      0.00000
    101       0.7559      0.00000
    102       0.7711      0.00000
    103       0.7714      0.00000
    104       0.7756      0.00000
    105       0.7764      0.00000
    106       0.7777      0.00000
    107       0.7788      0.00000
    108       0.7809      0.00000
    109       0.8428      0.00000
    110       0.8430      0.00000
    111       0.8607      0.00000
    112       0.8609      0.00000
    113       1.1621      0.00000
    114       1.1627      0.00000
    115       1.4145      0.00000
    116       1.4146      0.00000
    117       1.4643      0.00000
    118       1.4644      0.00000
    119       1.5655      0.00000
    120       1.5820      0.00000
    121       1.5838      0.00000
    122       1.7598      0.00000
    123       1.7598      0.00000
    124       1.7764      0.00000
    125       1.7765      0.00000
    126       1.8802      0.00000

 k-point     9 :      -0.4286    0.1429    0.0000
  band No.  band energies     occupation 
      1     -13.5251      2.00000
      2     -13.2861      2.00000
      3     -12.9185      2.00000
      4     -12.3730      2.00000
      5     -12.3280      2.00000
      6     -12.0959      2.00000
      7     -12.0363      2.00000
      8     -11.8570      2.00000
      9     -11.8056      2.00000
     10     -11.7912      2.00000
     11     -11.3891      2.00000
     12     -11.3846      2.00000
     13     -11.3289      2.00000
     14     -10.8238      2.00000
     15     -10.8150      2.00000
     16     -10.6930      2.00000
     17     -10.3870      2.00000
     18     -10.3739      2.00000
     19     -10.2698      2.00000
     20     -10.1731      2.00000
     21     -10.1270      2.00000
     22     -10.0713      2.00000
     23      -9.8478      2.00000
     24      -9.6386      2.00000
     25      -9.4737      2.00000
     26      -9.3137      2.00000
     27      -9.2625      2.00000
     28      -9.2111      2.00000
     29      -9.2078      2.00000
     30      -8.9153      2.00000
     31      -8.8469      2.00000
     32      -8.8208      2.00000
     33      -8.8125      2.00000
     34      -8.7146      2.00000
     35      -8.6813      2.00000
     36      -8.6702      2.00000
     37      -8.6026      2.00000
     38      -8.5843      2.00000
     39      -8.4440      2.00000
     40      -8.3491      2.00000
     41      -8.2273      2.00000
     42      -8.0625      2.00000
     43      -7.9598      2.00000
     44      -7.9594      2.00000
     45      -7.9367      2.00000
     46      -7.9351      2.00000
     47      -7.6573      2.00000
     48      -7.6207      2.00000
     49      -7.5688      2.00000
     50      -7.5240      2.00000
     51      -7.4249      2.00000
     52      -7.4112      2.00000
     53      -7.3241      2.00000
     54      -7.2591      2.00000
     55      -7.2075      2.00000
     56      -7.1841      2.00000
     57      -7.0392      2.00000
     58      -7.0071      2.00000
     59      -6.9850      2.00000
     60      -6.9421      2.00000
     61      -6.6760      2.00000
     62      -6.2949      2.00000
     63      -6.1398      2.00000
     64      -6.1125      2.00000
     65      -5.4691      2.00000
     66      -5.4190      2.00000
     67      -5.3956      2.00000
     68      -4.7586      2.00000
     69      -4.3631      2.00000
     70      -4.2318      2.00000
     71      -4.1602      2.00000
     72      -3.9834      2.00000
     73      -3.5734      2.00000
     74      -3.3365      1.99991
     75      -3.0404      0.78140
     76      -2.9708      0.20690
     77      -2.8497      0.00293
     78      -2.7940      0.00017
     79      -2.4703      0.00000
     80      -2.4656      0.00000
     81      -2.1726      0.00000
     82      -1.9986      0.00000
     83      -1.5809      0.00000
     84      -0.9918      0.00000
     85      -0.5033      0.00000
     86      -0.4820      0.00000
     87      -0.4566      0.00000
     88      -0.4414      0.00000
     89      -0.3827      0.00000
     90      -0.2683      0.00000
     91      -0.2324      0.00000
     92       0.0893      0.00000
     93       0.1806      0.00000
     94       0.2136      0.00000
     95       0.2623      0.00000
     96       0.3097      0.00000
     97       0.3787      0.00000
     98       0.4101      0.00000
     99       0.4904      0.00000
    100       0.5001      0.00000
    101       0.5354      0.00000
    102       0.6256      0.00000
    103       0.6307      0.00000
    104       0.7346      0.00000
    105       0.7675      0.00000
    106       0.7690      0.00000
    107       0.9163      0.00000
    108       0.9986      0.00000
    109       1.0182      0.00000
    110       1.0282      0.00000
    111       1.0325      0.00000
    112       1.0530      0.00000
    113       1.1005      0.00000
    114       1.2844      0.00000
    115       1.3449      0.00000
    116       1.3715      0.00000
    117       1.5231      0.00000
    118       1.5864      0.00000
    119       1.5879      0.00000
    120       1.6003      0.00000
    121       1.6304      0.00000
    122       1.6790      0.00000
    123       1.7701      0.00000
    124       1.8450      0.00000
    125       1.8638      0.00000
    126       1.9334      0.00000

 k-point    10 :      -0.2857    0.1429    0.0000
  band No.  band energies     occupation 
      1     -13.5935      2.00000
      2     -13.1156      2.00000
      3     -12.8677      2.00000
      4     -12.5134      2.00000
      5     -12.4009      2.00000
      6     -12.3231      2.00000
      7     -12.1026      2.00000
      8     -11.9737      2.00000
      9     -11.6423      2.00000
     10     -11.5723      2.00000
     11     -11.3359      2.00000
     12     -11.0496      2.00000
     13     -10.9984      2.00000
     14     -10.9896      2.00000
     15     -10.9714      2.00000
     16     -10.7677      2.00000
     17     -10.5311      2.00000
     18     -10.4393      2.00000
     19     -10.4314      2.00000
     20     -10.1287      2.00000
     21     -10.0315      2.00000
     22     -10.0302      2.00000
     23      -9.7390      2.00000
     24      -9.6536      2.00000
     25      -9.5986      2.00000
     26      -9.5203      2.00000
     27      -9.4493      2.00000
     28      -9.2328      2.00000
     29      -9.2017      2.00000
     30      -8.8949      2.00000
     31      -8.8845      2.00000
     32      -8.8329      2.00000
     33      -8.8305      2.00000
     34      -8.7579      2.00000
     35      -8.7415      2.00000
     36      -8.5661      2.00000
     37      -8.4516      2.00000
     38      -8.4109      2.00000
     39      -8.3855      2.00000
     40      -8.1891      2.00000
     41      -8.1133      2.00000
     42      -8.0931      2.00000
     43      -8.0567      2.00000
     44      -7.9118      2.00000
     45      -7.8892      2.00000
     46      -7.8722      2.00000
     47      -7.8083      2.00000
     48      -7.6790      2.00000
     49      -7.6232      2.00000
     50      -7.5901      2.00000
     51      -7.5873      2.00000
     52      -7.3949      2.00000
     53      -7.2270      2.00000
     54      -7.1601      2.00000
     55      -7.1091      2.00000
     56      -7.0595      2.00000
     57      -7.0385      2.00000
     58      -6.9864      2.00000
     59      -6.8372      2.00000
     60      -6.8286      2.00000
     61      -6.6135      2.00000
     62      -6.2562      2.00000
     63      -6.1996      2.00000
     64      -6.0873      2.00000
     65      -5.9063      2.00000
     66      -5.5291      2.00000
     67      -5.4731      2.00000
     68      -5.1620      2.00000
     69      -4.7161      2.00000
     70      -4.4227      2.00000
     71      -4.0218      2.00000
     72      -3.5203      2.00000
     73      -3.5128      2.00000
     74      -3.0241      0.61155
     75      -2.9436      0.09963
     76      -2.8743      0.00861
     77      -2.8560      0.00391
     78      -2.6771      0.00000
     79      -2.2870      0.00000
     80      -2.2343      0.00000
     81      -1.9295      0.00000
     82      -1.7353      0.00000
     83      -1.6852      0.00000
     84      -1.2324      0.00000
     85      -0.9723      0.00000
     86      -0.7719      0.00000
     87      -0.5731      0.00000
     88      -0.5277      0.00000
     89      -0.4621      0.00000
     90      -0.4104      0.00000
     91      -0.2209      0.00000
     92      -0.1982      0.00000
     93       0.0704      0.00000
     94       0.1694      0.00000
     95       0.2310      0.00000
     96       0.2409      0.00000
     97       0.2520      0.00000
     98       0.2677      0.00000
     99       0.3598      0.00000
    100       0.4274      0.00000
    101       0.4899      0.00000
    102       0.5174      0.00000
    103       0.6503      0.00000
    104       0.8065      0.00000
    105       0.8072      0.00000
    106       1.0054      0.00000
    107       1.0129      0.00000
    108       1.1500      0.00000
    109       1.1976      0.00000
    110       1.2354      0.00000
    111       1.2626      0.00000
    112       1.2672      0.00000
    113       1.2890      0.00000
    114       1.3920      0.00000
    115       1.4071      0.00000
    116       1.4396      0.00000
    117       1.5299      0.00000
    118       1.5439      0.00000
    119       1.5919      0.00000
    120       1.6067      0.00000
    121       1.6488      0.00000
    122       1.7188      0.00000
    123       1.8050      0.00000
    124       1.9141      0.00000
    125       1.9510      0.00000
    126       1.9648      0.00000

 k-point    11 :      -0.1429    0.1429    0.0000
  band No.  band energies     occupation 
      1     -13.6277      2.00000
      2     -12.9111      2.00000
      3     -12.7832      2.00000
      4     -12.6727      2.00000
      5     -12.6652      2.00000
      6     -12.2399      2.00000
      7     -12.1358      2.00000
      8     -12.1232      2.00000
      9     -11.4480      2.00000
     10     -11.2560      2.00000
     11     -11.2546      2.00000
     12     -11.2238      2.00000
     13     -11.1424      2.00000
     14     -10.9084      2.00000
     15     -10.7392      2.00000
     16     -10.6891      2.00000
     17     -10.5793      2.00000
     18     -10.5627      2.00000
     19     -10.4602      2.00000
     20     -10.3983      2.00000
     21     -10.1135      2.00000
     22      -9.8623      2.00000
     23      -9.8471      2.00000
     24      -9.6683      2.00000
     25      -9.5469      2.00000
     26      -9.5437      2.00000
     27      -9.4051      2.00000
     28      -9.3279      2.00000
     29      -9.0892      2.00000
     30      -9.0704      2.00000
     31      -9.0395      2.00000
     32      -8.9212      2.00000
     33      -8.9187      2.00000
     34      -8.9165      2.00000
     35      -8.4565      2.00000
     36      -8.4313      2.00000
     37      -8.2799      2.00000
     38      -8.2764      2.00000
     39      -8.2138      2.00000
     40      -8.1088      2.00000
     41      -8.1007      2.00000
     42      -8.0813      2.00000
     43      -8.0675      2.00000
     44      -7.9031      2.00000
     45      -7.8444      2.00000
     46      -7.8329      2.00000
     47      -7.8300      2.00000
     48      -7.8085      2.00000
     49      -7.7742      2.00000
     50      -7.7242      2.00000
     51      -7.7185      2.00000
     52      -7.2403      2.00000
     53      -7.1356      2.00000
     54      -7.1178      2.00000
     55      -7.0817      2.00000
     56      -7.0530      2.00000
     57      -7.0176      2.00000
     58      -7.0000      2.00000
     59      -6.9733      2.00000
     60      -6.6184      2.00000
     61      -6.4222      2.00000
     62      -6.3104      2.00000
     63      -6.1157      2.00000
     64      -6.0586      2.00000
     65      -5.8810      2.00000
     66      -5.6891      2.00000
     67      -5.5652      2.00000
     68      -5.4137      2.00000
     69      -5.3547      2.00000
     70      -4.4527      2.00000
     71      -3.8637      2.00000
     72      -3.6920      2.00000
     73      -3.0512      0.90099
     74      -2.8867      0.01421
     75      -2.8628      0.00529
     76      -2.7723      0.00005
     77      -2.5485      0.00000
     78      -2.4149      0.00000
     79      -2.1314      0.00000
     80      -2.0036      0.00000
     81      -1.8909      0.00000
     82      -1.8601      0.00000
     83      -1.7800      0.00000
     84      -1.4624      0.00000
     85      -1.3571      0.00000
     86      -1.0834      0.00000
     87      -0.6181      0.00000
     88      -0.5524      0.00000
     89      -0.5080      0.00000
     90      -0.3862      0.00000
     91      -0.2686      0.00000
     92      -0.1763      0.00000
     93      -0.1185      0.00000
     94       0.0356      0.00000
     95       0.0459      0.00000
     96       0.0569      0.00000
     97       0.3109      0.00000
     98       0.3236      0.00000
     99       0.3770      0.00000
    100       0.3791      0.00000
    101       0.4292      0.00000
    102       0.6081      0.00000
    103       0.7178      0.00000
    104       0.8670      0.00000
    105       0.8901      0.00000
    106       0.9303      0.00000
    107       0.9423      0.00000
    108       1.1542      0.00000
    109       1.2210      0.00000
    110       1.3082      0.00000
    111       1.3747      0.00000
    112       1.4740      0.00000
    113       1.4863      0.00000
    114       1.4908      0.00000
    115       1.5006      0.00000
    116       1.5486      0.00000
    117       1.5692      0.00000
    118       1.7198      0.00000
    119       1.7523      0.00000
    120       1.7526      0.00000
    121       1.7626      0.00000
    122       1.8305      0.00000
    123       1.8380      0.00000
    124       1.8964      0.00000
    125       1.9934      0.00000
    126       2.0645      0.00000

 k-point    12 :       0.0000    0.2857    0.0000
  band No.  band energies     occupation 
      1     -13.5546      2.00000
      2     -13.0467      2.00000
      3     -12.9576      2.00000
      4     -12.8091      2.00000
      5     -12.4816      2.00000
      6     -12.0590      2.00000
      7     -11.9611      2.00000
      8     -11.7315      2.00000
      9     -11.6284      2.00000
     10     -11.5280      2.00000
     11     -11.4854      2.00000
     12     -11.3006      2.00000
     13     -11.0385      2.00000
     14     -10.9282      2.00000
     15     -10.8863      2.00000
     16     -10.7216      2.00000
     17     -10.5929      2.00000
     18     -10.3988      2.00000
     19     -10.3584      2.00000
     20     -10.2068      2.00000
     21     -10.1850      2.00000
     22      -9.9423      2.00000
     23      -9.9267      2.00000
     24      -9.8286      2.00000
     25      -9.5983      2.00000
     26      -9.5124      2.00000
     27      -9.3234      2.00000
     28      -9.1653      2.00000
     29      -9.0769      2.00000
     30      -8.8944      2.00000
     31      -8.8677      2.00000
     32      -8.8233      2.00000
     33      -8.8079      2.00000
     34      -8.7670      2.00000
     35      -8.6131      2.00000
     36      -8.5515      2.00000
     37      -8.5224      2.00000
     38      -8.4929      2.00000
     39      -8.3352      2.00000
     40      -8.2857      2.00000
     41      -8.1726      2.00000
     42      -8.0329      2.00000
     43      -8.0097      2.00000
     44      -7.9549      2.00000
     45      -7.9237      2.00000
     46      -7.8973      2.00000
     47      -7.8553      2.00000
     48      -7.7397      2.00000
     49      -7.6092      2.00000
     50      -7.6025      2.00000
     51      -7.5084      2.00000
     52      -7.4763      2.00000
     53      -7.1987      2.00000
     54      -7.1732      2.00000
     55      -7.0764      2.00000
     56      -7.0157      2.00000
     57      -6.9759      2.00000
     58      -6.9423      2.00000
     59      -6.6704      2.00000
     60      -6.6234      2.00000
     61      -6.5490      2.00000
     62      -6.4559      2.00000
     63      -6.3382      2.00000
     64      -6.2755      2.00000
     65      -5.5380      2.00000
     66      -5.1671      2.00000
     67      -5.0888      2.00000
     68      -5.0794      2.00000
     69      -4.9981      2.00000
     70      -4.8280      2.00000
     71      -4.5792      2.00000
     72      -4.2204      2.00000
     73      -3.4636      2.00000
     74      -3.4295      2.00000
     75      -3.4099      2.00000
     76      -2.7170      0.00000
     77      -2.3195      0.00000
     78      -2.1273      0.00000
     79      -1.9929      0.00000
     80      -1.8796      0.00000
     81      -1.8430      0.00000
     82      -1.7575      0.00000
     83      -1.5326      0.00000
     84      -1.3157      0.00000
     85      -1.2953      0.00000
     86      -0.5937      0.00000
     87      -0.4760      0.00000
     88      -0.4084      0.00000
     89      -0.3775      0.00000
     90      -0.3490      0.00000
     91      -0.1901      0.00000
     92      -0.1161      0.00000
     93      -0.0711      0.00000
     94       0.0385      0.00000
     95       0.0467      0.00000
     96       0.0682      0.00000
     97       0.1540      0.00000
     98       0.1672      0.00000
     99       0.5378      0.00000
    100       0.6988      0.00000
    101       0.7068      0.00000
    102       0.7832      0.00000
    103       1.0566      0.00000
    104       1.0939      0.00000
    105       1.1376      0.00000
    106       1.1558      0.00000
    107       1.1773      0.00000
    108       1.1820      0.00000
    109       1.2554      0.00000
    110       1.2806      0.00000
    111       1.3208      0.00000
    112       1.3830      0.00000
    113       1.3937      0.00000
    114       1.3949      0.00000
    115       1.4321      0.00000
    116       1.4615      0.00000
    117       1.5444      0.00000
    118       1.5591      0.00000
    119       1.5626      0.00000
    120       1.6015      0.00000
    121       1.6661      0.00000
    122       1.6858      0.00000
    123       1.6940      0.00000
    124       1.7296      0.00000
    125       1.8767      0.00000
    126       1.8861      0.00000

 k-point    13 :       0.1429    0.2857    0.0000
  band No.  band energies     occupation 
      1     -13.5034      2.00000
      2     -13.1450      2.00000
      3     -13.1145      2.00000
      4     -12.6397      2.00000
      5     -12.1933      2.00000
      6     -12.0269      2.00000
      7     -12.0093      2.00000
      8     -11.9308      2.00000
      9     -11.6640      2.00000
     10     -11.5934      2.00000
     11     -11.5677      2.00000
     12     -11.1397      2.00000
     13     -11.1346      2.00000
     14     -10.8832      2.00000
     15     -10.8406      2.00000
     16     -10.7733      2.00000
     17     -10.5339      2.00000
     18     -10.5234      2.00000
     19     -10.4801      2.00000
     20     -10.4604      2.00000
     21     -10.0340      2.00000
     22      -9.8460      2.00000
     23      -9.6942      2.00000
     24      -9.5550      2.00000
     25      -9.4178      2.00000
     26      -9.3739      2.00000
     27      -9.2833      2.00000
     28      -9.2754      2.00000
     29      -9.2298      2.00000
     30      -9.0490      2.00000
     31      -9.0082      2.00000
     32      -8.8600      2.00000
     33      -8.8162      2.00000
     34      -8.7754      2.00000
     35      -8.6961      2.00000
     36      -8.4492      2.00000
     37      -8.4355      2.00000
     38      -8.4243      2.00000
     39      -8.3672      2.00000
     40      -8.3276      2.00000
     41      -8.3236      2.00000
     42      -8.2361      2.00000
     43      -8.1141      2.00000
     44      -7.8940      2.00000
     45      -7.8044      2.00000
     46      -7.7271      2.00000
     47      -7.6844      2.00000
     48      -7.6799      2.00000
     49      -7.6482      2.00000
     50      -7.6428      2.00000
     51      -7.5807      2.00000
     52      -7.4545      2.00000
     53      -7.2667      2.00000
     54      -7.2286      2.00000
     55      -7.1148      2.00000
     56      -7.0984      2.00000
     57      -7.0365      2.00000
     58      -7.0337      2.00000
     59      -6.7519      2.00000
     60      -6.7332      2.00000
     61      -6.4777      2.00000
     62      -6.4341      2.00000
     63      -6.3078      2.00000
     64      -5.9949      2.00000
     65      -5.7437      2.00000
     66      -5.0428      2.00000
     67      -5.0342      2.00000
     68      -4.9963      2.00000
     69      -4.7328      2.00000
     70      -4.5407      2.00000
     71      -4.2814      2.00000
     72      -4.1426      2.00000
     73      -4.0300      2.00000
     74      -3.5497      2.00000
     75      -3.4539      2.00000
     76      -3.0313      0.68470
     77      -2.8402      0.00188
     78      -2.2858      0.00000
     79      -2.0786      0.00000
     80      -2.0212      0.00000
     81      -1.7858      0.00000
     82      -1.6168      0.00000
     83      -1.1675      0.00000
     84      -1.1530      0.00000
     85      -1.1290      0.00000
     86      -0.4398      0.00000
     87      -0.3956      0.00000
     88      -0.3426      0.00000
     89      -0.3104      0.00000
     90      -0.1706      0.00000
     91      -0.1639      0.00000
     92      -0.0190      0.00000
     93      -0.0019      0.00000
     94       0.0336      0.00000
     95       0.0479      0.00000
     96       0.1676      0.00000
     97       0.1932      0.00000
     98       0.4437      0.00000
     99       0.6119      0.00000
    100       0.6904      0.00000
    101       0.7265      0.00000
    102       0.7322      0.00000
    103       0.7700      0.00000
    104       0.8144      0.00000
    105       0.8550      0.00000
    106       1.0342      0.00000
    107       1.0464      0.00000
    108       1.0911      0.00000
    109       1.1334      0.00000
    110       1.2095      0.00000
    111       1.2132      0.00000
    112       1.3113      0.00000
    113       1.3205      0.00000
    114       1.3484      0.00000
    115       1.3580      0.00000
    116       1.3830      0.00000
    117       1.5324      0.00000
    118       1.5980      0.00000
    119       1.6664      0.00000
    120       1.7175      0.00000
    121       1.7218      0.00000
    122       1.7651      0.00000
    123       1.7762      0.00000
    124       1.7988      0.00000
    125       1.8454      0.00000
    126       1.8737      0.00000

 k-point    14 :       0.2857    0.2857    0.0000
  band No.  band energies     occupation 
      1     -13.4180      2.00000
      2     -13.2985      2.00000
      3     -13.1484      2.00000
      4     -12.4366      2.00000
      5     -12.2004      2.00000
      6     -12.0598      2.00000
      7     -11.9266      2.00000
      8     -11.8722      2.00000
      9     -11.8113      2.00000
     10     -11.6261      2.00000
     11     -11.5188      2.00000
     12     -11.3716      2.00000
     13     -11.1428      2.00000
     14     -10.9483      2.00000
     15     -10.7647      2.00000
     16     -10.7281      2.00000
     17     -10.6591      2.00000
     18     -10.4914      2.00000
     19     -10.4834      2.00000
     20     -10.1725      2.00000
     21     -10.1140      2.00000
     22      -9.8548      2.00000
     23      -9.6753      2.00000
     24      -9.6484      2.00000
     25      -9.4216      2.00000
     26      -9.2169      2.00000
     27      -9.1641      2.00000
     28      -9.1284      2.00000
     29      -9.1249      2.00000
     30      -9.0029      2.00000
     31      -8.9658      2.00000
     32      -8.9545      2.00000
     33      -8.9391      2.00000
     34      -8.7619      2.00000
     35      -8.6989      2.00000
     36      -8.6962      2.00000
     37      -8.6571      2.00000
     38      -8.5868      2.00000
     39      -8.3205      2.00000
     40      -8.2681      2.00000
     41      -8.2109      2.00000
     42      -8.1127      2.00000
     43      -8.0532      2.00000
     44      -7.8960      2.00000
     45      -7.8794      2.00000
     46      -7.8134      2.00000
     47      -7.7064      2.00000
     48      -7.6777      2.00000
     49      -7.6300      2.00000
     50      -7.4709      2.00000
     51      -7.4362      2.00000
     52      -7.3965      2.00000
     53      -7.3864      2.00000
     54      -7.3330      2.00000
     55      -7.2699      2.00000
     56      -7.1663      2.00000
     57      -7.1272      2.00000
     58      -7.0109      2.00000
     59      -6.9869      2.00000
     60      -6.7648      2.00000
     61      -6.3907      2.00000
     62      -6.3760      2.00000
     63      -6.1364      2.00000
     64      -5.9460      2.00000
     65      -5.4645      2.00000
     66      -4.9670      2.00000
     67      -4.9585      2.00000
     68      -4.9481      2.00000
     69      -4.8632      2.00000
     70      -4.8343      2.00000
     71      -4.0779      2.00000
     72      -3.8456      2.00000
     73      -3.6812      2.00000
     74      -3.5357      2.00000
     75      -3.4974      2.00000
     76      -3.4759      2.00000
     77      -3.1965      1.94631
     78      -2.7749      0.00006
     79      -2.2318      0.00000
     80      -2.1605      0.00000
     81      -1.7356      0.00000
     82      -1.6815      0.00000
     83      -1.0403      0.00000
     84      -0.5324      0.00000
     85      -0.4623      0.00000
     86      -0.3863      0.00000
     87      -0.3562      0.00000
     88      -0.3309      0.00000
     89      -0.2982      0.00000
     90      -0.2969      0.00000
     91      -0.2345      0.00000
     92      -0.0277      0.00000
     93      -0.0056      0.00000
     94       0.0338      0.00000
     95       0.0924      0.00000
     96       0.1212      0.00000
     97       0.2094      0.00000
     98       0.2840      0.00000
     99       0.4876      0.00000
    100       0.8109      0.00000
    101       0.8222      0.00000
    102       0.8739      0.00000
    103       0.8752      0.00000
    104       0.9025      0.00000
    105       0.9147      0.00000
    106       0.9171      0.00000
    107       0.9473      0.00000
    108       0.9693      0.00000
    109       1.0221      0.00000
    110       1.0248      0.00000
    111       1.0672      0.00000
    112       1.1278      0.00000
    113       1.2694      0.00000
    114       1.3184      0.00000
    115       1.4289      0.00000
    116       1.4583      0.00000
    117       1.4847      0.00000
    118       1.5808      0.00000
    119       1.6180      0.00000
    120       1.6939      0.00000
    121       1.7075      0.00000
    122       1.7745      0.00000
    123       1.7904      0.00000
    124       1.8090      0.00000
    125       1.8327      0.00000
    126       1.8338      0.00000

 k-point    15 :       0.4286    0.2857    0.0000
  band No.  band energies     occupation 
      1     -13.4180      2.00000
      2     -13.2986      2.00000
      3     -13.1484      2.00000
      4     -12.4369      2.00000
      5     -12.2001      2.00000
      6     -12.0599      2.00000
      7     -11.9266      2.00000
      8     -11.8721      2.00000
      9     -11.8114      2.00000
     10     -11.6261      2.00000
     11     -11.5190      2.00000
     12     -11.3710      2.00000
     13     -11.1434      2.00000
     14     -10.9486      2.00000
     15     -10.7650      2.00000
     16     -10.7278      2.00000
     17     -10.6587      2.00000
     18     -10.4915      2.00000
     19     -10.4833      2.00000
     20     -10.1726      2.00000
     21     -10.1145      2.00000
     22      -9.8543      2.00000
     23      -9.6747      2.00000
     24      -9.6489      2.00000
     25      -9.4226      2.00000
     26      -9.2172      2.00000
     27      -9.1631      2.00000
     28      -9.1274      2.00000
     29      -9.1244      2.00000
     30      -9.0025      2.00000
     31      -8.9656      2.00000
     32      -8.9549      2.00000
     33      -8.9397      2.00000
     34      -8.7629      2.00000
     35      -8.6990      2.00000
     36      -8.6962      2.00000
     37      -8.6567      2.00000
     38      -8.5869      2.00000
     39      -8.3194      2.00000
     40      -8.2680      2.00000
     41      -8.2120      2.00000
     42      -8.1136      2.00000
     43      -8.0525      2.00000
     44      -7.8952      2.00000
     45      -7.8793      2.00000
     46      -7.8139      2.00000
     47      -7.7059      2.00000
     48      -7.6783      2.00000
     49      -7.6303      2.00000
     50      -7.4708      2.00000
     51      -7.4360      2.00000
     52      -7.3956      2.00000
     53      -7.3868      2.00000
     54      -7.3338      2.00000
     55      -7.2700      2.00000
     56      -7.1663      2.00000
     57      -7.1271      2.00000
     58      -7.0108      2.00000
     59      -6.9869      2.00000
     60      -6.7649      2.00000
     61      -6.3908      2.00000
     62      -6.3761      2.00000
     63      -6.1360      2.00000
     64      -5.9465      2.00000
     65      -5.4653      2.00000
     66      -4.9673      2.00000
     67      -4.9583      2.00000
     68      -4.9481      2.00000
     69      -4.8628      2.00000
     70      -4.8335      2.00000
     71      -4.0767      2.00000
     72      -3.8463      2.00000
     73      -3.6806      2.00000
     74      -3.5353      2.00000
     75      -3.4988      2.00000
     76      -3.4759      2.00000
     77      -3.1962      1.94584
     78      -2.7753      0.00006
     79      -2.2313      0.00000
     80      -2.1612      0.00000
     81      -1.7341      0.00000
     82      -1.6830      0.00000
     83      -1.0397      0.00000
     84      -0.5340      0.00000
     85      -0.4631      0.00000
     86      -0.3863      0.00000
     87      -0.3561      0.00000
     88      -0.3310      0.00000
     89      -0.2977      0.00000
     90      -0.2970      0.00000
     91      -0.2354      0.00000
     92      -0.0277      0.00000
     93      -0.0051      0.00000
     94       0.0339      0.00000
     95       0.0923      0.00000
     96       0.1226      0.00000
     97       0.2074      0.00000
     98       0.2843      0.00000
     99       0.4898      0.00000
    100       0.8101      0.00000
    101       0.8234      0.00000
    102       0.8738      0.00000
    103       0.8753      0.00000
    104       0.9022      0.00000
    105       0.9163      0.00000
    106       0.9182      0.00000
    107       0.9475      0.00000
    108       0.9683      0.00000
    109       1.0220      0.00000
    110       1.0246      0.00000
    111       1.0671      0.00000
    112       1.1278      0.00000
    113       1.2694      0.00000
    114       1.3180      0.00000
    115       1.4290      0.00000
    116       1.4581      0.00000
    117       1.4848      0.00000
    118       1.5808      0.00000
    119       1.6179      0.00000
    120       1.6940      0.00000
    121       1.7088      0.00000
    122       1.7745      0.00000
    123       1.8089      0.00000
    124       1.8329      0.00000
    125       1.8337      0.00000
    126       1.8941      0.00000

 k-point    16 :      -0.4286    0.2857    0.0000
  band No.  band energies     occupation 
      1     -13.5033      2.00000
      2     -13.1451      2.00000
      3     -13.1144      2.00000
      4     -12.6399      2.00000
      5     -12.1932      2.00000
      6     -12.0270      2.00000
      7     -12.0092      2.00000
      8     -11.9304      2.00000
      9     -11.6641      2.00000
     10     -11.5933      2.00000
     11     -11.5672      2.00000
     12     -11.1399      2.00000
     13     -11.1348      2.00000
     14     -10.8839      2.00000
     15     -10.8408      2.00000
     16     -10.7731      2.00000
     17     -10.5345      2.00000
     18     -10.5229      2.00000
     19     -10.4797      2.00000
     20     -10.4606      2.00000
     21     -10.0335      2.00000
     22      -9.8462      2.00000
     23      -9.6952      2.00000
     24      -9.5541      2.00000
     25      -9.4184      2.00000
     26      -9.3737      2.00000
     27      -9.2835      2.00000
     28      -9.2758      2.00000
     29      -9.2293      2.00000
     30      -9.0486      2.00000
     31      -9.0077      2.00000
     32      -8.8608      2.00000
     33      -8.8151      2.00000
     34      -8.7754      2.00000
     35      -8.6961      2.00000
     36      -8.4493      2.00000
     37      -8.4344      2.00000
     38      -8.4241      2.00000
     39      -8.3681      2.00000
     40      -8.3270      2.00000
     41      -8.3243      2.00000
     42      -8.2360      2.00000
     43      -8.1151      2.00000
     44      -7.8937      2.00000
     45      -7.8047      2.00000
     46      -7.7268      2.00000
     47      -7.6843      2.00000
     48      -7.6791      2.00000
     49      -7.6485      2.00000
     50      -7.6435      2.00000
     51      -7.5815      2.00000
     52      -7.4536      2.00000
     53      -7.2674      2.00000
     54      -7.2283      2.00000
     55      -7.1149      2.00000
     56      -7.0985      2.00000
     57      -7.0366      2.00000
     58      -7.0334      2.00000
     59      -6.7521      2.00000
     60      -6.7333      2.00000
     61      -6.4778      2.00000
     62      -6.4342      2.00000
     63      -6.3074      2.00000
     64      -5.9955      2.00000
     65      -5.7443      2.00000
     66      -5.0430      2.00000
     67      -5.0339      2.00000
     68      -4.9962      2.00000
     69      -4.7323      2.00000
     70      -4.5398      2.00000
     71      -4.2810      2.00000
     72      -4.1417      2.00000
     73      -4.0307      2.00000
     74      -3.5492      2.00000
     75      -3.4540      2.00000
     76      -3.0306      0.67693
     77      -2.8418      0.00202
     78      -2.2854      0.00000
     79      -2.0794      0.00000
     80      -2.0216      0.00000
     81      -1.7843      0.00000
     82      -1.6183      0.00000
     83      -1.1691      0.00000
     84      -1.1517      0.00000
     85      -1.1299      0.00000
     86      -0.4398      0.00000
     87      -0.3956      0.00000
     88      -0.3415      0.00000
     89      -0.3104      0.00000
     90      -0.1714      0.00000
     91      -0.1651      0.00000
     92      -0.0208      0.00000
     93      -0.0018      0.00000
     94       0.0336      0.00000
     95       0.0482      0.00000
     96       0.1677      0.00000
     97       0.1950      0.00000
     98       0.4439      0.00000
     99       0.6123      0.00000
    100       0.6901      0.00000
    101       0.7267      0.00000
    102       0.7334      0.00000
    103       0.7701      0.00000
    104       0.8168      0.00000
    105       0.8544      0.00000
    106       1.0355      0.00000
    107       1.0460      0.00000
    108       1.0910      0.00000
    109       1.1332      0.00000
    110       1.2094      0.00000
    111       1.2133      0.00000
    112       1.3114      0.00000
    113       1.3205      0.00000
    114       1.3486      0.00000
    115       1.3579      0.00000
    116       1.3830      0.00000
    117       1.5325      0.00000
    118       1.5994      0.00000
    119       1.6664      0.00000
    120       1.7175      0.00000
    121       1.7218      0.00000
    122       1.7653      0.00000
    123       1.7761      0.00000
    124       1.7970      0.00000
    125       1.8448      0.00000
    126       1.8748      0.00000

 k-point    17 :      -0.2857    0.2857    0.0000
  band No.  band energies     occupation 
      1     -13.5546      2.00000
      2     -13.0466      2.00000
      3     -12.9577      2.00000
      4     -12.8093      2.00000
      5     -12.4814      2.00000
      6     -12.0590      2.00000
      7     -11.9613      2.00000
      8     -11.7311      2.00000
      9     -11.6280      2.00000
     10     -11.5279      2.00000
     11     -11.4855      2.00000
     12     -11.3008      2.00000
     13     -11.0383      2.00000
     14     -10.9287      2.00000
     15     -10.8864      2.00000
     16     -10.7218      2.00000
     17     -10.5936      2.00000
     18     -10.3990      2.00000
     19     -10.3578      2.00000
     20     -10.2064      2.00000
     21     -10.1847      2.00000
     22      -9.9432      2.00000
     23      -9.9258      2.00000
     24      -9.8283      2.00000
     25      -9.5987      2.00000
     26      -9.5126      2.00000
     27      -9.3235      2.00000
     28      -9.1659      2.00000
     29      -9.0767      2.00000
     30      -8.8942      2.00000
     31      -8.8671      2.00000
     32      -8.8233      2.00000
     33      -8.8073      2.00000
     34      -8.7679      2.00000
     35      -8.6124      2.00000
     36      -8.5505      2.00000
     37      -8.5232      2.00000
     38      -8.4918      2.00000
     39      -8.3352      2.00000
     40      -8.2858      2.00000
     41      -8.1725      2.00000
     42      -8.0338      2.00000
     43      -8.0105      2.00000
     44      -7.9551      2.00000
     45      -7.9232      2.00000
     46      -7.8972      2.00000
     47      -7.8563      2.00000
     48      -7.7395      2.00000
     49      -7.6091      2.00000
     50      -7.6032      2.00000
     51      -7.5075      2.00000
     52      -7.4756      2.00000
     53      -7.1994      2.00000
     54      -7.1736      2.00000
     55      -7.0759      2.00000
     56      -7.0154      2.00000
     57      -6.9759      2.00000
     58      -6.9423      2.00000
     59      -6.6705      2.00000
     60      -6.6236      2.00000
     61      -6.5491      2.00000
     62      -6.4555      2.00000
     63      -6.3384      2.00000
     64      -6.2758      2.00000
     65      -5.5385      2.00000
     66      -5.1667      2.00000
     67      -5.0889      2.00000
     68      -5.0792      2.00000
     69      -4.9977      2.00000
     70      -4.8275      2.00000
     71      -4.5786      2.00000
     72      -4.2211      2.00000
     73      -3.4632      2.00000
     74      -3.4296      2.00000
     75      -3.4089      2.00000
     76      -2.7159      0.00000
     77      -2.3193      0.00000
     78      -2.1290      0.00000
     79      -1.9939      0.00000
     80      -1.8806      0.00000
     81      -1.8417      0.00000
     82      -1.7591      0.00000
     83      -1.5341      0.00000
     84      -1.3161      0.00000
     85      -1.2939      0.00000
     86      -0.5918      0.00000
     87      -0.4760      0.00000
     88      -0.4083      0.00000
     89      -0.3775      0.00000
     90      -0.3477      0.00000
     91      -0.1918      0.00000
     92      -0.1166      0.00000
     93      -0.0714      0.00000
     94       0.0387      0.00000
     95       0.0467      0.00000
     96       0.0683      0.00000
     97       0.1536      0.00000
     98       0.1671      0.00000
     99       0.5380      0.00000
    100       0.6999      0.00000
    101       0.7068      0.00000
    102       0.7823      0.00000
    103       1.0572      0.00000
    104       1.0925      0.00000
    105       1.1374      0.00000
    106       1.1554      0.00000
    107       1.1787      0.00000
    108       1.1845      0.00000
    109       1.2554      0.00000
    110       1.2809      0.00000
    111       1.3208      0.00000
    112       1.3827      0.00000
    113       1.3938      0.00000
    114       1.3950      0.00000
    115       1.4319      0.00000
    116       1.4631      0.00000
    117       1.5441      0.00000
    118       1.5592      0.00000
    119       1.5609      0.00000
    120       1.6016      0.00000
    121       1.6662      0.00000
    122       1.6855      0.00000
    123       1.6939      0.00000
    124       1.7168      0.00000
    125       1.8768      0.00000
    126       1.8870      0.00000

 k-point    18 :      -0.1429    0.2857    0.0000
  band No.  band energies     occupation 
      1     -13.5717      2.00000
      2     -12.9453      2.00000
      3     -12.9444      2.00000
      4     -12.7368      2.00000
      5     -12.7360      2.00000
      6     -12.0756      2.00000
      7     -11.8631      2.00000
      8     -11.8621      2.00000
      9     -11.4308      2.00000
     10     -11.4298      2.00000
     11     -11.2943      2.00000
     12     -11.2933      2.00000
     13     -11.2768      2.00000
     14     -11.2760      2.00000
     15     -10.9015      2.00000
     16     -10.3075      2.00000
     17     -10.3062      2.00000
     18     -10.2842      2.00000
     19     -10.2832      2.00000
     20     -10.2741      2.00000
     21     -10.2729      2.00000
     22     -10.1650      2.00000
     23     -10.1636      2.00000
     24      -9.9117      2.00000
     25      -9.9107      2.00000
     26      -9.3368      2.00000
     27      -9.1867      2.00000
     28      -9.1854      2.00000
     29      -9.0862      2.00000
     30      -8.8959      2.00000
     31      -8.8945      2.00000
     32      -8.8394      2.00000
     33      -8.7058      2.00000
     34      -8.7041      2.00000
     35      -8.6641      2.00000
     36      -8.6623      2.00000
     37      -8.4947      2.00000
     38      -8.4536      2.00000
     39      -8.1684      2.00000
     40      -8.1664      2.00000
     41      -8.1004      2.00000
     42      -8.0999      2.00000
     43      -8.0786      2.00000
     44      -8.0781      2.00000
     45      -7.9706      2.00000
     46      -7.9686      2.00000
     47      -7.7646      2.00000
     48      -7.7439      2.00000
     49      -7.7094      2.00000
     50      -7.5587      2.00000
     51      -7.5566      2.00000
     52      -7.3018      2.00000
     53      -7.2997      2.00000
     54      -7.1345      2.00000
     55      -7.1323      2.00000
     56      -6.9206      2.00000
     57      -6.9206      2.00000
     58      -6.8091      2.00000
     59      -6.8087      2.00000
     60      -6.6260      2.00000
     61      -6.5777      2.00000
     62      -6.5771      2.00000
     63      -6.4386      2.00000
     64      -5.6712      2.00000
     65      -5.6708      2.00000
     66      -5.3411      2.00000
     67      -5.3405      2.00000
     68      -5.1297      2.00000
     69      -5.1042      2.00000
     70      -4.9147      2.00000
     71      -4.4067      2.00000
     72      -4.4059      2.00000
     73      -3.4264      2.00000
     74      -3.4261      2.00000
     75      -2.6503      0.00000
     76      -2.6493      0.00000
     77      -2.3309      0.00000
     78      -2.2831      0.00000
     79      -2.2817      0.00000
     80      -1.9129      0.00000
     81      -1.9117      0.00000
     82      -1.4262      0.00000
     83      -1.4247      0.00000
     84      -1.3751      0.00000
     85      -1.3733      0.00000
     86      -0.7424      0.00000
     87      -0.7412      0.00000
     88      -0.4887      0.00000
     89      -0.3013      0.00000
     90      -0.2997      0.00000
     91      -0.2387      0.00000
     92      -0.2385      0.00000
     93      -0.0785      0.00000
     94      -0.0774      0.00000
     95       0.1035      0.00000
     96       0.1090      0.00000
     97       0.1105      0.00000
     98       0.3500      0.00000
     99       0.3506      0.00000
    100       0.6857      0.00000
    101       0.7204      0.00000
    102       0.7217      0.00000
    103       1.2025      0.00000
    104       1.2040      0.00000
    105       1.2337      0.00000
    106       1.2369      0.00000
    107       1.2459      0.00000
    108       1.2983      0.00000
    109       1.2999      0.00000
    110       1.3001      0.00000
    111       1.3529      0.00000
    112       1.3545      0.00000
    113       1.3748      0.00000
    114       1.3750      0.00000
    115       1.5199      0.00000
    116       1.5201      0.00000
    117       1.5441      0.00000
    118       1.5722      0.00000
    119       1.5732      0.00000
    120       1.5799      0.00000
    121       1.6357      0.00000
    122       1.6472      0.00000
    123       1.7029      0.00000
    124       1.7031      0.00000
    125       1.8382      0.00000
    126       1.8867      0.00000

 k-point    19 :       0.0000    0.4286    0.0000
  band No.  band energies     occupation 
      1     -13.4331      2.00000
      2     -13.2635      2.00000
      3     -12.9559      2.00000
      4     -12.9063      2.00000
      5     -12.2430      2.00000
      6     -11.9581      2.00000
      7     -11.9315      2.00000
      8     -11.7541      2.00000
      9     -11.6408      2.00000
     10     -11.4730      2.00000
     11     -11.4112      2.00000
     12     -11.3026      2.00000
     13     -11.2814      2.00000
     14     -10.9044      2.00000
     15     -10.8423      2.00000
     16     -10.8356      2.00000
     17     -10.8057      2.00000
     18     -10.5275      2.00000
     19     -10.4095      2.00000
     20     -10.1914      2.00000
     21     -10.0710      2.00000
     22      -9.7611      2.00000
     23      -9.7103      2.00000
     24      -9.6101      2.00000
     25      -9.5812      2.00000
     26      -9.5094      2.00000
     27      -9.4387      2.00000
     28      -9.3173      2.00000
     29      -9.1648      2.00000
     30      -8.9733      2.00000
     31      -8.9520      2.00000
     32      -8.7567      2.00000
     33      -8.6910      2.00000
     34      -8.6681      2.00000
     35      -8.6286      2.00000
     36      -8.4979      2.00000
     37      -8.4812      2.00000
     38      -8.4511      2.00000
     39      -8.3321      2.00000
     40      -8.2355      2.00000
     41      -8.2309      2.00000
     42      -8.2288      2.00000
     43      -8.1925      2.00000
     44      -8.1253      2.00000
     45      -7.9545      2.00000
     46      -7.9010      2.00000
     47      -7.8033      2.00000
     48      -7.6573      2.00000
     49      -7.4311      2.00000
     50      -7.4272      2.00000
     51      -7.4196      2.00000
     52      -7.4126      2.00000
     53      -7.3628      2.00000
     54      -7.2963      2.00000
     55      -7.2744      2.00000
     56      -7.1995      2.00000
     57      -6.8979      2.00000
     58      -6.8505      2.00000
     59      -6.7813      2.00000
     60      -6.7219      2.00000
     61      -6.4352      2.00000
     62      -6.4075      2.00000
     63      -6.2003      2.00000
     64      -5.8819      2.00000
     65      -5.6724      2.00000
     66      -5.2547      2.00000
     67      -5.1466      2.00000
     68      -4.7068      2.00000
     69      -4.6154      2.00000
     70      -4.5514      2.00000
     71      -4.5242      2.00000
     72      -4.2038      2.00000
     73      -4.0438      2.00000
     74      -3.9977      2.00000
     75      -3.9942      2.00000
     76      -3.4943      2.00000
     77      -2.0726      0.00000
     78      -1.9547      0.00000
     79      -1.7213      0.00000
     80      -1.6304      0.00000
     81      -1.5828      0.00000
     82      -1.5635      0.00000
     83      -1.5313      0.00000
     84      -1.4076      0.00000
     85      -1.1627      0.00000
     86      -0.3496      0.00000
     87      -0.2947      0.00000
     88      -0.2871      0.00000
     89      -0.2814      0.00000
     90      -0.2153      0.00000
     91      -0.2083      0.00000
     92      -0.1746      0.00000
     93      -0.1428      0.00000
     94      -0.0277      0.00000
     95      -0.0085      0.00000
     96       0.1898      0.00000
     97       0.3208      0.00000
     98       0.5103      0.00000
     99       0.6635      0.00000
    100       0.8711      0.00000
    101       0.9038      0.00000
    102       0.9401      0.00000
    103       1.0031      0.00000
    104       1.0169      0.00000
    105       1.0846      0.00000
    106       1.1007      0.00000
    107       1.1432      0.00000
    108       1.3076      0.00000
    109       1.3129      0.00000
    110       1.3677      0.00000
    111       1.4116      0.00000
    112       1.4239      0.00000
    113       1.4241      0.00000
    114       1.4434      0.00000
    115       1.4545      0.00000
    116       1.4871      0.00000
    117       1.5369      0.00000
    118       1.5382      0.00000
    119       1.5790      0.00000
    120       1.5803      0.00000
    121       1.6395      0.00000
    122       1.6602      0.00000
    123       1.6688      0.00000
    124       1.7074      0.00000
    125       1.7144      0.00000
    126       1.7197      0.00000

 k-point    20 :       0.1429    0.4286    0.0000
  band No.  band energies     occupation 
      1     -13.3649      2.00000
      2     -13.3146      2.00000
      3     -13.1262      2.00000
      4     -12.7195      2.00000
      5     -12.2452      2.00000
      6     -11.9388      2.00000
      7     -11.8654      2.00000
      8     -11.8034      2.00000
      9     -11.6893      2.00000
     10     -11.6357      2.00000
     11     -11.2342      2.00000
     12     -11.2333      2.00000
     13     -11.2183      2.00000
     14     -11.1260      2.00000
     15     -10.9987      2.00000
     16     -10.7905      2.00000
     17     -10.6785      2.00000
     18     -10.5288      2.00000
     19     -10.4942      2.00000
     20     -10.1159      2.00000
     21      -9.9173      2.00000
     22      -9.9107      2.00000
     23      -9.6533      2.00000
     24      -9.6110      2.00000
     25      -9.6015      2.00000
     26      -9.4562      2.00000
     27      -9.2946      2.00000
     28      -9.2817      2.00000
     29      -9.2052      2.00000
     30      -9.0733      2.00000
     31      -9.0700      2.00000
     32      -8.6819      2.00000
     33      -8.6057      2.00000
     34      -8.6044      2.00000
     35      -8.5842      2.00000
     36      -8.5309      2.00000
     37      -8.5290      2.00000
     38      -8.4990      2.00000
     39      -8.3864      2.00000
     40      -8.3094      2.00000
     41      -8.2922      2.00000
     42      -8.2411      2.00000
     43      -8.2311      2.00000
     44      -8.0459      2.00000
     45      -7.9622      2.00000
     46      -7.9305      2.00000
     47      -7.6088      2.00000
     48      -7.5749      2.00000
     49      -7.5094      2.00000
     50      -7.4431      2.00000
     51      -7.4308      2.00000
     52      -7.4280      2.00000
     53      -7.3941      2.00000
     54      -7.3334      2.00000
     55      -7.2547      2.00000
     56      -7.1826      2.00000
     57      -7.0466      2.00000
     58      -6.9721      2.00000
     59      -6.7695      2.00000
     60      -6.6609      2.00000
     61      -6.6300      2.00000
     62      -6.2473      2.00000
     63      -5.9733      2.00000
     64      -5.7231      2.00000
     65      -5.6105      2.00000
     66      -5.3998      2.00000
     67      -5.3486      2.00000
     68      -4.7098      2.00000
     69      -4.5147      2.00000
     70      -4.5100      2.00000
     71      -4.4920      2.00000
     72      -4.1636      2.00000
     73      -4.0480      2.00000
     74      -3.8427      2.00000
     75      -3.7911      2.00000
     76      -3.7511      2.00000
     77      -2.7406      0.00001
     78      -2.2714      0.00000
     79      -1.6108      0.00000
     80      -1.5711      0.00000
     81      -1.5700      0.00000
     82      -1.4825      0.00000
     83      -1.2883      0.00000
     84      -1.1184      0.00000
     85      -1.0075      0.00000
     86      -0.3030      0.00000
     87      -0.2699      0.00000
     88      -0.2559      0.00000
     89      -0.2192      0.00000
     90      -0.2117      0.00000
     91      -0.1964      0.00000
     92      -0.1816      0.00000
     93      -0.1323      0.00000
     94      -0.1089      0.00000
     95       0.1693      0.00000
     96       0.1720      0.00000
     97       0.2181      0.00000
     98       0.2665      0.00000
     99       0.6749      0.00000
    100       0.7771      0.00000
    101       0.9552      0.00000
    102       0.9749      0.00000
    103       0.9775      0.00000
    104       0.9856      0.00000
    105       1.0377      0.00000
    106       1.0779      0.00000
    107       1.1866      0.00000
    108       1.1940      0.00000
    109       1.2482      0.00000
    110       1.2553      0.00000
    111       1.2607      0.00000
    112       1.3835      0.00000
    113       1.4687      0.00000
    114       1.4917      0.00000
    115       1.5108      0.00000
    116       1.5695      0.00000
    117       1.5849      0.00000
    118       1.5951      0.00000
    119       1.6366      0.00000
    120       1.6517      0.00000
    121       1.6574      0.00000
    122       1.6812      0.00000
    123       1.7062      0.00000
    124       1.7542      0.00000
    125       1.7650      0.00000
    126       1.8265      0.00000

 k-point    21 :       0.2857    0.4286    0.0000
  band No.  band energies     occupation 
      1     -13.3316      2.00000
      2     -13.2630      2.00000
      3     -13.2622      2.00000
      4     -12.4995      2.00000
      5     -12.4986      2.00000
      6     -11.8199      2.00000
      7     -11.7672      2.00000
      8     -11.7662      2.00000
      9     -11.7055      2.00000
     10     -11.6023      2.00000
     11     -11.6015      2.00000
     12     -11.1247      2.00000
     13     -11.1235      2.00000
     14     -11.0270      2.00000
     15     -11.0260      2.00000
     16     -10.9183      2.00000
     17     -10.9171      2.00000
     18     -10.2294      2.00000
     19     -10.2285      2.00000
     20     -10.1309      2.00000
     21     -10.0608      2.00000
     22     -10.0598      2.00000
     23      -9.6183      2.00000
     24      -9.6167      2.00000
     25      -9.5690      2.00000
     26      -9.5676      2.00000
     27      -9.4162      2.00000
     28      -9.4149      2.00000
     29      -8.9634      2.00000
     30      -8.9621      2.00000
     31      -8.7492      2.00000
     32      -8.6985      2.00000
     33      -8.6898      2.00000
     34      -8.6882      2.00000
     35      -8.5728      2.00000
     36      -8.5710      2.00000
     37      -8.5150      2.00000
     38      -8.5103      2.00000
     39      -8.5098      2.00000
     40      -8.2924      2.00000
     41      -8.2906      2.00000
     42      -8.2624      2.00000
     43      -8.2604      2.00000
     44      -8.2318      2.00000
     45      -7.7773      2.00000
     46      -7.7768      2.00000
     47      -7.6940      2.00000
     48      -7.6921      2.00000
     49      -7.4439      2.00000
     50      -7.4304      2.00000
     51      -7.4284      2.00000
     52      -7.3681      2.00000
     53      -7.3660      2.00000
     54      -7.3081      2.00000
     55      -7.2346      2.00000
     56      -7.2343      2.00000
     57      -7.1767      2.00000
     58      -7.0563      2.00000
     59      -6.8757      2.00000
     60      -6.6077      2.00000
     61      -6.6076      2.00000
     62      -6.2631      2.00000
     63      -5.5438      2.00000
     64      -5.5431      2.00000
     65      -5.5195      2.00000
     66      -5.5188      2.00000
     67      -5.3784      2.00000
     68      -5.3778      2.00000
     69      -4.4741      2.00000
     70      -4.4739      2.00000
     71      -4.3245      2.00000
     72      -4.3238      2.00000
     73      -4.0759      2.00000
     74      -3.8342      2.00000
     75      -3.3410      1.99993
     76      -3.3396      1.99992
     77      -3.0348      0.72120
     78      -3.0342      0.71455
     79      -1.5886      0.00000
     80      -1.5876      0.00000
     81      -1.5389      0.00000
     82      -1.5371      0.00000
     83      -1.1036      0.00000
     84      -0.5777      0.00000
     85      -0.5758      0.00000
     86      -0.4311      0.00000
     87      -0.4298      0.00000
     88      -0.2449      0.00000
     89      -0.2439      0.00000
     90      -0.2389      0.00000
     91      -0.2331      0.00000
     92      -0.2317      0.00000
     93      -0.2243      0.00000
     94      -0.0154      0.00000
     95      -0.0138      0.00000
     96      -0.0020      0.00000
     97      -0.0018      0.00000
     98       0.3817      0.00000
     99       0.4403      0.00000
    100       0.9382      0.00000
    101       0.9699      0.00000
    102       0.9713      0.00000
    103       1.0167      0.00000
    104       1.0811      0.00000
    105       1.0813      0.00000
    106       1.1683      0.00000
    107       1.1689      0.00000
    108       1.3034      0.00000
    109       1.3042      0.00000
    110       1.3126      0.00000
    111       1.3320      0.00000
    112       1.3334      0.00000
    113       1.3739      0.00000
    114       1.5734      0.00000
    115       1.5773      0.00000
    116       1.5789      0.00000
    117       1.5883      0.00000
    118       1.5885      0.00000
    119       1.6366      0.00000
    120       1.6410      0.00000
    121       1.6411      0.00000
    122       1.6890      0.00000
    123       1.6891      0.00000
    124       1.6921      0.00000
    125       1.6947      0.00000
    126       1.6983      0.00000

 k-point    22 :       0.4286    0.4286    0.0000
  band No.  band energies     occupation 
      1     -13.3648      2.00000
      2     -13.3145      2.00000
      3     -13.1263      2.00000
      4     -12.7197      2.00000
      5     -12.2449      2.00000
      6     -11.9385      2.00000
      7     -11.8654      2.00000
      8     -11.8034      2.00000
      9     -11.6894      2.00000
     10     -11.6358      2.00000
     11     -11.2345      2.00000
     12     -11.2335      2.00000
     13     -11.2186      2.00000
     14     -11.1255      2.00000
     15     -10.9983      2.00000
     16     -10.7902      2.00000
     17     -10.6792      2.00000
     18     -10.5286      2.00000
     19     -10.4946      2.00000
     20     -10.1159      2.00000
     21      -9.9182      2.00000
     22      -9.9110      2.00000
     23      -9.6535      2.00000
     24      -9.6105      2.00000
     25      -9.6010      2.00000
     26      -9.4557      2.00000
     27      -9.2935      2.00000
     28      -9.2820      2.00000
     29      -9.2058      2.00000
     30      -9.0730      2.00000
     31      -9.0690      2.00000
     32      -8.6816      2.00000
     33      -8.6052      2.00000
     34      -8.6044      2.00000
     35      -8.5842      2.00000
     36      -8.5317      2.00000
     37      -8.5298      2.00000
     38      -8.4989      2.00000
     39      -8.3865      2.00000
     40      -8.3104      2.00000
     41      -8.2910      2.00000
     42      -8.2421      2.00000
     43      -8.2309      2.00000
     44      -8.0451      2.00000
     45      -7.9624      2.00000
     46      -7.9298      2.00000
     47      -7.6095      2.00000
     48      -7.5747      2.00000
     49      -7.5098      2.00000
     50      -7.4429      2.00000
     51      -7.4313      2.00000
     52      -7.4277      2.00000
     53      -7.3932      2.00000
     54      -7.3342      2.00000
     55      -7.2546      2.00000
     56      -7.1824      2.00000
     57      -7.0467      2.00000
     58      -6.9722      2.00000
     59      -6.7696      2.00000
     60      -6.6611      2.00000
     61      -6.6300      2.00000
     62      -6.2474      2.00000
     63      -5.9739      2.00000
     64      -5.7227      2.00000
     65      -5.6108      2.00000
     66      -5.3994      2.00000
     67      -5.3492      2.00000
     68      -4.7091      2.00000
     69      -4.5144      2.00000
     70      -4.5106      2.00000
     71      -4.4919      2.00000
     72      -4.1630      2.00000
     73      -4.0480      2.00000
     74      -3.8416      2.00000
     75      -3.7905      2.00000
     76      -3.7506      2.00000
     77      -2.7422      0.00001
     78      -2.2720      0.00000
     79      -1.6102      0.00000
     80      -1.5712      0.00000
     81      -1.5694      0.00000
     82      -1.4842      0.00000
     83      -1.2901      0.00000
     84      -1.1179      0.00000
     85      -1.0082      0.00000
     86      -0.3029      0.00000
     87      -0.2698      0.00000
     88      -0.2552      0.00000
     89      -0.2197      0.00000
     90      -0.2117      0.00000
     91      -0.1964      0.00000
     92      -0.1829      0.00000
     93      -0.1323      0.00000
     94      -0.1087      0.00000
     95       0.1712      0.00000
     96       0.1730      0.00000
     97       0.2198      0.00000
     98       0.2668      0.00000
     99       0.6739      0.00000
    100       0.7775      0.00000
    101       0.9553      0.00000
    102       0.9763      0.00000
    103       0.9795      0.00000
    104       0.9844      0.00000
    105       1.0378      0.00000
    106       1.0777      0.00000
    107       1.1859      0.00000
    108       1.1951      0.00000
    109       1.2481      0.00000
    110       1.2546      0.00000
    111       1.2612      0.00000
    112       1.3834      0.00000
    113       1.4675      0.00000
    114       1.4900      0.00000
    115       1.5109      0.00000
    116       1.5695      0.00000
    117       1.5850      0.00000
    118       1.5952      0.00000
    119       1.6371      0.00000
    120       1.6516      0.00000
    121       1.6575      0.00000
    122       1.7070      0.00000
    123       1.7536      0.00000
    124       1.8115      0.00000
    125       1.8181      0.00000
    126       1.8353      0.00000

 k-point    23 :      -0.4286    0.4286    0.0000
  band No.  band energies     occupation 
      1     -13.4330      2.00000
      2     -13.2635      2.00000
      3     -12.9561      2.00000
      4     -12.9065      2.00000
      5     -12.2428      2.00000
      6     -11.9578      2.00000
      7     -11.9314      2.00000
      8     -11.7540      2.00000
      9     -11.6410      2.00000
     10     -11.4732      2.00000
     11     -11.4114      2.00000
     12     -11.3022      2.00000
     13     -11.2815      2.00000
     14     -10.9048      2.00000
     15     -10.8418      2.00000
     16     -10.8359      2.00000
     17     -10.8055      2.00000
     18     -10.5272      2.00000
     19     -10.4103      2.00000
     20     -10.1922      2.00000
     21     -10.0711      2.00000
     22      -9.7607      2.00000
     23      -9.7105      2.00000
     24      -9.6104      2.00000
     25      -9.5815      2.00000
     26      -9.5091      2.00000
     27      -9.4377      2.00000
     28      -9.3168      2.00000
     29      -9.1644      2.00000
     30      -8.9740      2.00000
     31      -8.9509      2.00000
     32      -8.7574      2.00000
     33      -8.6909      2.00000
     34      -8.6681      2.00000
     35      -8.6284      2.00000
     36      -8.4978      2.00000
     37      -8.4821      2.00000
     38      -8.4510      2.00000
     39      -8.3310      2.00000
     40      -8.2357      2.00000
     41      -8.2315      2.00000
     42      -8.2286      2.00000
     43      -8.1917      2.00000
     44      -8.1255      2.00000
     45      -7.9554      2.00000
     46      -7.9019      2.00000
     47      -7.8026      2.00000
     48      -7.6571      2.00000
     49      -7.4318      2.00000
     50      -7.4270      2.00000
     51      -7.4197      2.00000
     52      -7.4117      2.00000
     53      -7.3625      2.00000
     54      -7.2970      2.00000
     55      -7.2746      2.00000
     56      -7.1991      2.00000
     57      -6.8980      2.00000
     58      -6.8506      2.00000
     59      -6.7814      2.00000
     60      -6.7220      2.00000
     61      -6.4356      2.00000
     62      -6.4079      2.00000
     63      -6.2004      2.00000
     64      -5.8815      2.00000
     65      -5.6725      2.00000
     66      -5.2542      2.00000
     67      -5.1472      2.00000
     68      -4.7074      2.00000
     69      -4.6150      2.00000
     70      -4.5513      2.00000
     71      -4.5236      2.00000
     72      -4.2031      2.00000
     73      -4.0434      2.00000
     74      -3.9977      2.00000
     75      -3.9934      2.00000
     76      -3.4933      2.00000
     77      -2.0743      0.00000
     78      -1.9564      0.00000
     79      -1.7221      0.00000
     80      -1.6300      0.00000
     81      -1.5811      0.00000
     82      -1.5649      0.00000
     83      -1.5319      0.00000
     84      -1.4093      0.00000
     85      -1.1617      0.00000
     86      -0.3496      0.00000
     87      -0.2947      0.00000
     88      -0.2864      0.00000
     89      -0.2825      0.00000
     90      -0.2152      0.00000
     91      -0.2087      0.00000
     92      -0.1745      0.00000
     93      -0.1428      0.00000
     94      -0.0277      0.00000
     95      -0.0078      0.00000
     96       0.1918      0.00000
     97       0.3211      0.00000
     98       0.5122      0.00000
     99       0.6639      0.00000
    100       0.8712      0.00000
    101       0.9032      0.00000
    102       0.9420      0.00000
    103       1.0046      0.00000
    104       1.0158      0.00000
    105       1.0856      0.00000
    106       1.1008      0.00000
    107       1.1423      0.00000
    108       1.3068      0.00000
    109       1.3112      0.00000
    110       1.3673      0.00000
    111       1.4114      0.00000
    112       1.4235      0.00000
    113       1.4241      0.00000
    114       1.4439      0.00000
    115       1.4543      0.00000
    116       1.4871      0.00000
    117       1.5370      0.00000
    118       1.5380      0.00000
    119       1.5779      0.00000
    120       1.5807      0.00000
    121       1.6603      0.00000
    122       1.6685      0.00000
    123       1.7085      0.00000
    124       1.7145      0.00000
    125       1.7195      0.00000
    126       1.7688      0.00000

 k-point    24 :      -0.2857    0.4286    0.0000
  band No.  band energies     occupation 
      1     -13.4672      2.00000
      2     -13.1784      2.00000
      3     -13.0594      2.00000
      4     -12.7520      2.00000
      5     -12.5140      2.00000
      6     -11.9645      2.00000
      7     -11.6719      2.00000
      8     -11.6380      2.00000
      9     -11.5604      2.00000
     10     -11.5575      2.00000
     11     -11.4471      2.00000
     12     -11.3130      2.00000
     13     -11.2868      2.00000
     14     -11.2797      2.00000
     15     -11.0566      2.00000
     16     -10.6546      2.00000
     17     -10.4383      2.00000
     18     -10.4111      2.00000
     19     -10.2401      2.00000
     20     -10.1125      2.00000
     21      -9.9967      2.00000
     22      -9.9646      2.00000
     23      -9.9328      2.00000
     24      -9.8928      2.00000
     25      -9.7868      2.00000
     26      -9.7390      2.00000
     27      -9.2516      2.00000
     28      -9.1528      2.00000
     29      -8.9659      2.00000
     30      -8.9410      2.00000
     31      -8.7675      2.00000
     32      -8.7240      2.00000
     33      -8.7001      2.00000
     34      -8.6403      2.00000
     35      -8.5961      2.00000
     36      -8.5100      2.00000
     37      -8.4602      2.00000
     38      -8.4306      2.00000
     39      -8.3783      2.00000
     40      -8.3719      2.00000
     41      -8.2629      2.00000
     42      -8.2413      2.00000
     43      -8.2278      2.00000
     44      -8.2261      2.00000
     45      -8.0607      2.00000
     46      -7.8658      2.00000
     47      -7.6652      2.00000
     48      -7.5778      2.00000
     49      -7.4593      2.00000
     50      -7.4302      2.00000
     51      -7.4265      2.00000
     52      -7.4229      2.00000
     53      -7.3925      2.00000
     54      -7.2596      2.00000
     55      -7.2255      2.00000
     56      -7.1502      2.00000
     57      -6.9510      2.00000
     58      -6.8449      2.00000
     59      -6.8080      2.00000
     60      -6.7914      2.00000
     61      -6.6601      2.00000
     62      -6.1229      2.00000
     63      -6.0158      2.00000
     64      -5.8609      2.00000
     65      -5.7036      2.00000
     66      -5.2197      2.00000
     67      -5.0868      2.00000
     68      -4.9480      2.00000
     69      -4.9027      2.00000
     70      -4.7649      2.00000
     71      -4.6156      2.00000
     72      -4.3799      2.00000
     73      -3.9770      2.00000
     74      -3.9659      2.00000
     75      -3.2461      1.99150
     76      -3.0834      1.25856
     77      -2.5616      0.00000
     78      -2.4824      0.00000
     79      -1.6415      0.00000
     80      -1.5777      0.00000
     81      -1.5700      0.00000
     82      -1.3547      0.00000
     83      -1.3216      0.00000
     84      -1.2327      0.00000
     85      -0.8754      0.00000
     86      -0.5939      0.00000
     87      -0.4123      0.00000
     88      -0.3747      0.00000
     89      -0.3209      0.00000
     90      -0.3143      0.00000
     91      -0.2240      0.00000
     92      -0.1844      0.00000
     93      -0.1242      0.00000
     94      -0.1187      0.00000
     95      -0.0981      0.00000
     96      -0.0585      0.00000
     97      -0.0193      0.00000
     98       0.8290      0.00000
     99       0.8523      0.00000
    100       1.0302      0.00000
    101       1.0343      0.00000
    102       1.0469      0.00000
    103       1.0553      0.00000
    104       1.0661      0.00000
    105       1.1123      0.00000
    106       1.1598      0.00000
    107       1.1671      0.00000
    108       1.2056      0.00000
    109       1.2474      0.00000
    110       1.3516      0.00000
    111       1.3807      0.00000
    112       1.4455      0.00000
    113       1.4482      0.00000
    114       1.4562      0.00000
    115       1.5015      0.00000
    116       1.5150      0.00000
    117       1.5393      0.00000
    118       1.6348      0.00000
    119       1.6588      0.00000
    120       1.6627      0.00000
    121       1.6643      0.00000
    122       1.6918      0.00000
    123       1.7097      0.00000
    124       1.7267      0.00000
    125       1.7455      0.00000
    126       1.7525      0.00000

 k-point    25 :      -0.1429    0.4286    0.0000
  band No.  band energies     occupation 
      1     -13.4672      2.00000
      2     -13.1785      2.00000
      3     -13.0593      2.00000
      4     -12.7518      2.00000
      5     -12.5142      2.00000
      6     -11.9645      2.00000
      7     -11.6720      2.00000
      8     -11.6384      2.00000
      9     -11.5601      2.00000
     10     -11.5574      2.00000
     11     -11.4474      2.00000
     12     -11.3130      2.00000
     13     -11.2864      2.00000
     14     -11.2796      2.00000
     15     -11.0568      2.00000
     16     -10.6553      2.00000
     17     -10.4376      2.00000
     18     -10.4107      2.00000
     19     -10.2404      2.00000
     20     -10.1117      2.00000
     21      -9.9965      2.00000
     22      -9.9649      2.00000
     23      -9.9324      2.00000
     24      -9.8931      2.00000
     25      -9.7877      2.00000
     26      -9.7390      2.00000
     27      -9.2513      2.00000
     28      -9.1534      2.00000
     29      -8.9653      2.00000
     30      -8.9412      2.00000
     31      -8.7678      2.00000
     32      -8.7232      2.00000
     33      -8.7002      2.00000
     34      -8.6404      2.00000
     35      -8.5972      2.00000
     36      -8.5098      2.00000
     37      -8.4609      2.00000
     38      -8.4297      2.00000
     39      -8.3794      2.00000
     40      -8.3720      2.00000
     41      -8.2628      2.00000
     42      -8.2402      2.00000
     43      -8.2278      2.00000
     44      -8.2259      2.00000
     45      -8.0606      2.00000
     46      -7.8660      2.00000
     47      -7.6646      2.00000
     48      -7.5785      2.00000
     49      -7.4595      2.00000
     50      -7.4295      2.00000
     51      -7.4265      2.00000
     52      -7.4237      2.00000
     53      -7.3920      2.00000
     54      -7.2590      2.00000
     55      -7.2260      2.00000
     56      -7.1504      2.00000
     57      -6.9508      2.00000
     58      -6.8448      2.00000
     59      -6.8080      2.00000
     60      -6.7914      2.00000
     61      -6.6600      2.00000
     62      -6.1227      2.00000
     63      -6.0161      2.00000
     64      -5.8604      2.00000
     65      -5.7036      2.00000
     66      -5.2203      2.00000
     67      -5.0874      2.00000
     68      -4.9475      2.00000
     69      -4.9021      2.00000
     70      -4.7654      2.00000
     71      -4.6157      2.00000
     72      -4.3801      2.00000
     73      -3.9772      2.00000
     74      -3.9658      2.00000
     75      -3.2469      1.99178
     76      -3.0847      1.27239
     77      -2.5601      0.00000
     78      -2.4816      0.00000
     79      -1.6416      0.00000
     80      -1.5794      0.00000
     81      -1.5684      0.00000
     82      -1.3528      0.00000
     83      -1.3200      0.00000
     84      -1.2341      0.00000
     85      -0.8749      0.00000
     86      -0.5959      0.00000
     87      -0.4125      0.00000
     88      -0.3747      0.00000
     89      -0.3200      0.00000
     90      -0.3151      0.00000
     91      -0.2239      0.00000
     92      -0.1840      0.00000
     93      -0.1247      0.00000
     94      -0.1188      0.00000
     95      -0.0982      0.00000
     96      -0.0584      0.00000
     97      -0.0195      0.00000
     98       0.8290      0.00000
     99       0.8503      0.00000
    100       1.0300      0.00000
    101       1.0333      0.00000
    102       1.0477      0.00000
    103       1.0563      0.00000
    104       1.0646      0.00000
    105       1.1125      0.00000
    106       1.1593      0.00000
    107       1.1687      0.00000
    108       1.2055      0.00000
    109       1.2495      0.00000
    110       1.3518      0.00000
    111       1.3807      0.00000
    112       1.4454      0.00000
    113       1.4482      0.00000
    114       1.4566      0.00000
    115       1.5023      0.00000
    116       1.5146      0.00000
    117       1.5392      0.00000
    118       1.6361      0.00000
    119       1.6592      0.00000
    120       1.6617      0.00000
    121       1.6635      0.00000
    122       1.6906      0.00000
    123       1.7434      0.00000
    124       1.7516      0.00000
    125       1.8260      0.00000
    126       1.8602      0.00000


--------------------------------------------------------------------------------------------------------


 soft charge-density along one line, spin component           1
         0         1         2         3         4         5         6         7         8         9
 total charge-density along one line
 
 pseudopotential strength for first ion, spin component:           1
  5.210 -13.241  -0.001   0.001  -0.000   0.002  -0.002   0.001
-13.241  34.525   0.001  -0.002   0.000  -0.003   0.005  -0.001
 -0.001   0.001  -0.364  -0.000  -0.001   0.818   0.001   0.001
  0.001  -0.002  -0.000  -0.362  -0.000   0.001   0.813   0.000
 -0.000   0.000  -0.001  -0.000  -0.363   0.001   0.000   0.817
  0.002  -0.003   0.818   0.001   0.001  -0.134  -0.002  -0.000
 -0.002   0.005   0.001   0.813   0.000  -0.002  -0.118  -0.001
  0.001  -0.001   0.001   0.000   0.817  -0.000  -0.001  -0.133
 total augmentation occupancy for first ion, spin component:           1
  1.505   0.100   0.008   0.118   0.009  -0.000   0.014   0.000
  0.100   0.007  -0.000   0.014   0.000  -0.000   0.001   0.000
  0.008  -0.000   0.986  -0.047  -0.307   0.059  -0.003  -0.025
  0.118   0.014  -0.047   1.380  -0.022  -0.003   0.083  -0.001
  0.009   0.000  -0.307  -0.022   1.334  -0.025  -0.001   0.088
 -0.000  -0.000   0.059  -0.003  -0.025   0.004  -0.000  -0.002
  0.014   0.001  -0.003   0.083  -0.001  -0.000   0.005  -0.000
  0.000   0.000  -0.025  -0.001   0.088  -0.002  -0.000   0.006


------------------------ aborting loop because EDIFF is reached ----------------------------------------


    CHARGE:  cpu time      3.8799: real time      3.9093
    FORLOC:  cpu time      0.1136: real time      0.1145
    FORNL :  cpu time     48.3191: real time     48.7900
    STRESS:  cpu time     86.9067: real time     87.6028
    FORCOR:  cpu time      0.3602: real time      0.3623
    FORHAR:  cpu time      0.1733: real time      0.1747
    MIXING:  cpu time      0.0145: real time      0.0146
    OFIELD:  cpu time      0.0001: real time      0.0001

 ---------------------------------------------------------------------------------------------

         DFTD3 V3.0 Rev 1        
 DF pbe       
 parameters
 k1-k3        =   16.0000    1.3333   -4.0000
 Edisp (eV)  -12.34400

 E6    (eV) :    -8.2240
 E8    (eV) :    -4.1200
 % E8        : 33.38
    FORVDW:  cpu time      0.1997: real time      0.2009

  FORCE on cell =-STRESS in cart. coord.  units (eV):
  Direction    XX          YY          ZZ          XY          YZ          ZX
  --------------------------------------------------------------------------------------
  Alpha Z    16.92283    16.92283    16.92283
  Ewald   42290.23465 41866.78709-43700.35943  -373.11427   -29.38836   -17.13630
  Hartree 41805.43614 41761.36345-41674.47983   -38.83456    -3.71888    -2.16494
  E(xc)    -404.48559  -405.36179  -410.55452    -0.77262     0.07550     0.04423
  Local  -84864.43429-84451.45860 84544.94439   363.89309    35.63684    20.76847
  n-local    81.85831    53.91259    69.56563   -24.62374    -1.61349    -0.94518
  augment    -3.33463    -4.06182    -3.10874    -0.64047    -0.11771    -0.06560
  Kinetic  1078.56248  1164.04600  1156.28382    75.37083    -0.81180    -0.47757
  Fock        0.00000     0.00000     0.00000     0.00000     0.00000     0.00000
  vdW       -12.96490   -12.65039    -4.90369     0.27711     0.05719     0.03332
  -------------------------------------------------------------------------------------
  Total     -12.20499   -10.50064    -5.68955     1.55537     0.11928     0.05642
  in kB      -3.94983    -3.39826    -1.84128     0.50336     0.03860     0.01826
  external pressure =       -3.06 kB  Pullay stress =        0.00 kB


 VOLUME and BASIS-vectors are now :
 -----------------------------------------------------------------------------
  energy-cutoff  :      600.00
  volume of cell :     4950.73
      direct lattice vectors                 reciprocal lattice vectors
    10.479973204  7.656603285  0.000000000     0.042323097  0.072676493  0.000000000
    -8.995044541  5.238256985  0.000000000    -0.061862403  0.084674144  0.000000000
     0.000000000  0.000000000 40.000000000     0.000000000  0.000000000  0.025000000

  length of vectors
    12.978960367 10.409138415 40.000000000     0.084101826  0.104864997  0.025000000


 FORCES acting on ions
    electron-ion (+dipol)            ewald-force                    non-local-force                 convergence-correction
 -----------------------------------------------------------------------------------------------
   0.170E+00 -.686E-02 -.617E+02   -.559E-01 0.190E+00 0.624E+02   -.137E+00 -.170E+00 -.724E+00   -.379E-07 0.200E-07 -.349E-06
   0.369E-01 0.617E-01 -.618E+02   0.736E-01 0.128E+00 0.625E+02   -.110E+00 -.187E+00 -.689E+00   0.327E-07 0.320E-07 -.299E-06
   0.437E-01 0.737E-01 -.618E+02   0.659E-01 0.114E+00 0.625E+02   -.110E+00 -.188E+00 -.689E+00   0.206E-07 0.108E-07 -.271E-06
   0.449E-01 0.749E-01 -.618E+02   0.646E-01 0.113E+00 0.625E+02   -.110E+00 -.188E+00 -.689E+00   -.115E-07 0.732E-08 -.253E-06
   0.504E-01 0.771E-01 -.618E+02   0.585E-01 0.111E+00 0.625E+02   -.109E+00 -.188E+00 -.688E+00   -.324E-07 -.130E-07 -.267E-06
   0.471E-01 0.729E-01 -.618E+02   0.593E-01 0.117E+00 0.625E+02   -.108E+00 -.189E+00 -.687E+00   -.640E-07 0.413E-07 -.308E-06
   0.450E-01 0.691E-01 -.618E+02   0.640E-01 0.119E+00 0.625E+02   -.109E+00 -.189E+00 -.688E+00   -.266E-07 0.437E-07 -.289E-06
   0.440E-01 0.735E-01 -.618E+02   0.655E-01 0.114E+00 0.625E+02   -.110E+00 -.188E+00 -.689E+00   0.169E-07 0.145E-07 -.284E-06
   0.445E-01 0.748E-01 -.618E+02   0.651E-01 0.113E+00 0.625E+02   -.110E+00 -.188E+00 -.689E+00   0.775E-08 0.482E-08 -.272E-06
   0.455E-01 0.750E-01 -.618E+02   0.639E-01 0.113E+00 0.625E+02   -.110E+00 -.188E+00 -.689E+00   -.810E-08 -.103E-08 -.279E-06
   0.444E-01 0.746E-01 -.618E+02   0.651E-01 0.113E+00 0.625E+02   -.110E+00 -.188E+00 -.689E+00   0.410E-08 0.429E-08 -.258E-06
   0.446E-01 0.737E-01 -.618E+02   0.647E-01 0.114E+00 0.625E+02   -.110E+00 -.188E+00 -.689E+00   -.143E-07 0.939E-08 -.260E-06
   0.444E-01 0.742E-01 -.618E+02   0.651E-01 0.113E+00 0.625E+02   -.110E+00 -.188E+00 -.689E+00   -.191E-07 0.143E-07 -.272E-06
   0.445E-01 0.752E-01 -.618E+02   0.651E-01 0.112E+00 0.625E+02   -.110E+00 -.188E+00 -.689E+00   0.163E-07 0.305E-09 -.265E-06
   0.442E-01 0.757E-01 -.618E+02   0.655E-01 0.112E+00 0.625E+02   -.110E+00 -.187E+00 -.689E+00   0.352E-08 -.137E-07 -.269E-06
   0.416E-01 0.761E-01 -.618E+02   0.711E-01 0.110E+00 0.625E+02   -.113E+00 -.186E+00 -.687E+00   0.398E-07 -.733E-08 -.276E-06
   0.436E-01 0.743E-01 -.618E+02   0.663E-01 0.113E+00 0.625E+02   -.110E+00 -.188E+00 -.689E+00   0.776E-08 0.619E-09 -.246E-06
   0.444E-01 0.746E-01 -.618E+02   0.652E-01 0.113E+00 0.625E+02   -.110E+00 -.188E+00 -.689E+00   -.602E-08 0.105E-07 -.258E-06
   0.449E-01 0.759E-01 -.618E+02   0.647E-01 0.112E+00 0.625E+02   -.110E+00 -.188E+00 -.689E+00   -.125E-07 0.648E-08 -.257E-06
   0.437E-01 0.810E-01 -.618E+02   0.664E-01 0.106E+00 0.625E+02   -.111E+00 -.187E+00 -.688E+00   -.612E-08 -.151E-07 -.259E-06
   -.886E-01 0.144E+00 -.617E+02   0.192E+00 0.458E-01 0.624E+02   -.808E-01 -.203E+00 -.724E+00   0.683E-07 -.404E-07 -.345E-06
   0.394E-01 0.724E-01 -.618E+02   0.712E-01 0.115E+00 0.625E+02   -.111E+00 -.188E+00 -.688E+00   0.438E-07 -.113E-07 -.282E-06
   0.441E-01 0.744E-01 -.618E+02   0.655E-01 0.113E+00 0.625E+02   -.110E+00 -.188E+00 -.689E+00   0.141E-07 -.444E-08 -.253E-06
   0.453E-01 0.757E-01 -.618E+02   0.643E-01 0.112E+00 0.625E+02   -.110E+00 -.188E+00 -.689E+00   0.321E-08 -.132E-07 -.255E-06
   0.534E-01 0.900E-01 -.618E+02   0.556E-01 0.966E-01 0.625E+02   -.110E+00 -.188E+00 -.689E+00   -.118E-07 -.514E-07 -.271E-06
   -.508E-01 -.887E-01 0.618E+02   -.591E-01 -.100E+00 -.625E+02   0.110E+00 0.190E+00 0.687E+00   0.233E-07 -.213E-08 -.283E-07
   -.480E-01 -.813E-01 0.618E+02   -.615E-01 -.107E+00 -.625E+02   0.109E+00 0.188E+00 0.690E+00   0.126E-07 -.514E-08 0.475E-08
   -.451E-01 -.786E-01 0.618E+02   -.644E-01 -.110E+00 -.625E+02   0.109E+00 0.188E+00 0.689E+00   -.824E-08 0.601E-08 0.321E-07
   -.425E-01 -.770E-01 0.618E+02   -.669E-01 -.111E+00 -.625E+02   0.109E+00 0.188E+00 0.689E+00   -.992E-08 -.496E-09 0.233E-07
   -.323E-01 -.733E-01 0.618E+02   -.748E-01 -.114E+00 -.625E+02   0.107E+00 0.188E+00 0.687E+00   -.185E-07 -.163E-07 -.752E-08
   -.388E-01 -.868E-01 0.618E+02   -.691E-01 -.103E+00 -.625E+02   0.109E+00 0.188E+00 0.691E+00   -.238E-07 0.231E-07 -.288E-08
   -.458E-01 -.826E-01 0.618E+02   -.636E-01 -.106E+00 -.625E+02   0.109E+00 0.188E+00 0.690E+00   0.283E-08 0.926E-08 0.770E-08
   -.452E-01 -.791E-01 0.618E+02   -.642E-01 -.109E+00 -.625E+02   0.109E+00 0.188E+00 0.690E+00   0.662E-08 0.210E-07 0.252E-07
   -.440E-01 -.779E-01 0.618E+02   -.655E-01 -.110E+00 -.625E+02   0.109E+00 0.188E+00 0.689E+00   -.215E-07 0.180E-07 0.219E-07
   -.405E-01 -.788E-01 0.618E+02   -.691E-01 -.109E+00 -.625E+02   0.109E+00 0.188E+00 0.690E+00   -.325E-07 0.129E-07 0.858E-08
   -.434E-01 -.804E-01 0.618E+02   -.658E-01 -.108E+00 -.625E+02   0.109E+00 0.188E+00 0.689E+00   0.129E-07 -.196E-07 0.437E-07
   -.445E-01 -.805E-01 0.618E+02   -.648E-01 -.108E+00 -.625E+02   0.109E+00 0.188E+00 0.689E+00   -.160E-08 -.959E-08 0.366E-07
   -.449E-01 -.787E-01 0.618E+02   -.645E-01 -.110E+00 -.625E+02   0.109E+00 0.188E+00 0.689E+00   0.152E-07 0.238E-08 0.181E-07
   -.448E-01 -.774E-01 0.618E+02   -.645E-01 -.111E+00 -.625E+02   0.109E+00 0.188E+00 0.689E+00   0.198E-07 -.204E-07 0.213E-07
   -.446E-01 -.780E-01 0.618E+02   -.649E-01 -.110E+00 -.625E+02   0.109E+00 0.188E+00 0.690E+00   0.115E-07 -.276E-07 0.164E-07
   -.473E-01 -.781E-01 0.618E+02   -.625E-01 -.110E+00 -.625E+02   0.109E+00 0.188E+00 0.689E+00   -.873E-08 0.173E-08 0.506E-07
   -.452E-01 -.791E-01 0.618E+02   -.642E-01 -.109E+00 -.625E+02   0.109E+00 0.188E+00 0.689E+00   -.382E-09 0.377E-08 0.527E-07
   -.446E-01 -.781E-01 0.618E+02   -.648E-01 -.110E+00 -.625E+02   0.109E+00 0.188E+00 0.689E+00   -.107E-07 0.674E-08 0.301E-07
   -.447E-01 -.757E-01 0.618E+02   -.647E-01 -.113E+00 -.625E+02   0.109E+00 0.188E+00 0.689E+00   0.545E-08 -.124E-07 0.298E-07
   -.473E-01 -.749E-01 0.618E+02   -.620E-01 -.114E+00 -.625E+02   0.109E+00 0.188E+00 0.690E+00   0.360E-08 -.103E-07 0.203E-07
   -.551E-01 -.773E-01 0.618E+02   -.560E-01 -.110E+00 -.625E+02   0.109E+00 0.188E+00 0.691E+00   0.108E-08 0.491E-08 0.182E-07
   -.468E-01 -.792E-01 0.618E+02   -.627E-01 -.109E+00 -.625E+02   0.109E+00 0.188E+00 0.689E+00   -.126E-07 0.310E-08 0.320E-07
   -.447E-01 -.781E-01 0.618E+02   -.648E-01 -.110E+00 -.625E+02   0.109E+00 0.188E+00 0.689E+00   0.125E-07 -.971E-08 0.388E-07
   -.428E-01 -.750E-01 0.618E+02   -.666E-01 -.113E+00 -.625E+02   0.109E+00 0.188E+00 0.690E+00   -.883E-08 -.104E-07 0.353E-07
   -.465E-01 -.650E-01 0.618E+02   -.631E-01 -.121E+00 -.625E+02   0.109E+00 0.186E+00 0.687E+00   0.362E-08 -.143E-07 0.895E-08
   0.175E+00 0.301E+00 -.779E+02   -.216E+00 -.372E+00 0.803E+02   0.408E-01 0.702E-01 -.228E+01   0.154E-07 -.862E-08 -.838E-07
   0.172E+00 0.296E+00 -.782E+02   -.212E+00 -.364E+00 0.804E+02   0.395E-01 0.685E-01 -.227E+01   0.261E-07 0.528E-08 -.120E-06
   0.172E+00 0.296E+00 -.782E+02   -.211E+00 -.364E+00 0.804E+02   0.399E-01 0.687E-01 -.227E+01   0.963E-08 0.116E-08 -.128E-06
   0.172E+00 0.296E+00 -.782E+02   -.211E+00 -.364E+00 0.804E+02   0.399E-01 0.687E-01 -.227E+01   -.669E-09 -.191E-09 -.132E-06
   0.172E+00 0.296E+00 -.782E+02   -.211E+00 -.364E+00 0.804E+02   0.403E-01 0.689E-01 -.227E+01   -.972E-08 -.167E-07 -.128E-06
   0.173E+00 0.295E+00 -.782E+02   -.211E+00 -.364E+00 0.804E+02   0.407E-01 0.682E-01 -.227E+01   -.416E-07 0.260E-07 -.104E-06
   0.172E+00 0.296E+00 -.782E+02   -.211E+00 -.364E+00 0.804E+02   0.399E-01 0.682E-01 -.227E+01   0.199E-08 0.275E-07 -.115E-06
   0.172E+00 0.296E+00 -.782E+02   -.211E+00 -.364E+00 0.804E+02   0.399E-01 0.686E-01 -.227E+01   0.926E-08 0.674E-08 -.124E-06
   0.172E+00 0.296E+00 -.782E+02   -.211E+00 -.364E+00 0.804E+02   0.400E-01 0.686E-01 -.227E+01   -.255E-08 0.447E-08 -.138E-06
   0.172E+00 0.296E+00 -.782E+02   -.211E+00 -.364E+00 0.804E+02   0.400E-01 0.686E-01 -.227E+01   -.724E-08 0.179E-08 -.133E-06
   0.172E+00 0.296E+00 -.782E+02   -.211E+00 -.364E+00 0.804E+02   0.400E-01 0.686E-01 -.227E+01   -.154E-07 0.140E-07 -.135E-06
   0.172E+00 0.296E+00 -.782E+02   -.211E+00 -.364E+00 0.804E+02   0.400E-01 0.686E-01 -.227E+01   -.134E-07 0.177E-07 -.133E-06
   0.172E+00 0.296E+00 -.782E+02   -.211E+00 -.364E+00 0.804E+02   0.400E-01 0.687E-01 -.227E+01   -.138E-08 0.632E-08 -.120E-06
   0.172E+00 0.296E+00 -.782E+02   -.211E+00 -.364E+00 0.804E+02   0.399E-01 0.687E-01 -.227E+01   0.907E-08 -.104E-08 -.136E-06
   0.172E+00 0.296E+00 -.782E+02   -.211E+00 -.364E+00 0.804E+02   0.399E-01 0.686E-01 -.227E+01   0.716E-09 -.301E-08 -.132E-06
   0.172E+00 0.296E+00 -.782E+02   -.211E+00 -.364E+00 0.804E+02   0.398E-01 0.687E-01 -.227E+01   0.122E-07 0.271E-08 -.132E-06
   0.172E+00 0.296E+00 -.782E+02   -.211E+00 -.364E+00 0.804E+02   0.399E-01 0.687E-01 -.227E+01   0.250E-08 0.682E-08 -.134E-06
   0.172E+00 0.296E+00 -.782E+02   -.211E+00 -.364E+00 0.804E+02   0.399E-01 0.687E-01 -.227E+01   -.683E-08 0.862E-08 -.128E-06
   0.172E+00 0.296E+00 -.782E+02   -.211E+00 -.364E+00 0.804E+02   0.399E-01 0.687E-01 -.227E+01   -.757E-09 0.491E-08 -.128E-06
   0.172E+00 0.296E+00 -.782E+02   -.211E+00 -.364E+00 0.804E+02   0.399E-01 0.687E-01 -.227E+01   -.164E-08 -.114E-08 -.129E-06
   0.171E+00 0.296E+00 -.782E+02   -.212E+00 -.364E+00 0.804E+02   0.392E-01 0.691E-01 -.227E+01   0.397E-07 -.164E-07 -.122E-06
   0.172E+00 0.296E+00 -.782E+02   -.211E+00 -.364E+00 0.804E+02   0.399E-01 0.687E-01 -.227E+01   0.146E-07 -.147E-08 -.135E-06
   0.172E+00 0.296E+00 -.782E+02   -.211E+00 -.364E+00 0.804E+02   0.400E-01 0.686E-01 -.227E+01   0.382E-08 0.309E-08 -.134E-06
   0.172E+00 0.296E+00 -.782E+02   -.211E+00 -.364E+00 0.804E+02   0.400E-01 0.686E-01 -.227E+01   -.775E-09 0.388E-09 -.137E-06
   0.172E+00 0.296E+00 -.782E+02   -.211E+00 -.364E+00 0.804E+02   0.399E-01 0.690E-01 -.227E+01   -.193E-08 -.143E-07 -.134E-06
   -.170E+00 -.296E+00 0.782E+02   0.210E+00 0.363E+00 -.804E+02   -.396E-01 -.678E-01 0.227E+01   0.100E-08 0.142E-08 0.692E-07
   -.172E+00 -.295E+00 0.782E+02   0.212E+00 0.362E+00 -.804E+02   -.397E-01 -.679E-01 0.227E+01   0.664E-08 -.106E-08 0.708E-07
   -.171E+00 -.294E+00 0.781E+02   0.211E+00 0.361E+00 -.804E+02   -.397E-01 -.680E-01 0.227E+01   -.618E-08 0.764E-08 0.731E-07
   -.171E+00 -.293E+00 0.781E+02   0.210E+00 0.360E+00 -.804E+02   -.397E-01 -.680E-01 0.227E+01   -.143E-07 0.759E-08 0.731E-07
   -.169E+00 -.293E+00 0.782E+02   0.209E+00 0.361E+00 -.804E+02   -.397E-01 -.680E-01 0.227E+01   -.155E-07 0.697E-09 0.750E-07
   -.171E+00 -.294E+00 0.782E+02   0.210E+00 0.362E+00 -.804E+02   -.398E-01 -.679E-01 0.227E+01   -.247E-08 -.165E-08 0.828E-07
   -.171E+00 -.294E+00 0.781E+02   0.211E+00 0.362E+00 -.804E+02   -.397E-01 -.679E-01 0.227E+01   0.104E-08 -.120E-08 0.710E-07
   -.171E+00 -.294E+00 0.781E+02   0.211E+00 0.361E+00 -.804E+02   -.397E-01 -.680E-01 0.227E+01   0.611E-08 0.484E-08 0.751E-07
   -.171E+00 -.293E+00 0.781E+02   0.211E+00 0.360E+00 -.804E+02   -.397E-01 -.680E-01 0.227E+01   -.111E-08 -.154E-08 0.864E-07
   -.170E+00 -.293E+00 0.781E+02   0.210E+00 0.361E+00 -.804E+02   -.397E-01 -.680E-01 0.227E+01   -.735E-08 -.435E-08 0.888E-07
   -.171E+00 -.294E+00 0.781E+02   0.211E+00 0.361E+00 -.804E+02   -.397E-01 -.679E-01 0.227E+01   0.552E-08 -.900E-08 0.707E-07
   -.171E+00 -.294E+00 0.781E+02   0.211E+00 0.361E+00 -.804E+02   -.397E-01 -.679E-01 0.227E+01   0.163E-09 -.171E-08 0.677E-07
   -.171E+00 -.293E+00 0.781E+02   0.211E+00 0.361E+00 -.804E+02   -.398E-01 -.679E-01 0.227E+01   -.171E-08 -.932E-09 0.678E-07
   -.171E+00 -.293E+00 0.781E+02   0.211E+00 0.360E+00 -.804E+02   -.397E-01 -.679E-01 0.227E+01   0.101E-07 -.143E-07 0.730E-07
   -.172E+00 -.293E+00 0.781E+02   0.211E+00 0.360E+00 -.804E+02   -.397E-01 -.679E-01 0.227E+01   0.698E-08 -.165E-07 0.762E-07
   -.172E+00 -.293E+00 0.782E+02   0.212E+00 0.361E+00 -.804E+02   -.396E-01 -.680E-01 0.227E+01   -.874E-08 0.518E-08 0.757E-07
   -.172E+00 -.294E+00 0.781E+02   0.211E+00 0.361E+00 -.804E+02   -.397E-01 -.680E-01 0.227E+01   -.301E-08 0.284E-08 0.690E-07
   -.171E+00 -.293E+00 0.781E+02   0.211E+00 0.361E+00 -.804E+02   -.397E-01 -.680E-01 0.227E+01   -.612E-09 -.340E-08 0.747E-07
   -.171E+00 -.292E+00 0.781E+02   0.211E+00 0.359E+00 -.804E+02   -.397E-01 -.680E-01 0.227E+01   -.584E-08 -.673E-08 0.677E-07
   -.172E+00 -.291E+00 0.782E+02   0.212E+00 0.359E+00 -.804E+02   -.397E-01 -.680E-01 0.227E+01   -.282E-08 -.250E-08 0.750E-07
   -.173E+00 -.294E+00 0.782E+02   0.213E+00 0.361E+00 -.804E+02   -.396E-01 -.678E-01 0.227E+01   0.102E-08 -.232E-08 0.780E-07
   -.172E+00 -.294E+00 0.781E+02   0.212E+00 0.361E+00 -.804E+02   -.397E-01 -.679E-01 0.227E+01   -.555E-08 -.113E-08 0.743E-07
   -.171E+00 -.293E+00 0.781E+02   0.211E+00 0.361E+00 -.804E+02   -.397E-01 -.679E-01 0.227E+01   0.350E-08 -.739E-08 0.682E-07
   -.170E+00 -.293E+00 0.781E+02   0.210E+00 0.360E+00 -.804E+02   -.398E-01 -.680E-01 0.227E+01   -.259E-08 -.105E-07 0.698E-07
   -.170E+00 -.292E+00 0.782E+02   0.210E+00 0.359E+00 -.804E+02   -.398E-01 -.681E-01 0.227E+01   -.667E-10 -.112E-07 0.747E-07
 -----------------------------------------------------------------------------------------------
   0.151E-01 -.351E-01 0.714E-01   0.444E-14 -.548E-13 0.142E-13   -.151E-01 0.351E-01 -.714E-01   0.767E-08 0.113E-07 -.769E-05
 
 
 POSITION                                       TOTAL-FORCE (eV/Angst)
 -----------------------------------------------------------------------------------
     -0.75824      0.77579      4.89305        -0.022194      0.014813     -0.085004
      1.33776      2.30711      4.89305         0.001432      0.003233     -0.048129
      3.43375      3.83843      4.89305         0.000133      0.001085     -0.047187
      5.52974      5.36975      4.89305         0.000144      0.001029     -0.047148
      7.62574      6.90107      4.89305         0.000171      0.001110     -0.047432
     -2.55725      1.82344      4.89305        -0.000546      0.001286     -0.046512
     -0.46125      3.35476      4.89305         0.000252      0.001025     -0.047382
      1.63474      4.88608      4.89305         0.000206      0.001042     -0.047185
      3.73074      6.41740      4.89305         0.000132      0.000998     -0.047077
      5.82673      7.94872      4.89305         0.000272      0.001172     -0.047161
     -4.35626      2.87109      4.89305         0.000140      0.001011     -0.046807
     -2.26026      4.40241      4.89305         0.000139      0.000855     -0.047190
     -0.16427      5.93373      4.89305         0.000156      0.001068     -0.047154
      1.93173      7.46505      4.89305         0.000152      0.001024     -0.047148
      4.02772      8.99637      4.89305         0.000214      0.001206     -0.047162
     -6.15527      3.91874      4.89305         0.000716      0.000551     -0.046513
     -4.05927      5.45006      4.89305         0.000004      0.000934     -0.047190
     -1.96328      6.98138      4.89305         0.000191      0.001100     -0.047111
      0.13272      8.51270      4.89305         0.000086      0.001009     -0.047219
      2.22871     10.04402      4.89305         0.000210      0.001087     -0.047431
     -7.95427      4.96639      4.89305         0.023159     -0.011597     -0.084994
     -5.85828      6.49771      4.89305         0.000095      0.001116     -0.047382
     -3.76229      8.02903      4.89305         0.000181      0.001054     -0.047153
     -1.66629      9.56035      4.89305         0.000163      0.000963     -0.047219
      0.42970     11.09167      4.89305        -0.000799     -0.000600     -0.048502
      0.65639      1.13685      3.10695        -0.000653     -0.000647      0.042712
      2.75238      2.66817      3.10695        -0.001033     -0.001098      0.047320
      4.84838      4.19949      3.10695        -0.000958     -0.001047      0.047256
      6.94437      5.73081      3.10695        -0.000853     -0.000961      0.047306
      9.04037      7.26213      3.10695        -0.000372     -0.000639      0.046352
     -1.14262      2.18450      3.10695         0.000263     -0.002167      0.047747
      0.95337      3.71582      3.10695        -0.000857     -0.001200      0.047321
      3.04937      5.24714      3.10695        -0.000901     -0.001073      0.047232
      5.14536      6.77846      3.10695        -0.000921     -0.001006      0.047257
      7.24136      8.30979      3.10695        -0.001290     -0.000970      0.047322
     -2.94163      3.23215      3.10695        -0.000584     -0.001255      0.047281
     -0.84564      4.76347      3.10695        -0.000784     -0.001135      0.047234
      1.25036      6.29480      3.10695        -0.000850     -0.001110      0.047256
      3.34635      7.82612      3.10695        -0.000833     -0.001057      0.047255
      5.44235      9.35744      3.10695        -0.000964     -0.001182      0.047162
     -4.74064      4.27981      3.10695        -0.001216     -0.000888      0.047283
     -2.64464      5.81113      3.10695        -0.000889     -0.001052      0.047266
     -0.54865      7.34245      3.10695        -0.000866     -0.001042      0.047270
      1.54734      8.87377      3.10695        -0.000827     -0.000976      0.047307
      3.64334     10.40509      3.10695        -0.000619     -0.001360      0.047322
     -6.53965      5.32746      3.10695        -0.002427     -0.000599      0.047746
     -4.44365      6.85878      3.10695        -0.001013     -0.001002      0.047235
     -2.34766      8.39010      3.10695        -0.000892     -0.001027      0.047269
     -0.25166      9.92142      3.10695        -0.000863     -0.001008      0.047402
      1.84433     11.45274      3.10695        -0.000784     -0.000398      0.046352
      0.12007      0.21562      5.88669        -0.000493     -0.001257      0.044962
      2.21607      1.74694      5.89669         0.000113      0.000578     -0.036760
      4.31206      3.27826      5.89669         0.000689      0.000848     -0.037136
      6.40806      4.80958      5.89669         0.000706      0.000833     -0.037119
      8.50405      6.34090      5.89669         0.001241      0.001092     -0.036740
     -1.67894      1.26327      5.89669         0.002519     -0.000263     -0.036893
      0.41706      2.79459      5.89669         0.000804      0.000122     -0.036737
      2.51305      4.32591      5.89669         0.000742      0.000788     -0.037036
      4.60905      5.85723      5.89669         0.000780      0.000804     -0.037104
      6.70504      7.38855      5.89669         0.000904      0.000723     -0.037023
     -3.47795      2.31092      5.89669         0.000832      0.000726     -0.037119
     -1.38195      3.84224      5.89669         0.000907      0.000694     -0.037044
      0.71404      5.37356      5.89669         0.000776      0.000794     -0.037142
      2.81004      6.90488      5.89669         0.000733      0.000821     -0.037148
      4.90603      8.43621      5.89669         0.000698      0.000772     -0.037121
     -5.27696      3.35857      5.89669         0.000625      0.000871     -0.037109
     -3.18096      4.88989      5.89669         0.000722      0.000840     -0.037104
     -1.08497      6.42122      5.89669         0.000710      0.000817     -0.037114
      1.01103      7.95254      5.89669         0.000710      0.000841     -0.037092
      3.10702      9.48386      5.89669         0.000605      0.000915     -0.037013
     -7.07596      4.40623      5.89669        -0.001062      0.001803     -0.036899
     -4.97997      5.93755      5.89669         0.000583      0.000853     -0.037019
     -2.88397      7.46887      5.89669         0.000761      0.000783     -0.037116
     -0.78798      9.00019      5.89669         0.000779      0.000783     -0.037067
      1.30801     10.53151      5.89669         0.000715      0.001360     -0.036756
     -0.22216      1.69678      2.10331         0.000611     -0.000713      0.036289
      1.87384      3.22810      2.10331         0.000024     -0.000747      0.037059
      3.96983      4.75942      2.10331         0.000029     -0.000815      0.036982
      6.06583      6.29074      2.10331         0.000048     -0.000832      0.036992
      8.16182      7.82206      2.10331         0.000238     -0.000896      0.037108
     -2.02116      2.74443      2.10331        -0.000323     -0.000678      0.037021
      0.07483      4.27575      2.10331        -0.000023     -0.000733      0.037036
      2.17082      5.80707      2.10331        -0.000002     -0.000797      0.037031
      4.26682      7.33839      2.10331        -0.000035     -0.000836      0.037024
      6.36281      8.86971      2.10331         0.000015     -0.000868      0.037014
     -3.82017      3.79208      2.10331        -0.000018     -0.000782      0.037055
     -1.72418      5.32340      2.10331        -0.000076     -0.000734      0.037016
      0.37182      6.85472      2.10331        -0.000066     -0.000755      0.036993
      2.46781      8.38604      2.10331        -0.000052     -0.000764      0.036981
      4.56381      9.91736      2.10331        -0.000066     -0.000780      0.036995
     -5.61918      4.83973      2.10331         0.000279     -0.001052      0.037008
     -3.52319      6.37105      2.10331         0.000078     -0.000839      0.037002
     -1.42719      7.90237      2.10331         0.000032     -0.000836      0.037014
      0.66880      9.43369      2.10331        -0.000021     -0.000864      0.037060
      2.76480     10.96501      2.10331        -0.000194     -0.000675      0.037115
     -7.41819      5.88738      2.10331        -0.000228     -0.000174      0.036306
     -5.32220      7.41870      2.10331         0.000068     -0.000775      0.037037
     -3.22620      8.95002      2.10331        -0.000015     -0.000786      0.037028
     -1.13021     10.48134      2.10331        -0.000043     -0.000831      0.037050
      0.96579     12.01266      2.10331        -0.000180     -0.001053      0.036159
 -----------------------------------------------------------------------------------
    total drift:                                0.000000      0.000020      0.000011


--------------------------------------------------------------------------------------------------------



  FREE ENERGIE OF THE ION-ELECTRON SYSTEM (eV)
  ---------------------------------------------------
  free  energy   TOTEN  =      -356.90097857 eV

  energy  without entropy=     -356.86345839  energy(sigma->0) =     -356.88221848
 


--------------------------------------------------------------------------------------------------------


    POTLOK:  cpu time      0.4285: real time      0.4310


--------------------------------------------------------------------------------------------------------


     LOOP+:  cpu time   4208.6195: real time   4242.1224
 vacuum level on the upper side and lower side of the slab         1.077         1.078
    4ORBIT:  cpu time      0.0000: real time      0.0000

 total amount of memory used by VASP MPI-rank0   429906. kBytes
=======================================================================

   base                                    :      30000. kBytes
   nonl-proj                               :     113443. kBytes
   fftplans                                :      33603. kBytes
   grid                                    :      53432. kBytes
   one-center                              :         46. kBytes
   wavefun                                 :     199382. kBytes
 
  
  
 General timing and accounting informations for this job:
 ========================================================
  
                  Total CPU time used (sec):     4236.464
                            User time (sec):     4032.693
                          System time (sec):      203.770
                         Elapsed time (sec):     4270.600
  
                   Maximum memory used (kb):      953952.
                   Average memory used (kb):          N/A
  
                          Minor page faults:       164548
                          Major page faults:           89
                 Voluntary context switches:         1263
