 vasp.6.5.0 16Dec24 (build Jan 08 2025 16:17:04) complex                        
  
 executed on             LinuxIFC date 2025.07.25  20:58:19
 running   42 mpi-ranks, on    1 nodes
 distrk:  each k-point on   42 cores,    1 groups
 distr:  one band on NCORE=   1 cores,   42 groups


--------------------------------------------------------------------------------------------------------


 INCAR:
   SYSTEM = Convergence
   ISTART = 0
   ICHARG = 2
   PREC = Accurate
   ENCUT = 600
   LCHARG = .FALSE.
   LWAVE = .FALSE.
   ALGO = Normal
   NELM = 100
   EDIFF = 1E-6
   EDIFFG = -1E-3
   SIGMA = 0.05
   ISMEAR = 0
   ISPIN = 1
   NSW = 0
   IBRION = -1
   POTIM = .5
   ISIF = 2
   GGA = PE
   LDIPOL = .TRUE.
   IDIPOL = 3
   DIPOL = 0.5 0.5 0.1

 POTCAR:    PAW_PBE Be 06Sep2000                  
 -----------------------------------------------------------------------------
|                                                                             |
|           W    W    AA    RRRRR   N    N  II  N    N   GGGG   !!!           |
|           W    W   A  A   R    R  NN   N  II  NN   N  G    G  !!!           |
|           W    W  A    A  R    R  N N  N  II  N N  N  G       !!!           |
|           W WW W  AAAAAA  RRRRR   N  N N  II  N  N N  G  GGG   !            |
|           WW  WW  A    A  R   R   N   NN  II  N   NN  G    G                |
|           W    W  A    A  R    R  N    N  II  N    N   GGGG   !!!           |
|                                                                             |
|     For optimal performance we recommend to set                             |
|       NCORE = 2 up to number-of-cores-per-socket                            |
|     NCORE specifies how many cores store one orbital (NPAR=cpu/NCORE).      |
|     This setting can greatly improve the performance of VASP for DFT.       |
|     The default, NCORE=1 might be grossly inefficient on modern             |
|     multi-core architectures or massively parallel machines. Do your        |
|     own testing! More info at https://www.vasp.at/wiki/index.php/NCORE      |
|     Unfortunately you need to use the default for GW and RPA                |
|     calculations (for HF NCORE is supported but not extensively tested      |
|     yet).                                                                   |
|                                                                             |
 -----------------------------------------------------------------------------

 POTCAR:    PAW_PBE Be 06Sep2000                  
   SHA256 =  98a2d1e63100a984719ed1fa4aa623d62d7fd86152f07ada9bb3796889d1bbc8 Be/POTCAR             
   COPYR  = (c) Copyright 06Sep2000 Georg Kresse                                                    
   COPYR  = This file is part of the software VASP. Any use, copying, and all other rights are regul
   COPYR  = If you do not have a valid VASP license, you may not use, copy or distribute this file. 
   VRHFIN =Be: s2p0                                                                                 
   LEXCH  = PE                                                                                      
   EATOM  =    27.4793 eV,    2.0197 Ry                                                             
                                                                                                    
   TITEL  = PAW_PBE Be 06Sep2000                                                                    
   LULTRA =        F    use ultrasoft PP ?                                                          
   IUNSCR =        1    unscreen: 0-lin 1-nonlin 2-no                                               
   RPACOR =    1.580    partial core radius                                                         
   POMASS =    9.013; ZVAL   =    2.000    mass and valenz                                          
   RCORE  =    1.900    outmost cutoff radius                                                       
   RWIGS  =    1.880; RWIGS  =    0.995    wigner-seitz radius (au A)                               
   ENMAX  =  247.543; ENMIN  =  185.658 eV                                                          
   ICORE  =        2    local potential                                                             
   LCOR   =        T    correct aug charges                                                         
   LPAW   =        T    paw PP                                                                      
   EAUG   =  318.781                                                                                
   DEXC   =    0.000                                                                                
   RMAX   =    1.944    core radius for proj-oper                                                   
   RAUG   =    1.300    factor for augmentation sphere                                              
   RDEP   =    2.003    radius for radial grids                                                     
   RDEPT  =    1.802    core radius for aug-charge                                                  
                                                                                                    
   Atomic configuration                                                                             
    4 entries                                                                                       
     n  l   j            E        occ.                                                              
     1  0  0.50      -106.2287   2.0000                                                             
     2  0  0.50        -5.6162   1.9900                                                             
     2  1  0.50        -2.0244   0.0100                                                             
     3  2  1.50        -1.3606   0.0000                                                             
   Description                                                                                      
     l       E           TYP  RCUT    TYP  RCUT                                                     
     0     -5.6161739     23  1.900                                                                 
     0     27.2116520     23  1.900                                                                 
     1     -2.0243505     23  1.900                                                                 
     1     27.2116520     23  1.900                                                                 
     2     -1.3605826     15  1.500                                                                 
  local pseudopotential read in
  partial core-charges read in
  partial kinetic energy density read in
  atomic valenz-charges read in
  non local Contribution for L=           0  read in
    real space projection operators read in
  non local Contribution for L=           0  read in
    real space projection operators read in
  non local Contribution for L=           1  read in
    real space projection operators read in
  non local Contribution for L=           1  read in
    real space projection operators read in
    PAW grid and wavefunctions read in
 
   number of l-projection  operators is LMAX  =           4
   number of lm-projection operators is LMMAX =           8
 
  PAW_PBE Be 06Sep2000                  :
 energy of atom  1       EATOM=  -27.4793
 kinetic energy error for atom=    0.0000 (will be added to EATOM!!)
 
 
 POSCAR: alpha-beryllene with a = 2.13
  positions in direct lattice
  No initial velocities read in


 exchange-correlation table for PE
   RHO(1)=    0.500       N(1)  =     2000
   RHO(2)=  100.500       N(2)  =     4000
 


--------------------------------------------------------------------------------------------------------


 ion  position               nearest neighbor table
   1  0.000  0.000  0.100-
 
  LATTYP: Found a base centered orthorhombic cell.
 ALAT       =     2.1300000000
 B/A-ratio  =     1.7333562948
 C/A-ratio  =    18.7793427230
  
  Lattice vectors:
  
 A1 = (   1.0650000000,  -1.8460244540,   0.0000000000)
 A2 = (   1.0650000000,   1.8460244540,   0.0000000000)
 A3 = (   0.0000000000,   0.0000000000,  40.0000000000)


Analysis of symmetry for initial positions (statically):
=====================================================================
 Subroutine PRICEL returns:
 Original cell was already a primitive cell.
 

 Routine SETGRP: Setting up the symmetry group for a 
 base centered orthorhombic supercell.


 Subroutine GETGRP returns: Found  8 space group operations
 (whereof  4 operations were pure point group operations)
 out of a pool of  8 trial point group operations.


The static configuration has the point symmetry C_2v.
 The point group associated with its full space group is D_2h.


Analysis of symmetry for dynamics (positions and initial velocities):
=====================================================================
 Subroutine PRICEL returns:
 Original cell was already a primitive cell.
 

 Routine SETGRP: Setting up the symmetry group for a 
 base centered orthorhombic supercell.


 Subroutine GETGRP returns: Found  8 space group operations
 (whereof  4 operations were pure point group operations)
 out of a pool of  8 trial point group operations.


The dynamic configuration has the point symmetry C_2v.
 The point group associated with its full space group is D_2h.


 Subroutine INISYM returns: Found  8 space group operations
 (whereof  4 operations are pure point group operations),
 and found     1 'primitive' translations


----------------------------------------------------------------------------------------

                                     Primitive cell                                     

  volume of cell :     157.2813

  direct lattice vectors                    reciprocal lattice vectors
     2.130000000  0.000000000  0.000000000     0.469483568 -0.270852317  0.000000000
     1.065000000  1.846024454  0.000000000     0.000000000  0.541704633  0.000000000
     0.000000000  0.000000000 40.000000000     0.000000000  0.000000000  0.025000000

  length of vectors
     2.130000000  2.131204187 40.000000000     0.542010884  0.541704633  0.025000000

  position of ions in fractional coordinates (direct lattice)
     0.000000000  0.000000000  0.100000000

  ion indices of the primitive-cell ions
   primitive index   ion index
                 1           1

----------------------------------------------------------------------------------------

 
 
 KPOINTS: k-points                                

Automatic generation of k-mesh.
 Grid dimensions read from file:
 generate k-points for:   22   22    1

 Generating k-lattice:

  Cartesian coordinates                     Fractional coordinates (reciprocal lattice)
     0.021340162 -0.012311469  0.000000000     0.045454545  0.000000000  0.000000000
     0.000000000  0.024622938  0.000000000     0.000000000  0.045454545  0.000000000
     0.000000000  0.000000000  0.025000000     0.000000000  0.000000000  1.000000000

  Length of vectors
     0.024636858  0.024622938  0.025000000

  Shift w.r.t. Gamma in fractional coordinates (k-lattice)
     0.000000000  0.000000000  0.000000000

 
 Subroutine IBZKPT returns following result:
 ===========================================
 
 Found    133 irreducible k-points:
 
 Following reciprocal coordinates:
            Coordinates               Weight
  0.000000  0.000000  0.000000      1.000000
  0.045455  0.000000  0.000000      4.000000
  0.090909  0.000000  0.000000      4.000000
  0.136364  0.000000  0.000000      4.000000
  0.181818  0.000000  0.000000      4.000000
  0.227273  0.000000  0.000000      4.000000
  0.272727  0.000000  0.000000      4.000000
  0.318182  0.000000  0.000000      4.000000
  0.363636  0.000000  0.000000      4.000000
  0.409091  0.000000  0.000000      4.000000
  0.454545  0.000000  0.000000      4.000000
  0.500000  0.000000  0.000000      2.000000
  0.000000  0.045455  0.000000      2.000000
  0.090909  0.045455  0.000000      2.000000
  0.136364  0.045455  0.000000      4.000000
  0.181818  0.045455  0.000000      4.000000
  0.227273  0.045455  0.000000      4.000000
  0.272727  0.045455  0.000000      4.000000
  0.318182  0.045455  0.000000      4.000000
  0.363636  0.045455  0.000000      4.000000
  0.409091  0.045455  0.000000      4.000000
  0.454545  0.045455  0.000000      4.000000
  0.500000  0.045455  0.000000      4.000000
 -0.454545  0.045455  0.000000      4.000000
 -0.409091  0.045455  0.000000      4.000000
 -0.363636  0.045455  0.000000      4.000000
 -0.318182  0.045455  0.000000      4.000000
 -0.272727  0.045455  0.000000      4.000000
 -0.227273  0.045455  0.000000      4.000000
 -0.181818  0.045455  0.000000      4.000000
 -0.136364  0.045455  0.000000      4.000000
 -0.090909  0.045455  0.000000      4.000000
 -0.045455  0.045455  0.000000      4.000000
  0.000000  0.090909  0.000000      2.000000
  0.181818  0.090909  0.000000      2.000000
  0.227273  0.090909  0.000000      4.000000
  0.272727  0.090909  0.000000      4.000000
  0.318182  0.090909  0.000000      4.000000
  0.363636  0.090909  0.000000      4.000000
  0.409091  0.090909  0.000000      4.000000
  0.454545  0.090909  0.000000      4.000000
  0.500000  0.090909  0.000000      4.000000
 -0.454545  0.090909  0.000000      4.000000
 -0.409091  0.090909  0.000000      4.000000
 -0.363636  0.090909  0.000000      4.000000
 -0.318182  0.090909  0.000000      4.000000
 -0.272727  0.090909  0.000000      4.000000
 -0.227273  0.090909  0.000000      4.000000
 -0.181818  0.090909  0.000000      4.000000
 -0.136364  0.090909  0.000000      4.000000
 -0.090909  0.090909  0.000000      4.000000
 -0.045455  0.090909  0.000000      4.000000
  0.000000  0.136364  0.000000      2.000000
  0.272727  0.136364  0.000000      2.000000
  0.318182  0.136364  0.000000      4.000000
  0.363636  0.136364  0.000000      4.000000
  0.409091  0.136364  0.000000      4.000000
  0.454545  0.136364  0.000000      4.000000
  0.500000  0.136364  0.000000      4.000000
 -0.454545  0.136364  0.000000      4.000000
 -0.409091  0.136364  0.000000      4.000000
 -0.363636  0.136364  0.000000      4.000000
 -0.318182  0.136364  0.000000      4.000000
 -0.272727  0.136364  0.000000      4.000000
 -0.227273  0.136364  0.000000      4.000000
 -0.181818  0.136364  0.000000      4.000000
 -0.136364  0.136364  0.000000      4.000000
 -0.090909  0.136364  0.000000      4.000000
 -0.045455  0.136364  0.000000      4.000000
  0.000000  0.181818  0.000000      2.000000
  0.363636  0.181818  0.000000      2.000000
  0.409091  0.181818  0.000000      4.000000
  0.454545  0.181818  0.000000      4.000000
  0.500000  0.181818  0.000000      4.000000
 -0.454545  0.181818  0.000000      4.000000
 -0.409091  0.181818  0.000000      4.000000
 -0.363636  0.181818  0.000000      4.000000
 -0.318182  0.181818  0.000000      4.000000
 -0.272727  0.181818  0.000000      4.000000
 -0.227273  0.181818  0.000000      4.000000
 -0.181818  0.181818  0.000000      4.000000
 -0.136364  0.181818  0.000000      4.000000
 -0.090909  0.181818  0.000000      4.000000
 -0.045455  0.181818  0.000000      4.000000
  0.000000  0.227273  0.000000      2.000000
  0.454545  0.227273  0.000000      2.000000
  0.500000  0.227273  0.000000      4.000000
 -0.454545  0.227273  0.000000      4.000000
 -0.409091  0.227273  0.000000      4.000000
 -0.363636  0.227273  0.000000      4.000000
 -0.318182  0.227273  0.000000      4.000000
 -0.272727  0.227273  0.000000      4.000000
 -0.227273  0.227273  0.000000      4.000000
 -0.181818  0.227273  0.000000      4.000000
 -0.136364  0.227273  0.000000      4.000000
 -0.090909  0.227273  0.000000      4.000000
 -0.045455  0.227273  0.000000      4.000000
  0.000000  0.272727  0.000000      2.000000
 -0.454545  0.272727  0.000000      2.000000
 -0.409091  0.272727  0.000000      4.000000
 -0.363636  0.272727  0.000000      4.000000
 -0.318182  0.272727  0.000000      4.000000
 -0.272727  0.272727  0.000000      4.000000
 -0.227273  0.272727  0.000000      4.000000
 -0.181818  0.272727  0.000000      4.000000
 -0.136364  0.272727  0.000000      4.000000
 -0.090909  0.272727  0.000000      4.000000
 -0.045455  0.272727  0.000000      4.000000
  0.000000  0.318182  0.000000      2.000000
 -0.363636  0.318182  0.000000      2.000000
 -0.318182  0.318182  0.000000      4.000000
 -0.272727  0.318182  0.000000      4.000000
 -0.227273  0.318182  0.000000      4.000000
 -0.181818  0.318182  0.000000      4.000000
 -0.136364  0.318182  0.000000      4.000000
 -0.090909  0.318182  0.000000      4.000000
 -0.045455  0.318182  0.000000      4.000000
  0.000000  0.363636  0.000000      2.000000
 -0.272727  0.363636  0.000000      2.000000
 -0.227273  0.363636  0.000000      4.000000
 -0.181818  0.363636  0.000000      4.000000
 -0.136364  0.363636  0.000000      4.000000
 -0.090909  0.363636  0.000000      4.000000
 -0.045455  0.363636  0.000000      4.000000
  0.000000  0.409091  0.000000      2.000000
 -0.181818  0.409091  0.000000      2.000000
 -0.136364  0.409091  0.000000      4.000000
 -0.090909  0.409091  0.000000      4.000000
 -0.045455  0.409091  0.000000      4.000000
  0.000000  0.454545  0.000000      2.000000
 -0.090909  0.454545  0.000000      2.000000
 -0.045455  0.454545  0.000000      4.000000
  0.000000  0.500000  0.000000      1.000000
 
 Following cartesian coordinates:
            Coordinates               Weight
  0.000000  0.000000  0.000000      1.000000
  0.021340 -0.012311  0.000000      4.000000
  0.042680 -0.024623  0.000000      4.000000
  0.064020 -0.036934  0.000000      4.000000
  0.085361 -0.049246  0.000000      4.000000
  0.106701 -0.061557  0.000000      4.000000
  0.128041 -0.073869  0.000000      4.000000
  0.149381 -0.086180  0.000000      4.000000
  0.170721 -0.098492  0.000000      4.000000
  0.192061 -0.110803  0.000000      4.000000
  0.213402 -0.123115  0.000000      4.000000
  0.234742 -0.135426  0.000000      2.000000
  0.000000  0.024623  0.000000      2.000000
  0.042680  0.000000  0.000000      2.000000
  0.064020 -0.012311  0.000000      4.000000
  0.085361 -0.024623  0.000000      4.000000
  0.106701 -0.036934  0.000000      4.000000
  0.128041 -0.049246  0.000000      4.000000
  0.149381 -0.061557  0.000000      4.000000
  0.170721 -0.073869  0.000000      4.000000
  0.192061 -0.086180  0.000000      4.000000
  0.213402 -0.098492  0.000000      4.000000
  0.234742 -0.110803  0.000000      4.000000
 -0.213402  0.147738  0.000000      4.000000
 -0.192061  0.135426  0.000000      4.000000
 -0.170721  0.123115  0.000000      4.000000
 -0.149381  0.110803  0.000000      4.000000
 -0.128041  0.098492  0.000000      4.000000
 -0.106701  0.086180  0.000000      4.000000
 -0.085361  0.073869  0.000000      4.000000
 -0.064020  0.061557  0.000000      4.000000
 -0.042680  0.049246  0.000000      4.000000
 -0.021340  0.036934  0.000000      4.000000
  0.000000  0.049246  0.000000      2.000000
  0.085361  0.000000  0.000000      2.000000
  0.106701 -0.012311  0.000000      4.000000
  0.128041 -0.024623  0.000000      4.000000
  0.149381 -0.036934  0.000000      4.000000
  0.170721 -0.049246  0.000000      4.000000
  0.192061 -0.061557  0.000000      4.000000
  0.213402 -0.073869  0.000000      4.000000
  0.234742 -0.086180  0.000000      4.000000
 -0.213402  0.172361  0.000000      4.000000
 -0.192061  0.160049  0.000000      4.000000
 -0.170721  0.147738  0.000000      4.000000
 -0.149381  0.135426  0.000000      4.000000
 -0.128041  0.123115  0.000000      4.000000
 -0.106701  0.110803  0.000000      4.000000
 -0.085361  0.098492  0.000000      4.000000
 -0.064020  0.086180  0.000000      4.000000
 -0.042680  0.073869  0.000000      4.000000
 -0.021340  0.061557  0.000000      4.000000
  0.000000  0.073869  0.000000      2.000000
  0.128041 -0.000000  0.000000      2.000000
  0.149381 -0.012311  0.000000      4.000000
  0.170721 -0.024623  0.000000      4.000000
  0.192061 -0.036934  0.000000      4.000000
  0.213402 -0.049246  0.000000      4.000000
  0.234742 -0.061557  0.000000      4.000000
 -0.213402  0.196984  0.000000      4.000000
 -0.192061  0.184672  0.000000      4.000000
 -0.170721  0.172361  0.000000      4.000000
 -0.149381  0.160049  0.000000      4.000000
 -0.128041  0.147738  0.000000      4.000000
 -0.106701  0.135426  0.000000      4.000000
 -0.085361  0.123115  0.000000      4.000000
 -0.064020  0.110803  0.000000      4.000000
 -0.042680  0.098492  0.000000      4.000000
 -0.021340  0.086180  0.000000      4.000000
  0.000000  0.098492  0.000000      2.000000
  0.170721 -0.000000  0.000000      2.000000
  0.192061 -0.012311  0.000000      4.000000
  0.213402 -0.024623  0.000000      4.000000
  0.234742 -0.036934  0.000000      4.000000
 -0.213402  0.221606  0.000000      4.000000
 -0.192061  0.209295  0.000000      4.000000
 -0.170721  0.196984  0.000000      4.000000
 -0.149381  0.184672  0.000000      4.000000
 -0.128041  0.172361  0.000000      4.000000
 -0.106701  0.160049  0.000000      4.000000
 -0.085361  0.147738  0.000000      4.000000
 -0.064020  0.135426  0.000000      4.000000
 -0.042680  0.123115  0.000000      4.000000
 -0.021340  0.110803  0.000000      4.000000
  0.000000  0.123115  0.000000      2.000000
  0.213402  0.000000  0.000000      2.000000
  0.234742 -0.012311  0.000000      4.000000
 -0.213402  0.246229  0.000000      4.000000
 -0.192061  0.233918  0.000000      4.000000
 -0.170721  0.221606  0.000000      4.000000
 -0.149381  0.209295  0.000000      4.000000
 -0.128041  0.196984  0.000000      4.000000
 -0.106701  0.184672  0.000000      4.000000
 -0.085361  0.172361  0.000000      4.000000
 -0.064020  0.160049  0.000000      4.000000
 -0.042680  0.147738  0.000000      4.000000
 -0.021340  0.135426  0.000000      4.000000
  0.000000  0.147738  0.000000      2.000000
 -0.213402  0.270852  0.000000      2.000000
 -0.192061  0.258541  0.000000      4.000000
 -0.170721  0.246229  0.000000      4.000000
 -0.149381  0.233918  0.000000      4.000000
 -0.128041  0.221606  0.000000      4.000000
 -0.106701  0.209295  0.000000      4.000000
 -0.085361  0.196984  0.000000      4.000000
 -0.064020  0.184672  0.000000      4.000000
 -0.042680  0.172361  0.000000      4.000000
 -0.021340  0.160049  0.000000      4.000000
  0.000000  0.172361  0.000000      2.000000
 -0.170721  0.270852  0.000000      2.000000
 -0.149381  0.258541  0.000000      4.000000
 -0.128041  0.246229  0.000000      4.000000
 -0.106701  0.233918  0.000000      4.000000
 -0.085361  0.221606  0.000000      4.000000
 -0.064020  0.209295  0.000000      4.000000
 -0.042680  0.196984  0.000000      4.000000
 -0.021340  0.184672  0.000000      4.000000
  0.000000  0.196984  0.000000      2.000000
 -0.128041  0.270852  0.000000      2.000000
 -0.106701  0.258541  0.000000      4.000000
 -0.085361  0.246229  0.000000      4.000000
 -0.064020  0.233918  0.000000      4.000000
 -0.042680  0.221606  0.000000      4.000000
 -0.021340  0.209295  0.000000      4.000000
  0.000000  0.221606  0.000000      2.000000
 -0.085361  0.270852  0.000000      2.000000
 -0.064020  0.258541  0.000000      4.000000
 -0.042680  0.246229  0.000000      4.000000
 -0.021340  0.233918  0.000000      4.000000
  0.000000  0.246229  0.000000      2.000000
 -0.042680  0.270852  0.000000      2.000000
 -0.021340  0.258541  0.000000      4.000000
  0.000000  0.270852  0.000000      1.000000
 


--------------------------------------------------------------------------------------------------------




 Dimension of arrays:
   k-points           NKPTS =    133   k-points in BZ     NKDIM =    133   number of bands    NBANDS=     42
   number of dos      NEDOS =    301   number of ions     NIONS =      1
   non local maximal  LDIM  =      4   non local SUM 2l+1 LMDIM =      8
   total plane-waves  NPLWV = 103680
   max r-space proj   IRMAX =      1   max aug-charges    IRDMAX=  22579
   dimension x,y,z NGX =    18 NGY =   18 NGZ =  320
   dimension x,y,z NGXF=    36 NGYF=   36 NGZF=  640
   support grid    NGXF=    36 NGYF=   36 NGZF=  640
   ions per type =               1
   NGX,Y,Z   is equivalent  to a cutoff of  14.05, 14.04, 13.30 a.u.
   NGXF,Y,Z  is equivalent  to a cutoff of  28.10, 28.08, 26.60 a.u.

 SYSTEM =  Convergence                             
 POSCAR =  alpha-beryllene with a = 2.13           

 Startparameter for this run:
   NWRITE =      2    write-flag & timer
   PREC   = accura    normal or accurate (medium, high low for compatibility)
   ISTART =      0    job   : 0-new  1-cont  2-samecut
   ICHARG =      2    charge: 1-file 2-atom 10-const
   ISPIN  =      1    spin polarized calculation?
   LNONCOLLINEAR =      F non collinear calculations
   LSORBIT =      F    spin-orbit coupling
   INIWAV =      1    electr: 0-lowe 1-rand  2-diag
   LASPH  =      F    aspherical Exc in radial PAW
 Electronic Relaxation 1
   ENCUT  =  600.0 eV  44.10 Ry    6.64 a.u.   4.25  4.26 79.89*2*pi/ulx,y,z
   ENINI  =  600.0     initial cutoff
   ENAUG  =  318.8 eV  augmentation charge cutoff
   NELM   =    100;   NELMIN=  2; NELMDL= -5     # of ELM steps 
   EDIFF  = 0.1E-05   stopping-criterion for ELM
   LREAL  =      F    real-space projection
   NLSPLINE    = F    spline interpolate recip. space projectors
   LCOMPAT=      F    compatible to vasp.4.4
   GGA_COMPAT  = T    GGA compatible to vasp.4.4-vasp.4.6
   LMAXPAW     = -100 max onsite density
   LMAXMIX     =    2 max onsite mixed and CHGCAR
   VOSKOWN=      0    Vosko Wilk Nusair interpolation
   ROPT   =    0.00000
 Ionic relaxation
   EDIFFG = -.1E-02   stopping-criterion for IOM
   NSW    =      0    number of steps for IOM
   NBLOCK =      1;   KBLOCK =      1    inner block; outer block 
   IBRION =     -1    ionic relax: 0-MD 1-quasi-New 2-CG
   NFREE  =      0    steps in history (QN), initial steepest desc. (CG)
   ISIF   =      2    stress and relaxation
   IWAVPR =     10    prediction:  0-non 1-charg 2-wave 3-comb
   ISYM   =      2    0-nonsym 1-usesym 2-fastsym
   LCORR  =      T    Harris-Foulkes like correction to forces

   POTIM  = 0.5000    time-step for ionic-motion
   TEIN   =    0.0    initial temperature
   TEBEG  =    0.0;   TEEND  =   0.0 temperature during run
   SMASS  =  -3.00    Nose mass-parameter (am)
   estimated Nose-frequenzy (Omega)   =  0.10E-29 period in steps = 0.13E+47 mass=  -0.104E-27a.u.
   SCALEE = 1.0000    scale energy and forces
   NPACO  =    256;   APACO  = 10.0  distance and # of slots for P.C.
   PSTRESS=    0.0 pullay stress

  Mass of Ions in am
   POMASS =   9.01
  Ionic Valenz
   ZVAL   =   2.00
  Atomic Wigner-Seitz radii
   RWIGS  =  -1.00
  virtual crystal weights 
   VCA    =   1.00
   NELECT =       2.0000    total number of electrons
   NUPDOWN=      -1.0000    fix difference up-down

 DOS related values:
   EMIN   =  10.00;   EMAX   =-10.00  energy-range for DOS
   EFERMI =   0.00;   METHOD = LEGACY      
   ISMEAR =     0;   SIGMA  =   0.05  broadening in eV -4-tet -1-fermi 0-gaus
   EFERMI_NEDOS =   21; number of points for ismear=-14 and -15

 Electronic relaxation 2 (details)
   IALGO  =     38    algorithm
   LDIAG  =      T    sub-space diagonalisation (order eigenvalues)
   LSUBROT=      F    optimize rotation matrix (better conditioning)
   TURBO    =      0    0=normal 1=particle mesh
   IRESTART =      0    0=no restart 2=restart with 2 vectors
   NREBOOT  =      0    no. of reboots
   NMIN     =      0    reboot dimension
   EREF     =   0.00    reference energy to select bands
   IMIX   =      4    mixing-type and parameters
     AMIX     =   0.40;   BMIX     =  1.00
     AMIX_MAG =   1.60;   BMIX_MAG =  1.00
     AMIN     =   0.10
     WC   =   100.;   INIMIX=   1;  MIXPRE=   1;  MAXMIX= -45

 Intra band minimization:
   WEIMIN = 0.0000     energy-eigenvalue tresh-hold
   EBREAK =  0.60E-08  absolut break condition
   DEPER  =   0.30     relativ break condition  

   TIME   =   0.40     timestep for ELM

  volume/ion in A,a.u.               =     157.28      1061.39
  Fermi-wavevector in a.u.,A,eV,Ry     =   0.382114  0.722090  1.986597  0.146011
  Thomas-Fermi vector in A             =   1.318105
 
 Write flags
   LWAVE        =      F    write WAVECAR
   LDOWNSAMPLE  =      F    k-point downsampling of WAVECAR
   LCHARG       =      F    write CHGCAR
   LVTOT        =      F    write LOCPOT, total local potential
   LVHAR        =      F    write LOCPOT, Hartree potential only
   WRT_POTENTIAL= false  ! write potential to hdf5 file
   LELF         =      F    write electronic localiz. function (ELF)
   LORBIT       =      0    0 simple, 1 ext, 2 COOP (PROOUT), +10 PAW based schemes


 Python interface
   PLUGINS active      =      F    recompile with -DPLUGINS to activate
 
 Dipole corrections
   LMONO      =      F    monopole corrections only (constant potential shift)
   LDIPOL     =      T    correct potential (dipole corrections)
   IDIPOL     =      3    1-x, 2-y, 3-z, 4-all directions 
   EPSILON    =  1.0000000 bulk dielectric constant
   LVACPOTAV  =      F  vacuum potentials using an averaging scheme for the charge density
   VACPOTFLAT =  0.1000000 required flatness to determine vacuum potential
 
Coulomb truncation method
  LTRUNCATE          =      F  Coulomb kernel truncation to be used
  IDIMENSIONALITY    =      3  Dimensionality of cutoff (0 molecules / 2 surfaces)
  ISURFACE           =     -1  Direction of surface normal
  LCOARSEN           =      F  Coarsen the charge grid before padding, preferred

 
 Exchange correlation treatment:
   GGA     = PE    functional components
   XC_C    = 1    coefficients multiplying the functional components
   LIBXC   =     F    Libxc                    
   VOSKOWN =     0    Vosko Wilk Nusair interpolation
   LHFCALC =     F    Hartree Fock is set to
   LHFONE  =     F    Hartree Fock one center treatment
   AEXX    =    0.0000 exact exchange contribution

 Parameters of functionals:
   PE:
     No parameter
 
 Van der Waals corrections
   IVDW    =     0    specifies the selected vdW correction

 Linear response parameters
   LEPSILON=     F    determine dielectric tensor
   LRPA    =     F    only Hartree local field effects (RPA)
   LNABLA  =     F    use nabla operator in PAW spheres
   LVEL    =     F    velocity operator in full k-point grid
   CSHIFT  =0.1000    complex shift for real part using Kramers Kronig
   OMEGAMAX=  -1.0    maximum frequency
   DEG_THRESHOLD= 0.2000000E-02 threshold for treating states as degnerate
   RTIME   =   -0.100 relaxation time in fs
  (WPLASMAI=    0.000 imaginary part of plasma frequency in eV, 0.658/RTIME)
   DFIELD  = 0.0000000 0.0000000 0.0000000 field for delta impulse in time
 
  Optional k-point grid parameters
   LKPOINTS_OPT  =     F    use optional k-point grid
   KPOINTS_OPT_MODE=     1    mode for optional k-point grid
 
 Orbital magnetization related:
   ORBITALMAG=     F  switch on orbital magnetization
   LCHIMAG   =     F  perturbation theory with respect to B field
   DQ        =  0.001000  dq finite difference perturbation B field
   LLRAUG    =     F  two centre corrections for induced B field
   LBONE     =     F  B-component reconstruction in AE one-centre
   LVGVCALC  =     T  calculate vGv susceptibility
   LVGVAPPL  =     F  apply vGv susceptibility instead of pGv for G=0

 Random number generation:
   RANDOM_GENERATOR = DEFAULT
   PCG_SEED         = not used


--------------------------------------------------------------------------------------------------------


 Static calculation
 charge density and potential will be updated during run
 non-spin polarized calculation
 Variant of blocked Davidson
 Davidson routine will perform the subspace rotation
 perform sub-space diagonalisation
    after iterative eigenvector-optimisation
 modified Broyden-mixing scheme, WC =      100.0
 initial mixing is a Kerker type mixing with AMIX =  0.4000 and BMIX =      1.0000
 Hartree-type preconditioning will be used
 using additional bands           41
 reciprocal scheme for non local part
 use partial core corrections
 calculate Harris-corrections to forces 
   (improved forces if not selfconsistent)
 use gradient corrections 
 use of overlap-Matrix (Vanderbilt PP)
 Gauss-broadening in eV      SIGMA  =   0.05


--------------------------------------------------------------------------------------------------------


  energy-cutoff  :      600.00
  volume of cell :      157.28
      direct lattice vectors                 reciprocal lattice vectors
     2.130000000  0.000000000  0.000000000     0.469483568 -0.270852317  0.000000000
     1.065000000  1.846024454  0.000000000     0.000000000  0.541704633  0.000000000
     0.000000000  0.000000000 40.000000000     0.000000000  0.000000000  0.025000000

  length of vectors
     2.130000000  2.131204187 40.000000000     0.542010884  0.541704633  0.025000000


 
 k-points in units of 2pi/SCALE and weight: k-points                                
   0.00000000  0.00000000  0.00000000       0.002
   0.02134016 -0.01231147  0.00000000       0.008
   0.04268032 -0.02462294  0.00000000       0.008
   0.06402049 -0.03693441  0.00000000       0.008
   0.08536065 -0.04924588  0.00000000       0.008
   0.10670081 -0.06155734  0.00000000       0.008
   0.12804097 -0.07386881  0.00000000       0.008
   0.14938114 -0.08618028  0.00000000       0.008
   0.17072130 -0.09849175  0.00000000       0.008
   0.19206146 -0.11080322  0.00000000       0.008
   0.21340162 -0.12311469  0.00000000       0.008
   0.23474178 -0.13542616  0.00000000       0.004
   0.00000000  0.02462294  0.00000000       0.004
   0.04268032  0.00000000  0.00000000       0.004
   0.06402049 -0.01231147  0.00000000       0.008
   0.08536065 -0.02462294  0.00000000       0.008
   0.10670081 -0.03693441  0.00000000       0.008
   0.12804097 -0.04924588  0.00000000       0.008
   0.14938114 -0.06155734  0.00000000       0.008
   0.17072130 -0.07386881  0.00000000       0.008
   0.19206146 -0.08618028  0.00000000       0.008
   0.21340162 -0.09849175  0.00000000       0.008
   0.23474178 -0.11080322  0.00000000       0.008
  -0.21340162  0.14773763  0.00000000       0.008
  -0.19206146  0.13542616  0.00000000       0.008
  -0.17072130  0.12311469  0.00000000       0.008
  -0.14938114  0.11080322  0.00000000       0.008
  -0.12804097  0.09849175  0.00000000       0.008
  -0.10670081  0.08618028  0.00000000       0.008
  -0.08536065  0.07386881  0.00000000       0.008
  -0.06402049  0.06155734  0.00000000       0.008
  -0.04268032  0.04924588  0.00000000       0.008
  -0.02134016  0.03693441  0.00000000       0.008
   0.00000000  0.04924588  0.00000000       0.004
   0.08536065  0.00000000  0.00000000       0.004
   0.10670081 -0.01231147  0.00000000       0.008
   0.12804097 -0.02462294  0.00000000       0.008
   0.14938114 -0.03693441  0.00000000       0.008
   0.17072130 -0.04924588  0.00000000       0.008
   0.19206146 -0.06155734  0.00000000       0.008
   0.21340162 -0.07386881  0.00000000       0.008
   0.23474178 -0.08618028  0.00000000       0.008
  -0.21340162  0.17236057  0.00000000       0.008
  -0.19206146  0.16004910  0.00000000       0.008
  -0.17072130  0.14773763  0.00000000       0.008
  -0.14938114  0.13542616  0.00000000       0.008
  -0.12804097  0.12311469  0.00000000       0.008
  -0.10670081  0.11080322  0.00000000       0.008
  -0.08536065  0.09849175  0.00000000       0.008
  -0.06402049  0.08618028  0.00000000       0.008
  -0.04268032  0.07386881  0.00000000       0.008
  -0.02134016  0.06155734  0.00000000       0.008
   0.00000000  0.07386881  0.00000000       0.004
   0.12804097 -0.00000000  0.00000000       0.004
   0.14938114 -0.01231147  0.00000000       0.008
   0.17072130 -0.02462294  0.00000000       0.008
   0.19206146 -0.03693441  0.00000000       0.008
   0.21340162 -0.04924588  0.00000000       0.008
   0.23474178 -0.06155734  0.00000000       0.008
  -0.21340162  0.19698350  0.00000000       0.008
  -0.19206146  0.18467203  0.00000000       0.008
  -0.17072130  0.17236057  0.00000000       0.008
  -0.14938114  0.16004910  0.00000000       0.008
  -0.12804097  0.14773763  0.00000000       0.008
  -0.10670081  0.13542616  0.00000000       0.008
  -0.08536065  0.12311469  0.00000000       0.008
  -0.06402049  0.11080322  0.00000000       0.008
  -0.04268032  0.09849175  0.00000000       0.008
  -0.02134016  0.08618028  0.00000000       0.008
   0.00000000  0.09849175  0.00000000       0.004
   0.17072130 -0.00000000  0.00000000       0.004
   0.19206146 -0.01231147  0.00000000       0.008
   0.21340162 -0.02462294  0.00000000       0.008
   0.23474178 -0.03693441  0.00000000       0.008
  -0.21340162  0.22160644  0.00000000       0.008
  -0.19206146  0.20929497  0.00000000       0.008
  -0.17072130  0.19698350  0.00000000       0.008
  -0.14938114  0.18467203  0.00000000       0.008
  -0.12804097  0.17236057  0.00000000       0.008
  -0.10670081  0.16004910  0.00000000       0.008
  -0.08536065  0.14773763  0.00000000       0.008
  -0.06402049  0.13542616  0.00000000       0.008
  -0.04268032  0.12311469  0.00000000       0.008
  -0.02134016  0.11080322  0.00000000       0.008
   0.00000000  0.12311469  0.00000000       0.004
   0.21340162  0.00000000  0.00000000       0.004
   0.23474178 -0.01231147  0.00000000       0.008
  -0.21340162  0.24622938  0.00000000       0.008
  -0.19206146  0.23391791  0.00000000       0.008
  -0.17072130  0.22160644  0.00000000       0.008
  -0.14938114  0.20929497  0.00000000       0.008
  -0.12804097  0.19698350  0.00000000       0.008
  -0.10670081  0.18467203  0.00000000       0.008
  -0.08536065  0.17236057  0.00000000       0.008
  -0.06402049  0.16004910  0.00000000       0.008
  -0.04268032  0.14773763  0.00000000       0.008
  -0.02134016  0.13542616  0.00000000       0.008
   0.00000000  0.14773763  0.00000000       0.004
  -0.21340162  0.27085232  0.00000000       0.004
  -0.19206146  0.25854085  0.00000000       0.008
  -0.17072130  0.24622938  0.00000000       0.008
  -0.14938114  0.23391791  0.00000000       0.008
  -0.12804097  0.22160644  0.00000000       0.008
  -0.10670081  0.20929497  0.00000000       0.008
  -0.08536065  0.19698350  0.00000000       0.008
  -0.06402049  0.18467203  0.00000000       0.008
  -0.04268032  0.17236057  0.00000000       0.008
  -0.02134016  0.16004910  0.00000000       0.008
   0.00000000  0.17236057  0.00000000       0.004
  -0.17072130  0.27085232  0.00000000       0.004
  -0.14938114  0.25854085  0.00000000       0.008
  -0.12804097  0.24622938  0.00000000       0.008
  -0.10670081  0.23391791  0.00000000       0.008
  -0.08536065  0.22160644  0.00000000       0.008
  -0.06402049  0.20929497  0.00000000       0.008
  -0.04268032  0.19698350  0.00000000       0.008
  -0.02134016  0.18467203  0.00000000       0.008
   0.00000000  0.19698350  0.00000000       0.004
  -0.12804097  0.27085232  0.00000000       0.004
  -0.10670081  0.25854085  0.00000000       0.008
  -0.08536065  0.24622938  0.00000000       0.008
  -0.06402049  0.23391791  0.00000000       0.008
  -0.04268032  0.22160644  0.00000000       0.008
  -0.02134016  0.20929497  0.00000000       0.008
   0.00000000  0.22160644  0.00000000       0.004
  -0.08536065  0.27085232  0.00000000       0.004
  -0.06402049  0.25854085  0.00000000       0.008
  -0.04268032  0.24622938  0.00000000       0.008
  -0.02134016  0.23391791  0.00000000       0.008
   0.00000000  0.24622938  0.00000000       0.004
  -0.04268032  0.27085232  0.00000000       0.004
  -0.02134016  0.25854085  0.00000000       0.008
   0.00000000  0.27085232  0.00000000       0.002
 
 k-points in reciprocal lattice and weights: k-points                                
   0.00000000  0.00000000  0.00000000       0.002
   0.04545455  0.00000000  0.00000000       0.008
   0.09090909  0.00000000  0.00000000       0.008
   0.13636364  0.00000000  0.00000000       0.008
   0.18181818  0.00000000  0.00000000       0.008
   0.22727273  0.00000000  0.00000000       0.008
   0.27272727  0.00000000  0.00000000       0.008
   0.31818182  0.00000000  0.00000000       0.008
   0.36363636  0.00000000  0.00000000       0.008
   0.40909091  0.00000000  0.00000000       0.008
   0.45454545  0.00000000  0.00000000       0.008
   0.50000000  0.00000000  0.00000000       0.004
   0.00000000  0.04545455  0.00000000       0.004
   0.09090909  0.04545455  0.00000000       0.004
   0.13636364  0.04545455  0.00000000       0.008
   0.18181818  0.04545455  0.00000000       0.008
   0.22727273  0.04545455  0.00000000       0.008
   0.27272727  0.04545455  0.00000000       0.008
   0.31818182  0.04545455  0.00000000       0.008
   0.36363636  0.04545455  0.00000000       0.008
   0.40909091  0.04545455  0.00000000       0.008
   0.45454545  0.04545455  0.00000000       0.008
   0.50000000  0.04545455  0.00000000       0.008
  -0.45454545  0.04545455  0.00000000       0.008
  -0.40909091  0.04545455  0.00000000       0.008
  -0.36363636  0.04545455  0.00000000       0.008
  -0.31818182  0.04545455  0.00000000       0.008
  -0.27272727  0.04545455  0.00000000       0.008
  -0.22727273  0.04545455  0.00000000       0.008
  -0.18181818  0.04545455  0.00000000       0.008
  -0.13636364  0.04545455  0.00000000       0.008
  -0.09090909  0.04545455  0.00000000       0.008
  -0.04545455  0.04545455  0.00000000       0.008
   0.00000000  0.09090909  0.00000000       0.004
   0.18181818  0.09090909  0.00000000       0.004
   0.22727273  0.09090909  0.00000000       0.008
   0.27272727  0.09090909  0.00000000       0.008
   0.31818182  0.09090909  0.00000000       0.008
   0.36363636  0.09090909  0.00000000       0.008
   0.40909091  0.09090909  0.00000000       0.008
   0.45454545  0.09090909  0.00000000       0.008
   0.50000000  0.09090909  0.00000000       0.008
  -0.45454545  0.09090909  0.00000000       0.008
  -0.40909091  0.09090909  0.00000000       0.008
  -0.36363636  0.09090909  0.00000000       0.008
  -0.31818182  0.09090909  0.00000000       0.008
  -0.27272727  0.09090909  0.00000000       0.008
  -0.22727273  0.09090909  0.00000000       0.008
  -0.18181818  0.09090909  0.00000000       0.008
  -0.13636364  0.09090909  0.00000000       0.008
  -0.09090909  0.09090909  0.00000000       0.008
  -0.04545455  0.09090909  0.00000000       0.008
   0.00000000  0.13636364  0.00000000       0.004
   0.27272727  0.13636364  0.00000000       0.004
   0.31818182  0.13636364  0.00000000       0.008
   0.36363636  0.13636364  0.00000000       0.008
   0.40909091  0.13636364  0.00000000       0.008
   0.45454545  0.13636364  0.00000000       0.008
   0.50000000  0.13636364  0.00000000       0.008
  -0.45454545  0.13636364  0.00000000       0.008
  -0.40909091  0.13636364  0.00000000       0.008
  -0.36363636  0.13636364  0.00000000       0.008
  -0.31818182  0.13636364  0.00000000       0.008
  -0.27272727  0.13636364  0.00000000       0.008
  -0.22727273  0.13636364  0.00000000       0.008
  -0.18181818  0.13636364  0.00000000       0.008
  -0.13636364  0.13636364  0.00000000       0.008
  -0.09090909  0.13636364  0.00000000       0.008
  -0.04545455  0.13636364  0.00000000       0.008
   0.00000000  0.18181818  0.00000000       0.004
   0.36363636  0.18181818  0.00000000       0.004
   0.40909091  0.18181818  0.00000000       0.008
   0.45454545  0.18181818  0.00000000       0.008
   0.50000000  0.18181818  0.00000000       0.008
  -0.45454545  0.18181818  0.00000000       0.008
  -0.40909091  0.18181818  0.00000000       0.008
  -0.36363636  0.18181818  0.00000000       0.008
  -0.31818182  0.18181818  0.00000000       0.008
  -0.27272727  0.18181818  0.00000000       0.008
  -0.22727273  0.18181818  0.00000000       0.008
  -0.18181818  0.18181818  0.00000000       0.008
  -0.13636364  0.18181818  0.00000000       0.008
  -0.09090909  0.18181818  0.00000000       0.008
  -0.04545455  0.18181818  0.00000000       0.008
   0.00000000  0.22727273  0.00000000       0.004
   0.45454545  0.22727273  0.00000000       0.004
   0.50000000  0.22727273  0.00000000       0.008
  -0.45454545  0.22727273  0.00000000       0.008
  -0.40909091  0.22727273  0.00000000       0.008
  -0.36363636  0.22727273  0.00000000       0.008
  -0.31818182  0.22727273  0.00000000       0.008
  -0.27272727  0.22727273  0.00000000       0.008
  -0.22727273  0.22727273  0.00000000       0.008
  -0.18181818  0.22727273  0.00000000       0.008
  -0.13636364  0.22727273  0.00000000       0.008
  -0.09090909  0.22727273  0.00000000       0.008
  -0.04545455  0.22727273  0.00000000       0.008
   0.00000000  0.27272727  0.00000000       0.004
  -0.45454545  0.27272727  0.00000000       0.004
  -0.40909091  0.27272727  0.00000000       0.008
  -0.36363636  0.27272727  0.00000000       0.008
  -0.31818182  0.27272727  0.00000000       0.008
  -0.27272727  0.27272727  0.00000000       0.008
  -0.22727273  0.27272727  0.00000000       0.008
  -0.18181818  0.27272727  0.00000000       0.008
  -0.13636364  0.27272727  0.00000000       0.008
  -0.09090909  0.27272727  0.00000000       0.008
  -0.04545455  0.27272727  0.00000000       0.008
   0.00000000  0.31818182  0.00000000       0.004
  -0.36363636  0.31818182  0.00000000       0.004
  -0.31818182  0.31818182  0.00000000       0.008
  -0.27272727  0.31818182  0.00000000       0.008
  -0.22727273  0.31818182  0.00000000       0.008
  -0.18181818  0.31818182  0.00000000       0.008
  -0.13636364  0.31818182  0.00000000       0.008
  -0.09090909  0.31818182  0.00000000       0.008
  -0.04545455  0.31818182  0.00000000       0.008
   0.00000000  0.36363636  0.00000000       0.004
  -0.27272727  0.36363636  0.00000000       0.004
  -0.22727273  0.36363636  0.00000000       0.008
  -0.18181818  0.36363636  0.00000000       0.008
  -0.13636364  0.36363636  0.00000000       0.008
  -0.09090909  0.36363636  0.00000000       0.008
  -0.04545455  0.36363636  0.00000000       0.008
   0.00000000  0.40909091  0.00000000       0.004
  -0.18181818  0.40909091  0.00000000       0.004
  -0.13636364  0.40909091  0.00000000       0.008
  -0.09090909  0.40909091  0.00000000       0.008
  -0.04545455  0.40909091  0.00000000       0.008
   0.00000000  0.45454545  0.00000000       0.004
  -0.09090909  0.45454545  0.00000000       0.004
  -0.04545455  0.45454545  0.00000000       0.008
   0.00000000  0.50000000  0.00000000       0.002
 
 position of ions in fractional coordinates (direct lattice) 
   0.00000000  0.00000000  0.10000000
 
 position of ions in cartesian coordinates  (Angst):
   0.00000000  0.00000000  4.00000000
 


--------------------------------------------------------------------------------------------------------


 k-point     1 :   0.0000 0.0000 0.0000  plane waves:    5349
 k-point     2 :   0.0455 0.0000 0.0000  plane waves:    5335
 k-point     3 :   0.0909 0.0000 0.0000  plane waves:    5287
 k-point     4 :   0.1364 0.0000 0.0000  plane waves:    5265
 k-point     5 :   0.1818 0.0000 0.0000  plane waves:    5269
 k-point     6 :   0.2273 0.0000 0.0000  plane waves:    5251
 k-point     7 :   0.2727 0.0000 0.0000  plane waves:    5191
 k-point     8 :   0.3182 0.0000 0.0000  plane waves:    5208
 k-point     9 :   0.3636 0.0000 0.0000  plane waves:    5244
 k-point    10 :   0.4091 0.0000 0.0000  plane waves:    5252
 k-point    11 :   0.4545 0.0000 0.0000  plane waves:    5254
 k-point    12 :   0.5000 0.0000 0.0000  plane waves:    5264
 k-point    13 :   0.0000 0.0455 0.0000  plane waves:    5337
 k-point    14 :   0.0909 0.0455 0.0000  plane waves:    5309
 k-point    15 :   0.1364 0.0455 0.0000  plane waves:    5272
 k-point    16 :   0.1818 0.0455 0.0000  plane waves:    5248
 k-point    17 :   0.2273 0.0455 0.0000  plane waves:    5246
 k-point    18 :   0.2727 0.0455 0.0000  plane waves:    5231
 k-point    19 :   0.3182 0.0455 0.0000  plane waves:    5214
 k-point    20 :   0.3636 0.0455 0.0000  plane waves:    5233
 k-point    21 :   0.4091 0.0455 0.0000  plane waves:    5244
 k-point    22 :   0.4545 0.0455 0.0000  plane waves:    5250
 k-point    23 :   0.5000 0.0455 0.0000  plane waves:    5264
 k-point    24 :  -0.4545 0.0455 0.0000  plane waves:    5266
 k-point    25 :  -0.4091 0.0455 0.0000  plane waves:    5256
 k-point    26 :  -0.3636 0.0455 0.0000  plane waves:    5244
 k-point    27 :  -0.3182 0.0455 0.0000  plane waves:    5237
 k-point    28 :  -0.2727 0.0455 0.0000  plane waves:    5222
 k-point    29 :  -0.2273 0.0455 0.0000  plane waves:    5231
 k-point    30 :  -0.1818 0.0455 0.0000  plane waves:    5250
 k-point    31 :  -0.1364 0.0455 0.0000  plane waves:    5250
 k-point    32 :  -0.0909 0.0455 0.0000  plane waves:    5272
 k-point    33 :  -0.0455 0.0455 0.0000  plane waves:    5315
 k-point    34 :   0.0000 0.0909 0.0000  plane waves:    5287
 k-point    35 :   0.1818 0.0909 0.0000  plane waves:    5259
 k-point    36 :   0.2273 0.0909 0.0000  plane waves:    5255
 k-point    37 :   0.2727 0.0909 0.0000  plane waves:    5245
 k-point    38 :   0.3182 0.0909 0.0000  plane waves:    5231
 k-point    39 :   0.3636 0.0909 0.0000  plane waves:    5235
 k-point    40 :   0.4091 0.0909 0.0000  plane waves:    5251
 k-point    41 :   0.4545 0.0909 0.0000  plane waves:    5265
 k-point    42 :   0.5000 0.0909 0.0000  plane waves:    5259
 k-point    43 :  -0.4545 0.0909 0.0000  plane waves:    5248
 k-point    44 :  -0.4091 0.0909 0.0000  plane waves:    5255
 k-point    45 :  -0.3636 0.0909 0.0000  plane waves:    5263
 k-point    46 :  -0.3182 0.0909 0.0000  plane waves:    5251
 k-point    47 :  -0.2727 0.0909 0.0000  plane waves:    5231
 k-point    48 :  -0.2273 0.0909 0.0000  plane waves:    5231
 k-point    49 :  -0.1818 0.0909 0.0000  plane waves:    5241
 k-point    50 :  -0.1364 0.0909 0.0000  plane waves:    5255
 k-point    51 :  -0.0909 0.0909 0.0000  plane waves:    5259
 k-point    52 :  -0.0455 0.0909 0.0000  plane waves:    5272
 k-point    53 :   0.0000 0.1364 0.0000  plane waves:    5267
 k-point    54 :   0.2727 0.1364 0.0000  plane waves:    5232
 k-point    55 :   0.3182 0.1364 0.0000  plane waves:    5235
 k-point    56 :   0.3636 0.1364 0.0000  plane waves:    5231
 k-point    57 :   0.4091 0.1364 0.0000  plane waves:    5245
 k-point    58 :   0.4545 0.1364 0.0000  plane waves:    5249
 k-point    59 :   0.5000 0.1364 0.0000  plane waves:    5261
 k-point    60 :  -0.4545 0.1364 0.0000  plane waves:    5278
 k-point    61 :  -0.4091 0.1364 0.0000  plane waves:    5278
 k-point    62 :  -0.3636 0.1364 0.0000  plane waves:    5261
 k-point    63 :  -0.3182 0.1364 0.0000  plane waves:    5247
 k-point    64 :  -0.2727 0.1364 0.0000  plane waves:    5241
 k-point    65 :  -0.2273 0.1364 0.0000  plane waves:    5229
 k-point    66 :  -0.1818 0.1364 0.0000  plane waves:    5237
 k-point    67 :  -0.1364 0.1364 0.0000  plane waves:    5230
 k-point    68 :  -0.0909 0.1364 0.0000  plane waves:    5255
 k-point    69 :  -0.0455 0.1364 0.0000  plane waves:    5250
 k-point    70 :   0.0000 0.1818 0.0000  plane waves:    5265
 k-point    71 :   0.3636 0.1818 0.0000  plane waves:    5206
 k-point    72 :   0.4091 0.1818 0.0000  plane waves:    5217
 k-point    73 :   0.4545 0.1818 0.0000  plane waves:    5231
 k-point    74 :   0.5000 0.1818 0.0000  plane waves:    5258
 k-point    75 :  -0.4545 0.1818 0.0000  plane waves:    5270
 k-point    76 :  -0.4091 0.1818 0.0000  plane waves:    5274
 k-point    77 :  -0.3636 0.1818 0.0000  plane waves:    5270
 k-point    78 :  -0.3182 0.1818 0.0000  plane waves:    5262
 k-point    79 :  -0.2727 0.1818 0.0000  plane waves:    5229
 k-point    80 :  -0.2273 0.1818 0.0000  plane waves:    5213
 k-point    81 :  -0.1818 0.1818 0.0000  plane waves:    5202
 k-point    82 :  -0.1364 0.1818 0.0000  plane waves:    5235
 k-point    83 :  -0.0909 0.1818 0.0000  plane waves:    5241
 k-point    84 :  -0.0455 0.1818 0.0000  plane waves:    5250
 k-point    85 :   0.0000 0.2273 0.0000  plane waves:    5249
 k-point    86 :   0.4545 0.2273 0.0000  plane waves:    5234
 k-point    87 :   0.5000 0.2273 0.0000  plane waves:    5243
 k-point    88 :  -0.4545 0.2273 0.0000  plane waves:    5238
 k-point    89 :  -0.4091 0.2273 0.0000  plane waves:    5250
 k-point    90 :  -0.3636 0.2273 0.0000  plane waves:    5250
 k-point    91 :  -0.3182 0.2273 0.0000  plane waves:    5243
 k-point    92 :  -0.2727 0.2273 0.0000  plane waves:    5245
 k-point    93 :  -0.2273 0.2273 0.0000  plane waves:    5234
 k-point    94 :  -0.1818 0.2273 0.0000  plane waves:    5211
 k-point    95 :  -0.1364 0.2273 0.0000  plane waves:    5231
 k-point    96 :  -0.0909 0.2273 0.0000  plane waves:    5231
 k-point    97 :  -0.0455 0.2273 0.0000  plane waves:    5229
 k-point    98 :   0.0000 0.2727 0.0000  plane waves:    5191
 k-point    99 :  -0.4545 0.2727 0.0000  plane waves:    5252
 k-point   100 :  -0.4091 0.2727 0.0000  plane waves:    5256
 k-point   101 :  -0.3636 0.2727 0.0000  plane waves:    5258
 k-point   102 :  -0.3182 0.2727 0.0000  plane waves:    5254
 k-point   103 :  -0.2727 0.2727 0.0000  plane waves:    5252
 k-point   104 :  -0.2273 0.2727 0.0000  plane waves:    5239
 k-point   105 :  -0.1818 0.2727 0.0000  plane waves:    5229
 k-point   106 :  -0.1364 0.2727 0.0000  plane waves:    5239
 k-point   107 :  -0.0909 0.2727 0.0000  plane waves:    5233
 k-point   108 :  -0.0455 0.2727 0.0000  plane waves:    5214
 k-point   109 :   0.0000 0.3182 0.0000  plane waves:    5208
 k-point   110 :  -0.3636 0.3182 0.0000  plane waves:    5254
 k-point   111 :  -0.3182 0.3182 0.0000  plane waves:    5252
 k-point   112 :  -0.2727 0.3182 0.0000  plane waves:    5256
 k-point   113 :  -0.2273 0.3182 0.0000  plane waves:    5236
 k-point   114 :  -0.1818 0.3182 0.0000  plane waves:    5256
 k-point   115 :  -0.1364 0.3182 0.0000  plane waves:    5249
 k-point   116 :  -0.0909 0.3182 0.0000  plane waves:    5249
 k-point   117 :  -0.0455 0.3182 0.0000  plane waves:    5233
 k-point   118 :   0.0000 0.3636 0.0000  plane waves:    5246
 k-point   119 :  -0.2727 0.3636 0.0000  plane waves:    5252
 k-point   120 :  -0.2273 0.3636 0.0000  plane waves:    5252
 k-point   121 :  -0.1818 0.3636 0.0000  plane waves:    5264
 k-point   122 :  -0.1364 0.3636 0.0000  plane waves:    5263
 k-point   123 :  -0.0909 0.3636 0.0000  plane waves:    5265
 k-point   124 :  -0.0455 0.3636 0.0000  plane waves:    5244
 k-point   125 :   0.0000 0.4091 0.0000  plane waves:    5248
 k-point   126 :  -0.1818 0.4091 0.0000  plane waves:    5270
 k-point   127 :  -0.1364 0.4091 0.0000  plane waves:    5274
 k-point   128 :  -0.0909 0.4091 0.0000  plane waves:    5249
 k-point   129 :  -0.0455 0.4091 0.0000  plane waves:    5252
 k-point   130 :   0.0000 0.4545 0.0000  plane waves:    5254
 k-point   131 :  -0.0909 0.4545 0.0000  plane waves:    5250
 k-point   132 :  -0.0455 0.4545 0.0000  plane waves:    5266
 k-point   133 :   0.0000 0.5000 0.0000  plane waves:    5260

 maximum and minimum number of plane-waves per node :      5349     5191

 maximum number of plane-waves:      5349
 maximum index in each direction: 
   IXMAX=    4   IYMAX=    4   IZMAX=   79
   IXMIN=   -4   IYMIN=   -4   IZMIN=  -79


 serial   3D FFT for wavefunctions
 parallel 3D FFT for charge:
    minimum data exchange during FFTs selected (reduces bandwidth)


 total amount of memory used by VASP MPI-rank0    93830. kBytes
=======================================================================

   base                                    :      30000. kBytes
   nonl-proj                               :      45846. kBytes
   fftplans                                :       1192. kBytes
   grid                                    :       5260. kBytes
   one-center                              :          3. kBytes
   wavefun                                 :      11529. kBytes
 
     INWAV:  cpu time      0.0000: real time      0.0000
 Broyden mixing: mesh for mixing (old mesh)
   NGX =  9   NGY =  9   NGZ =159
  (NGX  = 36   NGY  = 36   NGZ  =640)
  gives a total of  12879 points

 initial charge density was supplied:
 charge density of overlapping atoms calculated
 number of electron       2.0000000 magnetization 
 keeping initial charge density in first step


--------------------------------------------------------------------------------------------------------


 Maximum index for augmentation-charges          835 (set IRDMAX)


--------------------------------------------------------------------------------------------------------


 First call to EWALD:  gamma=   0.328
 Maximum number of real-space cells   7x   7x   1
 Maximum number of reciprocal cells   1x   1x  17

    FEWALD:  cpu time      0.0009: real time      0.0010


--------------------------------------- Ionic step        1  -------------------------------------------




--------------------------------------- Iteration      1(   1)  ---------------------------------------


    POTLOK:  cpu time      0.0222: real time      0.0223
    SETDIJ:  cpu time      0.0026: real time      0.0026
     EDDAV:  cpu time      3.2989: real time      3.3154
       DOS:  cpu time      0.0011: real time      0.0011
    --------------------------------------------
      LOOP:  cpu time      3.3252: real time      3.3419

 eigenvalue-minimisations  : 11172
 total energy-change (2. order) :-0.2970188E+00  (-0.9663661E+02)
 number of electron       2.0000000 magnetization 
 augmentation part        2.0000000 magnetization 

 DIPCOR: dipole corrections for dipol
 direction  3 min pos   385,
 dipolmoment           0.000000      0.000000     -0.000000 electrons x Angstroem
 Tr[quadrupol]         1.238596

 energy correction for charged system         0.000000 eV
 dipol+quadrupol energy correction           -0.000000 eV
 added-field ion interaction          0.000000 eV  (added to PSCEN)


 Free energy of the ion-electron system (eV)
  ---------------------------------------------------
  alpha Z        PSCENC =         0.11106919
  Ewald energy   TEWEN  =       249.85368277
  -Hartree energ DENC   =      -263.53354371
  -exchange      EXHF   =         0.00000000
  -V(xc)+E(xc)   XCENC  =         3.12442823
  PAW double counting   =        15.25623133      -14.62257617
  entropy T*S    EENTRO =        -0.00073683
  eigenvalues    EBANDS =       -17.96482716
  atomic energy  EATOM  =        27.47925360
  Solvation  Ediel_sol  =         0.00000000
  ---------------------------------------------------
  free energy    TOTEN  =        -0.29701875 eV

  energy without entropy =       -0.29628193  energy(sigma->0) =       -0.29665034


--------------------------------------------------------------------------------------------------------




--------------------------------------- Iteration      1(   2)  ---------------------------------------


     EDDAV:  cpu time      5.8449: real time      5.8760
       DOS:  cpu time      0.0010: real time      0.0010
    --------------------------------------------
      LOOP:  cpu time      5.8457: real time      5.8768

 eigenvalue-minimisations  : 16758
 total energy-change (2. order) :-0.3128007E+01  (-0.2696850E+01)
 number of electron       2.0000000 magnetization 
 augmentation part        2.0000000 magnetization 

 DIPCOR: dipole corrections for dipol
 direction  3 min pos   385,
 dipolmoment           0.000000      0.000000     -0.000000 electrons x Angstroem
 Tr[quadrupol]         1.238596

 energy correction for charged system         0.000000 eV
 dipol+quadrupol energy correction           -0.000000 eV
 added-field ion interaction          0.000000 eV  (added to PSCEN)


 Free energy of the ion-electron system (eV)
  ---------------------------------------------------
  alpha Z        PSCENC =         0.11106919
  Ewald energy   TEWEN  =       249.85368277
  -Hartree energ DENC   =      -263.53354371
  -exchange      EXHF   =         0.00000000
  -V(xc)+E(xc)   XCENC  =         3.12442823
  PAW double counting   =        15.25623133      -14.62257617
  entropy T*S    EENTRO =        -0.00082755
  eigenvalues    EBANDS =       -21.09274322
  atomic energy  EATOM  =        27.47925360
  Solvation  Ediel_sol  =         0.00000000
  ---------------------------------------------------
  free energy    TOTEN  =        -3.42502554 eV

  energy without entropy =       -3.42419799  energy(sigma->0) =       -3.42461176


--------------------------------------------------------------------------------------------------------




--------------------------------------- Iteration      1(   3)  ---------------------------------------


     EDDAV:  cpu time      3.5256: real time      3.5436
       DOS:  cpu time      0.0010: real time      0.0010
    --------------------------------------------
      LOOP:  cpu time      3.5267: real time      3.5447

 eigenvalue-minimisations  : 11508
 total energy-change (2. order) :-0.2570488E-02  (-0.2569078E-02)
 number of electron       2.0000000 magnetization 
 augmentation part        2.0000000 magnetization 

 DIPCOR: dipole corrections for dipol
 direction  3 min pos   385,
 dipolmoment           0.000000      0.000000     -0.000000 electrons x Angstroem
 Tr[quadrupol]         1.238596

 energy correction for charged system         0.000000 eV
 dipol+quadrupol energy correction           -0.000000 eV
 added-field ion interaction          0.000000 eV  (added to PSCEN)


 Free energy of the ion-electron system (eV)
  ---------------------------------------------------
  alpha Z        PSCENC =         0.11106919
  Ewald energy   TEWEN  =       249.85368277
  -Hartree energ DENC   =      -263.53354371
  -exchange      EXHF   =         0.00000000
  -V(xc)+E(xc)   XCENC  =         3.12442823
  PAW double counting   =        15.25623133      -14.62257617
  entropy T*S    EENTRO =        -0.00086105
  eigenvalues    EBANDS =       -21.09528021
  atomic energy  EATOM  =        27.47925360
  Solvation  Ediel_sol  =         0.00000000
  ---------------------------------------------------
  free energy    TOTEN  =        -3.42759603 eV

  energy without entropy =       -3.42673498  energy(sigma->0) =       -3.42716550


--------------------------------------------------------------------------------------------------------




--------------------------------------- Iteration      1(   4)  ---------------------------------------


     EDDAV:  cpu time      8.8040: real time      8.8480
       DOS:  cpu time      0.0011: real time      0.0011
    --------------------------------------------
      LOOP:  cpu time      8.8050: real time      8.8491

 eigenvalue-minimisations  : 21756
 total energy-change (2. order) :-0.3652446E-05  (-0.3652553E-05)
 number of electron       2.0000000 magnetization 
 augmentation part        2.0000000 magnetization 

 DIPCOR: dipole corrections for dipol
 direction  3 min pos   385,
 dipolmoment           0.000000      0.000000     -0.000000 electrons x Angstroem
 Tr[quadrupol]         1.238596

 energy correction for charged system         0.000000 eV
 dipol+quadrupol energy correction           -0.000000 eV
 added-field ion interaction          0.000000 eV  (added to PSCEN)


 Free energy of the ion-electron system (eV)
  ---------------------------------------------------
  alpha Z        PSCENC =         0.11106919
  Ewald energy   TEWEN  =       249.85368277
  -Hartree energ DENC   =      -263.53354371
  -exchange      EXHF   =         0.00000000
  -V(xc)+E(xc)   XCENC  =         3.12442823
  PAW double counting   =        15.25623133      -14.62257617
  entropy T*S    EENTRO =        -0.00086110
  eigenvalues    EBANDS =       -21.09528382
  atomic energy  EATOM  =        27.47925360
  Solvation  Ediel_sol  =         0.00000000
  ---------------------------------------------------
  free energy    TOTEN  =        -3.42759968 eV

  energy without entropy =       -3.42673858  energy(sigma->0) =       -3.42716913


--------------------------------------------------------------------------------------------------------




--------------------------------------- Iteration      1(   5)  ---------------------------------------


     EDDAV:  cpu time      3.5199: real time      3.5381
       DOS:  cpu time      0.0007: real time      0.0007
    CHARGE:  cpu time      0.1217: real time      0.1222
    MIXING:  cpu time      0.0005: real time      0.0005
    --------------------------------------------
      LOOP:  cpu time      3.6424: real time      3.6611

 eigenvalue-minimisations  : 11466
 total energy-change (2. order) : 0.5563088E-09  (-0.1356637E-10)
 number of electron       2.0000000 magnetization 
 augmentation part       -0.0312762 magnetization 

 DIPCOR: dipole corrections for dipol
 direction  3 min pos   385,
 dipolmoment           0.000000      0.000000     -0.000000 electrons x Angstroem
 Tr[quadrupol]         1.238596

 energy correction for charged system         0.000000 eV
 dipol+quadrupol energy correction           -0.000000 eV
 added-field ion interaction          0.000000 eV  (added to PSCEN)


 Broyden mixing:
  rms(total) = 0.22785E+00    rms(broyden)= 0.22785E+00
  rms(prec ) = 0.24004E+00
  weight for this iteration     100.00

 Free energy of the ion-electron system (eV)
  ---------------------------------------------------
  alpha Z        PSCENC =         0.11106919
  Ewald energy   TEWEN  =       249.85368277
  -Hartree energ DENC   =      -263.53354371
  -exchange      EXHF   =         0.00000000
  -V(xc)+E(xc)   XCENC  =         3.12442823
  PAW double counting   =        15.25623133      -14.62257617
  entropy T*S    EENTRO =        -0.00086110
  eigenvalues    EBANDS =       -21.09528382
  atomic energy  EATOM  =        27.47925360
  Solvation  Ediel_sol  =         0.00000000
  ---------------------------------------------------
  free energy    TOTEN  =        -3.42759968 eV

  energy without entropy =       -3.42673858  energy(sigma->0) =       -3.42716913


--------------------------------------------------------------------------------------------------------




--------------------------------------- Iteration      1(   6)  ---------------------------------------


    POTLOK:  cpu time      0.0120: real time      0.0121
    SETDIJ:  cpu time      0.0010: real time      0.0010
     EDDAV:  cpu time      6.1317: real time      6.1630
       DOS:  cpu time      0.0009: real time      0.0010
    CHARGE:  cpu time      0.1179: real time      0.1185
    MIXING:  cpu time      0.0006: real time      0.0006
    --------------------------------------------
      LOOP:  cpu time      6.2642: real time      6.2961

 eigenvalue-minimisations  : 17136
 total energy-change (2. order) : 0.2904495E+00  (-0.1460971E-01)
 number of electron       2.0000000 magnetization 
 augmentation part       -0.0319309 magnetization 

 DIPCOR: dipole corrections for dipol
 direction  3 min pos   385,
 dipolmoment           0.000000      0.000000     -0.000000 electrons x Angstroem
 Tr[quadrupol]         1.166291

 energy correction for charged system         0.000000 eV
 dipol+quadrupol energy correction           -0.000000 eV
 added-field ion interaction          0.000000 eV  (added to PSCEN)


 Broyden mixing:
  rms(total) = 0.12851E+00    rms(broyden)= 0.12851E+00
  rms(prec ) = 0.13670E+00
  weight for this iteration     100.00

 eigenvalues of (default mixing * dielectric matrix)
  average eigenvalue GAMMA=   2.2316
  2.2316

 Free energy of the ion-electron system (eV)
  ---------------------------------------------------
  alpha Z        PSCENC =         0.11106919
  Ewald energy   TEWEN  =       249.85368277
  -Hartree energ DENC   =      -265.28519902
  -exchange      EXHF   =         0.00000000
  -V(xc)+E(xc)   XCENC  =         3.18869572
  PAW double counting   =        30.77170938      -30.17515355
  entropy T*S    EENTRO =        -0.00022190
  eigenvalues    EBANDS =       -19.08098632
  atomic energy  EATOM  =        27.47925360
  Solvation  Ediel_sol  =         0.00000000
  ---------------------------------------------------
  free energy    TOTEN  =        -3.13715014 eV

  energy without entropy =       -3.13692823  energy(sigma->0) =       -3.13703918


--------------------------------------------------------------------------------------------------------




--------------------------------------- Iteration      1(   7)  ---------------------------------------


    POTLOK:  cpu time      0.0132: real time      0.0151
    SETDIJ:  cpu time      0.0011: real time      0.0011
     EDDAV:  cpu time      5.1848: real time      5.2106
       DOS:  cpu time      0.0010: real time      0.0010
    CHARGE:  cpu time      0.1274: real time      0.1280
    MIXING:  cpu time      0.0009: real time      0.0009
    --------------------------------------------
      LOOP:  cpu time      5.3284: real time      5.3567

 eigenvalue-minimisations  : 15246
 total energy-change (2. order) : 0.1674201E+00  (-0.2707777E-01)
 number of electron       2.0000000 magnetization 
 augmentation part       -0.0323165 magnetization 

 DIPCOR: dipole corrections for dipol
 direction  3 min pos   385,
 dipolmoment           0.000000      0.000000     -0.000000 electrons x Angstroem
 Tr[quadrupol]         1.037826

 energy correction for charged system         0.000000 eV
 dipol+quadrupol energy correction           -0.000000 eV
 added-field ion interaction          0.000000 eV  (added to PSCEN)


 Broyden mixing:
  rms(total) = 0.22620E-01    rms(broyden)= 0.22620E-01
  rms(prec ) = 0.24929E-01
  weight for this iteration     100.00

 eigenvalues of (default mixing * dielectric matrix)
  average eigenvalue GAMMA=   2.1782
  2.1782  2.1782

 Free energy of the ion-electron system (eV)
  ---------------------------------------------------
  alpha Z        PSCENC =         0.11106919
  Ewald energy   TEWEN  =       249.85368277
  -Hartree energ DENC   =      -268.28212403
  -exchange      EXHF   =         0.00000000
  -V(xc)+E(xc)   XCENC  =         3.32178995
  PAW double counting   =        60.26621540      -59.70737077
  entropy T*S    EENTRO =        -0.00128427
  eigenvalues    EBANDS =       -16.01096191
  atomic energy  EATOM  =        27.47925360
  Solvation  Ediel_sol  =         0.00000000
  ---------------------------------------------------
  free energy    TOTEN  =        -2.96973007 eV

  energy without entropy =       -2.96844581  energy(sigma->0) =       -2.96908794


--------------------------------------------------------------------------------------------------------




--------------------------------------- Iteration      1(   8)  ---------------------------------------


    POTLOK:  cpu time      0.0131: real time      0.0132
    SETDIJ:  cpu time      0.0012: real time      0.0013
     EDDAV:  cpu time      5.5410: real time      5.5697
       DOS:  cpu time      0.0009: real time      0.0009
    CHARGE:  cpu time      0.1151: real time      0.1156
    MIXING:  cpu time      0.0005: real time      0.0006
    --------------------------------------------
      LOOP:  cpu time      5.6719: real time      5.7013

 eigenvalue-minimisations  : 15918
 total energy-change (2. order) :-0.5395138E-02  (-0.5548204E-03)
 number of electron       2.0000000 magnetization 
 augmentation part       -0.0323046 magnetization 

 DIPCOR: dipole corrections for dipol
 direction  3 min pos   385,
 dipolmoment           0.000000      0.000000     -0.000000 electrons x Angstroem
 Tr[quadrupol]         0.998754

 energy correction for charged system         0.000000 eV
 dipol+quadrupol energy correction           -0.000000 eV
 added-field ion interaction          0.000000 eV  (added to PSCEN)


 Broyden mixing:
  rms(total) = 0.22273E-01    rms(broyden)= 0.22273E-01
  rms(prec ) = 0.25063E-01
  weight for this iteration     100.00

 eigenvalues of (default mixing * dielectric matrix)
  average eigenvalue GAMMA=   2.0078
  0.8838  2.7791  2.3605

 Free energy of the ion-electron system (eV)
  ---------------------------------------------------
  alpha Z        PSCENC =         0.11106919
  Ewald energy   TEWEN  =       249.85368277
  -Hartree energ DENC   =      -268.42535913
  -exchange      EXHF   =         0.00000000
  -V(xc)+E(xc)   XCENC  =         3.30972696
  PAW double counting   =        54.55430392      -53.98131259
  entropy T*S    EENTRO =        -0.00150270
  eigenvalues    EBANDS =       -15.87498723
  atomic energy  EATOM  =        27.47925360
  Solvation  Ediel_sol  =         0.00000000
  ---------------------------------------------------
  free energy    TOTEN  =        -2.97512521 eV

  energy without entropy =       -2.97362251  energy(sigma->0) =       -2.97437386


--------------------------------------------------------------------------------------------------------




--------------------------------------- Iteration      1(   9)  ---------------------------------------


    POTLOK:  cpu time      0.0121: real time      0.0121
    SETDIJ:  cpu time      0.0009: real time      0.0009
     EDDAV:  cpu time      6.8092: real time      6.8446
       DOS:  cpu time      0.0011: real time      0.0011
    CHARGE:  cpu time      0.1195: real time      0.1202
    MIXING:  cpu time      0.0012: real time      0.0012
    --------------------------------------------
      LOOP:  cpu time      6.9439: real time      6.9801

 eigenvalue-minimisations  : 18648
 total energy-change (2. order) : 0.7926539E-02  (-0.9378659E-03)
 number of electron       2.0000000 magnetization 
 augmentation part       -0.0322330 magnetization 

 DIPCOR: dipole corrections for dipol
 direction  3 min pos   385,
 dipolmoment           0.000000      0.000000     -0.000000 electrons x Angstroem
 Tr[quadrupol]         0.941238

 energy correction for charged system         0.000000 eV
 dipol+quadrupol energy correction           -0.000000 eV
 added-field ion interaction          0.000000 eV  (added to PSCEN)


 Broyden mixing:
  rms(total) = 0.45181E-02    rms(broyden)= 0.45181E-02
  rms(prec ) = 0.63505E-02
  weight for this iteration     100.00

 eigenvalues of (default mixing * dielectric matrix)
  average eigenvalue GAMMA=   2.1213
  3.3577  2.5060  1.8150  0.8063

 Free energy of the ion-electron system (eV)
  ---------------------------------------------------
  alpha Z        PSCENC =         0.11106919
  Ewald energy   TEWEN  =       249.85368277
  -Hartree energ DENC   =      -269.29087422
  -exchange      EXHF   =         0.00000000
  -V(xc)+E(xc)   XCENC  =         3.33969430
  PAW double counting   =        58.85366832      -58.28339321
  entropy T*S    EENTRO =        -0.00091412
  eigenvalues    EBANDS =       -15.02938531
  atomic energy  EATOM  =        27.47925360
  Solvation  Ediel_sol  =         0.00000000
  ---------------------------------------------------
  free energy    TOTEN  =        -2.96719867 eV

  energy without entropy =       -2.96628456  energy(sigma->0) =       -2.96674161


--------------------------------------------------------------------------------------------------------




--------------------------------------- Iteration      1(  10)  ---------------------------------------


    POTLOK:  cpu time      0.0141: real time      0.0142
    SETDIJ:  cpu time      0.0012: real time      0.0012
     EDDAV:  cpu time      6.5396: real time      6.5737
       DOS:  cpu time      0.0012: real time      0.0012
    CHARGE:  cpu time      0.1257: real time      0.1263
    MIXING:  cpu time      0.0005: real time      0.0005
    --------------------------------------------
      LOOP:  cpu time      6.6823: real time      6.7170

 eigenvalue-minimisations  : 18102
 total energy-change (2. order) :-0.2470993E-03  (-0.4425188E-04)
 number of electron       2.0000000 magnetization 
 augmentation part       -0.0322225 magnetization 

 DIPCOR: dipole corrections for dipol
 direction  3 min pos   385,
 dipolmoment           0.000000      0.000000     -0.000000 electrons x Angstroem
 Tr[quadrupol]         0.894523

 energy correction for charged system         0.000000 eV
 dipol+quadrupol energy correction           -0.000000 eV
 added-field ion interaction          0.000000 eV  (added to PSCEN)


 Broyden mixing:
  rms(total) = 0.39879E-02    rms(broyden)= 0.39879E-02
  rms(prec ) = 0.48154E-02
  weight for this iteration     100.00

 eigenvalues of (default mixing * dielectric matrix)
  average eigenvalue GAMMA=   2.3419
  4.5523  2.6367  2.6367  1.0416  0.8419

 Free energy of the ion-electron system (eV)
  ---------------------------------------------------
  alpha Z        PSCENC =         0.11106919
  Ewald energy   TEWEN  =       249.85368277
  -Hartree energ DENC   =      -269.68424756
  -exchange      EXHF   =         0.00000000
  -V(xc)+E(xc)   XCENC  =         3.34387598
  PAW double counting   =        57.76859927      -57.19857727
  entropy T*S    EENTRO =        -0.00084752
  eigenvalues    EBANDS =       -14.64025424
  atomic energy  EATOM  =        27.47925360
  Solvation  Ediel_sol  =         0.00000000
  ---------------------------------------------------
  free energy    TOTEN  =        -2.96744577 eV

  energy without entropy =       -2.96659825  energy(sigma->0) =       -2.96702201


--------------------------------------------------------------------------------------------------------




--------------------------------------- Iteration      1(  11)  ---------------------------------------


    POTLOK:  cpu time      0.0115: real time      0.0155
    SETDIJ:  cpu time      0.0009: real time      0.0009
     EDDAV:  cpu time      6.7377: real time      6.7749
       DOS:  cpu time      0.0011: real time      0.0011
    CHARGE:  cpu time      0.1234: real time      0.1240
    MIXING:  cpu time      0.0009: real time      0.0009
    --------------------------------------------
      LOOP:  cpu time      6.8754: real time      6.9172

 eigenvalue-minimisations  : 18396
 total energy-change (2. order) :-0.2780798E-03  (-0.1003213E-03)
 number of electron       2.0000000 magnetization 
 augmentation part       -0.0322216 magnetization 

 DIPCOR: dipole corrections for dipol
 direction  3 min pos   385,
 dipolmoment           0.000000      0.000000     -0.000000 electrons x Angstroem
 Tr[quadrupol]         0.854329

 energy correction for charged system         0.000000 eV
 dipol+quadrupol energy correction           -0.000000 eV
 added-field ion interaction          0.000000 eV  (added to PSCEN)


 Broyden mixing:
  rms(total) = 0.12810E-02    rms(broyden)= 0.12810E-02
  rms(prec ) = 0.17770E-02
  weight for this iteration     100.00

 eigenvalues of (default mixing * dielectric matrix)
  average eigenvalue GAMMA=   2.7807
  6.5115  2.9849  2.9849  2.3344  0.8334  1.0350

 Free energy of the ion-electron system (eV)
  ---------------------------------------------------
  alpha Z        PSCENC =         0.11106919
  Ewald energy   TEWEN  =       249.85368277
  -Hartree energ DENC   =      -270.06769279
  -exchange      EXHF   =         0.00000000
  -V(xc)+E(xc)   XCENC  =         3.35066500
  PAW double counting   =        58.48824124      -57.92077156
  entropy T*S    EENTRO =        -0.00079059
  eigenvalues    EBANDS =       -14.26138071
  atomic energy  EATOM  =        27.47925360
  Solvation  Ediel_sol  =         0.00000000
  ---------------------------------------------------
  free energy    TOTEN  =        -2.96772385 eV

  energy without entropy =       -2.96693327  energy(sigma->0) =       -2.96732856


--------------------------------------------------------------------------------------------------------




--------------------------------------- Iteration      1(  12)  ---------------------------------------


    POTLOK:  cpu time      0.0138: real time      0.0139
    SETDIJ:  cpu time      0.0011: real time      0.0011
     EDDAV:  cpu time      6.9475: real time      6.9862
       DOS:  cpu time      0.0006: real time      0.0007
    CHARGE:  cpu time      0.1198: real time      0.1203
    MIXING:  cpu time      0.0006: real time      0.0006
    --------------------------------------------
      LOOP:  cpu time      7.0834: real time      7.1228

 eigenvalue-minimisations  : 18648
 total energy-change (2. order) :-0.4449811E-03  (-0.1512943E-04)
 number of electron       2.0000000 magnetization 
 augmentation part       -0.0322115 magnetization 

 DIPCOR: dipole corrections for dipol
 direction  3 min pos   385,
 dipolmoment           0.000000      0.000000     -0.000000 electrons x Angstroem
 Tr[quadrupol]         0.828264

 energy correction for charged system         0.000000 eV
 dipol+quadrupol energy correction           -0.000000 eV
 added-field ion interaction          0.000000 eV  (added to PSCEN)


 Broyden mixing:
  rms(total) = 0.70698E-03    rms(broyden)= 0.70698E-03
  rms(prec ) = 0.86130E-03
  weight for this iteration     100.00

 eigenvalues of (default mixing * dielectric matrix)
  average eigenvalue GAMMA=   2.5692
  6.2794  3.6906  2.5268  2.5268  0.8382  0.9795  1.1433

 Free energy of the ion-electron system (eV)
  ---------------------------------------------------
  alpha Z        PSCENC =         0.11106919
  Ewald energy   TEWEN  =       249.85368277
  -Hartree energ DENC   =      -270.25615341
  -exchange      EXHF   =         0.00000000
  -V(xc)+E(xc)   XCENC  =         3.35201245
  PAW double counting   =        58.43679102      -57.86747041
  entropy T*S    EENTRO =        -0.00078877
  eigenvalues    EBANDS =       -14.07656528
  atomic energy  EATOM  =        27.47925360
  Solvation  Ediel_sol  =         0.00000000
  ---------------------------------------------------
  free energy    TOTEN  =        -2.96816883 eV

  energy without entropy =       -2.96738006  energy(sigma->0) =       -2.96777445


--------------------------------------------------------------------------------------------------------




--------------------------------------- Iteration      1(  13)  ---------------------------------------


    POTLOK:  cpu time      0.0132: real time      0.0133
    SETDIJ:  cpu time      0.0009: real time      0.0010
     EDDAV:  cpu time      5.3226: real time      5.3494
       DOS:  cpu time      0.0007: real time      0.0007
    CHARGE:  cpu time      0.1220: real time      0.1226
    MIXING:  cpu time      0.0007: real time      0.0007
    --------------------------------------------
      LOOP:  cpu time      5.4601: real time      5.4876

 eigenvalue-minimisations  : 16086
 total energy-change (2. order) :-0.2003971E-03  (-0.2038056E-05)
 number of electron       2.0000000 magnetization 
 augmentation part       -0.0322112 magnetization 

 DIPCOR: dipole corrections for dipol
 direction  3 min pos   385,
 dipolmoment           0.000000      0.000000     -0.000000 electrons x Angstroem
 Tr[quadrupol]         0.823879

 energy correction for charged system         0.000000 eV
 dipol+quadrupol energy correction           -0.000000 eV
 added-field ion interaction          0.000000 eV  (added to PSCEN)


 Broyden mixing:
  rms(total) = 0.39706E-03    rms(broyden)= 0.39706E-03
  rms(prec ) = 0.51710E-03
  weight for this iteration     100.00

 eigenvalues of (default mixing * dielectric matrix)
  average eigenvalue GAMMA=   2.8738
  7.4787  4.8800  2.6972  2.6972  2.4166  1.0465  0.8359  0.9384

 Free energy of the ion-electron system (eV)
  ---------------------------------------------------
  alpha Z        PSCENC =         0.11106919
  Ewald energy   TEWEN  =       249.85368277
  -Hartree energ DENC   =      -270.26920885
  -exchange      EXHF   =         0.00000000
  -V(xc)+E(xc)   XCENC  =         3.35121236
  PAW double counting   =        58.22853433      -57.65888210
  entropy T*S    EENTRO =        -0.00078991
  eigenvalues    EBANDS =       -14.06324062
  atomic energy  EATOM  =        27.47925360
  Solvation  Ediel_sol  =         0.00000000
  ---------------------------------------------------
  free energy    TOTEN  =        -2.96836923 eV

  energy without entropy =       -2.96757932  energy(sigma->0) =       -2.96797427


--------------------------------------------------------------------------------------------------------




--------------------------------------- Iteration      1(  14)  ---------------------------------------


    POTLOK:  cpu time      0.0126: real time      0.0127
    SETDIJ:  cpu time      0.0011: real time      0.0011
     EDDAV:  cpu time      5.6830: real time      5.7130
       DOS:  cpu time      0.0010: real time      0.0010
    CHARGE:  cpu time      0.1215: real time      0.1221
    MIXING:  cpu time      0.0007: real time      0.0007
    --------------------------------------------
      LOOP:  cpu time      5.8198: real time      5.8505

 eigenvalue-minimisations  : 16086
 total energy-change (2. order) :-0.2409147E-03  (-0.5016464E-05)
 number of electron       2.0000000 magnetization 
 augmentation part       -0.0322144 magnetization 

 DIPCOR: dipole corrections for dipol
 direction  3 min pos   385,
 dipolmoment           0.000000      0.000000     -0.000000 electrons x Angstroem
 Tr[quadrupol]         0.816632

 energy correction for charged system         0.000000 eV
 dipol+quadrupol energy correction           -0.000000 eV
 added-field ion interaction          0.000000 eV  (added to PSCEN)


 Broyden mixing:
  rms(total) = 0.13886E-03    rms(broyden)= 0.13886E-03
  rms(prec ) = 0.18167E-03
  weight for this iteration     100.00

 eigenvalues of (default mixing * dielectric matrix)
  average eigenvalue GAMMA=   3.0358
  8.2107  5.1603  3.3952  2.6477  2.6477  2.3878  0.8354  0.9901  1.0476

 Free energy of the ion-electron system (eV)
  ---------------------------------------------------
  alpha Z        PSCENC =         0.11106919
  Ewald energy   TEWEN  =       249.85368277
  -Hartree energ DENC   =      -270.31165964
  -exchange      EXHF   =         0.00000000
  -V(xc)+E(xc)   XCENC  =         3.35128182
  PAW double counting   =        58.28806679      -57.71917928
  entropy T*S    EENTRO =        -0.00078902
  eigenvalues    EBANDS =       -14.02033638
  atomic energy  EATOM  =        27.47925360
  Solvation  Ediel_sol  =         0.00000000
  ---------------------------------------------------
  free energy    TOTEN  =        -2.96861014 eV

  energy without entropy =       -2.96782112  energy(sigma->0) =       -2.96821563


--------------------------------------------------------------------------------------------------------




--------------------------------------- Iteration      1(  15)  ---------------------------------------


    POTLOK:  cpu time      0.0126: real time      0.0126
    SETDIJ:  cpu time      0.0010: real time      0.0010
     EDDAV:  cpu time      5.6000: real time      5.6298
       DOS:  cpu time      0.0007: real time      0.0007
    CHARGE:  cpu time      0.1222: real time      0.1228
    MIXING:  cpu time      0.0006: real time      0.0006
    --------------------------------------------
      LOOP:  cpu time      5.7372: real time      5.7677

 eigenvalue-minimisations  : 15834
 total energy-change (2. order) :-0.5849556E-04  (-0.6151929E-06)
 number of electron       2.0000000 magnetization 
 augmentation part       -0.0322146 magnetization 

 DIPCOR: dipole corrections for dipol
 direction  3 min pos   385,
 dipolmoment           0.000000      0.000000     -0.000000 electrons x Angstroem
 Tr[quadrupol]         0.814057

 energy correction for charged system         0.000000 eV
 dipol+quadrupol energy correction           -0.000000 eV
 added-field ion interaction          0.000000 eV  (added to PSCEN)


 Broyden mixing:
  rms(total) = 0.68038E-04    rms(broyden)= 0.68038E-04
  rms(prec ) = 0.88450E-04
  weight for this iteration     100.00

 eigenvalues of (default mixing * dielectric matrix)
  average eigenvalue GAMMA=   2.9554
  8.1886  5.8593  3.7366  2.7707  2.4442  2.4442  0.8353  1.0199  1.0199  1.2352

 Free energy of the ion-electron system (eV)
  ---------------------------------------------------
  alpha Z        PSCENC =         0.11106919
  Ewald energy   TEWEN  =       249.85368277
  -Hartree energ DENC   =      -270.32337655
  -exchange      EXHF   =         0.00000000
  -V(xc)+E(xc)   XCENC  =         3.35138117
  PAW double counting   =        58.31839623      -57.74940743
  entropy T*S    EENTRO =        -0.00078885
  eigenvalues    EBANDS =       -14.00887877
  atomic energy  EATOM  =        27.47925360
  Solvation  Ediel_sol  =         0.00000000
  ---------------------------------------------------
  free energy    TOTEN  =        -2.96866864 eV

  energy without entropy =       -2.96787978  energy(sigma->0) =       -2.96827421


--------------------------------------------------------------------------------------------------------




--------------------------------------- Iteration      1(  16)  ---------------------------------------


    POTLOK:  cpu time      0.0118: real time      0.0119
    SETDIJ:  cpu time      0.0010: real time      0.0010
     EDDAV:  cpu time      5.6808: real time      5.7109
       DOS:  cpu time      0.0008: real time      0.0008
    CHARGE:  cpu time      0.1203: real time      0.1211
    MIXING:  cpu time      0.0009: real time      0.0009
    --------------------------------------------
      LOOP:  cpu time      5.8155: real time      5.8465

 eigenvalue-minimisations  : 16254
 total energy-change (2. order) :-0.2055530E-04  (-0.2759454E-06)
 number of electron       2.0000000 magnetization 
 augmentation part       -0.0322146 magnetization 

 DIPCOR: dipole corrections for dipol
 direction  3 min pos   385,
 dipolmoment           0.000000      0.000000     -0.000000 electrons x Angstroem
 Tr[quadrupol]         0.813188

 energy correction for charged system         0.000000 eV
 dipol+quadrupol energy correction           -0.000000 eV
 added-field ion interaction          0.000000 eV  (added to PSCEN)


 Broyden mixing:
  rms(total) = 0.41923E-04    rms(broyden)= 0.41923E-04
  rms(prec ) = 0.52257E-04
  weight for this iteration     100.00

 eigenvalues of (default mixing * dielectric matrix)
  average eigenvalue GAMMA=   3.0907
  8.3198  6.6902  4.2118  3.3444  2.7423  2.4068  2.4068  0.8353  0.9943  0.9943
  1.0516

 Free energy of the ion-electron system (eV)
  ---------------------------------------------------
  alpha Z        PSCENC =         0.11106919
  Ewald energy   TEWEN  =       249.85368277
  -Hartree energ DENC   =      -270.32407448
  -exchange      EXHF   =         0.00000000
  -V(xc)+E(xc)   XCENC  =         3.35132369
  PAW double counting   =        58.30657065      -57.73750592
  entropy T*S    EENTRO =        -0.00078895
  eigenvalues    EBANDS =       -14.00821975
  atomic energy  EATOM  =        27.47925360
  Solvation  Ediel_sol  =         0.00000000
  ---------------------------------------------------
  free energy    TOTEN  =        -2.96868919 eV

  energy without entropy =       -2.96790025  energy(sigma->0) =       -2.96829472


--------------------------------------------------------------------------------------------------------




--------------------------------------- Iteration      1(  17)  ---------------------------------------


    POTLOK:  cpu time      0.0131: real time      0.0145
    SETDIJ:  cpu time      0.0010: real time      0.0011
     EDDAV:  cpu time      5.5992: real time      5.6283
       DOS:  cpu time      0.0012: real time      0.0012
    CHARGE:  cpu time      0.1226: real time      0.1233
    MIXING:  cpu time      0.0007: real time      0.0007
    --------------------------------------------
      LOOP:  cpu time      5.7378: real time      5.7690

 eigenvalue-minimisations  : 16002
 total energy-change (2. order) :-0.9292105E-05  (-0.6888571E-07)
 number of electron       2.0000000 magnetization 
 augmentation part       -0.0322145 magnetization 

 DIPCOR: dipole corrections for dipol
 direction  3 min pos   385,
 dipolmoment           0.000000      0.000000     -0.000000 electrons x Angstroem
 Tr[quadrupol]         0.812091

 energy correction for charged system         0.000000 eV
 dipol+quadrupol energy correction           -0.000000 eV
 added-field ion interaction          0.000000 eV  (added to PSCEN)


 Broyden mixing:
  rms(total) = 0.21083E-04    rms(broyden)= 0.21083E-04
  rms(prec ) = 0.24508E-04
  weight for this iteration     100.00

 eigenvalues of (default mixing * dielectric matrix)
  average eigenvalue GAMMA=   3.2332
  8.9187  6.2231  5.6912  3.6647  2.9394  2.6475  2.4193  2.4193  0.8353  0.9934
  1.0002  1.0466

 Free energy of the ion-electron system (eV)
  ---------------------------------------------------
  alpha Z        PSCENC =         0.11106919
  Ewald energy   TEWEN  =       249.85368277
  -Hartree energ DENC   =      -270.32702120
  -exchange      EXHF   =         0.00000000
  -V(xc)+E(xc)   XCENC  =         3.35133627
  PAW double counting   =        58.30064157      -57.73160834
  entropy T*S    EENTRO =        -0.00078889
  eigenvalues    EBANDS =       -14.00526345
  atomic energy  EATOM  =        27.47925360
  Solvation  Ediel_sol  =         0.00000000
  ---------------------------------------------------
  free energy    TOTEN  =        -2.96869849 eV

  energy without entropy =       -2.96790960  energy(sigma->0) =       -2.96830404


--------------------------------------------------------------------------------------------------------




--------------------------------------- Iteration      1(  18)  ---------------------------------------


    POTLOK:  cpu time      0.0121: real time      0.0122
    SETDIJ:  cpu time      0.0010: real time      0.0010
     EDDAV:  cpu time      5.9388: real time      5.9697
       DOS:  cpu time      0.0007: real time      0.0008
    CHARGE:  cpu time      0.1214: real time      0.1220
    MIXING:  cpu time      0.0012: real time      0.0012
    --------------------------------------------
      LOOP:  cpu time      6.0752: real time      6.1068

 eigenvalue-minimisations  : 16758
 total energy-change (2. order) :-0.1528347E-05  (-0.3152344E-08)
 number of electron       2.0000000 magnetization 
 augmentation part       -0.0322145 magnetization 

 DIPCOR: dipole corrections for dipol
 direction  3 min pos   385,
 dipolmoment           0.000000      0.000000     -0.000000 electrons x Angstroem
 Tr[quadrupol]         0.811574

 energy correction for charged system         0.000000 eV
 dipol+quadrupol energy correction           -0.000000 eV
 added-field ion interaction          0.000000 eV  (added to PSCEN)


 Broyden mixing:
  rms(total) = 0.74625E-05    rms(broyden)= 0.74625E-05
  rms(prec ) = 0.99013E-05
  weight for this iteration     100.00

 eigenvalues of (default mixing * dielectric matrix)
  average eigenvalue GAMMA=   3.1321
  8.2765  7.7307  4.9986  3.9165  2.9996  2.8583  2.3887  2.3887  0.8353  0.9907
  1.0089  1.0450  1.2795

 Free energy of the ion-electron system (eV)
  ---------------------------------------------------
  alpha Z        PSCENC =         0.11106919
  Ewald energy   TEWEN  =       249.85368277
  -Hartree energ DENC   =      -270.32845257
  -exchange      EXHF   =         0.00000000
  -V(xc)+E(xc)   XCENC  =         3.35133888
  PAW double counting   =        58.30250466      -57.73346927
  entropy T*S    EENTRO =        -0.00078889
  eigenvalues    EBANDS =       -14.00383838
  atomic energy  EATOM  =        27.47925360
  Solvation  Ediel_sol  =         0.00000000
  ---------------------------------------------------
  free energy    TOTEN  =        -2.96870002 eV

  energy without entropy =       -2.96791112  energy(sigma->0) =       -2.96830557


--------------------------------------------------------------------------------------------------------




--------------------------------------- Iteration      1(  19)  ---------------------------------------


    POTLOK:  cpu time      0.0141: real time      0.0142
    SETDIJ:  cpu time      0.0010: real time      0.0010
     EDDAV:  cpu time      5.2097: real time      5.2357
       DOS:  cpu time      0.0006: real time      0.0006
    --------------------------------------------
      LOOP:  cpu time      5.2257: real time      5.2518

 eigenvalue-minimisations  : 15456
 total energy-change (2. order) :-0.6307426E-06  (-0.1060084E-08)
 number of electron       2.0000000 magnetization 
 augmentation part       -0.0322145 magnetization 

 DIPCOR: dipole corrections for dipol
 direction  3 min pos   385,
 dipolmoment           0.000000      0.000000     -0.000000 electrons x Angstroem
 Tr[quadrupol]         0.811425

 energy correction for charged system         0.000000 eV
 dipol+quadrupol energy correction           -0.000000 eV
 added-field ion interaction          0.000000 eV  (added to PSCEN)


 Free energy of the ion-electron system (eV)
  ---------------------------------------------------
  alpha Z        PSCENC =         0.11106919
  Ewald energy   TEWEN  =       249.85368277
  -Hartree energ DENC   =      -270.32786704
  -exchange      EXHF   =         0.00000000
  -V(xc)+E(xc)   XCENC  =         3.35132012
  PAW double counting   =        58.30345222      -57.73441495
  entropy T*S    EENTRO =        -0.00078892
  eigenvalues    EBANDS =       -14.00440766
  atomic energy  EATOM  =        27.47925360
  Solvation  Ediel_sol  =         0.00000000
  ---------------------------------------------------
  free energy    TOTEN  =        -2.96870065 eV

  energy without entropy =       -2.96791173  energy(sigma->0) =       -2.96830619


--------------------------------------------------------------------------------------------------------




 average (electrostatic) potential at core
  the test charge radii are     0.9943
  (the norm of the test charge is              1.0000)
       1 -42.8585
 
 
 
 E-fermi :  -4.3077     XC(G=0):  -1.0537     alpha+bet : -0.8092

 val. band max:       -4.4200460869   @ k =  -0.4545   0.1818   0.0000
 cond. band min:      -4.2998038455   @ k =  -0.2273   0.3182   0.0000
 fundamental gap:      0.1202422414
 Fermi energy:        -4.3076889605

 k-point     1 :       0.0000    0.0000    0.0000
  band No.  band energies     occupation 
      1     -10.6967      2.00000
      2      -5.5819      2.00000
      3      -0.2364      0.00000
      4       0.3718      0.00000
      5       0.5389      0.00000
      6       0.7248      0.00000
      7       0.8114      0.00000
      8       1.2451      0.00000
      9       1.3450      0.00000
     10       1.9360      0.00000
     11       2.0943      0.00000
     12       2.8757      0.00000
     13       3.0513      0.00000
     14       4.0077      0.00000
     15       4.2032      0.00000
     16       5.3375      0.00000
     17       5.5586      0.00000
     18       6.8697      0.00000
     19       7.1106      0.00000
     20       8.5953      0.00000
     21       8.8575      0.00000
     22      10.5171      0.00000
     23      10.7905      0.00000
     24      12.6264      0.00000
     25      12.9217      0.00000
     26      14.9296      0.00000
     27      15.2359      0.00000
     28      17.4160      0.00000
     29      17.7404      0.00000
     30      18.0618      0.00000
     31      18.0811      0.00000
     32      20.0940      0.00000
     33      20.4281      0.00000
     34      22.9463      0.00000
     35      23.3017      0.00000
     36      25.9776      0.00000
     37      26.3481      0.00000
     38      29.1449      0.00000
     39      29.4176      0.00000
     40      29.4555      0.00000
     41      29.5698      0.00000
     42      31.8555      0.00000

 k-point     2 :       0.0455    0.0000    0.0000
  band No.  band energies     occupation 
      1     -10.6337      2.00000
      2      -5.4926      2.00000
      3      -0.1493      0.00000
      4       0.4629      0.00000
      5       0.6301      0.00000
      6       0.8161      0.00000
      7       0.9023      0.00000
      8       1.3363      0.00000
      9       1.4352      0.00000
     10       2.0272      0.00000
     11       2.1842      0.00000
     12       2.9669      0.00000
     13       3.1407      0.00000
     14       4.0988      0.00000
     15       4.2922      0.00000
     16       5.4285      0.00000
     17       5.6471      0.00000
     18       6.9605      0.00000
     19       7.1985      0.00000
     20       8.6860      0.00000
     21       8.9444      0.00000
     22      10.6076      0.00000
     23      10.8759      0.00000
     24      12.7167      0.00000
     25      13.0037      0.00000
     26      15.0195      0.00000
     27      15.3079      0.00000
     28      17.5052      0.00000
     29      17.5720      0.00000
     30      17.8199      0.00000
     31      18.0242      0.00000
     32      20.1822      0.00000
     33      20.5399      0.00000
     34      23.0319      0.00000
     35      23.4043      0.00000
     36      26.0566      0.00000
     37      26.4470      0.00000
     38      27.9179      0.00000
     39      29.1978      0.00000
     40      29.6699      0.00000
     41      29.8355      0.00000
     42      32.1847      0.00000

 k-point     3 :       0.0909    0.0000    0.0000
  band No.  band energies     occupation 
      1     -10.4450      2.00000
      2      -5.2246      2.00000
      3       0.1117      0.00000
      4       0.7362      0.00000
      5       0.9038      0.00000
      6       1.0898      0.00000
      7       1.1749      0.00000
      8       1.6099      0.00000
      9       1.7058      0.00000
     10       2.3006      0.00000
     11       2.4540      0.00000
     12       3.2401      0.00000
     13       3.4087      0.00000
     14       4.3718      0.00000
     15       4.5589      0.00000
     16       5.7013      0.00000
     17       5.9124      0.00000
     18       7.2330      0.00000
     19       7.4615      0.00000
     20       8.9581      0.00000
     21       9.2039      0.00000
     22      10.8791      0.00000
     23      11.1293      0.00000
     24      12.9874      0.00000
     25      13.2422      0.00000
     26      15.2888      0.00000
     27      15.4742      0.00000
     28      16.7951      0.00000
     29      17.1755      0.00000
     30      17.7723      0.00000
     31      18.2272      0.00000
     32      20.4449      0.00000
     33      20.8387      0.00000
     34      23.2843      0.00000
     35      23.6893      0.00000
     36      26.1879      0.00000
     37      26.2746      0.00000
     38      26.8017      0.00000
     39      29.1767      0.00000
     40      29.9691      0.00000
     41      30.7930      0.00000
     42      30.9558      0.00000

 k-point     4 :       0.1364    0.0000    0.0000
  band No.  band energies     occupation 
      1     -10.1318      2.00000
      2      -4.7786      2.00000
      3       0.5457      0.00000
      4       1.1915      0.00000
      5       1.3600      0.00000
      6       1.5459      0.00000
      7       1.6291      0.00000
      8       2.0659      0.00000
      9       2.1565      0.00000
     10       2.7562      0.00000
     11       2.9032      0.00000
     12       3.6956      0.00000
     13       3.8548      0.00000
     14       4.8268      0.00000
     15       5.0025      0.00000
     16       6.1558      0.00000
     17       6.3529      0.00000
     18       7.6869      0.00000
     19       7.8968      0.00000
     20       9.4112      0.00000
     21       9.6301      0.00000
     22      11.3311      0.00000
     23      11.5354      0.00000
     24      13.4376      0.00000
     25      13.5670      0.00000
     26      15.0709      0.00000
     27      15.7362      0.00000
     28      16.3056      0.00000
     29      16.3202      0.00000
     30      18.2142      0.00000
     31      18.6409      0.00000
     32      20.8744      0.00000
     33      21.2812      0.00000
     34      23.6721      0.00000
     35      24.0576      0.00000
     36      25.2626      0.00000
     37      26.3279      0.00000
     38      27.2870      0.00000
     39      27.6416      0.00000
     40      30.1615      0.00000
     41      30.4554      0.00000
     42      31.8927      0.00000

 k-point     5 :       0.1818    0.0000    0.0000
  band No.  band energies     occupation 
      1      -9.6962      2.00000
      2      -4.1552      0.00002
      3       1.1499      0.00000
      4       1.8289      0.00000
      5       1.9986      0.00000
      6       2.1845      0.00000
      7       2.2648      0.00000
      8       2.7042      0.00000
      9       2.7867      0.00000
     10       3.3940      0.00000
     11       3.5307      0.00000
     12       4.3330      0.00000
     13       4.4770      0.00000
     14       5.4636      0.00000
     15       5.6199      0.00000
     16       6.7917      0.00000
     17       6.9631      0.00000
     18       8.3218      0.00000
     19       8.4930      0.00000
     20      10.0447      0.00000
     21      10.1925      0.00000
     22      11.9574      0.00000
     23      11.9623      0.00000
     24      13.2075      0.00000
     25      14.0653      0.00000
     26      14.6127      0.00000
     27      15.4063      0.00000
     28      16.3569      0.00000
     29      16.7806      0.00000
     30      18.8185      0.00000
     31      19.2293      0.00000
     32      21.4172      0.00000
     33      21.8482      0.00000
     34      23.5831      0.00000
     35      24.2044      0.00000
     36      24.8281      0.00000
     37      25.2836      0.00000
     38      27.5241      0.00000
     39      27.9727      0.00000
     40      28.6973      0.00000
     41      29.7959      0.00000
     42      30.1801      0.00000

 k-point     6 :       0.2273    0.0000    0.0000
  band No.  band energies     occupation 
      1      -9.1426      2.00000
      2      -3.3560      0.00000
      3       1.9174      0.00000
      4       2.6479      0.00000
      5       2.8195      0.00000
      6       3.0054      0.00000
      7       3.0810      0.00000
      8       3.5248      0.00000
      9       3.5939      0.00000
     10       4.2137      0.00000
     11       4.3331      0.00000
     12       5.1521      0.00000
     13       5.2686      0.00000
     14       6.2815      0.00000
     15       6.3989      0.00000
     16       7.6082      0.00000
     17       7.7165      0.00000
     18       9.1366      0.00000
     19       9.1689      0.00000
     20      10.5187      0.00000
     21      10.8566      0.00000
     22      11.5905      0.00000
     23      12.7692      0.00000
     24      13.2224      0.00000
     25      14.5273      0.00000
     26      14.8627      0.00000
     27      15.2671      0.00000
     28      17.1284      0.00000
     29      17.5338      0.00000
     30      19.4557      0.00000
     31      19.9836      0.00000
     32      20.8723      0.00000
     33      22.5077      0.00000
     34      22.5578      0.00000
     35      24.2675      0.00000
     36      25.2444      0.00000
     37      25.6153      0.00000
     38      25.9682      0.00000
     39      26.7316      0.00000
     40      26.9177      0.00000
     41      27.0970      0.00000
     42      27.1535      0.00000

 k-point     7 :       0.2727    0.0000    0.0000
  band No.  band energies     occupation 
      1      -8.4788      2.00000
      2      -2.3835      0.00000
      3       2.8243      0.00000
      4       3.6481      0.00000
      5       3.8223      0.00000
      6       4.0085      0.00000
      7       4.0747      0.00000
      8       4.5272      0.00000
      9       4.5681      0.00000
     10       5.2148      0.00000
     11       5.2928      0.00000
     12       6.1522      0.00000
     13       6.1897      0.00000
     14       7.2408      0.00000
     15       7.2797      0.00000
     16       8.2968      0.00000
     17       8.6037      0.00000
     18       9.2601      0.00000
     19      10.1279      0.00000
     20      10.5688      0.00000
     21      11.8406      0.00000
     22      12.2244      0.00000
     23      13.7362      0.00000
     24      13.7365      0.00000
     25      14.1103      0.00000
     26      15.7713      0.00000
     27      16.2056      0.00000
     28      17.5241      0.00000
     29      18.4762      0.00000
     30      18.5771      0.00000
     31      20.7775      0.00000
     32      20.8900      0.00000
     33      22.6793      0.00000
     34      23.1613      0.00000
     35      23.2935      0.00000
     36      23.8023      0.00000
     37      23.9053      0.00000
     38      24.1046      0.00000
     39      24.1406      0.00000
     40      24.5258      0.00000
     41      24.6145      0.00000
     42      24.7074      0.00000

 k-point     8 :       0.3182    0.0000    0.0000
  band No.  band energies     occupation 
      1      -7.7204      2.00000
      2      -1.2428      0.00000
      3       3.7341      0.00000
      4       4.8281      0.00000
      5       5.0029      0.00000
      6       5.1934      0.00000
      7       5.2105      0.00000
      8       5.5996      0.00000
      9       5.7110      0.00000
     10       6.1928      0.00000
     11       6.3962      0.00000
     12       6.8474      0.00000
     13       7.3314      0.00000
     14       7.7131      0.00000
     15       8.4544      0.00000
     16       8.7890      0.00000
     17       9.7710      0.00000
     18      10.0949      0.00000
     19      11.2804      0.00000
     20      11.6143      0.00000
     21      12.9476      0.00000
     22      13.0644      0.00000
     23      13.3344      0.00000
     24      14.5390      0.00000
     25      15.2408      0.00000
     26      15.4640      0.00000
     27      17.2000      0.00000
     28      17.3368      0.00000
     29      19.4122      0.00000
     30      19.5789      0.00000
     31      19.9411      0.00000
     32      20.8975      0.00000
     33      21.0760      0.00000
     34      21.2558      0.00000
     35      21.3194      0.00000
     36      21.7192      0.00000
     37      21.7950      0.00000
     38      21.9061      0.00000
     39      21.9488      0.00000
     40      22.5008      0.00000
     41      22.5241      0.00000
     42      23.3686      0.00000

 k-point     9 :       0.3636    0.0000    0.0000
  band No.  band energies     occupation 
      1      -6.8984      2.00000
      2       0.0553      0.00000
      3       3.7102      0.00000
      4       5.9270      0.00000
      5       6.1833      0.00000
      6       6.3865      0.00000
      7       6.5589      0.00000
      8       6.6778      0.00000
      9       7.0737      0.00000
     10       7.2299      0.00000
     11       7.7528      0.00000
     12       7.9710      0.00000
     13       8.6802      0.00000
     14       8.9195      0.00000
     15       9.7824      0.00000
     16      10.0564      0.00000
     17      11.0343      0.00000
     18      11.3957      0.00000
     19      12.1607      0.00000
     20      12.5287      0.00000
     21      12.9298      0.00000
     22      13.0070      0.00000
     23      14.5236      0.00000
     24      14.6548      0.00000
     25      16.3804      0.00000
     26      16.5517      0.00000
     27      17.3568      0.00000
     28      18.1824      0.00000
     29      18.4289      0.00000
     30      18.4938      0.00000
     31      18.6453      0.00000
     32      18.6601      0.00000
     33      18.6885      0.00000
     34      19.1494      0.00000
     35      19.1695      0.00000
     36      19.8217      0.00000
     37      19.8994      0.00000
     38      20.6268      0.00000
     39      20.8059      0.00000
     40      20.8595      0.00000
     41      20.9115      0.00000
     42      21.8996      0.00000

 k-point    10 :       0.4091    0.0000    0.0000
  band No.  band energies     occupation 
      1      -6.0801      2.00000
      2       1.4821      0.00000
      3       2.5979      0.00000
      4       7.1882      0.00000
      5       7.6767      0.00000
      6       7.9340      0.00000
      7       8.0954      0.00000
      8       8.2060      0.00000
      9       8.5888      0.00000
     10       8.7355      0.00000
     11       9.1945      0.00000
     12       9.4787      0.00000
     13       9.8420      0.00000
     14      10.4246      0.00000
     15      10.4676      0.00000
     16      11.4890      0.00000
     17      11.5642      0.00000
     18      12.1401      0.00000
     19      12.7755      0.00000
     20      12.9038      0.00000
     21      14.2725      0.00000
     22      14.4166      0.00000
     23      14.9647      0.00000
     24      15.7299      0.00000
     25      15.9643      0.00000
     26      16.0189      0.00000
     27      16.1638      0.00000
     28      16.1862      0.00000
     29      16.2340      0.00000
     30      16.6809      0.00000
     31      16.7195      0.00000
     32      17.3473      0.00000
     33      17.4507      0.00000
     34      17.8970      0.00000
     35      18.0745      0.00000
     36      18.3403      0.00000
     37      18.3819      0.00000
     38      19.4056      0.00000
     39      19.5056      0.00000
     40      20.0230      0.00000
     41      20.1220      0.00000
     42      20.7863      0.00000

 k-point    11 :       0.4545    0.0000    0.0000
  band No.  band energies     occupation 
      1      -5.4094      2.00000
      2       1.6137      0.00000
      3       2.9292      0.00000
      4       7.7525      0.00000
      5       8.7970      0.00000
      6       9.5634      0.00000
      7       9.6671      0.00000
      8       9.8722      0.00000
      9       9.9302      0.00000
     10      10.3915      0.00000
     11      10.4450      0.00000
     12      11.0818      0.00000
     13      11.1828      0.00000
     14      11.9048      0.00000
     15      12.0104      0.00000
     16      12.1055      0.00000
     17      12.7118      0.00000
     18      13.1041      0.00000
     19      13.2974      0.00000
     20      13.5402      0.00000
     21      13.6834      0.00000
     22      13.8700      0.00000
     23      13.9404      0.00000
     24      14.3457      0.00000
     25      14.4328      0.00000
     26      14.5156      0.00000
     27      14.6353      0.00000
     28      15.0894      0.00000
     29      15.1872      0.00000
     30      15.8982      0.00000
     31      16.0821      0.00000
     32      16.1271      0.00000
     33      16.1948      0.00000
     34      17.1343      0.00000
     35      17.2520      0.00000
     36      17.7305      0.00000
     37      17.8744      0.00000
     38      18.4950      0.00000
     39      18.5843      0.00000
     40      19.5854      0.00000
     41      19.7417      0.00000
     42      20.0898      0.00000

 k-point    12 :       0.5000    0.0000    0.0000
  band No.  band energies     occupation 
      1      -5.1326      2.00000
      2       1.2217      0.00000
      3       3.7794      0.00000
      4       6.8341      0.00000
      5      10.3929      0.00000
      6      10.8747      0.00000
      7      11.2966      0.00000
      8      11.5128      0.00000
      9      11.5813      0.00000
     10      11.5864      0.00000
     11      11.7450      0.00000
     12      11.8101      0.00000
     13      11.8255      0.00000
     14      11.8261      0.00000
     15      11.8630      0.00000
     16      12.2490      0.00000
     17      12.3114      0.00000
     18      12.3399      0.00000
     19      12.4016      0.00000
     20      12.9130      0.00000
     21      13.0469      0.00000
     22      13.0583      0.00000
     23      13.1487      0.00000
     24      13.8380      0.00000
     25      13.9761      0.00000
     26      14.0110      0.00000
     27      14.0995      0.00000
     28      14.9448      0.00000
     29      15.1181      0.00000
     30      15.1669      0.00000
     31      15.2367      0.00000
     32      16.2514      0.00000
     33      16.4666      0.00000
     34      16.5196      0.00000
     35      16.5659      0.00000
     36      17.7626      0.00000
     37      18.0119      0.00000
     38      18.0672      0.00000
     39      18.0708      0.00000
     40      19.4626      0.00000
     41      19.7106      0.00000
     42      19.7549      0.00000

 k-point    13 :       0.0000    0.0455    0.0000
  band No.  band energies     occupation 
      1     -10.6338      2.00000
      2      -5.4927      2.00000
      3      -0.1494      0.00000
      4       0.4628      0.00000
      5       0.6300      0.00000
      6       0.8160      0.00000
      7       0.9022      0.00000
      8       1.3362      0.00000
      9       1.4351      0.00000
     10       2.0271      0.00000
     11       2.1841      0.00000
     12       2.9667      0.00000
     13       3.1406      0.00000
     14       4.0987      0.00000
     15       4.2921      0.00000
     16       5.4284      0.00000
     17       5.6470      0.00000
     18       6.9604      0.00000
     19       7.1984      0.00000
     20       8.6859      0.00000
     21       8.9443      0.00000
     22      10.6075      0.00000
     23      10.8757      0.00000
     24      12.7166      0.00000
     25      13.0036      0.00000
     26      15.0194      0.00000
     27      15.3077      0.00000
     28      17.5051      0.00000
     29      17.5624      0.00000
     30      17.8354      0.00000
     31      18.0171      0.00000
     32      20.1820      0.00000
     33      20.5397      0.00000
     34      23.0318      0.00000
     35      23.4041      0.00000
     36      26.0565      0.00000
     37      26.4469      0.00000
     38      27.9086      0.00000
     39      29.1975      0.00000
     40      29.6697      0.00000
     41      29.8626      0.00000
     42      32.1818      0.00000

 k-point    14 :       0.0909    0.0455    0.0000
  band No.  band energies     occupation 
      1     -10.5078      2.00000
      2      -5.3138      2.00000
      3       0.0249      0.00000
      4       0.6452      0.00000
      5       0.8127      0.00000
      6       0.9986      0.00000
      7       1.0841      0.00000
      8       1.5188      0.00000
      9       1.6157      0.00000
     10       2.2095      0.00000
     11       2.3642      0.00000
     12       3.1492      0.00000
     13       3.3195      0.00000
     14       4.2809      0.00000
     15       4.4702      0.00000
     16       5.6104      0.00000
     17       5.8242      0.00000
     18       7.1423      0.00000
     19       7.3740      0.00000
     20       8.8675      0.00000
     21       9.1177      0.00000
     22      10.7888      0.00000
     23      11.0455      0.00000
     24      12.8973      0.00000
     25      13.1649      0.00000
     26      15.1992      0.00000
     27      15.4355      0.00000
     28      17.1410      0.00000
     29      17.2502      0.00000
     30      17.6836      0.00000
     31      18.1683      0.00000
     32      20.3578      0.00000
     33      20.7476      0.00000
     34      23.2012      0.00000
     35      23.6033      0.00000
     36      26.2069      0.00000
     37      26.6417      0.00000
     38      26.6483      0.00000
     39      29.2448      0.00000
     40      29.8356      0.00000
     41      30.5953      0.00000
     42      31.4253      0.00000

 k-point    15 :       0.1364    0.0455    0.0000
  band No.  band energies     occupation 
      1     -10.2567      2.00000
      2      -4.9567      2.00000
      3       0.3725      0.00000
      4       1.0096      0.00000
      5       1.1777      0.00000
      6       1.3637      0.00000
      7       1.4477      0.00000
      8       1.8838      0.00000
      9       1.9765      0.00000
     10       2.5742      0.00000
     11       2.7238      0.00000
     12       3.5136      0.00000
     13       3.6768      0.00000
     14       4.6451      0.00000
     15       4.8256      0.00000
     16       5.9742      0.00000
     17       6.1773      0.00000
     18       7.5056      0.00000
     19       7.7237      0.00000
     20       9.2303      0.00000
     21       9.4616      0.00000
     22      11.1506      0.00000
     23      11.3783      0.00000
     24      13.2579      0.00000
     25      13.4645      0.00000
     26      15.4763      0.00000
     27      15.5578      0.00000
     28      16.1764      0.00000
     29      16.6003      0.00000
     30      18.0384      0.00000
     31      18.5043      0.00000
     32      20.7048      0.00000
     33      21.1280      0.00000
     34      23.5266      0.00000
     35      23.9710      0.00000
     36      25.5673      0.00000
     37      26.4292      0.00000
     38      27.0409      0.00000
     39      28.5318      0.00000
     40      30.2167      0.00000
     41      30.2560      0.00000
     42      31.8244      0.00000

 k-point    16 :       0.1818    0.0455    0.0000
  band No.  band energies     occupation 
      1      -9.8819      2.00000
      2      -4.4219      1.99876
      3       0.8920      0.00000
      4       1.5561      0.00000
      5       1.7252      0.00000
      6       1.9111      0.00000
      7       1.9928      0.00000
      8       2.4310      0.00000
      9       2.5172      0.00000
     10       3.1210      0.00000
     11       3.2625      0.00000
     12       4.0601      0.00000
     13       4.2113      0.00000
     14       5.1910      0.00000
     15       5.3567      0.00000
     16       6.5195      0.00000
     17       6.7039      0.00000
     18       8.0502      0.00000
     19       8.2420      0.00000
     20       9.7737      0.00000
     21       9.9639      0.00000
     22      11.6924      0.00000
     23      11.8354      0.00000
     24      13.6220      0.00000
     25      13.7972      0.00000
     26      14.5424      0.00000
     27      15.4929      0.00000
     28      16.0925      0.00000
     29      16.6410      0.00000
     30      18.5635      0.00000
     31      19.0130      0.00000
     32      21.2038      0.00000
     33      21.6505      0.00000
     34      23.8870      0.00000
     35      24.3378      0.00000
     36      25.1521      0.00000
     37      25.5669      0.00000
     38      27.4177      0.00000
     39      27.6390      0.00000
     40      29.8453      0.00000
     41      30.3086      0.00000
     42      30.8073      0.00000

 k-point    17 :       0.2273    0.0455    0.0000
  band No.  band energies     occupation 
      1      -9.3865      2.00000
      2      -3.7104      0.00000
      3       1.5794      0.00000
      4       2.2844      0.00000
      5       2.4551      0.00000
      6       2.6410      0.00000
      7       2.7190      0.00000
      8       3.1605      0.00000
      9       3.2364      0.00000
     10       3.8499      0.00000
     11       3.9783      0.00000
     12       4.7885      0.00000
     13       4.9199      0.00000
     14       5.9185      0.00000
     15       6.0580      0.00000
     16       7.2459      0.00000
     17       7.3930      0.00000
     18       8.7752      0.00000
     19       8.9031      0.00000
     20      10.4967      0.00000
     21      10.5301      0.00000
     22      11.8603      0.00000
     23      12.4121      0.00000
     24      12.9524      0.00000
     25      14.4282      0.00000
     26      14.5111      0.00000
     27      15.1587      0.00000
     28      16.7937      0.00000
     29      17.2474      0.00000
     30      19.2254      0.00000
     31      19.6906      0.00000
     32      21.5785      0.00000
     33      22.2945      0.00000
     34      22.7577      0.00000
     35      24.4067      0.00000
     36      24.9875      0.00000
     37      25.6029      0.00000
     38      27.2113      0.00000
     39      27.6467      0.00000
     40      28.4237      0.00000
     41      28.4335      0.00000
     42      28.5774      0.00000

 k-point    18 :       0.2727    0.0455    0.0000
  band No.  band energies     occupation 
      1      -8.7761      2.00000
      2      -2.8242      0.00000
      3       2.4224      0.00000
      4       3.1941      0.00000
      5       3.3672      0.00000
      6       3.5531      0.00000
      7       3.6249      0.00000
      8       4.0721      0.00000
      9       4.1299      0.00000
     10       4.7604      0.00000
     11       4.8643      0.00000
     12       5.6983      0.00000
     13       5.7880      0.00000
     14       6.8268      0.00000
     15       6.8997      0.00000
     16       8.1523      0.00000
     17       8.1623      0.00000
     18       9.3686      0.00000
     19       9.6789      0.00000
     20      10.3515      0.00000
     21      11.3959      0.00000
     22      11.7888      0.00000
     23      13.3026      0.00000
     24      13.4103      0.00000
     25      14.0592      0.00000
     26      15.3813      0.00000
     27      15.8387      0.00000
     28      17.5792      0.00000
     29      18.0897      0.00000
     30      19.2157      0.00000
     31      20.5078      0.00000
     32      20.5312      0.00000
     33      22.9696      0.00000
     34      23.0097      0.00000
     35      24.2112      0.00000
     36      24.5481      0.00000
     37      25.1785      0.00000
     38      25.4557      0.00000
     39      25.5848      0.00000
     40      25.6948      0.00000
     41      25.8108      0.00000
     42      26.1971      0.00000

 k-point    19 :       0.3182    0.0455    0.0000
  band No.  band energies     occupation 
      1      -8.0614      2.00000
      2      -1.7671      0.00000
      3       3.3692      0.00000
      4       4.2846      0.00000
      5       4.4604      0.00000
      6       4.6473      0.00000
      7       4.7018      0.00000
      8       5.1655      0.00000
      9       5.1696      0.00000
     10       5.8520      0.00000
     11       5.8649      0.00000
     12       6.6651      0.00000
     13       6.7884      0.00000
     14       7.5015      0.00000
     15       7.9140      0.00000
     16       8.3982      0.00000
     17       9.2352      0.00000
     18       9.5957      0.00000
     19      10.7546      0.00000
     20      11.0607      0.00000
     21      12.4562      0.00000
     22      12.6050      0.00000
     23      13.2447      0.00000
     24      14.3125      0.00000
     25      14.7832      0.00000
     26      16.0244      0.00000
     27      16.8549      0.00000
     28      16.9983      0.00000
     29      18.9456      0.00000
     30      19.1168      0.00000
     31      21.3205      0.00000
     32      21.3471      0.00000
     33      21.5476      0.00000
     34      22.3753      0.00000
     35      22.5349      0.00000
     36      22.7212      0.00000
     37      22.7775      0.00000
     38      23.2252      0.00000
     39      23.2523      0.00000
     40      23.6323      0.00000
     41      23.7997      0.00000
     42      23.9981      0.00000

 k-point    20 :       0.3636    0.0455    0.0000
  band No.  band energies     occupation 
      1      -7.2638      2.00000
      2      -0.5461      0.00000
      3       4.0056      0.00000
      4       5.5532      0.00000
      5       5.6226      0.00000
      6       5.7681      0.00000
      7       5.9228      0.00000
      8       6.0884      0.00000
      9       6.4393      0.00000
     10       6.6523      0.00000
     11       7.1222      0.00000
     12       7.3734      0.00000
     13       8.0549      0.00000
     14       8.3075      0.00000
     15       9.1721      0.00000
     16       9.4268      0.00000
     17      10.4764      0.00000
     18      10.7392      0.00000
     19      11.9461      0.00000
     20      12.0936      0.00000
     21      12.6519      0.00000
     22      13.3358      0.00000
     23      14.0968      0.00000
     24      14.2111      0.00000
     25      15.8202      0.00000
     26      15.9790      0.00000
     27      17.8471      0.00000
     28      18.0533      0.00000
     29      18.7264      0.00000
     30      19.5870      0.00000
     31      19.7969      0.00000
     32      19.9514      0.00000
     33      20.0440      0.00000
     34      20.1681      0.00000
     35      20.3238      0.00000
     36      20.5318      0.00000
     37      20.5383      0.00000
     38      21.1976      0.00000
     39      21.2658      0.00000
     40      22.0833      0.00000
     41      22.1764      0.00000
     42      22.5771      0.00000

 k-point    21 :       0.4091    0.0455    0.0000
  band No.  band energies     occupation 
      1      -6.4280      2.00000
      2       0.8215      0.00000
      3       3.2028      0.00000
      4       6.5300      0.00000
      5       6.9890      0.00000
      6       7.2053      0.00000
      7       7.3769      0.00000
      8       7.4809      0.00000
      9       7.8876      0.00000
     10       8.0135      0.00000
     11       8.5560      0.00000
     12       8.7535      0.00000
     13       9.4619      0.00000
     14       9.6916      0.00000
     15      10.4611      0.00000
     16      10.8047      0.00000
     17      11.2445      0.00000
     18      11.8270      0.00000
     19      12.1745      0.00000
     20      12.3514      0.00000
     21      13.5996      0.00000
     22      13.7689      0.00000
     23      15.2756      0.00000
     24      15.4608      0.00000
     25      16.2373      0.00000
     26      16.9673      0.00000
     27      17.2405      0.00000
     28      17.2515      0.00000
     29      17.3927      0.00000
     30      17.4553      0.00000
     31      17.5061      0.00000
     32      17.9565      0.00000
     33      17.9967      0.00000
     34      18.6239      0.00000
     35      18.7276      0.00000
     36      19.2493      0.00000
     37      19.4749      0.00000
     38      19.6330      0.00000
     39      19.6616      0.00000
     40      20.6894      0.00000
     41      20.7804      0.00000
     42      21.5335      0.00000

 k-point    22 :       0.4545    0.0455    0.0000
  band No.  band energies     occupation 
      1      -5.6529      2.00000
      2       2.0517      0.00000
      3       2.2826      0.00000
      4       7.9994      0.00000
      5       8.2913      0.00000
      6       8.8465      0.00000
      7       8.9188      0.00000
      8       9.1101      0.00000
      9       9.1764      0.00000
     10       9.6234      0.00000
     11       9.6315      0.00000
     12      10.3076      0.00000
     13      10.3538      0.00000
     14      11.2192      0.00000
     15      11.2233      0.00000
     16      11.6659      0.00000
     17      12.3385      0.00000
     18      12.4970      0.00000
     19      13.6402      0.00000
     20      13.7097      0.00000
     21      14.0461      0.00000
     22      14.6821      0.00000
     23      14.8685      0.00000
     24      15.0298      0.00000
     25      15.1206      0.00000
     26      15.2127      0.00000
     27      15.3713      0.00000
     28      15.5919      0.00000
     29      15.6480      0.00000
     30      16.2578      0.00000
     31      16.3705      0.00000
     32      16.8740      0.00000
     33      17.0856      0.00000
     34      17.2489      0.00000
     35      17.3235      0.00000
     36      18.3026      0.00000
     37      18.4375      0.00000
     38      18.8391      0.00000
     39      18.9952      0.00000
     40      19.6757      0.00000
     41      19.7696      0.00000
     42      20.8290      0.00000

 k-point    23 :       0.5000    0.0455    0.0000
  band No.  band energies     occupation 
      1      -5.1397      2.00000
      2       1.3101      0.00000
      3       3.5833      0.00000
      4       7.1820      0.00000
      5       9.6919      0.00000
      6      10.5223      0.00000
      7      10.6702      0.00000
      8      10.8626      0.00000
      9      10.9161      0.00000
     10      11.2116      0.00000
     11      11.3793      0.00000
     12      11.4139      0.00000
     13      11.8940      0.00000
     14      12.0515      0.00000
     15      12.2823      0.00000
     16      12.5160      0.00000
     17      12.6789      0.00000
     18      12.8516      0.00000
     19      12.9344      0.00000
     20      13.0296      0.00000
     21      13.1580      0.00000
     22      13.3927      0.00000
     23      13.4721      0.00000
     24      14.0156      0.00000
     25      14.1606      0.00000
     26      14.2064      0.00000
     27      14.3353      0.00000
     28      15.0016      0.00000
     29      15.1328      0.00000
     30      15.4790      0.00000
     31      15.6414      0.00000
     32      16.1526      0.00000
     33      16.2793      0.00000
     34      16.9781      0.00000
     35      17.1646      0.00000
     36      17.5071      0.00000
     37      17.6203      0.00000
     38      18.6545      0.00000
     39      18.8774      0.00000
     40      19.0796      0.00000
     41      19.1391      0.00000
     42      20.4825      0.00000

 k-point    24 :      -0.4545    0.0455    0.0000
  band No.  band energies     occupation 
      1      -5.1399      2.00000
      2       1.3104      0.00000
      3       3.5822      0.00000
      4       7.1832      0.00000
      5       9.6902      0.00000
      6      10.5202      0.00000
      7      10.6681      0.00000
      8      10.8604      0.00000
      9      10.9140      0.00000
     10      11.2104      0.00000
     11      11.3772      0.00000
     12      11.4123      0.00000
     13      11.8949      0.00000
     14      12.0496      0.00000
     15      12.2809      0.00000
     16      12.5180      0.00000
     17      12.6813      0.00000
     18      12.8536      0.00000
     19      12.9366      0.00000
     20      13.0282      0.00000
     21      13.1563      0.00000
     22      13.3949      0.00000
     23      13.4742      0.00000
     24      14.0164      0.00000
     25      14.1619      0.00000
     26      14.2058      0.00000
     27      14.3342      0.00000
     28      15.0036      0.00000
     29      15.1351      0.00000
     30      15.4773      0.00000
     31      15.6394      0.00000
     32      16.1546      0.00000
     33      16.2817      0.00000
     34      16.9764      0.00000
     35      17.1626      0.00000
     36      17.5090      0.00000
     37      17.6226      0.00000
     38      18.6533      0.00000
     39      18.8754      0.00000
     40      19.0811      0.00000
     41      19.1415      0.00000
     42      20.4822      0.00000

 k-point    25 :      -0.4091    0.0455    0.0000
  band No.  band energies     occupation 
      1      -5.6535      2.00000
      2       2.0524      0.00000
      3       2.2809      0.00000
      4       7.9976      0.00000
      5       8.2912      0.00000
      6       8.8445      0.00000
      7       8.9174      0.00000
      8       9.1082      0.00000
      9       9.1754      0.00000
     10       9.6215      0.00000
     11       9.6299      0.00000
     12      10.3059      0.00000
     13      10.3519      0.00000
     14      11.2174      0.00000
     15      11.2214      0.00000
     16      11.6636      0.00000
     17      12.3366      0.00000
     18      12.4950      0.00000
     19      13.6384      0.00000
     20      13.7094      0.00000
     21      14.0472      0.00000
     22      14.6842      0.00000
     23      14.8711      0.00000
     24      15.0318      0.00000
     25      15.1230      0.00000
     26      15.2119      0.00000
     27      15.3698      0.00000
     28      15.5943      0.00000
     29      15.6504      0.00000
     30      16.2601      0.00000
     31      16.3731      0.00000
     32      16.8728      0.00000
     33      17.0841      0.00000
     34      17.2509      0.00000
     35      17.3258      0.00000
     36      18.3047      0.00000
     37      18.4401      0.00000
     38      18.8378      0.00000
     39      18.9934      0.00000
     40      19.6779      0.00000
     41      19.7723      0.00000
     42      20.8282      0.00000

 k-point    26 :      -0.3636    0.0455    0.0000
  band No.  band energies     occupation 
      1      -6.4288      2.00000
      2       0.8198      0.00000
      3       3.2036      0.00000
      4       6.5283      0.00000
      5       6.9873      0.00000
      6       7.2035      0.00000
      7       7.3752      0.00000
      8       7.4791      0.00000
      9       7.8858      0.00000
     10       8.0118      0.00000
     11       8.5543      0.00000
     12       8.7518      0.00000
     13       9.4603      0.00000
     14       9.6898      0.00000
     15      10.4602      0.00000
     16      10.8028      0.00000
     17      11.2450      0.00000
     18      11.8242      0.00000
     19      12.1734      0.00000
     20      12.3494      0.00000
     21      13.5981      0.00000
     22      13.7672      0.00000
     23      15.2740      0.00000
     24      15.4592      0.00000
     25      16.2401      0.00000
     26      16.9683      0.00000
     27      17.2433      0.00000
     28      17.2520      0.00000
     29      17.3916      0.00000
     30      17.4577      0.00000
     31      17.5085      0.00000
     32      17.9592      0.00000
     33      17.9995      0.00000
     34      18.6265      0.00000
     35      18.7305      0.00000
     36      19.2485      0.00000
     37      19.4735      0.00000
     38      19.6351      0.00000
     39      19.6644      0.00000
     40      20.6919      0.00000
     41      20.7833      0.00000
     42      21.5325      0.00000

 k-point    27 :      -0.3182    0.0455    0.0000
  band No.  band energies     occupation 
      1      -7.2645      2.00000
      2      -0.5476      0.00000
      3       4.0055      0.00000
      4       5.5517      0.00000
      5       5.6217      0.00000
      6       5.7666      0.00000
      7       5.9213      0.00000
      8       6.0871      0.00000
      9       6.4378      0.00000
     10       6.6509      0.00000
     11       7.1207      0.00000
     12       7.3719      0.00000
     13       8.0534      0.00000
     14       8.3060      0.00000
     15       9.1706      0.00000
     16       9.4251      0.00000
     17      10.4749      0.00000
     18      10.7374      0.00000
     19      11.9448      0.00000
     20      12.0905      0.00000
     21      12.6495      0.00000
     22      13.3361      0.00000
     23      14.0955      0.00000
     24      14.2114      0.00000
     25      15.8189      0.00000
     26      15.9777      0.00000
     27      17.8457      0.00000
     28      18.0521      0.00000
     29      18.7296      0.00000
     30      19.5895      0.00000
     31      19.7999      0.00000
     32      19.9538      0.00000
     33      20.0469      0.00000
     34      20.1680      0.00000
     35      20.3228      0.00000
     36      20.5344      0.00000
     37      20.5413      0.00000
     38      21.2004      0.00000
     39      21.2688      0.00000
     40      22.0857      0.00000
     41      22.1795      0.00000
     42      22.5774      0.00000

 k-point    28 :      -0.2727    0.0455    0.0000
  band No.  band energies     occupation 
      1      -8.0622      2.00000
      2      -1.7684      0.00000
      3       3.3682      0.00000
      4       4.2832      0.00000
      5       4.4591      0.00000
      6       4.6459      0.00000
      7       4.7005      0.00000
      8       5.1641      0.00000
      9       5.1684      0.00000
     10       5.8507      0.00000
     11       5.8638      0.00000
     12       6.6643      0.00000
     13       6.7871      0.00000
     14       7.5009      0.00000
     15       7.9127      0.00000
     16       8.3971      0.00000
     17       9.2339      0.00000
     18       9.5942      0.00000
     19      10.7533      0.00000
     20      11.0589      0.00000
     21      12.4549      0.00000
     22      12.6013      0.00000
     23      13.2418      0.00000
     24      14.3113      0.00000
     25      14.7823      0.00000
     26      16.0249      0.00000
     27      16.8538      0.00000
     28      16.9987      0.00000
     29      18.9445      0.00000
     30      19.1158      0.00000
     31      21.3193      0.00000
     32      21.3497      0.00000
     33      21.5480      0.00000
     34      22.3782      0.00000
     35      22.5381      0.00000
     36      22.7243      0.00000
     37      22.7807      0.00000
     38      23.2281      0.00000
     39      23.2556      0.00000
     40      23.6356      0.00000
     41      23.8009      0.00000
     42      24.0011      0.00000

 k-point    29 :      -0.2273    0.0455    0.0000
  band No.  band energies     occupation 
      1      -8.7768      2.00000
      2      -2.8254      0.00000
      3       2.4214      0.00000
      4       3.1930      0.00000
      5       3.3660      0.00000
      6       3.5520      0.00000
      7       3.6237      0.00000
      8       4.0710      0.00000
      9       4.1288      0.00000
     10       4.7593      0.00000
     11       4.8632      0.00000
     12       5.6972      0.00000
     13       5.7870      0.00000
     14       6.8257      0.00000
     15       6.8987      0.00000
     16       8.1512      0.00000
     17       8.1616      0.00000
     18       9.3685      0.00000
     19       9.6777      0.00000
     20      10.3507      0.00000
     21      11.3948      0.00000
     22      11.7870      0.00000
     23      13.3015      0.00000
     24      13.4053      0.00000
     25      14.0566      0.00000
     26      15.3802      0.00000
     27      15.8380      0.00000
     28      17.5784      0.00000
     29      18.0890      0.00000
     30      19.2173      0.00000
     31      20.5076      0.00000
     32      20.5306      0.00000
     33      22.9685      0.00000
     34      23.0109      0.00000
     35      24.2150      0.00000
     36      24.5545      0.00000
     37      25.1804      0.00000
     38      25.4591      0.00000
     39      25.5871      0.00000
     40      25.6982      0.00000
     41      25.8115      0.00000
     42      26.2001      0.00000

 k-point    30 :      -0.1818    0.0455    0.0000
  band No.  band energies     occupation 
      1      -9.3871      2.00000
      2      -3.7113      0.00000
      3       1.5785      0.00000
      4       2.2834      0.00000
      5       2.4542      0.00000
      6       2.6400      0.00000
      7       2.7181      0.00000
      8       3.1596      0.00000
      9       3.2355      0.00000
     10       3.8489      0.00000
     11       3.9774      0.00000
     12       4.7876      0.00000
     13       4.9191      0.00000
     14       5.9176      0.00000
     15       6.0572      0.00000
     16       7.2450      0.00000
     17       7.3922      0.00000
     18       8.7743      0.00000
     19       8.9024      0.00000
     20      10.4958      0.00000
     21      10.5297      0.00000
     22      11.8608      0.00000
     23      12.4111      0.00000
     24      12.9506      0.00000
     25      14.4207      0.00000
     26      14.5102      0.00000
     27      15.1574      0.00000
     28      16.7928      0.00000
     29      17.2469      0.00000
     30      19.2245      0.00000
     31      19.6902      0.00000
     32      21.5786      0.00000
     33      22.2946      0.00000
     34      22.7591      0.00000
     35      24.4153      0.00000
     36      24.9867      0.00000
     37      25.6055      0.00000
     38      27.2152      0.00000
     39      27.6424      0.00000
     40      28.4235      0.00000
     41      28.4354      0.00000
     42      28.5746      0.00000

 k-point    31 :      -0.1364    0.0455    0.0000
  band No.  band energies     occupation 
      1      -9.8824      2.00000
      2      -4.4226      1.99884
      3       0.8914      0.00000
      4       1.5553      0.00000
      5       1.7245      0.00000
      6       1.9104      0.00000
      7       1.9920      0.00000
      8       2.4303      0.00000
      9       2.5165      0.00000
     10       3.1203      0.00000
     11       3.2618      0.00000
     12       4.0594      0.00000
     13       4.2106      0.00000
     14       5.1903      0.00000
     15       5.3560      0.00000
     16       6.5188      0.00000
     17       6.7032      0.00000
     18       8.0494      0.00000
     19       8.2414      0.00000
     20       9.7730      0.00000
     21       9.9632      0.00000
     22      11.6917      0.00000
     23      11.8349      0.00000
     24      13.6230      0.00000
     25      13.7965      0.00000
     26      14.5415      0.00000
     27      15.4836      0.00000
     28      16.0918      0.00000
     29      16.6404      0.00000
     30      18.5628      0.00000
     31      19.0126      0.00000
     32      21.2031      0.00000
     33      21.6502      0.00000
     34      23.8864      0.00000
     35      24.3411      0.00000
     36      25.1623      0.00000
     37      25.5682      0.00000
     38      27.4176      0.00000
     39      27.6391      0.00000
     40      29.8284      0.00000
     41      30.3128      0.00000
     42      30.7979      0.00000

 k-point    32 :      -0.0909    0.0455    0.0000
  band No.  band energies     occupation 
      1     -10.2570      2.00000
      2      -4.9572      2.00000
      3       0.3720      0.00000
      4       1.0091      0.00000
      5       1.1772      0.00000
      6       1.3632      0.00000
      7       1.4472      0.00000
      8       1.8832      0.00000
      9       1.9760      0.00000
     10       2.5737      0.00000
     11       2.7233      0.00000
     12       3.5131      0.00000
     13       3.6763      0.00000
     14       4.6446      0.00000
     15       4.8251      0.00000
     16       5.9737      0.00000
     17       6.1768      0.00000
     18       7.5051      0.00000
     19       7.7232      0.00000
     20       9.2297      0.00000
     21       9.4611      0.00000
     22      11.1501      0.00000
     23      11.3778      0.00000
     24      13.2574      0.00000
     25      13.4639      0.00000
     26      15.4770      0.00000
     27      15.5573      0.00000
     28      16.1757      0.00000
     29      16.5928      0.00000
     30      18.0378      0.00000
     31      18.5038      0.00000
     32      20.7043      0.00000
     33      21.1277      0.00000
     34      23.5260      0.00000
     35      23.9709      0.00000
     36      25.5795      0.00000
     37      26.4284      0.00000
     38      27.0409      0.00000
     39      28.5306      0.00000
     40      30.2181      0.00000
     41      30.2564      0.00000
     42      31.7986      0.00000

 k-point    33 :      -0.0455    0.0455    0.0000
  band No.  band energies     occupation 
      1     -10.5080      2.00000
      2      -5.3141      2.00000
      3       0.0246      0.00000
      4       0.6449      0.00000
      5       0.8124      0.00000
      6       0.9983      0.00000
      7       1.0838      0.00000
      8       1.5185      0.00000
      9       1.6154      0.00000
     10       2.2092      0.00000
     11       2.3639      0.00000
     12       3.1488      0.00000
     13       3.3192      0.00000
     14       4.2806      0.00000
     15       4.4699      0.00000
     16       5.6101      0.00000
     17       5.8239      0.00000
     18       7.1420      0.00000
     19       7.3737      0.00000
     20       8.8672      0.00000
     21       9.1174      0.00000
     22      10.7884      0.00000
     23      11.0452      0.00000
     24      12.8970      0.00000
     25      13.1645      0.00000
     26      15.1989      0.00000
     27      15.4348      0.00000
     28      17.1319      0.00000
     29      17.2566      0.00000
     30      17.6832      0.00000
     31      18.1667      0.00000
     32      20.3574      0.00000
     33      20.7472      0.00000
     34      23.2009      0.00000
     35      23.6030      0.00000
     36      26.2065      0.00000
     37      26.6416      0.00000
     38      26.6517      0.00000
     39      29.2434      0.00000
     40      29.8378      0.00000
     41      30.6188      0.00000
     42      31.4175      0.00000

 k-point    34 :       0.0000    0.0909    0.0000
  band No.  band energies     occupation 
      1     -10.4453      2.00000
      2      -5.2251      2.00000
      3       0.1113      0.00000
      4       0.7358      0.00000
      5       0.9034      0.00000
      6       1.0894      0.00000
      7       1.1745      0.00000
      8       1.6095      0.00000
      9       1.7054      0.00000
     10       2.3002      0.00000
     11       2.4536      0.00000
     12       3.2397      0.00000
     13       3.4083      0.00000
     14       4.3714      0.00000
     15       4.5585      0.00000
     16       5.7009      0.00000
     17       5.9120      0.00000
     18       7.2326      0.00000
     19       7.4610      0.00000
     20       8.9577      0.00000
     21       9.2034      0.00000
     22      10.8787      0.00000
     23      11.1288      0.00000
     24      12.9870      0.00000
     25      13.2415      0.00000
     26      15.2884      0.00000
     27      15.4721      0.00000
     28      16.7773      0.00000
     29      17.1933      0.00000
     30      17.7719      0.00000
     31      18.2250      0.00000
     32      20.4445      0.00000
     33      20.8380      0.00000
     34      23.2838      0.00000
     35      23.6889      0.00000
     36      26.1939      0.00000
     37      26.2738      0.00000
     38      26.8014      0.00000
     39      29.1714      0.00000
     40      29.9686      0.00000
     41      30.7743      0.00000
     42      30.9802      0.00000

 k-point    35 :       0.1818    0.0909    0.0000
  band No.  band energies     occupation 
      1      -9.9439      2.00000
      2      -4.5108      2.00000
      3       0.8060      0.00000
      4       1.4651      0.00000
      5       1.6341      0.00000
      6       1.8200      0.00000
      7       1.9021      0.00000
      8       2.3399      0.00000
      9       2.4273      0.00000
     10       3.0300      0.00000
     11       3.1730      0.00000
     12       3.9692      0.00000
     13       4.1227      0.00000
     14       5.1002      0.00000
     15       5.2689      0.00000
     16       6.4288      0.00000
     17       6.6172      0.00000
     18       7.9596      0.00000
     19       8.1578      0.00000
     20       9.6833      0.00000
     21       9.8853      0.00000
     22      11.6023      0.00000
     23      11.7780      0.00000
     24      13.7077      0.00000
     25      13.7672      0.00000
     26      14.6949      0.00000
     27      15.2598      0.00000
     28      16.0040      0.00000
     29      16.6486      0.00000
     30      18.4775      0.00000
     31      18.9629      0.00000
     32      21.1261      0.00000
     33      21.6030      0.00000
     34      23.8747      0.00000
     35      24.4546      0.00000
     36      25.1768      0.00000
     37      26.1483      0.00000
     38      27.4831      0.00000
     39      27.6633      0.00000
     40      28.9652      0.00000
     41      30.5210      0.00000
     42      30.6336      0.00000

 k-point    36 :       0.2273    0.0909    0.0000
  band No.  band energies     occupation 
      1      -9.5085      2.00000
      2      -3.8878      0.00000
      3       1.4098      0.00000
      4       2.1026      0.00000
      5       2.2729      0.00000
      6       2.4588      0.00000
      7       2.5379      0.00000
      8       2.9784      0.00000
      9       3.0575      0.00000
     10       3.6679      0.00000
     11       3.8007      0.00000
     12       4.6067      0.00000
     13       4.7449      0.00000
     14       5.7370      0.00000
     15       5.8862      0.00000
     16       7.0647      0.00000
     17       7.2274      0.00000
     18       8.5944      0.00000
     19       8.7541      0.00000
     20      10.3165      0.00000
     21      10.4494      0.00000
     22      12.2033      0.00000
     23      12.2330      0.00000
     24      12.9405      0.00000
     25      13.9585      0.00000
     26      14.3341      0.00000
     27      15.1584      0.00000
     28      16.6220      0.00000
     29      17.1584      0.00000
     30      19.0742      0.00000
     31      19.5814      0.00000
     32      21.6354      0.00000
     33      22.2305      0.00000
     34      23.6243      0.00000
     35      24.8639      0.00000
     36      25.0843      0.00000
     37      25.2863      0.00000
     38      26.8918      0.00000
     39      27.9690      0.00000
     40      28.1439      0.00000
     41      28.9826      0.00000
     42      30.2310      0.00000

 k-point    37 :       0.2727    0.0909    0.0000
  band No.  band energies     occupation 
      1      -8.9543      2.00000
      2      -3.0892      0.00000
      3       2.1776      0.00000
      4       2.9217      0.00000
      5       3.0940      0.00000
      6       3.2798      0.00000
      7       3.3544      0.00000
      8       3.7991      0.00000
      9       3.8651      0.00000
     10       4.4877      0.00000
     11       4.6036      0.00000
     12       5.4259      0.00000
     13       5.5375      0.00000
     14       6.5549      0.00000
     15       6.6670      0.00000
     16       7.8811      0.00000
     17       7.9844      0.00000
     18       9.4088      0.00000
     19       9.4351      0.00000
     20      10.6223      0.00000
     21      11.1278      0.00000
     22      11.4586      0.00000
     23      12.8534      0.00000
     24      13.0386      0.00000
     25      13.9520      0.00000
     26      15.1286      0.00000
     27      15.6947      0.00000
     28      17.3853      0.00000
     29      17.9077      0.00000
     30      19.6714      0.00000
     31      20.3619      0.00000
     32      21.0577      0.00000
     33      22.8282      0.00000
     34      22.9852      0.00000
     35      24.8852      0.00000
     36      25.1354      0.00000
     37      25.9469      0.00000
     38      25.9483      0.00000
     39      26.0998      0.00000
     40      27.0876      0.00000
     41      27.1884      0.00000
     42      27.4138      0.00000

 k-point    38 :       0.3182    0.0909    0.0000
  band No.  band energies     occupation 
      1      -8.2883      2.00000
      2      -2.1177      0.00000
      3       3.0874      0.00000
      4       3.9219      0.00000
      5       4.0971      0.00000
      6       4.2831      0.00000
      7       4.3487      0.00000
      8       4.8016      0.00000
      9       4.8409      0.00000
     10       5.4889      0.00000
     11       5.5656      0.00000
     12       6.4259      0.00000
     13       6.4620      0.00000
     14       7.5039      0.00000
     15       7.5529      0.00000
     16       8.4484      0.00000
     17       8.8761      0.00000
     18       9.2971      0.00000
     19      10.3993      0.00000
     20      10.6050      0.00000
     21      11.9904      0.00000
     22      12.1101      0.00000
     23      13.0190      0.00000
     24      14.0018      0.00000
     25      14.5614      0.00000
     26      16.0252      0.00000
     27      16.5877      0.00000
     28      17.7350      0.00000
     29      18.8455      0.00000
     30      18.8497      0.00000
     31      21.0374      0.00000
     32      21.2980      0.00000
     33      22.9833      0.00000
     34      23.3630      0.00000
     35      23.8412      0.00000
     36      24.0614      0.00000
     37      24.1768      0.00000
     38      24.3412      0.00000
     39      24.4207      0.00000
     40      24.6098      0.00000
     41      24.9021      0.00000
     42      24.9678      0.00000

 k-point    39 :       0.3636    0.0909    0.0000
  band No.  band energies     occupation 
      1      -7.5245      2.00000
      2      -0.9785      0.00000
      3       4.0037      0.00000
      4       5.1017      0.00000
      5       5.2774      0.00000
      6       5.4681      0.00000
      7       5.4794      0.00000
      8       5.8483      0.00000
      9       5.9855      0.00000
     10       6.3947      0.00000
     11       6.6702      0.00000
     12       7.0122      0.00000
     13       7.6049      0.00000
     14       7.8707      0.00000
     15       8.7270      0.00000
     16       8.9384      0.00000
     17      10.0423      0.00000
     18      10.1889      0.00000
     19      11.4123      0.00000
     20      11.5493      0.00000
     21      12.3449      0.00000
     22      13.2104      0.00000
     23      13.7756      0.00000
     24      14.7776      0.00000
     25      15.6169      0.00000
     26      15.7269      0.00000
     27      17.4720      0.00000
     28      17.6978      0.00000
     29      19.6654      0.00000
     30      19.9100      0.00000
     31      20.3241      0.00000
     32      21.1375      0.00000
     33      21.3473      0.00000
     34      21.5139      0.00000
     35      21.5957      0.00000
     36      21.9352      0.00000
     37      22.0817      0.00000
     38      22.1970      0.00000
     39      22.4154      0.00000
     40      22.7528      0.00000
     41      22.8260      0.00000
     42      23.4346      0.00000

 k-point    40 :       0.4091    0.0909    0.0000
  band No.  band energies     occupation 
      1      -6.6918      2.00000
      2       0.3173      0.00000
      3       3.8466      0.00000
      4       6.0530      0.00000
      5       6.4564      0.00000
      6       6.6584      0.00000
      7       6.8337      0.00000
      8       6.9340      0.00000
      9       7.3481      0.00000
     10       7.4596      0.00000
     11       8.0262      0.00000
     12       8.1871      0.00000
     13       8.9527      0.00000
     14       9.0965      0.00000
     15      10.0527      0.00000
     16      10.1458      0.00000
     17      11.1128      0.00000
     18      11.2986      0.00000
     19      11.9707      0.00000
     20      12.4109      0.00000
     21      13.2781      0.00000
     22      13.3326      0.00000
     23      14.7972      0.00000
     24      15.0114      0.00000
     25      16.6475      0.00000
     26      16.8779      0.00000
     27      17.7115      0.00000
     28      18.4295      0.00000
     29      18.7000      0.00000
     30      18.7593      0.00000
     31      18.9318      0.00000
     32      18.9345      0.00000
     33      19.0487      0.00000
     34      19.4168      0.00000
     35      19.4656      0.00000
     36      20.0778      0.00000
     37      20.1930      0.00000
     38      20.8369      0.00000
     39      21.1046      0.00000
     40      21.1807      0.00000
     41      21.3122      0.00000
     42      22.1020      0.00000

 k-point    41 :       0.4545    0.0909    0.0000
  band No.  band energies     occupation 
      1      -5.8548      2.00000
      2       1.7400      0.00000
      3       2.6097      0.00000
      4       7.3173      0.00000
      5       7.9466      0.00000
      6       8.2070      0.00000
      7       8.3697      0.00000
      8       8.4629      0.00000
      9       8.8613      0.00000
     10       8.9543      0.00000
     11       9.4620      0.00000
     12       9.6522      0.00000
     13      10.1033      0.00000
     14      10.4060      0.00000
     15      10.7400      0.00000
     16      11.0662      0.00000
     17      11.7641      0.00000
     18      11.9835      0.00000
     19      13.0491      0.00000
     20      13.2529      0.00000
     21      14.5427      0.00000
     22      14.7163      0.00000
     23      15.3509      0.00000
     24      15.9892      0.00000
     25      16.2355      0.00000
     26      16.2887      0.00000
     27      16.4570      0.00000
     28      16.4579      0.00000
     29      16.5649      0.00000
     30      16.9498      0.00000
     31      17.0170      0.00000
     32      17.6099      0.00000
     33      17.7408      0.00000
     34      18.1548      0.00000
     35      18.4178      0.00000
     36      18.6086      0.00000
     37      18.7103      0.00000
     38      19.6492      0.00000
     39      19.8169      0.00000
     40      20.2615      0.00000
     41      20.5315      0.00000
     42      21.0267      0.00000

 k-point    42 :       0.5000    0.0909    0.0000
  band No.  band energies     occupation 
      1      -5.1584      2.00000
      2       1.5664      0.00000
      3       3.1793      0.00000
      4       8.0104      0.00000
      5       8.8333      0.00000
      6       9.8387      0.00000
      7       9.9347      0.00000
      8      10.1242      0.00000
      9      10.1477      0.00000
     10      10.4028      0.00000
     11      10.6668      0.00000
     12      10.8556      0.00000
     13      11.3564      0.00000
     14      11.5213      0.00000
     15      12.2839      0.00000
     16      12.4023      0.00000
     17      13.0950      0.00000
     18      13.3738      0.00000
     19      13.6655      0.00000
     20      13.8096      0.00000
     21      13.9571      0.00000
     22      14.1400      0.00000
     23      14.2224      0.00000
     24      14.6130      0.00000
     25      14.7106      0.00000
     26      14.7882      0.00000
     27      14.9789      0.00000
     28      15.3579      0.00000
     29      15.4922      0.00000
     30      16.1595      0.00000
     31      16.3545      0.00000
     32      16.4002      0.00000
     33      16.5669      0.00000
     34      17.3941      0.00000
     35      17.5599      0.00000
     36      17.9922      0.00000
     37      18.2269      0.00000
     38      18.7532      0.00000
     39      18.9149      0.00000
     40      19.8086      0.00000
     41      20.1155      0.00000
     42      20.3383      0.00000

 k-point    43 :      -0.4545    0.0909    0.0000
  band No.  band energies     occupation 
      1      -4.8669      2.00000
      2       1.1512      0.00000
      3       4.0182      0.00000
      4       7.1075      0.00000
      5       9.8444      0.00000
      6      10.6655      0.00000
      7      11.5171      0.00000
      8      11.5638      0.00000
      9      11.7865      0.00000
     10      11.8546      0.00000
     11      11.8678      0.00000
     12      12.0175      0.00000
     13      12.0838      0.00000
     14      12.0992      0.00000
     15      12.1730      0.00000
     16      12.5204      0.00000
     17      12.5848      0.00000
     18      12.6137      0.00000
     19      12.7470      0.00000
     20      13.1825      0.00000
     21      13.3203      0.00000
     22      13.3320      0.00000
     23      13.4969      0.00000
     24      14.1057      0.00000
     25      14.2494      0.00000
     26      14.2847      0.00000
     27      14.4611      0.00000
     28      15.2087      0.00000
     29      15.3913      0.00000
     30      15.4405      0.00000
     31      15.6048      0.00000
     32      16.5093      0.00000
     33      16.7397      0.00000
     34      16.7932      0.00000
     35      16.9443      0.00000
     36      18.0085      0.00000
     37      18.2850      0.00000
     38      18.3444      0.00000
     39      18.4709      0.00000
     40      19.6753      0.00000
     41      20.0278      0.00000
     42      20.0902      0.00000

 k-point    44 :      -0.4091    0.0909    0.0000
  band No.  band energies     occupation 
      1      -5.1593      2.00000
      2       1.5673      0.00000
      3       3.1762      0.00000
      4       8.0136      0.00000
      5       8.8300      0.00000
      6       9.8349      0.00000
      7       9.9307      0.00000
      8      10.1205      0.00000
      9      10.1436      0.00000
     10      10.3994      0.00000
     11      10.6628      0.00000
     12      10.8519      0.00000
     13      11.3524      0.00000
     14      11.5173      0.00000
     15      12.2799      0.00000
     16      12.3990      0.00000
     17      13.0977      0.00000
     18      13.3705      0.00000
     19      13.6628      0.00000
     20      13.8137      0.00000
     21      13.9619      0.00000
     22      14.1447      0.00000
     23      14.2272      0.00000
     24      14.6154      0.00000
     25      14.7144      0.00000
     26      14.7872      0.00000
     27      14.9764      0.00000
     28      15.3624      0.00000
     29      15.4967      0.00000
     30      16.1596      0.00000
     31      16.3563      0.00000
     32      16.4012      0.00000
     33      16.5661      0.00000
     34      17.3983      0.00000
     35      17.5646      0.00000
     36      17.9892      0.00000
     37      18.2232      0.00000
     38      18.7573      0.00000
     39      18.9197      0.00000
     40      19.8064      0.00000
     41      20.1119      0.00000
     42      20.3413      0.00000

 k-point    45 :      -0.3636    0.0909    0.0000
  band No.  band energies     occupation 
      1      -5.8561      2.00000
      2       1.7366      0.00000
      3       2.6111      0.00000
      4       7.3138      0.00000
      5       7.9432      0.00000
      6       8.2033      0.00000
      7       8.3660      0.00000
      8       8.4592      0.00000
      9       8.8578      0.00000
     10       8.9507      0.00000
     11       9.4595      0.00000
     12       9.6485      0.00000
     13      10.1033      0.00000
     14      10.4024      0.00000
     15      10.7383      0.00000
     16      11.0625      0.00000
     17      11.7609      0.00000
     18      11.9798      0.00000
     19      13.0456      0.00000
     20      13.2493      0.00000
     21      14.5392      0.00000
     22      14.7135      0.00000
     23      15.3551      0.00000
     24      15.9920      0.00000
     25      16.2409      0.00000
     26      16.2891      0.00000
     27      16.4591      0.00000
     28      16.4618      0.00000
     29      16.5651      0.00000
     30      16.9549      0.00000
     31      17.0221      0.00000
     32      17.6146      0.00000
     33      17.7460      0.00000
     34      18.1526      0.00000
     35      18.4152      0.00000
     36      18.6130      0.00000
     37      18.7149      0.00000
     38      19.6535      0.00000
     39      19.8222      0.00000
     40      20.2593      0.00000
     41      20.5282      0.00000
     42      21.0308      0.00000

 k-point    46 :      -0.3182    0.0909    0.0000
  band No.  band energies     occupation 
      1      -6.6933      2.00000
      2       0.3141      0.00000
      3       3.8478      0.00000
      4       6.0501      0.00000
      5       6.4531      0.00000
      6       6.6552      0.00000
      7       6.8304      0.00000
      8       6.9307      0.00000
      9       7.3448      0.00000
     10       7.4563      0.00000
     11       8.0229      0.00000
     12       8.1838      0.00000
     13       8.9495      0.00000
     14       9.0930      0.00000
     15      10.0496      0.00000
     16      10.1421      0.00000
     17      11.1085      0.00000
     18      11.2961      0.00000
     19      11.9672      0.00000
     20      12.4119      0.00000
     21      13.2773      0.00000
     22      13.3294      0.00000
     23      14.7944      0.00000
     24      15.0082      0.00000
     25      16.6445      0.00000
     26      16.8751      0.00000
     27      17.7168      0.00000
     28      18.4325      0.00000
     29      18.7057      0.00000
     30      18.7607      0.00000
     31      18.9358      0.00000
     32      18.9386      0.00000
     33      19.0477      0.00000
     34      19.4222      0.00000
     35      19.4712      0.00000
     36      20.0831      0.00000
     37      20.1987      0.00000
     38      20.8377      0.00000
     39      21.1094      0.00000
     40      21.1826      0.00000
     41      21.3105      0.00000
     42      22.1057      0.00000

 k-point    47 :      -0.2727    0.0909    0.0000
  band No.  band energies     occupation 
      1      -7.5260      2.00000
      2      -0.9813      0.00000
      3       4.0021      0.00000
      4       5.0988      0.00000
      5       5.2746      0.00000
      6       5.4652      0.00000
      7       5.4769      0.00000
      8       5.8464      0.00000
      9       5.9826      0.00000
     10       6.3930      0.00000
     11       6.6673      0.00000
     12       7.0099      0.00000
     13       7.6020      0.00000
     14       7.8678      0.00000
     15       8.7241      0.00000
     16       8.9352      0.00000
     17      10.0395      0.00000
     18      10.1853      0.00000
     19      11.4076      0.00000
     20      11.5466      0.00000
     21      12.3411      0.00000
     22      13.2079      0.00000
     23      13.7728      0.00000
     24      14.7782      0.00000
     25      15.6142      0.00000
     26      15.7278      0.00000
     27      17.4697      0.00000
     28      17.6951      0.00000
     29      19.6627      0.00000
     30      19.9088      0.00000
     31      20.3291      0.00000
     32      21.1427      0.00000
     33      21.3535      0.00000
     34      21.5196      0.00000
     35      21.6018      0.00000
     36      21.9376      0.00000
     37      22.0877      0.00000
     38      22.1987      0.00000
     39      22.4139      0.00000
     40      22.7576      0.00000
     41      22.8322      0.00000
     42      23.4313      0.00000

 k-point    48 :      -0.2273    0.0909    0.0000
  band No.  band energies     occupation 
      1      -8.2897      2.00000
      2      -2.1201      0.00000
      3       3.0853      0.00000
      4       3.9194      0.00000
      5       4.0946      0.00000
      6       4.2806      0.00000
      7       4.3462      0.00000
      8       4.7992      0.00000
      9       4.8386      0.00000
     10       5.4864      0.00000
     11       5.5634      0.00000
     12       6.4235      0.00000
     13       6.4599      0.00000
     14       7.5024      0.00000
     15       7.5504      0.00000
     16       8.4478      0.00000
     17       8.8737      0.00000
     18       9.2943      0.00000
     19      10.3969      0.00000
     20      10.6012      0.00000
     21      11.9850      0.00000
     22      12.1077      0.00000
     23      13.0150      0.00000
     24      13.9994      0.00000
     25      14.5590      0.00000
     26      16.0232      0.00000
     27      16.5855      0.00000
     28      17.7370      0.00000
     29      18.8457      0.00000
     30      18.8476      0.00000
     31      21.0352      0.00000
     32      21.2961      0.00000
     33      22.9899      0.00000
     34      23.3593      0.00000
     35      23.8423      0.00000
     36      24.0655      0.00000
     37      24.1834      0.00000
     38      24.3450      0.00000
     39      24.4274      0.00000
     40      24.6040      0.00000
     41      24.9088      0.00000
     42      24.9711      0.00000

 k-point    49 :      -0.1818    0.0909    0.0000
  band No.  band energies     occupation 
      1      -8.9556      2.00000
      2      -3.0912      0.00000
      3       2.1757      0.00000
      4       2.9196      0.00000
      5       3.0919      0.00000
      6       3.2778      0.00000
      7       3.3524      0.00000
      8       3.7970      0.00000
      9       3.8631      0.00000
     10       4.4856      0.00000
     11       4.6016      0.00000
     12       5.4238      0.00000
     13       5.5356      0.00000
     14       6.5529      0.00000
     15       6.6651      0.00000
     16       7.8791      0.00000
     17       7.9827      0.00000
     18       9.4067      0.00000
     19       9.4340      0.00000
     20      10.6222      0.00000
     21      11.1257      0.00000
     22      11.4539      0.00000
     23      12.8470      0.00000
     24      13.0365      0.00000
     25      13.9483      0.00000
     26      15.1266      0.00000
     27      15.6928      0.00000
     28      17.3834      0.00000
     29      17.9059      0.00000
     30      19.6704      0.00000
     31      20.3602      0.00000
     32      21.0606      0.00000
     33      22.8271      0.00000
     34      22.9843      0.00000
     35      24.9011      0.00000
     36      25.1246      0.00000
     37      25.9381      0.00000
     38      25.9530      0.00000
     39      26.1024      0.00000
     40      27.0936      0.00000
     41      27.1954      0.00000
     42      27.4210      0.00000

 k-point    50 :      -0.1364    0.0909    0.0000
  band No.  band energies     occupation 
      1      -9.5096      2.00000
      2      -3.8894      0.00000
      3       1.4082      0.00000
      4       2.1009      0.00000
      5       2.2712      0.00000
      6       2.4571      0.00000
      7       2.5362      0.00000
      8       2.9767      0.00000
      9       3.0559      0.00000
     10       3.6663      0.00000
     11       3.7990      0.00000
     12       4.6051      0.00000
     13       4.7433      0.00000
     14       5.7353      0.00000
     15       5.8846      0.00000
     16       7.0630      0.00000
     17       7.2258      0.00000
     18       8.5927      0.00000
     19       8.7526      0.00000
     20      10.3149      0.00000
     21      10.4481      0.00000
     22      12.2035      0.00000
     23      12.2313      0.00000
     24      12.9356      0.00000
     25      13.9514      0.00000
     26      14.3325      0.00000
     27      15.1557      0.00000
     28      16.6204      0.00000
     29      17.1569      0.00000
     30      19.0725      0.00000
     31      19.5800      0.00000
     32      21.6338      0.00000
     33      22.2292      0.00000
     34      23.6246      0.00000
     35      24.8765      0.00000
     36      25.0847      0.00000
     37      25.2968      0.00000
     38      26.8730      0.00000
     39      27.9649      0.00000
     40      28.1433      0.00000
     41      28.9894      0.00000
     42      30.2376      0.00000

 k-point    51 :      -0.0909    0.0909    0.0000
  band No.  band energies     occupation 
      1      -9.9447      2.00000
      2      -4.5120      2.00000
      3       0.8048      0.00000
      4       1.4639      0.00000
      5       1.6329      0.00000
      6       1.8188      0.00000
      7       1.9008      0.00000
      8       2.3387      0.00000
      9       2.4261      0.00000
     10       3.0288      0.00000
     11       3.1718      0.00000
     12       3.9680      0.00000
     13       4.1215      0.00000
     14       5.0990      0.00000
     15       5.2677      0.00000
     16       6.4276      0.00000
     17       6.6160      0.00000
     18       7.9583      0.00000
     19       8.1565      0.00000
     20       9.6821      0.00000
     21       9.8841      0.00000
     22      11.6011      0.00000
     23      11.7767      0.00000
     24      13.7064      0.00000
     25      13.7656      0.00000
     26      14.6879      0.00000
     27      15.2569      0.00000
     28      16.0028      0.00000
     29      16.6469      0.00000
     30      18.4762      0.00000
     31      18.9617      0.00000
     32      21.1247      0.00000
     33      21.6020      0.00000
     34      23.8730      0.00000
     35      24.4537      0.00000
     36      25.2016      0.00000
     37      26.1427      0.00000
     38      27.4825      0.00000
     39      27.6595      0.00000
     40      28.9516      0.00000
     41      30.5194      0.00000
     42      30.6350      0.00000

 k-point    52 :      -0.0455    0.0909    0.0000
  band No.  band energies     occupation 
      1     -10.2572      2.00000
      2      -4.9575      2.00000
      3       0.3717      0.00000
      4       1.0088      0.00000
      5       1.1769      0.00000
      6       1.3628      0.00000
      7       1.4469      0.00000
      8       1.8829      0.00000
      9       1.9757      0.00000
     10       2.5734      0.00000
     11       2.7230      0.00000
     12       3.5128      0.00000
     13       3.6759      0.00000
     14       4.6442      0.00000
     15       4.8248      0.00000
     16       5.9734      0.00000
     17       6.1765      0.00000
     18       7.5048      0.00000
     19       7.7228      0.00000
     20       9.2294      0.00000
     21       9.4608      0.00000
     22      11.1498      0.00000
     23      11.3773      0.00000
     24      13.2571      0.00000
     25      13.4632      0.00000
     26      15.4682      0.00000
     27      15.5569      0.00000
     28      16.1736      0.00000
     29      16.6031      0.00000
     30      18.0375      0.00000
     31      18.5030      0.00000
     32      20.7039      0.00000
     33      21.1272      0.00000
     34      23.5256      0.00000
     35      23.9705      0.00000
     36      25.5848      0.00000
     37      26.4269      0.00000
     38      27.0405      0.00000
     39      28.5168      0.00000
     40      30.2175      0.00000
     41      30.2479      0.00000
     42      31.8218      0.00000

 k-point    53 :       0.0000    0.1364    0.0000
  band No.  band energies     occupation 
      1     -10.1324      2.00000
      2      -4.7795      2.00000
      3       0.5447      0.00000
      4       1.1906      0.00000
      5       1.3591      0.00000
      6       1.5450      0.00000
      7       1.6282      0.00000
      8       2.0650      0.00000
      9       2.1556      0.00000
     10       2.7553      0.00000
     11       2.9023      0.00000
     12       3.6946      0.00000
     13       3.8539      0.00000
     14       4.8259      0.00000
     15       5.0016      0.00000
     16       6.1548      0.00000
     17       6.3519      0.00000
     18       7.6860      0.00000
     19       7.8958      0.00000
     20       9.4103      0.00000
     21       9.6291      0.00000
     22      11.3302      0.00000
     23      11.5341      0.00000
     24      13.4367      0.00000
     25      13.5640      0.00000
     26      15.0536      0.00000
     27      15.7353      0.00000
     28      16.2999      0.00000
     29      16.3406      0.00000
     30      18.2132      0.00000
     31      18.6393      0.00000
     32      20.8733      0.00000
     33      21.2801      0.00000
     34      23.6705      0.00000
     35      24.0584      0.00000
     36      25.2772      0.00000
     37      26.3182      0.00000
     38      27.2864      0.00000
     39      27.6240      0.00000
     40      30.1579      0.00000
     41      30.4539      0.00000
     42      31.8608      0.00000

 k-point    54 :       0.2727    0.1364    0.0000
  band No.  band energies     occupation 
      1      -9.0137      2.00000
      2      -3.1775      0.00000
      3       2.0955      0.00000
      4       2.8308      0.00000
      5       3.0029      0.00000
      6       3.1887      0.00000
      7       3.2642      0.00000
      8       3.7080      0.00000
      9       3.7767      0.00000
     10       4.3968      0.00000
     11       4.5163      0.00000
     12       5.3350      0.00000
     13       5.4531      0.00000
     14       6.4643      0.00000
     15       6.5869      0.00000
     16       7.7907      0.00000
     17       7.9158      0.00000
     18       9.3186      0.00000
     19       9.4159      0.00000
     20      11.0382      0.00000
     21      11.0393      0.00000
     22      11.1656      0.00000
     23      12.5737      0.00000
     24      12.9502      0.00000
     25      13.8779      0.00000
     26      15.0428      0.00000
     27      15.6527      0.00000
     28      17.3096      0.00000
     29      17.8544      0.00000
     30      19.6797      0.00000
     31      20.3113      0.00000
     32      21.6296      0.00000
     33      22.9751      0.00000
     34      23.0418      0.00000
     35      24.3292      0.00000
     36      25.2138      0.00000
     37      25.5910      0.00000
     38      25.8322      0.00000
     39      27.5880      0.00000
     40      28.3222      0.00000
     41      28.4426      0.00000
     42      28.8614      0.00000

 k-point    55 :       0.3182    0.1364    0.0000
  band No.  band energies     occupation 
      1      -8.4016      2.00000
      2      -2.2933      0.00000
      3       2.9393      0.00000
      4       3.7404      0.00000
      5       3.9153      0.00000
      6       4.1010      0.00000
      7       4.1705      0.00000
      8       4.6197      0.00000
      9       4.6713      0.00000
     10       5.3073      0.00000
     11       5.4041      0.00000
     12       6.2446      0.00000
     13       6.3252      0.00000
     14       7.3721      0.00000
     15       7.4373      0.00000
     16       8.6928      0.00000
     17       8.6962      0.00000
     18       9.2997      0.00000
     19      10.2208      0.00000
     20      10.2209      0.00000
     21      11.5777      0.00000
     22      11.9347      0.00000
     23      12.8359      0.00000
     24      13.8349      0.00000
     25      14.4534      0.00000
     26      15.8978      0.00000
     27      16.4661      0.00000
     28      18.0286      0.00000
     29      18.7267      0.00000
     30      19.5164      0.00000
     31      21.0531      0.00000
     32      21.1982      0.00000
     33      22.5411      0.00000
     34      23.6563      0.00000
     35      23.8372      0.00000
     36      24.5751      0.00000
     37      25.4964      0.00000
     38      25.8442      0.00000
     39      26.0008      0.00000
     40      26.1779      0.00000
     41      26.2407      0.00000
     42      26.4216      0.00000

 k-point    56 :       0.3636    0.1364    0.0000
  band No.  band energies     occupation 
      1      -7.6807      2.00000
      2      -1.2389      0.00000
      3       3.8983      0.00000
      4       4.8304      0.00000
      5       5.0089      0.00000
      6       5.1952      0.00000
      7       5.2494      0.00000
      8       5.7129      0.00000
      9       5.7153      0.00000
     10       6.3985      0.00000
     11       6.4017      0.00000
     12       7.0772      0.00000
     13       7.3341      0.00000
     14       7.6213      0.00000
     15       8.4582      0.00000
     16       8.5591      0.00000
     17       9.7428      0.00000
     18       9.7772      0.00000
     19      10.9156      0.00000
     20      11.2931      0.00000
     21      12.0771      0.00000
     22      12.9872      0.00000
     23      13.5832      0.00000
     24      14.8209      0.00000
     25      15.4132      0.00000
     26      16.4476      0.00000
     27      17.4921      0.00000
     28      17.5192      0.00000
     29      19.4716      0.00000
     30      19.7673      0.00000
     31      21.2097      0.00000
     32      21.8642      0.00000
     33      22.1508      0.00000
     34      22.3270      0.00000
     35      22.9806      0.00000
     36      23.0797      0.00000
     37      23.2885      0.00000
     38      23.3251      0.00000
     39      23.8065      0.00000
     40      23.8074      0.00000
     41      24.4598      0.00000
     42      24.5195      0.00000

 k-point    57 :       0.4091    0.1364    0.0000
  band No.  band energies     occupation 
      1      -6.8687      2.00000
      2      -0.0222      0.00000
      3       4.4502      0.00000
      4       5.8013      0.00000
      5       6.0981      0.00000
      6       6.2932      0.00000
      7       6.4707      0.00000
      8       6.5613      0.00000
      9       6.9865      0.00000
     10       7.0612      0.00000
     11       7.6679      0.00000
     12       7.7646      0.00000
     13       8.5993      0.00000
     14       8.6233      0.00000
     15       9.6000      0.00000
     16       9.7135      0.00000
     17      10.5721      0.00000
     18      11.0125      0.00000
     19      11.6462      0.00000
     20      12.4683      0.00000
     21      13.0457      0.00000
     22      13.8129      0.00000
     23      14.7183      0.00000
     24      14.7406      0.00000
     25      16.3639      0.00000
     26      16.6032      0.00000
     27      18.3498      0.00000
     28      18.6573      0.00000
     29      19.3483      0.00000
     30      19.8957      0.00000
     31      20.3417      0.00000
     32      20.3942      0.00000
     33      20.5892      0.00000
     34      20.6234      0.00000
     35      20.9783      0.00000
     36      21.0243      0.00000
     37      21.1446      0.00000
     38      21.1513      0.00000
     39      21.8034      0.00000
     40      21.8355      0.00000
     41      22.7145      0.00000
     42      22.7558      0.00000

 k-point    58 :       0.4545    0.1364    0.0000
  band No.  band energies     occupation 
      1      -6.0047      2.00000
      2       1.3385      0.00000
      3       3.2599      0.00000
      4       6.7130      0.00000
      5       7.5310      0.00000
      6       7.7480      0.00000
      7       7.9243      0.00000
      8       7.9824      0.00000
      9       8.4232      0.00000
     10       8.4334      0.00000
     11       9.0670      0.00000
     12       9.0986      0.00000
     13       9.7562      0.00000
     14       9.9990      0.00000
     15      10.5726      0.00000
     16      10.9791      0.00000
     17      11.5945      0.00000
     18      11.7587      0.00000
     19      12.7221      0.00000
     20      12.8709      0.00000
     21      14.1446      0.00000
     22      14.3717      0.00000
     23      15.8069      0.00000
     24      16.0448      0.00000
     25      16.8601      0.00000
     26      17.4424      0.00000
     27      17.7851      0.00000
     28      17.7897      0.00000
     29      17.9846      0.00000
     30      17.9993      0.00000
     31      18.0986      0.00000
     32      18.4865      0.00000
     33      18.5659      0.00000
     34      19.0903      0.00000
     35      19.2899      0.00000
     36      19.5841      0.00000
     37      20.0874      0.00000
     38      20.1564      0.00000
     39      20.3045      0.00000
     40      20.4158      0.00000
     41      21.3408      0.00000
     42      21.3730      0.00000

 k-point    59 :       0.5000    0.1364    0.0000
  band No.  band energies     occupation 
      1      -5.1825      2.00000
      2       1.9589      0.00000
      3       2.7874      0.00000
      4       7.9512      0.00000
      5       8.7989      0.00000
      6       9.3513      0.00000
      7       9.4573      0.00000
      8       9.4618      0.00000
      9       9.7186      0.00000
     10       9.7722      0.00000
     11      10.1797      0.00000
     12      10.3261      0.00000
     13      10.8566      0.00000
     14      11.0331      0.00000
     15      11.7709      0.00000
     16      11.9576      0.00000
     17      12.8827      0.00000
     18      13.0633      0.00000
     19      14.1761      0.00000
     20      14.2557      0.00000
     21      14.7062      0.00000
     22      15.2081      0.00000
     23      15.4140      0.00000
     24      15.5653      0.00000
     25      15.6673      0.00000
     26      15.7517      0.00000
     27      15.9636      0.00000
     28      16.1335      0.00000
     29      16.2343      0.00000
     30      16.7834      0.00000
     31      16.9362      0.00000
     32      17.3730      0.00000
     33      17.6713      0.00000
     34      17.7877      0.00000
     35      17.9443      0.00000
     36      18.7248      0.00000
     37      19.0146      0.00000
     38      19.2609      0.00000
     39      19.6533      0.00000
     40      19.8621      0.00000
     41      20.3843      0.00000
     42      20.3862      0.00000

 k-point    60 :      -0.4545    0.1364    0.0000
  band No.  band energies     occupation 
      1      -4.6178      2.00000
      2       1.1357      0.00000
      3       4.0644      0.00000
      4       7.7172      0.00000
      5       8.6698      0.00000
      6      10.5391      0.00000
      7      11.0676      0.00000
      8      11.2227      0.00000
      9      11.4105      0.00000
     10      11.4853      0.00000
     11      11.9259      0.00000
     12      11.9600      0.00000
     13      12.4228      0.00000
     14      12.5931      0.00000
     15      12.8577      0.00000
     16      13.0542      0.00000
     17      13.2249      0.00000
     18      13.3927      0.00000
     19      13.4819      0.00000
     20      13.5745      0.00000
     21      13.7331      0.00000
     22      13.9348      0.00000
     23      14.0478      0.00000
     24      14.5456      0.00000
     25      14.7077      0.00000
     26      14.7528      0.00000
     27      14.9480      0.00000
     28      15.5310      0.00000
     29      15.7056      0.00000
     30      16.0103      0.00000
     31      16.2436      0.00000
     32      16.6773      0.00000
     33      16.8723      0.00000
     34      17.4713      0.00000
     35      17.7633      0.00000
     36      18.0235      0.00000
     37      18.2380      0.00000
     38      18.9462      0.00000
     39      19.4760      0.00000
     40      19.5752      0.00000
     41      19.8019      0.00000
     42      19.9053      0.00000

 k-point    61 :      -0.4091    0.1364    0.0000
  band No.  band energies     occupation 
      1      -4.6185      2.00000
      2       1.1364      0.00000
      3       4.0612      0.00000
      4       7.7207      0.00000
      5       8.6685      0.00000
      6      10.5339      0.00000
      7      11.0614      0.00000
      8      11.2162      0.00000
      9      11.4041      0.00000
     10      11.4790      0.00000
     11      11.9195      0.00000
     12      11.9553      0.00000
     13      12.4244      0.00000
     14      12.5874      0.00000
     15      12.8539      0.00000
     16      13.0599      0.00000
     17      13.2319      0.00000
     18      13.3984      0.00000
     19      13.4880      0.00000
     20      13.5706      0.00000
     21      13.7293      0.00000
     22      13.9413      0.00000
     23      14.0533      0.00000
     24      14.5479      0.00000
     25      14.7110      0.00000
     26      14.7515      0.00000
     27      14.9457      0.00000
     28      15.5369      0.00000
     29      15.7116      0.00000
     30      16.0056      0.00000
     31      16.2385      0.00000
     32      16.6831      0.00000
     33      16.8786      0.00000
     34      17.4673      0.00000
     35      17.7582      0.00000
     36      18.0281      0.00000
     37      18.2440      0.00000
     38      18.9448      0.00000
     39      19.4717      0.00000
     40      19.5747      0.00000
     41      19.8070      0.00000
     42      19.9068      0.00000

 k-point    62 :      -0.3636    0.1364    0.0000
  band No.  band energies     occupation 
      1      -5.1843      2.00000
      2       1.9606      0.00000
      3       2.7823      0.00000
      4       7.9468      0.00000
      5       8.7988      0.00000
      6       9.3459      0.00000
      7       9.4520      0.00000
      8       9.4576      0.00000
      9       9.7155      0.00000
     10       9.7668      0.00000
     11      10.1750      0.00000
     12      10.3206      0.00000
     13      10.8514      0.00000
     14      11.0274      0.00000
     15      11.7654      0.00000
     16      11.9519      0.00000
     17      12.8770      0.00000
     18      13.0578      0.00000
     19      14.1706      0.00000
     20      14.2545      0.00000
     21      14.7084      0.00000
     22      15.2142      0.00000
     23      15.4217      0.00000
     24      15.5708      0.00000
     25      15.6744      0.00000
     26      15.7502      0.00000
     27      15.9607      0.00000
     28      16.1404      0.00000
     29      16.2401      0.00000
     30      16.7901      0.00000
     31      16.9434      0.00000
     32      17.3702      0.00000
     33      17.6688      0.00000
     34      17.7931      0.00000
     35      17.9491      0.00000
     36      18.7284      0.00000
     37      19.0217      0.00000
     38      19.2604      0.00000
     39      19.6483      0.00000
     40      19.8589      0.00000
     41      20.3913      0.00000
     42      20.3916      0.00000

 k-point    63 :      -0.3182    0.1364    0.0000
  band No.  band energies     occupation 
      1      -6.0069      2.00000
      2       1.3335      0.00000
      3       3.2618      0.00000
      4       6.7079      0.00000
      5       7.5259      0.00000
      6       7.7427      0.00000
      7       7.9191      0.00000
      8       7.9772      0.00000
      9       8.4180      0.00000
     10       8.4282      0.00000
     11       9.0619      0.00000
     12       9.0935      0.00000
     13       9.7513      0.00000
     14       9.9943      0.00000
     15      10.5677      0.00000
     16      10.9766      0.00000
     17      11.5894      0.00000
     18      11.7598      0.00000
     19      12.7188      0.00000
     20      12.8658      0.00000
     21      14.1399      0.00000
     22      14.3666      0.00000
     23      15.8020      0.00000
     24      16.0407      0.00000
     25      16.8669      0.00000
     26      17.4444      0.00000
     27      17.7922      0.00000
     28      17.7934      0.00000
     29      17.9860      0.00000
     30      18.0061      0.00000
     31      18.1015      0.00000
     32      18.4941      0.00000
     33      18.5738      0.00000
     34      19.0957      0.00000
     35      19.2980      0.00000
     36      19.5834      0.00000
     37      20.0868      0.00000
     38      20.1590      0.00000
     39      20.3087      0.00000
     40      20.4133      0.00000
     41      21.3479      0.00000
     42      21.3811      0.00000

 k-point    64 :      -0.2727    0.1364    0.0000
  band No.  band energies     occupation 
      1      -6.8710      2.00000
      2      -0.0267      0.00000
      3       4.4506      0.00000
      4       5.7980      0.00000
      5       6.0935      0.00000
      6       6.2886      0.00000
      7       6.4661      0.00000
      8       6.5567      0.00000
      9       6.9819      0.00000
     10       7.0565      0.00000
     11       7.6633      0.00000
     12       7.7598      0.00000
     13       8.5947      0.00000
     14       8.6183      0.00000
     15       9.5951      0.00000
     16       9.7090      0.00000
     17      10.5674      0.00000
     18      11.0081      0.00000
     19      11.6418      0.00000
     20      12.4646      0.00000
     21      13.0413      0.00000
     22      13.8138      0.00000
     23      14.7138      0.00000
     24      14.7408      0.00000
     25      16.3601      0.00000
     26      16.5987      0.00000
     27      18.3455      0.00000
     28      18.6539      0.00000
     29      19.3559      0.00000
     30      19.8958      0.00000
     31      20.3506      0.00000
     32      20.3995      0.00000
     33      20.5979      0.00000
     34      20.6291      0.00000
     35      20.9782      0.00000
     36      21.0228      0.00000
     37      21.1498      0.00000
     38      21.1537      0.00000
     39      21.8113      0.00000
     40      21.8443      0.00000
     41      22.7225      0.00000
     42      22.7646      0.00000

 k-point    65 :      -0.2273    0.1364    0.0000
  band No.  band energies     occupation 
      1      -7.6830      2.00000
      2      -1.2429      0.00000
      3       3.8952      0.00000
      4       4.8264      0.00000
      5       5.0049      0.00000
      6       5.1912      0.00000
      7       5.2455      0.00000
      8       5.7089      0.00000
      9       5.7118      0.00000
     10       6.3945      0.00000
     11       6.3987      0.00000
     12       7.0757      0.00000
     13       7.3301      0.00000
     14       7.6170      0.00000
     15       8.4542      0.00000
     16       8.5541      0.00000
     17       9.7380      0.00000
     18       9.7732      0.00000
     19      10.9110      0.00000
     20      11.2891      0.00000
     21      12.0732      0.00000
     22      12.9833      0.00000
     23      13.5794      0.00000
     24      14.8176      0.00000
     25      15.4094      0.00000
     26      16.4491      0.00000
     27      17.4882      0.00000
     28      17.5197      0.00000
     29      19.4684      0.00000
     30      19.7635      0.00000
     31      21.1992      0.00000
     32      21.8716      0.00000
     33      22.1443      0.00000
     34      22.3256      0.00000
     35      22.9893      0.00000
     36      23.0893      0.00000
     37      23.2978      0.00000
     38      23.3347      0.00000
     39      23.8157      0.00000
     40      23.8170      0.00000
     41      24.4661      0.00000
     42      24.5284      0.00000

 k-point    66 :      -0.1818    0.1364    0.0000
  band No.  band energies     occupation 
      1      -8.4036      2.00000
      2      -2.2967      0.00000
      3       2.9363      0.00000
      4       3.7370      0.00000
      5       3.9119      0.00000
      6       4.0976      0.00000
      7       4.1672      0.00000
      8       4.6163      0.00000
      9       4.6680      0.00000
     10       5.3039      0.00000
     11       5.4009      0.00000
     12       6.2412      0.00000
     13       6.3220      0.00000
     14       7.3687      0.00000
     15       7.4343      0.00000
     16       8.6910      0.00000
     17       8.6928      0.00000
     18       9.2947      0.00000
     19      10.2159      0.00000
     20      10.2174      0.00000
     21      11.5736      0.00000
     22      11.9313      0.00000
     23      12.8327      0.00000
     24      13.8315      0.00000
     25      14.4503      0.00000
     26      15.8945      0.00000
     27      16.4629      0.00000
     28      18.0261      0.00000
     29      18.7234      0.00000
     30      19.5185      0.00000
     31      21.0520      0.00000
     32      21.1950      0.00000
     33      22.5272      0.00000
     34      23.6516      0.00000
     35      23.8348      0.00000
     36      24.5869      0.00000
     37      25.5044      0.00000
     38      25.8531      0.00000
     39      26.0109      0.00000
     40      26.1868      0.00000
     41      26.2504      0.00000
     42      26.4211      0.00000

 k-point    67 :      -0.1364    0.1364    0.0000
  band No.  band energies     occupation 
      1      -9.0154      2.00000
      2      -3.1803      0.00000
      3       2.0929      0.00000
      4       2.8280      0.00000
      5       3.0002      0.00000
      6       3.1860      0.00000
      7       3.2614      0.00000
      8       3.7052      0.00000
      9       3.7739      0.00000
     10       4.3940      0.00000
     11       4.5136      0.00000
     12       5.3322      0.00000
     13       5.4504      0.00000
     14       6.4615      0.00000
     15       6.5842      0.00000
     16       7.7879      0.00000
     17       7.9131      0.00000
     18       9.3159      0.00000
     19       9.4133      0.00000
     20      11.0354      0.00000
     21      11.0367      0.00000
     22      11.1564      0.00000
     23      12.5719      0.00000
     24      12.9474      0.00000
     25      13.8760      0.00000
     26      15.0400      0.00000
     27      15.6502      0.00000
     28      17.3068      0.00000
     29      17.8517      0.00000
     30      19.6767      0.00000
     31      20.3087      0.00000
     32      21.6257      0.00000
     33      22.9725      0.00000
     34      23.0385      0.00000
     35      24.3207      0.00000
     36      25.2405      0.00000
     37      25.5881      0.00000
     38      25.8298      0.00000
     39      27.5823      0.00000
     40      28.3199      0.00000
     41      28.4388      0.00000
     42      28.8594      0.00000

 k-point    68 :      -0.0909    0.1364    0.0000
  band No.  band energies     occupation 
      1      -9.5099      2.00000
      2      -3.8899      0.00000
      3       1.4077      0.00000
      4       2.1004      0.00000
      5       2.2707      0.00000
      6       2.4566      0.00000
      7       2.5357      0.00000
      8       2.9762      0.00000
      9       3.0554      0.00000
     10       3.6658      0.00000
     11       3.7985      0.00000
     12       4.6045      0.00000
     13       4.7428      0.00000
     14       5.7348      0.00000
     15       5.8841      0.00000
     16       7.0625      0.00000
     17       7.2252      0.00000
     18       8.5922      0.00000
     19       8.7519      0.00000
     20      10.3143      0.00000
     21      10.4470      0.00000
     22      12.1974      0.00000
     23      12.2308      0.00000
     24      12.9291      0.00000
     25      13.9624      0.00000
     26      14.3319      0.00000
     27      15.1580      0.00000
     28      16.6198      0.00000
     29      17.1564      0.00000
     30      19.0719      0.00000
     31      19.5794      0.00000
     32      21.6323      0.00000
     33      22.2287      0.00000
     34      23.6126      0.00000
     35      24.8805      0.00000
     36      25.0765      0.00000
     37      25.2986      0.00000
     38      26.8920      0.00000
     39      27.9682      0.00000
     40      28.1422      0.00000
     41      28.9582      0.00000
     42      30.2034      0.00000

 k-point    69 :      -0.0455    0.1364    0.0000
  band No.  band energies     occupation 
      1      -9.8830      2.00000
      2      -4.4234      1.99894
      3       0.8905      0.00000
      4       1.5545      0.00000
      5       1.7237      0.00000
      6       1.9096      0.00000
      7       1.9912      0.00000
      8       2.4295      0.00000
      9       2.5156      0.00000
     10       3.1195      0.00000
     11       3.2609      0.00000
     12       4.0586      0.00000
     13       4.2098      0.00000
     14       5.1895      0.00000
     15       5.3552      0.00000
     16       6.5180      0.00000
     17       6.7023      0.00000
     18       8.0486      0.00000
     19       8.2404      0.00000
     20       9.7722      0.00000
     21       9.9622      0.00000
     22      11.6908      0.00000
     23      11.8331      0.00000
     24      13.6117      0.00000
     25      13.7956      0.00000
     26      14.5316      0.00000
     27      15.5049      0.00000
     28      16.0909      0.00000
     29      16.6396      0.00000
     30      18.5619      0.00000
     31      19.0114      0.00000
     32      21.2020      0.00000
     33      21.6493      0.00000
     34      23.8827      0.00000
     35      24.3437      0.00000
     36      25.1709      0.00000
     37      25.5482      0.00000
     38      27.4120      0.00000
     39      27.6381      0.00000
     40      29.8459      0.00000
     41      30.2816      0.00000
     42      30.8104      0.00000

 k-point    70 :       0.0000    0.1818    0.0000
  band No.  band energies     occupation 
      1      -9.6973      2.00000
      2      -4.1568      0.00002
      3       1.1483      0.00000
      4       1.8272      0.00000
      5       1.9969      0.00000
      6       2.1828      0.00000
      7       2.2631      0.00000
      8       2.7026      0.00000
      9       2.7850      0.00000
     10       3.3924      0.00000
     11       3.5291      0.00000
     12       4.3313      0.00000
     13       4.4754      0.00000
     14       5.4619      0.00000
     15       5.6182      0.00000
     16       6.7900      0.00000
     17       6.9614      0.00000
     18       8.3202      0.00000
     19       8.4912      0.00000
     20      10.0430      0.00000
     21      10.1902      0.00000
     22      11.9517      0.00000
     23      11.9606      0.00000
     24      13.1916      0.00000
     25      14.0636      0.00000
     26      14.6073      0.00000
     27      15.4291      0.00000
     28      16.3552      0.00000
     29      16.7782      0.00000
     30      18.8166      0.00000
     31      19.2276      0.00000
     32      21.4144      0.00000
     33      21.8474      0.00000
     34      23.5663      0.00000
     35      24.2162      0.00000
     36      24.8177      0.00000
     37      25.2915      0.00000
     38      27.5211      0.00000
     39      27.9712      0.00000
     40      28.6663      0.00000
     41      29.7718      0.00000
     42      30.0912      0.00000

 k-point    71 :       0.3636    0.1818    0.0000
  band No.  band energies     occupation 
      1      -7.7328      2.00000
      2      -1.3259      0.00000
      3       3.8501      0.00000
      4       4.7399      0.00000
      5       4.9186      0.00000
      6       5.1042      0.00000
      7       5.1656      0.00000
      8       5.6221      0.00000
      9       5.6498      0.00000
     10       6.3079      0.00000
     11       6.3722      0.00000
     12       7.2438      0.00000
     13       7.2683      0.00000
     14       7.5777      0.00000
     15       8.3459      0.00000
     16       8.3684      0.00000
     17       9.5453      0.00000
     18       9.6884      0.00000
     19      10.7410      0.00000
     20      11.2063      0.00000
     21      11.9816      0.00000
     22      12.9062      0.00000
     23      13.5159      0.00000
     24      14.7683      0.00000
     25      15.3460      0.00000
     26      16.6596      0.00000
     27      17.4245      0.00000
     28      17.9899      0.00000
     29      19.5906      0.00000
     30      19.7063      0.00000
     31      20.2304      0.00000
     32      21.9190      0.00000
     33      22.1798      0.00000
     34      23.4954      0.00000
     35      23.8028      0.00000
     36      24.4153      0.00000
     37      24.8717      0.00000
     38      24.8909      0.00000
     39      24.9265      0.00000
     40      24.9897      0.00000
     41      24.9958      0.00000
     42      25.2024      0.00000

 k-point    72 :       0.4091    0.1818    0.0000
  band No.  band energies     occupation 
      1      -6.9573      2.00000
      2      -0.1928      0.00000
      3       4.8076      0.00000
      4       5.8438      0.00000
      5       5.9184      0.00000
      6       6.1067      0.00000
      7       6.2890      0.00000
      8       6.3476      0.00000
      9       6.8037      0.00000
     10       6.8054      0.00000
     11       7.4880      0.00000
     12       7.4947      0.00000
     13       8.3215      0.00000
     14       8.4209      0.00000
     15       9.2855      0.00000
     16       9.5390      0.00000
     17      10.3092      0.00000
     18      10.8476      0.00000
     19      11.4723      0.00000
     20      12.3406      0.00000
     21      12.8977      0.00000
     22      13.9573      0.00000
     23      14.5723      0.00000
     24      15.3667      0.00000
     25      16.4597      0.00000
     26      16.4832      0.00000
     27      18.2363      0.00000
     28      18.5563      0.00000
     29      18.8313      0.00000
     30      20.6015      0.00000
     31      20.7512      0.00000
     32      21.1369      0.00000
     33      22.0271      0.00000
     34      22.1646      0.00000
     35      22.3583      0.00000
     36      22.4077      0.00000
     37      22.8144      0.00000
     38      22.8454      0.00000
     39      22.9134      0.00000
     40      23.0600      0.00000
     41      23.3833      0.00000
     42      23.5944      0.00000

 k-point    73 :       0.4545    0.1818    0.0000
  band No.  band energies     occupation 
      1      -6.0968      2.00000
      2       1.0934      0.00000
      3       3.9255      0.00000
      4       6.1407      0.00000
      5       7.2697      0.00000
      6       7.4685      0.00000
      7       7.6540      0.00000
      8       7.6662      0.00000
      9       8.0514      0.00000
     10       8.1666      0.00000
     11       8.6744      0.00000
     12       8.8409      0.00000
     13       9.3824      0.00000
     14       9.7629      0.00000
     15      10.2792      0.00000
     16      10.8510      0.00000
     17      11.3489      0.00000
     18      12.0635      0.00000
     19      12.6376      0.00000
     20      13.1141      0.00000
     21      14.0847      0.00000
     22      14.1442      0.00000
     23      15.6087      0.00000
     24      15.8532      0.00000
     25      17.2807      0.00000
     26      17.7210      0.00000
     27      18.0037      0.00000
     28      18.5359      0.00000
     29      19.4079      0.00000
     30      19.5180      0.00000
     31      19.6570      0.00000
     32      19.7510      0.00000
     33      19.7539      0.00000
     34      19.9160      0.00000
     35      20.2525      0.00000
     36      20.2907      0.00000
     37      20.9407      0.00000
     38      21.0110      0.00000
     39      21.7883      0.00000
     40      21.9121      0.00000
     41      22.0086      0.00000
     42      22.1122      0.00000

 k-point    74 :       0.5000    0.1818    0.0000
  band No.  band energies     occupation 
      1      -5.2040      2.00000
      2       2.4137      0.00000
      3       2.5000      0.00000
      4       7.1004      0.00000
      5       8.7443      0.00000
      6       8.9028      0.00000
      7       9.0572      0.00000
      8       9.1872      0.00000
      9       9.3846      0.00000
     10       9.6703      0.00000
     11       9.9638      0.00000
     12      10.2486      0.00000
     13      10.6923      0.00000
     14      10.8708      0.00000
     15      11.5530      0.00000
     16      11.6338      0.00000
     17      12.5860      0.00000
     18      12.7558      0.00000
     19      13.8606      0.00000
     20      14.0761      0.00000
     21      15.3161      0.00000
     22      15.5434      0.00000
     23      16.1879      0.00000
     24      16.5529      0.00000
     25      17.0539      0.00000
     26      17.0601      0.00000
     27      17.2764      0.00000
     28      17.2793      0.00000
     29      17.4128      0.00000
     30      17.5490      0.00000
     31      17.8445      0.00000
     32      17.8471      0.00000
     33      18.5153      0.00000
     34      18.5627      0.00000
     35      19.1050      0.00000
     36      19.2663      0.00000
     37      19.4489      0.00000
     38      19.5585      0.00000
     39      20.5478      0.00000
     40      20.6425      0.00000
     41      21.1672      0.00000
     42      21.4005      0.00000

 k-point    75 :      -0.4545    0.1818    0.0000
  band No.  band energies     occupation 
      1      -4.4200      1.99852
      2       1.2377      0.00000
      3       3.9085      0.00000
      4       7.6064      0.00000
      5       8.7709      0.00000
      6      10.1965      0.00000
      7      10.6604      0.00000
      8      10.7697      0.00000
      9      10.9698      0.00000
     10      11.0508      0.00000
     11      11.4877      0.00000
     12      11.5873      0.00000
     13      12.1736      0.00000
     14      12.3193      0.00000
     15      13.0938      0.00000
     16      13.2220      0.00000
     17      13.9087      0.00000
     18      14.1523      0.00000
     19      14.4974      0.00000
     20      14.6114      0.00000
     21      14.7760      0.00000
     22      14.9468      0.00000
     23      15.0425      0.00000
     24      15.3777      0.00000
     25      15.5295      0.00000
     26      15.5954      0.00000
     27      15.8194      0.00000
     28      16.1307      0.00000
     29      16.3207      0.00000
     30      16.6874      0.00000
     31      17.1729      0.00000
     32      17.2180      0.00000
     33      17.4269      0.00000
     34      17.4456      0.00000
     35      18.3275      0.00000
     36      18.3906      0.00000
     37      18.9113      0.00000
     38      19.0860      0.00000
     39      19.6306      0.00000
     40      19.7601      0.00000
     41      20.7549      0.00000
     42      20.9660      0.00000

 k-point    76 :      -0.4091    0.1818    0.0000
  band No.  band energies     occupation 
      1      -4.0707      0.00000
      2       0.7554      0.00000
      3       4.7082      0.00000
      4       7.7262      0.00000
      5       7.9278      0.00000
      6      11.4830      0.00000
      7      12.2227      0.00000
      8      12.3473      0.00000
      9      12.6076      0.00000
     10      12.6743      0.00000
     11      12.6879      0.00000
     12      12.8321      0.00000
     13      12.9050      0.00000
     14      12.9198      0.00000
     15      12.9870      0.00000
     16      13.3269      0.00000
     17      13.4051      0.00000
     18      13.4348      0.00000
     19      13.5637      0.00000
     20      13.9739      0.00000
     21      14.1404      0.00000
     22      14.1531      0.00000
     23      14.3237      0.00000
     24      14.8722      0.00000
     25      15.0693      0.00000
     26      15.1058      0.00000
     27      15.3006      0.00000
     28      15.8924      0.00000
     29      16.2110      0.00000
     30      16.2615      0.00000
     31      16.4571      0.00000
     32      16.8444      0.00000
     33      17.5591      0.00000
     34      17.6140      0.00000
     35      17.6761      0.00000
     36      17.8098      0.00000
     37      19.0015      0.00000
     38      19.1040      0.00000
     39      19.1654      0.00000
     40      19.3538      0.00000
     41      20.6476      0.00000
     42      20.8463      0.00000

 k-point    77 :      -0.3636    0.1818    0.0000
  band No.  band energies     occupation 
      1      -4.4220      1.99878
      2       1.2391      0.00000
      3       3.9023      0.00000
      4       7.6044      0.00000
      5       8.7770      0.00000
      6      10.1893      0.00000
      7      10.6529      0.00000
      8      10.7614      0.00000
      9      10.9618      0.00000
     10      11.0426      0.00000
     11      11.4797      0.00000
     12      11.5793      0.00000
     13      12.1656      0.00000
     14      12.3115      0.00000
     15      13.0859      0.00000
     16      13.2154      0.00000
     17      13.9137      0.00000
     18      14.1463      0.00000
     19      14.4922      0.00000
     20      14.6184      0.00000
     21      14.7858      0.00000
     22      14.9559      0.00000
     23      15.0520      0.00000
     24      15.3807      0.00000
     25      15.5368      0.00000
     26      15.5961      0.00000
     27      15.8149      0.00000
     28      16.1377      0.00000
     29      16.3295      0.00000
     30      16.6876      0.00000
     31      17.1765      0.00000
     32      17.2216      0.00000
     33      17.4253      0.00000
     34      17.4428      0.00000
     35      18.3363      0.00000
     36      18.3995      0.00000
     37      18.9039      0.00000
     38      19.0792      0.00000
     39      19.6397      0.00000
     40      19.7691      0.00000
     41      20.7490      0.00000
     42      20.9599      0.00000

 k-point    78 :      -0.3182    0.1818    0.0000
  band No.  band energies     occupation 
      1      -5.2069      2.00000
      2       2.4154      0.00000
      3       2.4932      0.00000
      4       7.0958      0.00000
      5       8.7378      0.00000
      6       8.8966      0.00000
      7       9.0500      0.00000
      8       9.1800      0.00000
      9       9.3776      0.00000
     10       9.6636      0.00000
     11       9.9569      0.00000
     12      10.2440      0.00000
     13      10.6853      0.00000
     14      10.8703      0.00000
     15      11.5491      0.00000
     16      11.6267      0.00000
     17      12.5797      0.00000
     18      12.7486      0.00000
     19      13.8538      0.00000
     20      14.0691      0.00000
     21      15.3094      0.00000
     22      15.5383      0.00000
     23      16.1953      0.00000
     24      16.5529      0.00000
     25      17.0645      0.00000
     26      17.0660      0.00000
     27      17.2833      0.00000
     28      17.2850      0.00000
     29      17.4120      0.00000
     30      17.5473      0.00000
     31      17.8543      0.00000
     32      17.8552      0.00000
     33      18.5250      0.00000
     34      18.5729      0.00000
     35      19.0984      0.00000
     36      19.2625      0.00000
     37      19.4586      0.00000
     38      19.5662      0.00000
     39      20.5575      0.00000
     40      20.6526      0.00000
     41      21.1613      0.00000
     42      21.3939      0.00000

 k-point    79 :      -0.2727    0.1818    0.0000
  band No.  band energies     occupation 
      1      -6.0999      2.00000
      2       1.0870      0.00000
      3       3.9267      0.00000
      4       6.1343      0.00000
      5       7.2632      0.00000
      6       7.4619      0.00000
      7       7.6474      0.00000
      8       7.6598      0.00000
      9       8.0452      0.00000
     10       8.1600      0.00000
     11       8.6685      0.00000
     12       8.8344      0.00000
     13       9.3767      0.00000
     14       9.7565      0.00000
     15      10.2733      0.00000
     16      10.8449      0.00000
     17      11.3429      0.00000
     18      12.0590      0.00000
     19      12.6313      0.00000
     20      13.1154      0.00000
     21      14.0823      0.00000
     22      14.1378      0.00000
     23      15.6033      0.00000
     24      15.8469      0.00000
     25      17.2745      0.00000
     26      17.7157      0.00000
     27      17.9959      0.00000
     28      18.5456      0.00000
     29      19.4175      0.00000
     30      19.5294      0.00000
     31      19.6551      0.00000
     32      19.7588      0.00000
     33      19.7632      0.00000
     34      19.9131      0.00000
     35      20.2636      0.00000
     36      20.3014      0.00000
     37      20.9517      0.00000
     38      21.0222      0.00000
     39      21.7918      0.00000
     40      21.9218      0.00000
     41      22.0103      0.00000
     42      22.1041      0.00000

 k-point    80 :      -0.2273    0.1818    0.0000
  band No.  band energies     occupation 
      1      -6.9604      2.00000
      2      -0.1985      0.00000
      3       4.8046      0.00000
      4       5.8404      0.00000
      5       5.9126      0.00000
      6       6.1009      0.00000
      7       6.2833      0.00000
      8       6.3417      0.00000
      9       6.7978      0.00000
     10       6.7996      0.00000
     11       7.4823      0.00000
     12       7.4890      0.00000
     13       8.3161      0.00000
     14       8.4151      0.00000
     15       9.2807      0.00000
     16       9.5333      0.00000
     17      10.3047      0.00000
     18      10.8419      0.00000
     19      11.4674      0.00000
     20      12.3351      0.00000
     21      12.8924      0.00000
     22      13.9527      0.00000
     23      14.5668      0.00000
     24      15.3672      0.00000
     25      16.4542      0.00000
     26      16.4822      0.00000
     27      18.2322      0.00000
     28      18.5508      0.00000
     29      18.8213      0.00000
     30      20.5957      0.00000
     31      20.7503      0.00000
     32      21.1442      0.00000
     33      22.0387      0.00000
     34      22.1770      0.00000
     35      22.3703      0.00000
     36      22.4199      0.00000
     37      22.8073      0.00000
     38      22.8540      0.00000
     39      22.9201      0.00000
     40      23.0591      0.00000
     41      23.3799      0.00000
     42      23.6054      0.00000

 k-point    81 :      -0.1818    0.1818    0.0000
  band No.  band energies     occupation 
      1      -7.7357      2.00000
      2      -1.3308      0.00000
      3       3.8458      0.00000
      4       4.7350      0.00000
      5       4.9137      0.00000
      6       5.0992      0.00000
      7       5.1607      0.00000
      8       5.6171      0.00000
      9       5.6450      0.00000
     10       6.3030      0.00000
     11       6.3675      0.00000
     12       7.2389      0.00000
     13       7.2638      0.00000
     14       7.5706      0.00000
     15       8.3416      0.00000
     16       8.3635      0.00000
     17       9.5416      0.00000
     18       9.6834      0.00000
     19      10.7382      0.00000
     20      11.2014      0.00000
     21      11.9782      0.00000
     22      12.9013      0.00000
     23      13.5116      0.00000
     24      14.7635      0.00000
     25      15.3413      0.00000
     26      16.6555      0.00000
     27      17.4198      0.00000
     28      17.9873      0.00000
     29      19.5863      0.00000
     30      19.7015      0.00000
     31      20.2265      0.00000
     32      21.9143      0.00000
     33      22.1750      0.00000
     34      23.4947      0.00000
     35      23.8018      0.00000
     36      24.4110      0.00000
     37      24.8654      0.00000
     38      24.8863      0.00000
     39      24.9270      0.00000
     40      24.9742      0.00000
     41      25.0060      0.00000
     42      25.1947      0.00000

 k-point    82 :      -0.1364    0.1818    0.0000
  band No.  band energies     occupation 
      1      -8.4042      2.00000
      2      -2.2974      0.00000
      3       2.9355      0.00000
      4       3.7363      0.00000
      5       3.9111      0.00000
      6       4.0968      0.00000
      7       4.1664      0.00000
      8       4.6155      0.00000
      9       4.6672      0.00000
     10       5.3031      0.00000
     11       5.4001      0.00000
     12       6.2405      0.00000
     13       6.3211      0.00000
     14       7.3679      0.00000
     15       7.4330      0.00000
     16       8.6868      0.00000
     17       8.6920      0.00000
     18       9.2891      0.00000
     19      10.2167      0.00000
     20      10.2194      0.00000
     21      11.5777      0.00000
     22      11.9305      0.00000
     23      12.8348      0.00000
     24      13.8307      0.00000
     25      14.4502      0.00000
     26      15.8935      0.00000
     27      16.4623      0.00000
     28      18.0236      0.00000
     29      18.7228      0.00000
     30      19.5069      0.00000
     31      21.0462      0.00000
     32      21.1944      0.00000
     33      22.5449      0.00000
     34      23.6537      0.00000
     35      23.8335      0.00000
     36      24.5625      0.00000
     37      25.5157      0.00000
     38      25.8236      0.00000
     39      25.9787      0.00000
     40      26.1573      0.00000
     41      26.2194      0.00000
     42      26.4139      0.00000

 k-point    83 :      -0.0909    0.1818    0.0000
  band No.  band energies     occupation 
      1      -8.9565      2.00000
      2      -3.0925      0.00000
      3       2.1744      0.00000
      4       2.9184      0.00000
      5       3.0907      0.00000
      6       3.2765      0.00000
      7       3.3511      0.00000
      8       3.7958      0.00000
      9       3.8619      0.00000
     10       4.4844      0.00000
     11       4.6003      0.00000
     12       5.4226      0.00000
     13       5.5342      0.00000
     14       6.5516      0.00000
     15       6.6636      0.00000
     16       7.8778      0.00000
     17       7.9809      0.00000
     18       9.4055      0.00000
     19       9.4302      0.00000
     20      10.6086      0.00000
     21      11.1245      0.00000
     22      11.4544      0.00000
     23      12.8572      0.00000
     24      13.0353      0.00000
     25      13.9542      0.00000
     26      15.1252      0.00000
     27      15.6923      0.00000
     28      17.3817      0.00000
     29      17.9047      0.00000
     30      19.6656      0.00000
     31      20.3591      0.00000
     32      21.0431      0.00000
     33      22.8224      0.00000
     34      22.9837      0.00000
     35      24.9090      0.00000
     36      25.1365      0.00000
     37      25.9272      0.00000
     38      25.9516      0.00000
     39      26.1010      0.00000
     40      27.0628      0.00000
     41      27.1626      0.00000
     42      27.3843      0.00000

 k-point    84 :      -0.0455    0.1818    0.0000
  band No.  band energies     occupation 
      1      -9.3882      2.00000
      2      -3.7129      0.00000
      3       1.5770      0.00000
      4       2.2819      0.00000
      5       2.4526      0.00000
      6       2.6385      0.00000
      7       2.7165      0.00000
      8       3.1580      0.00000
      9       3.2340      0.00000
     10       3.8474      0.00000
     11       3.9759      0.00000
     12       4.7860      0.00000
     13       4.9175      0.00000
     14       5.9161      0.00000
     15       6.0555      0.00000
     16       7.2435      0.00000
     17       7.3904      0.00000
     18       8.7727      0.00000
     19       8.9002      0.00000
     20      10.4942      0.00000
     21      10.5253      0.00000
     22      11.8462      0.00000
     23      12.4096      0.00000
     24      12.9455      0.00000
     25      14.4389      0.00000
     26      14.5086      0.00000
     27      15.1614      0.00000
     28      16.7911      0.00000
     29      17.2452      0.00000
     30      19.2223      0.00000
     31      19.6886      0.00000
     32      21.5692      0.00000
     33      22.2940      0.00000
     34      22.7422      0.00000
     35      24.4270      0.00000
     36      24.9832      0.00000
     37      25.6083      0.00000
     38      27.1836      0.00000
     39      27.6420      0.00000
     40      28.4109      0.00000
     41      28.4220      0.00000
     42      28.5454      0.00000

 k-point    85 :       0.0000    0.2273    0.0000
  band No.  band energies     occupation 
      1      -9.1443      2.00000
      2      -3.3586      0.00000
      3       1.9149      0.00000
      4       2.6453      0.00000
      5       2.8169      0.00000
      6       3.0028      0.00000
      7       3.0784      0.00000
      8       3.5222      0.00000
      9       3.5913      0.00000
     10       4.2111      0.00000
     11       4.3305      0.00000
     12       5.1495      0.00000
     13       5.2660      0.00000
     14       6.2790      0.00000
     15       6.3961      0.00000
     16       7.6057      0.00000
     17       7.7134      0.00000
     18       9.1340      0.00000
     19       9.1644      0.00000
     20      10.5075      0.00000
     21      10.8540      0.00000
     22      11.5804      0.00000
     23      12.7666      0.00000
     24      13.2181      0.00000
     25      14.5521      0.00000
     26      14.8600      0.00000
     27      15.2641      0.00000
     28      17.1254      0.00000
     29      17.5313      0.00000
     30      19.4499      0.00000
     31      19.9817      0.00000
     32      20.8534      0.00000
     33      22.5091      0.00000
     34      22.5525      0.00000
     35      24.2843      0.00000
     36      25.2409      0.00000
     37      25.5871      0.00000
     38      25.9692      0.00000
     39      26.7040      0.00000
     40      26.8879      0.00000
     41      27.0679      0.00000
     42      27.1238      0.00000

 k-point    86 :       0.4545    0.2273    0.0000
  band No.  band energies     occupation 
      1      -6.1278      2.00000
      2       1.0111      0.00000
      3       4.2979      0.00000
      4       5.8064      0.00000
      5       7.1817      0.00000
      6       7.3731      0.00000
      7       7.5499      0.00000
      8       7.5637      0.00000
      9       7.9188      0.00000
     10       8.0770      0.00000
     11       8.5440      0.00000
     12       8.7533      0.00000
     13       9.2650      0.00000
     14       9.6786      0.00000
     15      10.1825      0.00000
     16      10.7780      0.00000
     17      11.2655      0.00000
     18      12.0409      0.00000
     19      12.5589      0.00000
     20      13.3646      0.00000
     21      14.0675      0.00000
     22      14.4255      0.00000
     23      15.7071      0.00000
     24      15.7805      0.00000
     25      16.6752      0.00000
     26      17.4925      0.00000
     27      17.6809      0.00000
     28      19.5304      0.00000
     29      19.7323      0.00000
     30      20.1465      0.00000
     31      20.5489      0.00000
     32      21.1586      0.00000
     33      21.3634      0.00000
     34      21.4315      0.00000
     35      21.4339      0.00000
     36      21.5820      0.00000
     37      21.6610      0.00000
     38      21.6690      0.00000
     39      21.6843      0.00000
     40      21.8475      0.00000
     41      22.0706      0.00000
     42      22.1551      0.00000

 k-point    87 :       0.5000    0.2273    0.0000
  band No.  band energies     occupation 
      1      -5.2166      2.00000
      2       2.3506      0.00000
      3       2.7633      0.00000
      4       6.5244      0.00000
      5       8.6008      0.00000
      6       8.6768      0.00000
      7       8.8693      0.00000
      8       9.0146      0.00000
      9       9.1959      0.00000
     10       9.5170      0.00000
     11       9.7822      0.00000
     12      10.1667      0.00000
     13      10.5192      0.00000
     14      11.0353      0.00000
     15      11.4687      0.00000
     16      11.9140      0.00000
     17      12.5961      0.00000
     18      12.7163      0.00000
     19      13.8136      0.00000
     20      13.9247      0.00000
     21      15.1415      0.00000
     22      15.4485      0.00000
     23      15.5786      0.00000
     24      16.9974      0.00000
     25      17.1360      0.00000
     26      17.8906      0.00000
     27      18.6857      0.00000
     28      18.8768      0.00000
     29      18.9049      0.00000
     30      19.0652      0.00000
     31      19.0940      0.00000
     32      19.1520      0.00000
     33      19.5983      0.00000
     34      19.6006      0.00000
     35      19.8547      0.00000
     36      20.2678      0.00000
     37      20.3836      0.00000
     38      20.6999      0.00000
     39      20.8829      0.00000
     40      20.9577      0.00000
     41      21.1168      0.00000
     42      21.1179      0.00000

 k-point    88 :      -0.4545    0.2273    0.0000
  band No.  band energies     occupation 
      1      -4.2944      0.70629
      2       1.3829      0.00000
      3       3.7608      0.00000
      4       6.8550      0.00000
      5       9.7336      0.00000
      6       9.9645      0.00000
      7      10.4972      0.00000
      8      10.5382      0.00000
      9      10.7845      0.00000
     10      10.7951      0.00000
     11      11.2734      0.00000
     12      11.3335      0.00000
     13      11.9525      0.00000
     14      12.0755      0.00000
     15      12.8575      0.00000
     16      13.0205      0.00000
     17      13.9155      0.00000
     18      14.1444      0.00000
     19      14.7076      0.00000
     20      15.3457      0.00000
     21      15.4637      0.00000
     22      15.7510      0.00000
     23      16.4012      0.00000
     24      16.5057      0.00000
     25      16.7063      0.00000
     26      16.7577      0.00000
     27      16.9002      0.00000
     28      17.0496      0.00000
     29      17.2400      0.00000
     30      17.3087      0.00000
     31      17.9244      0.00000
     32      18.0150      0.00000
     33      18.5670      0.00000
     34      18.7498      0.00000
     35      18.8929      0.00000
     36      18.9593      0.00000
     37      19.4754      0.00000
     38      19.9475      0.00000
     39      20.1130      0.00000
     40      20.3476      0.00000
     41      20.5157      0.00000
     42      20.5465      0.00000

 k-point    89 :      -0.4091    0.2273    0.0000
  band No.  band energies     occupation 
      1      -3.5880      0.00000
      2       0.4380      0.00000
      3       4.9653      0.00000
      4       6.9489      0.00000
      5       8.7742      0.00000
      6      11.5114      0.00000
      7      12.1378      0.00000
      8      12.3188      0.00000
      9      12.4969      0.00000
     10      12.5787      0.00000
     11      12.9962      0.00000
     12      13.0547      0.00000
     13      13.4766      0.00000
     14      13.5817      0.00000
     15      13.9219      0.00000
     16      14.0297      0.00000
     17      14.3166      0.00000
     18      14.3904      0.00000
     19      14.5726      0.00000
     20      14.6012      0.00000
     21      14.8173      0.00000
     22      14.8598      0.00000
     23      15.1065      0.00000
     24      15.1264      0.00000
     25      15.7740      0.00000
     26      15.7990      0.00000
     27      15.8777      0.00000
     28      16.0224      0.00000
     29      16.6922      0.00000
     30      16.7871      0.00000
     31      17.1709      0.00000
     32      17.3230      0.00000
     33      17.8220      0.00000
     34      17.9420      0.00000
     35      18.6641      0.00000
     36      18.8136      0.00000
     37      19.1398      0.00000
     38      19.1588      0.00000
     39      19.4643      0.00000
     40      20.1259      0.00000
     41      20.3316      0.00000
     42      20.3873      0.00000

 k-point    90 :      -0.3636    0.2273    0.0000
  band No.  band energies     occupation 
      1      -3.5896      0.00000
      2       0.4389      0.00000
      3       4.9603      0.00000
      4       6.9486      0.00000
      5       8.7794      0.00000
      6      11.5021      0.00000
      7      12.1278      0.00000
      8      12.3080      0.00000
      9      12.4863      0.00000
     10      12.5683      0.00000
     11      12.9860      0.00000
     12      13.0467      0.00000
     13      13.4807      0.00000
     14      13.5746      0.00000
     15      13.9146      0.00000
     16      14.0310      0.00000
     17      14.3283      0.00000
     18      14.3975      0.00000
     19      14.5830      0.00000
     20      14.6066      0.00000
     21      14.8103      0.00000
     22      14.8552      0.00000
     23      15.1162      0.00000
     24      15.1360      0.00000
     25      15.7842      0.00000
     26      15.8048      0.00000
     27      15.8685      0.00000
     28      16.0182      0.00000
     29      16.7032      0.00000
     30      16.7973      0.00000
     31      17.1612      0.00000
     32      17.3141      0.00000
     33      17.8329      0.00000
     34      17.9526      0.00000
     35      18.6553      0.00000
     36      18.8045      0.00000
     37      19.1447      0.00000
     38      19.1687      0.00000
     39      19.4680      0.00000
     40      20.1238      0.00000
     41      20.3298      0.00000
     42      20.3821      0.00000

 k-point    91 :      -0.3182    0.2273    0.0000
  band No.  band energies     occupation 
      1      -4.2977      0.77710
      2       1.3841      0.00000
      3       3.7525      0.00000
      4       6.8537      0.00000
      5       9.7343      0.00000
      6       9.9559      0.00000
      7      10.4875      0.00000
      8      10.5308      0.00000
      9      10.7748      0.00000
     10      10.7886      0.00000
     11      11.2652      0.00000
     12      11.3239      0.00000
     13      11.9439      0.00000
     14      12.0659      0.00000
     15      12.8485      0.00000
     16      13.0111      0.00000
     17      13.9070      0.00000
     18      14.1353      0.00000
     19      14.7026      0.00000
     20      15.3443      0.00000
     21      15.4550      0.00000
     22      15.7542      0.00000
     23      16.4131      0.00000
     24      16.5185      0.00000
     25      16.7180      0.00000
     26      16.7697      0.00000
     27      16.8925      0.00000
     28      17.0439      0.00000
     29      17.2523      0.00000
     30      17.3189      0.00000
     31      17.9365      0.00000
     32      18.0272      0.00000
     33      18.5600      0.00000
     34      18.7437      0.00000
     35      18.9036      0.00000
     36      18.9680      0.00000
     37      19.4722      0.00000
     38      19.9570      0.00000
     39      20.1241      0.00000
     40      20.3444      0.00000
     41      20.5104      0.00000
     42      20.5392      0.00000

 k-point    92 :      -0.2727    0.2273    0.0000
  band No.  band energies     occupation 
      1      -5.2205      2.00000
      2       2.3424      0.00000
      3       2.7630      0.00000
      4       6.5214      0.00000
      5       8.5924      0.00000
      6       8.6699      0.00000
      7       8.8608      0.00000
      8       9.0059      0.00000
      9       9.1876      0.00000
     10       9.5085      0.00000
     11       9.7741      0.00000
     12      10.1585      0.00000
     13      10.5109      0.00000
     14      11.0281      0.00000
     15      11.4604      0.00000
     16      11.9109      0.00000
     17      12.5877      0.00000
     18      12.7141      0.00000
     19      13.8076      0.00000
     20      13.9162      0.00000
     21      15.1359      0.00000
     22      15.4401      0.00000
     23      15.5717      0.00000
     24      16.9889      0.00000
     25      17.1289      0.00000
     26      17.9018      0.00000
     27      18.6927      0.00000
     28      18.8906      0.00000
     29      18.9047      0.00000
     30      19.0625      0.00000
     31      19.1061      0.00000
     32      19.1606      0.00000
     33      19.6082      0.00000
     34      19.6140      0.00000
     35      19.8512      0.00000
     36      20.2799      0.00000
     37      20.3964      0.00000
     38      20.6939      0.00000
     39      20.8741      0.00000
     40      20.9509      0.00000
     41      21.1080      0.00000
     42      21.1094      0.00000

 k-point    93 :      -0.2273    0.2273    0.0000
  band No.  band energies     occupation 
      1      -6.1317      2.00000
      2       1.0035      0.00000
      3       4.2940      0.00000
      4       5.8020      0.00000
      5       7.1740      0.00000
      6       7.3655      0.00000
      7       7.5429      0.00000
      8       7.5559      0.00000
      9       7.9124      0.00000
     10       8.0693      0.00000
     11       8.5379      0.00000
     12       8.7456      0.00000
     13       9.2590      0.00000
     14       9.6709      0.00000
     15      10.1762      0.00000
     16      10.7705      0.00000
     17      11.2587      0.00000
     18      12.0338      0.00000
     19      12.5517      0.00000
     20      13.3593      0.00000
     21      14.0602      0.00000
     22      14.4225      0.00000
     23      15.7010      0.00000
     24      15.7731      0.00000
     25      16.6752      0.00000
     26      17.4853      0.00000
     27      17.6734      0.00000
     28      19.5231      0.00000
     29      19.7256      0.00000
     30      20.1474      0.00000
     31      20.5501      0.00000
     32      21.1584      0.00000
     33      21.3651      0.00000
     34      21.4204      0.00000
     35      21.4477      0.00000
     36      21.5811      0.00000
     37      21.6625      0.00000
     38      21.6637      0.00000
     39      21.6933      0.00000
     40      21.8429      0.00000
     41      22.0659      0.00000
     42      22.1516      0.00000

 k-point    94 :      -0.1818    0.2273    0.0000
  band No.  band energies     occupation 
      1      -6.9611      2.00000
      2      -0.1994      0.00000
      3       4.8008      0.00000
      4       5.8359      0.00000
      5       5.9117      0.00000
      6       6.1001      0.00000
      7       6.2823      0.00000
      8       6.3414      0.00000
      9       6.7980      0.00000
     10       6.7987      0.00000
     11       7.4813      0.00000
     12       7.4893      0.00000
     13       8.3168      0.00000
     14       8.4142      0.00000
     15       9.2817      0.00000
     16       9.5323      0.00000
     17      10.3057      0.00000
     18      10.8409      0.00000
     19      11.4675      0.00000
     20      12.3340      0.00000
     21      12.8919      0.00000
     22      13.9508      0.00000
     23      14.5661      0.00000
     24      15.3598      0.00000
     25      16.4533      0.00000
     26      16.4754      0.00000
     27      18.2298      0.00000
     28      18.5498      0.00000
     29      18.8380      0.00000
     30      20.5957      0.00000
     31      20.7423      0.00000
     32      21.1245      0.00000
     33      22.0119      0.00000
     34      22.1489      0.00000
     35      22.3428      0.00000
     36      22.3922      0.00000
     37      22.8199      0.00000
     38      22.8316      0.00000
     39      22.9075      0.00000
     40      23.0515      0.00000
     41      23.3767      0.00000
     42      23.5796      0.00000

 k-point    95 :      -0.1364    0.2273    0.0000
  band No.  band energies     occupation 
      1      -7.6842      2.00000
      2      -1.2446      0.00000
      3       3.8928      0.00000
      4       4.8247      0.00000
      5       5.0033      0.00000
      6       5.1895      0.00000
      7       5.2437      0.00000
      8       5.7073      0.00000
      9       5.7094      0.00000
     10       6.3928      0.00000
     11       6.3951      0.00000
     12       7.0672      0.00000
     13       7.3285      0.00000
     14       7.6143      0.00000
     15       8.4525      0.00000
     16       8.5550      0.00000
     17       9.7404      0.00000
     18       9.7715      0.00000
     19      10.9159      0.00000
     20      11.2874      0.00000
     21      12.0755      0.00000
     22      12.9814      0.00000
     23      13.5788      0.00000
     24      14.8149      0.00000
     25      15.4081      0.00000
     26      16.4382      0.00000
     27      17.4867      0.00000
     28      17.5100      0.00000
     29      19.4653      0.00000
     30      19.7619      0.00000
     31      21.2154      0.00000
     32      21.8479      0.00000
     33      22.1499      0.00000
     34      22.3198      0.00000
     35      22.9623      0.00000
     36      23.0604      0.00000
     37      23.2696      0.00000
     38      23.3059      0.00000
     39      23.7876      0.00000
     40      23.7885      0.00000
     41      24.4437      0.00000
     42      24.5026      0.00000

 k-point    96 :      -0.0909    0.2273    0.0000
  band No.  band energies     occupation 
      1      -8.2913      2.00000
      2      -2.1223      0.00000
      3       3.0828      0.00000
      4       3.9172      0.00000
      5       4.0924      0.00000
      6       4.2784      0.00000
      7       4.3440      0.00000
      8       4.7970      0.00000
      9       4.8362      0.00000
     10       5.4842      0.00000
     11       5.5609      0.00000
     12       6.4213      0.00000
     13       6.4568      0.00000
     14       7.4974      0.00000
     15       7.5482      0.00000
     16       8.4371      0.00000
     17       8.8715      0.00000
     18       9.2898      0.00000
     19      10.3947      0.00000
     20      10.6018      0.00000
     21      11.9935      0.00000
     22      12.1055      0.00000
     23      13.0227      0.00000
     24      13.9970      0.00000
     25      14.5583      0.00000
     26      16.0197      0.00000
     27      16.5836      0.00000
     28      17.7226      0.00000
     29      18.8363      0.00000
     30      18.8456      0.00000
     31      21.0320      0.00000
     32      21.2943      0.00000
     33      22.9618      0.00000
     34      23.3586      0.00000
     35      23.8435      0.00000
     36      24.0437      0.00000
     37      24.1540      0.00000
     38      24.3228      0.00000
     39      24.3981      0.00000
     40      24.6063      0.00000
     41      24.8796      0.00000
     42      24.9502      0.00000

 k-point    97 :      -0.0455    0.2273    0.0000
  band No.  band energies     occupation 
      1      -8.7785      2.00000
      2      -2.8279      0.00000
      3       2.4188      0.00000
      4       3.1905      0.00000
      5       3.3635      0.00000
      6       3.5495      0.00000
      7       3.6212      0.00000
      8       4.0685      0.00000
      9       4.1263      0.00000
     10       4.7568      0.00000
     11       4.8607      0.00000
     12       5.6947      0.00000
     13       5.7843      0.00000
     14       6.8232      0.00000
     15       6.8956      0.00000
     16       8.1487      0.00000
     17       8.1571      0.00000
     18       9.3581      0.00000
     19       9.6752      0.00000
     20      10.3415      0.00000
     21      11.3923      0.00000
     22      11.7842      0.00000
     23      13.2989      0.00000
     24      13.4159      0.00000
     25      14.0687      0.00000
     26      15.3774      0.00000
     27      15.8358      0.00000
     28      17.5741      0.00000
     29      18.0867      0.00000
     30      19.1995      0.00000
     31      20.5003      0.00000
     32      20.5288      0.00000
     33      22.9652      0.00000
     34      23.0128      0.00000
     35      24.1873      0.00000
     36      24.5674      0.00000
     37      25.1578      0.00000
     38      25.4294      0.00000
     39      25.5624      0.00000
     40      25.6686      0.00000
     41      25.7968      0.00000
     42      26.1734      0.00000

 k-point    98 :       0.0000    0.2727    0.0000
  band No.  band energies     occupation 
      1      -8.4814      2.00000
      2      -2.3873      0.00000
      3       2.8204      0.00000
      4       3.6444      0.00000
      5       3.8186      0.00000
      6       4.0048      0.00000
      7       4.0709      0.00000
      8       4.5235      0.00000
      9       4.5642      0.00000
     10       5.2111      0.00000
     11       5.2889      0.00000
     12       6.1485      0.00000
     13       6.1853      0.00000
     14       7.2351      0.00000
     15       7.2759      0.00000
     16       8.2871      0.00000
     17       8.5999      0.00000
     18       9.2506      0.00000
     19      10.1242      0.00000
     20      10.5632      0.00000
     21      11.8368      0.00000
     22      12.2200      0.00000
     23      13.7322      0.00000
     24      13.7630      0.00000
     25      14.1065      0.00000
     26      15.7665      0.00000
     27      16.2020      0.00000
     28      17.5095      0.00000
     29      18.4731      0.00000
     30      18.5671      0.00000
     31      20.7729      0.00000
     32      20.8882      0.00000
     33      22.6553      0.00000
     34      23.1680      0.00000
     35      23.2862      0.00000
     36      23.7793      0.00000
     37      23.8789      0.00000
     38      24.0789      0.00000
     39      24.1149      0.00000
     40      24.5180      0.00000
     41      24.5887      0.00000
     42      24.6978      0.00000

 k-point    99 :      -0.4545    0.2727    0.0000
  band No.  band energies     occupation 
      1      -4.2515      0.11199
      2       1.4537      0.00000
      3       3.7049      0.00000
      4       6.5779      0.00000
      5       9.8848      0.00000
      6       9.9397      0.00000
      7      10.4064      0.00000
      8      10.5230      0.00000
      9      10.6954      0.00000
     10      10.9170      0.00000
     11      11.2478      0.00000
     12      11.3635      0.00000
     13      11.9918      0.00000
     14      12.0012      0.00000
     15      12.8662      0.00000
     16      12.9417      0.00000
     17      13.6656      0.00000
     18      13.9660      0.00000
     19      14.0765      0.00000
     20      15.2686      0.00000
     21      15.4059      0.00000
     22      16.7648      0.00000
     23      16.8838      0.00000
     24      17.1848      0.00000
     25      17.6853      0.00000
     26      18.1123      0.00000
     27      18.3497      0.00000
     28      18.4182      0.00000
     29      18.4203      0.00000
     30      18.4990      0.00000
     31      18.6368      0.00000
     32      18.6409      0.00000
     33      18.6472      0.00000
     34      18.6594      0.00000
     35      18.7861      0.00000
     36      19.1121      0.00000
     37      19.1396      0.00000
     38      19.1770      0.00000
     39      19.2505      0.00000
     40      19.7606      0.00000
     41      19.8727      0.00000
     42      19.8952      0.00000

 k-point   100 :      -0.4091    0.2727    0.0000
  band No.  band energies     occupation 
      1      -3.2874      0.00000
      2       0.2400      0.00000
      3       5.0104      0.00000
      4       6.5253      0.00000
      5       9.8589      0.00000
      6      11.3939      0.00000
      7      12.0162      0.00000
      8      12.1379      0.00000
      9      12.3223      0.00000
     10      12.4088      0.00000
     11      12.6722      0.00000
     12      12.9340      0.00000
     13      12.9372      0.00000
     14      13.5972      0.00000
     15      13.6699      0.00000
     16      14.5174      0.00000
     17      14.5824      0.00000
     18      15.1974      0.00000
     19      15.6208      0.00000
     20      15.7948      0.00000
     21      16.0135      0.00000
     22      16.1393      0.00000
     23      16.3338      0.00000
     24      16.3944      0.00000
     25      16.8228      0.00000
     26      16.8687      0.00000
     27      16.9804      0.00000
     28      16.9858      0.00000
     29      17.3174      0.00000
     30      17.5456      0.00000
     31      17.6997      0.00000
     32      17.9892      0.00000
     33      18.1446      0.00000
     34      18.3027      0.00000
     35      18.3922      0.00000
     36      18.4530      0.00000
     37      18.5366      0.00000
     38      18.5894      0.00000
     39      18.7342      0.00000
     40      18.8758      0.00000
     41      18.9570      0.00000
     42      19.5053      0.00000

 k-point   101 :      -0.3636    0.2727    0.0000
  band No.  band energies     occupation 
      1      -2.7470      0.00000
      2      -0.3905      0.00000
      3       5.6918      0.00000
      4       6.4988      0.00000
      5       9.2950      0.00000
      6      12.3203      0.00000
      7      12.8447      0.00000
      8      13.4610      0.00000
      9      13.9100      0.00000
     10      13.9765      0.00000
     11      14.0403      0.00000
     12      14.0556      0.00000
     13      14.2354      0.00000
     14      14.2743      0.00000
     15      14.2871      0.00000
     16      14.3391      0.00000
     17      14.7463      0.00000
     18      14.7720      0.00000
     19      14.8038      0.00000
     20      14.8917      0.00000
     21      15.4176      0.00000
     22      15.5070      0.00000
     23      15.5217      0.00000
     24      15.6356      0.00000
     25      16.3334      0.00000
     26      16.4352      0.00000
     27      16.4743      0.00000
     28      16.5369      0.00000
     29      17.0840      0.00000
     30      17.4092      0.00000
     31      17.5766      0.00000
     32      17.6299      0.00000
     33      17.8305      0.00000
     34      17.9305      0.00000
     35      18.0539      0.00000
     36      18.2447      0.00000
     37      18.3111      0.00000
     38      18.6848      0.00000
     39      18.7899      0.00000
     40      18.8553      0.00000
     41      18.9242      0.00000
     42      18.9826      0.00000

 k-point   102 :      -0.3182    0.2727    0.0000
  band No.  band energies     occupation 
      1      -3.2909      0.00000
      2       0.2411      0.00000
      3       5.0019      0.00000
      4       6.5261      0.00000
      5       9.8650      0.00000
      6      11.3826      0.00000
      7      12.0059      0.00000
      8      12.1255      0.00000
      9      12.3112      0.00000
     10      12.3965      0.00000
     11      12.6676      0.00000
     12      12.9219      0.00000
     13      12.9272      0.00000
     14      13.5853      0.00000
     15      13.6580      0.00000
     16      14.5054      0.00000
     17      14.5720      0.00000
     18      15.2072      0.00000
     19      15.6099      0.00000
     20      15.7849      0.00000
     21      16.0267      0.00000
     22      16.1540      0.00000
     23      16.3482      0.00000
     24      16.4088      0.00000
     25      16.8313      0.00000
     26      16.8813      0.00000
     27      16.9723      0.00000
     28      16.9810      0.00000
     29      17.3157      0.00000
     30      17.5587      0.00000
     31      17.7112      0.00000
     32      17.9868      0.00000
     33      18.1414      0.00000
     34      18.3002      0.00000
     35      18.3890      0.00000
     36      18.4528      0.00000
     37      18.5425      0.00000
     38      18.5917      0.00000
     39      18.7309      0.00000
     40      18.8725      0.00000
     41      18.9542      0.00000
     42      19.5065      0.00000

 k-point   103 :      -0.2727    0.2727    0.0000
  band No.  band energies     occupation 
      1      -4.2560      0.14406
      2       1.4529      0.00000
      3       3.6950      0.00000
      4       6.5794      0.00000
      5       9.8753      0.00000
      6       9.9319      0.00000
      7      10.3953      0.00000
      8      10.5126      0.00000
      9      10.6844      0.00000
     10      10.9086      0.00000
     11      11.2369      0.00000
     12      11.3563      0.00000
     13      11.9810      0.00000
     14      11.9929      0.00000
     15      12.8563      0.00000
     16      12.9309      0.00000
     17      13.6690      0.00000
     18      13.9556      0.00000
     19      14.0657      0.00000
     20      15.2579      0.00000
     21      15.3952      0.00000
     22      16.7542      0.00000
     23      16.8744      0.00000
     24      17.1890      0.00000
     25      17.6878      0.00000
     26      18.1134      0.00000
     27      18.3544      0.00000
     28      18.4126      0.00000
     29      18.4352      0.00000
     30      18.4960      0.00000
     31      18.6333      0.00000
     32      18.6357      0.00000
     33      18.6578      0.00000
     34      18.6662      0.00000
     35      18.7832      0.00000
     36      19.1146      0.00000
     37      19.1433      0.00000
     38      19.1834      0.00000
     39      19.2553      0.00000
     40      19.7637      0.00000
     41      19.8762      0.00000
     42      19.9005      0.00000

 k-point   104 :      -0.2273    0.2727    0.0000
  band No.  band energies     occupation 
      1      -5.2214      2.00000
      2       2.3411      0.00000
      3       2.7586      0.00000
      4       6.5250      0.00000
      5       8.5912      0.00000
      6       8.6698      0.00000
      7       8.8597      0.00000
      8       9.0047      0.00000
      9       9.1867      0.00000
     10       9.5073      0.00000
     11       9.7733      0.00000
     12      10.1571      0.00000
     13      10.5100      0.00000
     14      11.0262      0.00000
     15      11.4594      0.00000
     16      11.9065      0.00000
     17      12.5867      0.00000
     18      12.7084      0.00000
     19      13.8041      0.00000
     20      13.9151      0.00000
     21      15.1359      0.00000
     22      15.4389      0.00000
     23      15.5835      0.00000
     24      16.9887      0.00000
     25      17.1263      0.00000
     26      17.8813      0.00000
     27      18.6765      0.00000
     28      18.8669      0.00000
     29      18.8953      0.00000
     30      19.0562      0.00000
     31      19.0841      0.00000
     32      19.1434      0.00000
     33      19.5909      0.00000
     34      19.5926      0.00000
     35      19.8644      0.00000
     36      20.2589      0.00000
     37      20.3744      0.00000
     38      20.7095      0.00000
     39      20.9001      0.00000
     40      20.9594      0.00000
     41      21.1291      0.00000
     42      21.1320      0.00000

 k-point   105 :      -0.1818    0.2727    0.0000
  band No.  band energies     occupation 
      1      -6.1015      2.00000
      2       1.0849      0.00000
      3       3.9155      0.00000
      4       6.1375      0.00000
      5       7.2611      0.00000
      6       7.4600      0.00000
      7       7.6454      0.00000
      8       7.6587      0.00000
      9       8.0451      0.00000
     10       8.1579      0.00000
     11       8.6689      0.00000
     12       8.8323      0.00000
     13       9.3772      0.00000
     14       9.7543      0.00000
     15      10.2731      0.00000
     16      10.8424      0.00000
     17      11.3418      0.00000
     18      12.0550      0.00000
     19      12.6297      0.00000
     20      13.1054      0.00000
     21      14.0756      0.00000
     22      14.1360      0.00000
     23      15.6000      0.00000
     24      15.8448      0.00000
     25      17.2774      0.00000
     26      17.7122      0.00000
     27      18.0094      0.00000
     28      18.5237      0.00000
     29      19.3963      0.00000
     30      19.5048      0.00000
     31      19.6483      0.00000
     32      19.7390      0.00000
     33      19.7413      0.00000
     34      19.9067      0.00000
     35      20.2395      0.00000
     36      20.2779      0.00000
     37      20.9278      0.00000
     38      20.9980      0.00000
     39      21.7778      0.00000
     40      21.8998      0.00000
     41      21.9981      0.00000
     42      22.1166      0.00000

 k-point   106 :      -0.1364    0.2727    0.0000
  band No.  band energies     occupation 
      1      -6.8730      2.00000
      2      -0.0296      0.00000
      3       4.4394      0.00000
      4       5.7926      0.00000
      5       6.0907      0.00000
      6       6.2858      0.00000
      7       6.4633      0.00000
      8       6.5541      0.00000
      9       6.9791      0.00000
     10       7.0544      0.00000
     11       7.6605      0.00000
     12       7.7583      0.00000
     13       8.5918      0.00000
     14       8.6183      0.00000
     15       9.5974      0.00000
     16       9.7061      0.00000
     17      10.5716      0.00000
     18      11.0050      0.00000
     19      11.6426      0.00000
     20      12.4606      0.00000
     21      13.0397      0.00000
     22      13.8031      0.00000
     23      14.7115      0.00000
     24      14.7308      0.00000
     25      16.3560      0.00000
     26      16.5961      0.00000
     27      18.3427      0.00000
     28      18.6493      0.00000
     29      19.3334      0.00000
     30      19.8907      0.00000
     31      20.3252      0.00000
     32      20.3819      0.00000
     33      20.5728      0.00000
     34      20.6103      0.00000
     35      20.9680      0.00000
     36      21.0175      0.00000
     37      21.1313      0.00000
     38      21.1449      0.00000
     39      21.7884      0.00000
     40      21.8192      0.00000
     41      22.6991      0.00000
     42      22.7396      0.00000

 k-point   107 :      -0.0909    0.2727    0.0000
  band No.  band energies     occupation 
      1      -7.5283      2.00000
      2      -0.9847      0.00000
      3       3.9965      0.00000
      4       5.0955      0.00000
      5       5.2711      0.00000
      6       5.4619      0.00000
      7       5.4725      0.00000
      8       5.8402      0.00000
      9       5.9793      0.00000
     10       6.3855      0.00000
     11       6.6640      0.00000
     12       7.0040      0.00000
     13       7.5987      0.00000
     14       7.8640      0.00000
     15       8.7208      0.00000
     16       8.9327      0.00000
     17      10.0361      0.00000
     18      10.1849      0.00000
     19      11.4156      0.00000
     20      11.5430      0.00000
     21      12.3480      0.00000
     22      13.2037      0.00000
     23      13.7713      0.00000
     24      14.7671      0.00000
     25      15.6114      0.00000
     26      15.7160      0.00000
     27      17.4651      0.00000
     28      17.6921      0.00000
     29      19.6590      0.00000
     30      19.9020      0.00000
     31      20.3078      0.00000
     32      21.1197      0.00000
     33      21.3275      0.00000
     34      21.4949      0.00000
     35      21.5759      0.00000
     36      21.9213      0.00000
     37      22.0622      0.00000
     38      22.1840      0.00000
     39      22.4116      0.00000
     40      22.7355      0.00000
     41      22.8069      0.00000
     42      23.4314      0.00000

 k-point   108 :      -0.0455    0.2727    0.0000
  band No.  band energies     occupation 
      1      -8.0647      2.00000
      2      -1.7720      0.00000
      3       3.3639      0.00000
      4       4.2796      0.00000
      5       4.4554      0.00000
      6       4.6423      0.00000
      7       4.6968      0.00000
      8       5.1605      0.00000
      9       5.1643      0.00000
     10       5.8470      0.00000
     11       5.8591      0.00000
     12       6.6576      0.00000
     13       6.7834      0.00000
     14       7.4917      0.00000
     15       7.9090      0.00000
     16       8.3899      0.00000
     17       9.2302      0.00000
     18       9.5897      0.00000
     19      10.7496      0.00000
     20      11.0559      0.00000
     21      12.4511      0.00000
     22      12.6081      0.00000
     23      13.2573      0.00000
     24      14.3068      0.00000
     25      14.7794      0.00000
     26      16.0126      0.00000
     27      16.8505      0.00000
     28      16.9869      0.00000
     29      18.9398      0.00000
     30      19.1128      0.00000
     31      21.3148      0.00000
     32      21.3269      0.00000
     33      21.5442      0.00000
     34      22.3535      0.00000
     35      22.5119      0.00000
     36      22.6984      0.00000
     37      22.7546      0.00000
     38      23.2029      0.00000
     39      23.2306      0.00000
     40      23.6435      0.00000
     41      23.7837      0.00000
     42      23.9760      0.00000

 k-point   109 :       0.0000    0.3182    0.0000
  band No.  band energies     occupation 
      1      -7.7238      2.00000
      2      -1.2479      0.00000
      3       3.7275      0.00000
      4       4.8230      0.00000
      5       4.9978      0.00000
      6       5.1884      0.00000
      7       5.2049      0.00000
      8       5.5928      0.00000
      9       5.7059      0.00000
     10       6.1847      0.00000
     11       6.3912      0.00000
     12       6.8391      0.00000
     13       7.3263      0.00000
     14       7.7061      0.00000
     15       8.4493      0.00000
     16       8.7829      0.00000
     17       9.7658      0.00000
     18      10.0894      0.00000
     19      11.2751      0.00000
     20      11.6090      0.00000
     21      12.9418      0.00000
     22      13.0921      0.00000
     23      13.3293      0.00000
     24      14.5277      0.00000
     25      15.2359      0.00000
     26      15.4518      0.00000
     27      17.1940      0.00000
     28      17.3322      0.00000
     29      19.4067      0.00000
     30      19.5742      0.00000
     31      19.9201      0.00000
     32      20.8755      0.00000
     33      21.0528      0.00000
     34      21.2331      0.00000
     35      21.2963      0.00000
     36      21.7007      0.00000
     37      21.7735      0.00000
     38      21.9052      0.00000
     39      21.9372      0.00000
     40      22.4789      0.00000
     41      22.5018      0.00000
     42      23.3540      0.00000

 k-point   110 :      -0.3636    0.3182    0.0000
  band No.  band energies     occupation 
      1      -2.2315      0.00000
      2      -0.9037      0.00000
      3       5.9264      0.00000
      4       6.3446      0.00000
      5      10.0530      0.00000
      6      11.2026      0.00000
      7      13.0386      0.00000
      8      13.8316      0.00000
      9      13.9618      0.00000
     10      14.1591      0.00000
     11      14.2151      0.00000
     12      14.6762      0.00000
     13      14.6922      0.00000
     14      14.7415      0.00000
     15      15.2204      0.00000
     16      15.3385      0.00000
     17      15.5803      0.00000
     18      15.7275      0.00000
     19      15.8840      0.00000
     20      15.9525      0.00000
     21      15.9586      0.00000
     22      16.1126      0.00000
     23      16.1813      0.00000
     24      16.1953      0.00000
     25      16.2233      0.00000
     26      16.3335      0.00000
     27      16.4417      0.00000
     28      16.6449      0.00000
     29      16.6783      0.00000
     30      16.7112      0.00000
     31      16.8112      0.00000
     32      17.2599      0.00000
     33      17.4127      0.00000
     34      17.4295      0.00000
     35      17.4506      0.00000
     36      17.5073      0.00000
     37      17.6882      0.00000
     38      18.2277      0.00000
     39      18.3397      0.00000
     40      18.3822      0.00000
     41      18.4893      0.00000
     42      18.7930      0.00000

 k-point   111 :      -0.3182    0.3182    0.0000
  band No.  band energies     occupation 
      1      -2.2351      0.00000
      2      -0.9019      0.00000
      3       5.9212      0.00000
      4       6.3459      0.00000
      5      10.0513      0.00000
      6      11.2088      0.00000
      7      13.0250      0.00000
      8      13.8169      0.00000
      9      13.9467      0.00000
     10      14.1441      0.00000
     11      14.2002      0.00000
     12      14.6614      0.00000
     13      14.6787      0.00000
     14      14.7486      0.00000
     15      15.2185      0.00000
     16      15.3255      0.00000
     17      15.5718      0.00000
     18      15.7313      0.00000
     19      15.8918      0.00000
     20      15.9535      0.00000
     21      15.9725      0.00000
     22      16.1178      0.00000
     23      16.1896      0.00000
     24      16.2002      0.00000
     25      16.2310      0.00000
     26      16.3221      0.00000
     27      16.4315      0.00000
     28      16.6500      0.00000
     29      16.6853      0.00000
     30      16.7197      0.00000
     31      16.8170      0.00000
     32      17.2620      0.00000
     33      17.4186      0.00000
     34      17.4368      0.00000
     35      17.4499      0.00000
     36      17.4984      0.00000
     37      17.6838      0.00000
     38      18.2331      0.00000
     39      18.3466      0.00000
     40      18.3900      0.00000
     41      18.4945      0.00000
     42      18.7807      0.00000

 k-point   112 :      -0.2727    0.3182    0.0000
  band No.  band energies     occupation 
      1      -3.2923      0.00000
      2       0.2394      0.00000
      3       4.9999      0.00000
      4       6.5292      0.00000
      5       9.8560      0.00000
      6      11.3813      0.00000
      7      12.0038      0.00000
      8      12.1242      0.00000
      9      12.3099      0.00000
     10      12.3952      0.00000
     11      12.6737      0.00000
     12      12.9205      0.00000
     13      12.9299      0.00000
     14      13.5848      0.00000
     15      13.6565      0.00000
     16      14.5043      0.00000
     17      14.5696      0.00000
     18      15.1918      0.00000
     19      15.6082      0.00000
     20      15.7827      0.00000
     21      16.0085      0.00000
     22      16.1346      0.00000
     23      16.3291      0.00000
     24      16.3899      0.00000
     25      16.8167      0.00000
     26      16.8662      0.00000
     27      16.9747      0.00000
     28      16.9783      0.00000
     29      17.3187      0.00000
     30      17.5412      0.00000
     31      17.6962      0.00000
     32      18.0036      0.00000
     33      18.1626      0.00000
     34      18.3135      0.00000
     35      18.4092      0.00000
     36      18.4546      0.00000
     37      18.5293      0.00000
     38      18.5806      0.00000
     39      18.7316      0.00000
     40      18.8924      0.00000
     41      18.9687      0.00000
     42      19.5146      0.00000

 k-point   113 :      -0.2273    0.3182    0.0000
  band No.  band energies     occupation 
      1      -4.2998      0.82352
      2       1.3785      0.00000
      3       3.7495      0.00000
      4       6.8608      0.00000
      5       9.7257      0.00000
      6       9.9544      0.00000
      7      10.4850      0.00000
      8      10.5268      0.00000
      9      10.7724      0.00000
     10      10.7839      0.00000
     11      11.2617      0.00000
     12      11.3216      0.00000
     13      11.9406      0.00000
     14      12.0635      0.00000
     15      12.8457      0.00000
     16      13.0086      0.00000
     17      13.9054      0.00000
     18      14.1325      0.00000
     19      14.7129      0.00000
     20      15.3353      0.00000
     21      15.4567      0.00000
     22      15.7418      0.00000
     23      16.3943      0.00000
     24      16.4980      0.00000
     25      16.6988      0.00000
     26      16.7498      0.00000
     27      16.8892      0.00000
     28      17.0384      0.00000
     29      17.2323      0.00000
     30      17.3006      0.00000
     31      17.9168      0.00000
     32      18.0073      0.00000
     33      18.5560      0.00000
     34      18.7394      0.00000
     35      18.8849      0.00000
     36      18.9542      0.00000
     37      19.4889      0.00000
     38      19.9413      0.00000
     39      20.1059      0.00000
     40      20.3564      0.00000
     41      20.5350      0.00000
     42      20.5462      0.00000

 k-point   114 :      -0.1818    0.3182    0.0000
  band No.  band energies     occupation 
      1      -5.2095      2.00000
      2       2.4051      0.00000
      3       2.4895      0.00000
      4       7.1026      0.00000
      5       8.7337      0.00000
      6       8.8967      0.00000
      7       9.0473      0.00000
      8       9.1764      0.00000
      9       9.3752      0.00000
     10       9.6596      0.00000
     11       9.9546      0.00000
     12      10.2383      0.00000
     13      10.6826      0.00000
     14      10.8610      0.00000
     15      11.5426      0.00000
     16      11.6239      0.00000
     17      12.5753      0.00000
     18      12.7455      0.00000
     19      13.8500      0.00000
     20      14.0657      0.00000
     21      15.3062      0.00000
     22      15.5328      0.00000
     23      16.1776      0.00000
     24      16.5497      0.00000
     25      17.0430      0.00000
     26      17.0504      0.00000
     27      17.2656      0.00000
     28      17.2686      0.00000
     29      17.4022      0.00000
     30      17.5493      0.00000
     31      17.8338      0.00000
     32      17.8403      0.00000
     33      18.5059      0.00000
     34      18.5520      0.00000
     35      19.0960      0.00000
     36      19.2557      0.00000
     37      19.4384      0.00000
     38      19.5480      0.00000
     39      20.5375      0.00000
     40      20.6319      0.00000
     41      21.1571      0.00000
     42      21.3921      0.00000

 k-point   115 :      -0.1364    0.3182    0.0000
  band No.  band energies     occupation 
      1      -6.0100      2.00000
      2       1.3292      0.00000
      3       3.2477      0.00000
      4       6.7069      0.00000
      5       7.5216      0.00000
      6       7.7387      0.00000
      7       7.9149      0.00000
      8       7.9737      0.00000
      9       8.4160      0.00000
     10       8.4240      0.00000
     11       9.0619      0.00000
     12       9.0892      0.00000
     13       9.7538      0.00000
     14       9.9895      0.00000
     15      10.5685      0.00000
     16      10.9693      0.00000
     17      11.5875      0.00000
     18      11.7482      0.00000
     19      12.7124      0.00000
     20      12.8625      0.00000
     21      14.1351      0.00000
     22      14.3628      0.00000
     23      15.7976      0.00000
     24      16.0354      0.00000
     25      16.8474      0.00000
     26      17.4319      0.00000
     27      17.7712      0.00000
     28      17.7779      0.00000
     29      17.9731      0.00000
     30      17.9860      0.00000
     31      18.0870      0.00000
     32      18.4732      0.00000
     33      18.5523      0.00000
     34      19.0799      0.00000
     35      19.2762      0.00000
     36      19.5788      0.00000
     37      20.0766      0.00000
     38      20.1456      0.00000
     39      20.2926      0.00000
     40      20.4190      0.00000
     41      21.3289      0.00000
     42      21.3594      0.00000

 k-point   116 :      -0.0909    0.3182    0.0000
  band No.  band energies     occupation 
      1      -6.6967      2.00000
      2       0.3093      0.00000
      3       3.8332      0.00000
      4       6.0443      0.00000
      5       6.4484      0.00000
      6       6.6505      0.00000
      7       6.8257      0.00000
      8       6.9261      0.00000
      9       7.3401      0.00000
     10       7.4519      0.00000
     11       8.0182      0.00000
     12       8.1796      0.00000
     13       8.9447      0.00000
     14       9.0897      0.00000
     15      10.0446      0.00000
     16      10.1417      0.00000
     17      11.1177      0.00000
     18      11.2900      0.00000
     19      11.9702      0.00000
     20      12.3996      0.00000
     21      13.2682      0.00000
     22      13.3263      0.00000
     23      14.7890      0.00000
     24      15.0040      0.00000
     25      16.6395      0.00000
     26      16.8699      0.00000
     27      17.6960      0.00000
     28      18.4157      0.00000
     29      18.6830      0.00000
     30      18.7467      0.00000
     31      18.9167      0.00000
     32      18.9190      0.00000
     33      19.0395      0.00000
     34      19.4002      0.00000
     35      19.4491      0.00000
     36      20.0617      0.00000
     37      20.1763      0.00000
     38      20.8258      0.00000
     39      21.0885      0.00000
     40      21.1677      0.00000
     41      21.3055      0.00000
     42      22.0892      0.00000

 k-point   117 :      -0.0455    0.3182    0.0000
  band No.  band energies     occupation 
      1      -7.2680      2.00000
      2      -0.5526      0.00000
      3       3.9952      0.00000
      4       5.5467      0.00000
      5       5.6133      0.00000
      6       5.7610      0.00000
      7       5.9163      0.00000
      8       6.0811      0.00000
      9       6.4328      0.00000
     10       6.6448      0.00000
     11       7.1157      0.00000
     12       7.3663      0.00000
     13       8.0484      0.00000
     14       8.3007      0.00000
     15       9.1655      0.00000
     16       9.4203      0.00000
     17      10.4697      0.00000
     18      10.7334      0.00000
     19      11.9389      0.00000
     20      12.0982      0.00000
     21      12.6630      0.00000
     22      13.3245      0.00000
     23      14.0915      0.00000
     24      14.2000      0.00000
     25      15.8130      0.00000
     26      15.9731      0.00000
     27      17.8403      0.00000
     28      18.0470      0.00000
     29      18.7081      0.00000
     30      19.5688      0.00000
     31      19.7768      0.00000
     32      19.9331      0.00000
     33      20.0240      0.00000
     34      20.1575      0.00000
     35      20.3188      0.00000
     36      20.5128      0.00000
     37      20.5190      0.00000
     38      21.1782      0.00000
     39      21.2462      0.00000
     40      22.0651      0.00000
     41      22.1581      0.00000
     42      22.5786      0.00000

 k-point   118 :       0.0000    0.3636    0.0000
  band No.  band energies     occupation 
      1      -6.9028      2.00000
      2       0.0486      0.00000
      3       3.6963      0.00000
      4       5.9184      0.00000
      5       6.1767      0.00000
      6       6.3798      0.00000
      7       6.5523      0.00000
      8       6.6711      0.00000
      9       7.0671      0.00000
     10       7.2230      0.00000
     11       7.7461      0.00000
     12       7.9642      0.00000
     13       8.6735      0.00000
     14       8.9128      0.00000
     15       9.7756      0.00000
     16      10.0497      0.00000
     17      11.0267      0.00000
     18      11.3891      0.00000
     19      12.1483      0.00000
     20      12.5574      0.00000
     21      12.9234      0.00000
     22      12.9970      0.00000
     23      14.5165      0.00000
     24      14.6484      0.00000
     25      16.3736      0.00000
     26      16.5453      0.00000
     27      17.3378      0.00000
     28      18.1660      0.00000
     29      18.4087      0.00000
     30      18.4806      0.00000
     31      18.6349      0.00000
     32      18.6428      0.00000
     33      18.6733      0.00000
     34      19.1297      0.00000
     35      19.1496      0.00000
     36      19.8021      0.00000
     37      19.8796      0.00000
     38      20.6132      0.00000
     39      20.7899      0.00000
     40      20.8529      0.00000
     41      20.8980      0.00000
     42      21.8804      0.00000

 k-point   119 :      -0.2727    0.3636    0.0000
  band No.  band energies     occupation 
      1      -2.7509      0.00000
      2      -0.3914      0.00000
      3       5.6849      0.00000
      4       6.5032      0.00000
      5       9.2866      0.00000
      6      12.3321      0.00000
      7      12.8355      0.00000
      8      13.4519      0.00000
      9      13.9029      0.00000
     10      13.9662      0.00000
     11      14.0347      0.00000
     12      14.0419      0.00000
     13      14.2273      0.00000
     14      14.2635      0.00000
     15      14.2783      0.00000
     16      14.3287      0.00000
     17      14.7378      0.00000
     18      14.7627      0.00000
     19      14.7933      0.00000
     20      14.8820      0.00000
     21      15.4088      0.00000
     22      15.4977      0.00000
     23      15.5117      0.00000
     24      15.6263      0.00000
     25      16.3245      0.00000
     26      16.4259      0.00000
     27      16.4644      0.00000
     28      16.5311      0.00000
     29      17.0955      0.00000
     30      17.4018      0.00000
     31      17.5672      0.00000
     32      17.6201      0.00000
     33      17.8244      0.00000
     34      17.9476      0.00000
     35      18.0735      0.00000
     36      18.2635      0.00000
     37      18.3302      0.00000
     38      18.6894      0.00000
     39      18.8070      0.00000
     40      18.8631      0.00000
     41      18.9147      0.00000
     42      18.9728      0.00000

 k-point   120 :      -0.2273    0.3636    0.0000
  band No.  band energies     occupation 
      1      -3.5934      0.00000
      2       0.4337      0.00000
      3       4.9539      0.00000
      4       6.9573      0.00000
      5       8.7674      0.00000
      6      11.4980      0.00000
      7      12.1238      0.00000
      8      12.3040      0.00000
      9      12.4823      0.00000
     10      12.5641      0.00000
     11      12.9823      0.00000
     12      13.0411      0.00000
     13      13.4682      0.00000
     14      13.5718      0.00000
     15      13.9087      0.00000
     16      14.0237      0.00000
     17      14.3107      0.00000
     18      14.3861      0.00000
     19      14.5663      0.00000
     20      14.5947      0.00000
     21      14.8042      0.00000
     22      14.8544      0.00000
     23      15.1036      0.00000
     24      15.1198      0.00000
     25      15.7696      0.00000
     26      15.7910      0.00000
     27      15.8647      0.00000
     28      16.0104      0.00000
     29      16.6868      0.00000
     30      16.7808      0.00000
     31      17.1571      0.00000
     32      17.3093      0.00000
     33      17.8163      0.00000
     34      17.9363      0.00000
     35      18.6508      0.00000
     36      18.8026      0.00000
     37      19.1461      0.00000
     38      19.1527      0.00000
     39      19.4684      0.00000
     40      20.1370      0.00000
     41      20.3529      0.00000
     42      20.3890      0.00000

 k-point   121 :      -0.1818    0.3636    0.0000
  band No.  band energies     occupation 
      1      -4.4260      1.99918
      2       1.2298      0.00000
      3       3.8962      0.00000
      4       7.6163      0.00000
      5       8.7629      0.00000
      6      10.1864      0.00000
      7      10.6475      0.00000
      8      10.7565      0.00000
      9      10.9567      0.00000
     10      11.0378      0.00000
     11      11.4746      0.00000
     12      11.5745      0.00000
     13      12.1606      0.00000
     14      12.3065      0.00000
     15      13.0809      0.00000
     16      13.2094      0.00000
     17      13.8994      0.00000
     18      14.1405      0.00000
     19      14.4854      0.00000
     20      14.6024      0.00000
     21      14.7673      0.00000
     22      14.9382      0.00000
     23      15.0338      0.00000
     24      15.3687      0.00000
     25      15.5203      0.00000
     26      15.5847      0.00000
     27      15.8074      0.00000
     28      16.1230      0.00000
     29      16.3119      0.00000
     30      16.6860      0.00000
     31      17.1628      0.00000
     32      17.2079      0.00000
     33      17.4157      0.00000
     34      17.4472      0.00000
     35      18.3207      0.00000
     36      18.3819      0.00000
     37      18.8999      0.00000
     38      19.0735      0.00000
     39      19.6224      0.00000
     40      19.7515      0.00000
     41      20.7433      0.00000
     42      20.9542      0.00000

 k-point   122 :      -0.1364    0.3636    0.0000
  band No.  band energies     occupation 
      1      -5.1885      2.00000
      2       1.9479      0.00000
      3       2.7761      0.00000
      4       7.9505      0.00000
      5       8.7881      0.00000
      6       9.3435      0.00000
      7       9.4505      0.00000
      8       9.4507      0.00000
      9       9.7074      0.00000
     10       9.7646      0.00000
     11      10.1683      0.00000
     12      10.3176      0.00000
     13      10.8451      0.00000
     14      11.0232      0.00000
     15      11.7595      0.00000
     16      11.9470      0.00000
     17      12.8712      0.00000
     18      13.0522      0.00000
     19      14.1648      0.00000
     20      14.2444      0.00000
     21      14.6957      0.00000
     22      15.1970      0.00000
     23      15.4025      0.00000
     24      15.5539      0.00000
     25      15.6558      0.00000
     26      15.7403      0.00000
     27      15.9523      0.00000
     28      16.1221      0.00000
     29      16.2231      0.00000
     30      16.7723      0.00000
     31      16.9248      0.00000
     32      17.3625      0.00000
     33      17.6600      0.00000
     34      17.7764      0.00000
     35      17.9332      0.00000
     36      18.7175      0.00000
     37      19.0032      0.00000
     38      19.2537      0.00000
     39      19.6422      0.00000
     40      19.8643      0.00000
     41      20.3730      0.00000
     42      20.3810      0.00000

 k-point   123 :      -0.0909    0.3636    0.0000
  band No.  band energies     occupation 
      1      -5.8605      2.00000
      2       1.7301      0.00000
      3       2.5964      0.00000
      4       7.3088      0.00000
      5       7.9366      0.00000
      6       8.1972      0.00000
      7       8.3597      0.00000
      8       8.4533      0.00000
      9       8.8513      0.00000
     10       8.9454      0.00000
     11       9.4517      0.00000
     12       9.6449      0.00000
     13      10.0921      0.00000
     14      10.4060      0.00000
     15      10.7295      0.00000
     16      11.0686      0.00000
     17      11.7541      0.00000
     18      11.9768      0.00000
     19      13.0392      0.00000
     20      13.2438      0.00000
     21      14.5328      0.00000
     22      14.7061      0.00000
     23      15.3384      0.00000
     24      15.9763      0.00000
     25      16.2211      0.00000
     26      16.2769      0.00000
     27      16.4442      0.00000
     28      16.4442      0.00000
     29      16.5537      0.00000
     30      16.9356      0.00000
     31      17.0029      0.00000
     32      17.5960      0.00000
     33      17.7266      0.00000
     34      18.1444      0.00000
     35      18.4079      0.00000
     36      18.5949      0.00000
     37      18.6969      0.00000
     38      19.6361      0.00000
     39      19.8030      0.00000
     40      20.2516      0.00000
     41      20.5228      0.00000
     42      21.0140      0.00000

 k-point   124 :      -0.0455    0.3636    0.0000
  band No.  band energies     occupation 
      1      -6.4332      2.00000
      2       0.8132      0.00000
      3       3.1883      0.00000
      4       6.5213      0.00000
      5       6.9807      0.00000
      6       7.1970      0.00000
      7       7.3687      0.00000
      8       7.4726      0.00000
      9       7.8793      0.00000
     10       8.0053      0.00000
     11       8.5477      0.00000
     12       8.7454      0.00000
     13       9.4534      0.00000
     14       9.6837      0.00000
     15      10.4515      0.00000
     16      10.7979      0.00000
     17      11.2325      0.00000
     18      11.8403      0.00000
     19      12.1651      0.00000
     20      12.3526      0.00000
     21      13.5912      0.00000
     22      13.7614      0.00000
     23      15.2673      0.00000
     24      15.4525      0.00000
     25      16.2215      0.00000
     26      16.9536      0.00000
     27      17.2233      0.00000
     28      17.2389      0.00000
     29      17.3838      0.00000
     30      17.4390      0.00000
     31      17.4900      0.00000
     32      17.9395      0.00000
     33      17.9797      0.00000
     34      18.6072      0.00000
     35      18.7107      0.00000
     36      19.2394      0.00000
     37      19.4675      0.00000
     38      19.6172      0.00000
     39      19.6456      0.00000
     40      20.6730      0.00000
     41      20.7641      0.00000
     42      21.5241      0.00000

 k-point   125 :       0.0000    0.4091    0.0000
  band No.  band energies     occupation 
      1      -6.0855      2.00000
      2       1.4735      0.00000
      3       2.5830      0.00000
      4       7.1796      0.00000
      5       7.6681      0.00000
      6       7.9257      0.00000
      7       8.0869      0.00000
      8       8.1977      0.00000
      9       8.5802      0.00000
     10       8.7271      0.00000
     11       9.1852      0.00000
     12       9.4703      0.00000
     13       9.8305      0.00000
     14      10.4162      0.00000
     15      10.4576      0.00000
     16      11.4803      0.00000
     17      11.5560      0.00000
     18      12.1695      0.00000
     19      12.7670      0.00000
     20      12.8956      0.00000
     21      14.2640      0.00000
     22      14.4080      0.00000
     23      14.9486      0.00000
     24      15.7149      0.00000
     25      15.9469      0.00000
     26      16.0067      0.00000
     27      16.1533      0.00000
     28      16.1703      0.00000
     29      16.2190      0.00000
     30      16.6638      0.00000
     31      16.7023      0.00000
     32      17.3305      0.00000
     33      17.4336      0.00000
     34      17.8874      0.00000
     35      18.0669      0.00000
     36      18.3239      0.00000
     37      18.3652      0.00000
     38      19.3892      0.00000
     39      19.4890      0.00000
     40      20.0137      0.00000
     41      20.1162      0.00000
     42      20.7698      0.00000

 k-point   126 :      -0.1818    0.4091    0.0000
  band No.  band energies     occupation 
      1      -4.0761      0.00000
      2       0.7473      0.00000
      3       4.6975      0.00000
      4       7.7392      0.00000
      5       7.9180      0.00000
      6      11.4722      0.00000
      7      12.2127      0.00000
      8      12.3366      0.00000
      9      12.5963      0.00000
     10      12.6648      0.00000
     11      12.6750      0.00000
     12      12.8211      0.00000
     13      12.8935      0.00000
     14      12.9088      0.00000
     15      12.9757      0.00000
     16      13.3161      0.00000
     17      13.3941      0.00000
     18      13.4234      0.00000
     19      13.5527      0.00000
     20      13.9632      0.00000
     21      14.1294      0.00000
     22      14.1418      0.00000
     23      14.3127      0.00000
     24      14.8622      0.00000
     25      15.0582      0.00000
     26      15.0945      0.00000
     27      15.2897      0.00000
     28      15.8852      0.00000
     29      16.1999      0.00000
     30      16.2503      0.00000
     31      16.4462      0.00000
     32      16.8481      0.00000
     33      17.5481      0.00000
     34      17.6030      0.00000
     35      17.6744      0.00000
     36      17.7988      0.00000
     37      18.9926      0.00000
     38      19.0930      0.00000
     39      19.1542      0.00000
     40      19.3429      0.00000
     41      20.6375      0.00000
     42      20.8353      0.00000

 k-point   127 :      -0.1364    0.4091    0.0000
  band No.  band energies     occupation 
      1      -4.6240      2.00000
      2       1.1251      0.00000
      3       4.0517      0.00000
      4       7.7080      0.00000
      5       8.6829      0.00000
      6      10.5293      0.00000
      7      11.0539      0.00000
      8      11.2088      0.00000
      9      11.3967      0.00000
     10      11.4716      0.00000
     11      11.9121      0.00000
     12      11.9468      0.00000
     13      12.4126      0.00000
     14      12.5796      0.00000
     15      12.8455      0.00000
     16      13.0445      0.00000
     17      13.2155      0.00000
     18      13.3829      0.00000
     19      13.4722      0.00000
     20      13.5615      0.00000
     21      13.7204      0.00000
     22      13.9253      0.00000
     23      14.0383      0.00000
     24      14.5350      0.00000
     25      14.6972      0.00000
     26      14.7407      0.00000
     27      14.9359      0.00000
     28      15.5216      0.00000
     29      15.6961      0.00000
     30      15.9974      0.00000
     31      16.2305      0.00000
     32      16.6679      0.00000
     33      16.8629      0.00000
     34      17.4596      0.00000
     35      17.7501      0.00000
     36      18.0142      0.00000
     37      18.2286      0.00000
     38      18.9435      0.00000
     39      19.4631      0.00000
     40      19.5661      0.00000
     41      19.7924      0.00000
     42      19.9110      0.00000

 k-point   128 :      -0.0909    0.4091    0.0000
  band No.  band energies     occupation 
      1      -5.1648      2.00000
      2       1.5539      0.00000
      3       3.1673      0.00000
      4       7.9995      0.00000
      5       8.8267      0.00000
      6       9.8268      0.00000
      7       9.9232      0.00000
      8      10.1178      0.00000
      9      10.1356      0.00000
     10      10.4034      0.00000
     11      10.6548      0.00000
     12      10.8503      0.00000
     13      11.3444      0.00000
     14      11.5109      0.00000
     15      12.2719      0.00000
     16      12.3906      0.00000
     17      13.0845      0.00000
     18      13.3619      0.00000
     19      13.6545      0.00000
     20      13.7977      0.00000
     21      13.9450      0.00000
     22      14.1280      0.00000
     23      14.2105      0.00000
     24      14.6011      0.00000
     25      14.6987      0.00000
     26      14.7762      0.00000
     27      14.9674      0.00000
     28      15.3460      0.00000
     29      15.4804      0.00000
     30      16.1477      0.00000
     31      16.3425      0.00000
     32      16.3883      0.00000
     33      16.5555      0.00000
     34      17.3824      0.00000
     35      17.5482      0.00000
     36      17.9805      0.00000
     37      18.2154      0.00000
     38      18.7415      0.00000
     39      18.9034      0.00000
     40      19.7979      0.00000
     41      20.1042      0.00000
     42      20.3268      0.00000

 k-point   129 :      -0.0455    0.4091    0.0000
  band No.  band energies     occupation 
      1      -5.6590      2.00000
      2       2.0378      0.00000
      3       2.2722      0.00000
      4       7.9897      0.00000
      5       8.2798      0.00000
      6       8.8363      0.00000
      7       8.9082      0.00000
      8       9.1000      0.00000
      9       9.1655      0.00000
     10       9.6135      0.00000
     11       9.6211      0.00000
     12      10.2973      0.00000
     13      10.3444      0.00000
     14      11.2130      0.00000
     15      11.2164      0.00000
     16      11.6812      0.00000
     17      12.3282      0.00000
     18      12.4883      0.00000
     19      13.6300      0.00000
     20      13.6981      0.00000
     21      14.0347      0.00000
     22      14.6679      0.00000
     23      14.8537      0.00000
     24      15.0158      0.00000
     25      15.1060      0.00000
     26      15.2014      0.00000
     27      15.3611      0.00000
     28      15.5774      0.00000
     29      15.6338      0.00000
     30      16.2434      0.00000
     31      16.3561      0.00000
     32      16.8632      0.00000
     33      17.0755      0.00000
     34      17.2349      0.00000
     35      17.3097      0.00000
     36      18.2885      0.00000
     37      18.4233      0.00000
     38      18.8285      0.00000
     39      18.9863      0.00000
     40      19.6615      0.00000
     41      19.7559      0.00000
     42      20.8183      0.00000

 k-point   130 :       0.0000    0.4545    0.0000
  band No.  band energies     occupation 
      1      -5.4157      2.00000
      2       1.5997      0.00000
      3       2.9184      0.00000
      4       7.7396      0.00000
      5       8.7869      0.00000
      6       9.5531      0.00000
      7       9.6568      0.00000
      8       9.8618      0.00000
      9       9.9200      0.00000
     10      10.3812      0.00000
     11      10.4347      0.00000
     12      11.0715      0.00000
     13      11.1725      0.00000
     14      11.9346      0.00000
     15      12.0001      0.00000
     16      12.0951      0.00000
     17      12.6979      0.00000
     18      13.0935      0.00000
     19      13.2871      0.00000
     20      13.5258      0.00000
     21      13.6686      0.00000
     22      13.8553      0.00000
     23      13.9256      0.00000
     24      14.3321      0.00000
     25      14.4184      0.00000
     26      14.5039      0.00000
     27      14.6249      0.00000
     28      15.0748      0.00000
     29      15.1726      0.00000
     30      15.8859      0.00000
     31      16.0688      0.00000
     32      16.1144      0.00000
     33      16.1836      0.00000
     34      17.1199      0.00000
     35      17.2376      0.00000
     36      17.7199      0.00000
     37      17.8649      0.00000
     38      18.4806      0.00000
     39      18.5703      0.00000
     40      19.5746      0.00000
     41      19.7335      0.00000
     42      20.0764      0.00000

 k-point   131 :      -0.0909    0.4545    0.0000
  band No.  band energies     occupation 
      1      -4.8733      2.00000
      2       1.1388      0.00000
      3       4.0059      0.00000
      4       7.0967      0.00000
      5       9.8590      0.00000
      6      10.6537      0.00000
      7      11.5115      0.00000
      8      11.5518      0.00000
      9      11.7744      0.00000
     10      11.8428      0.00000
     11      11.8555      0.00000
     12      12.0055      0.00000
     13      12.0716      0.00000
     14      12.0871      0.00000
     15      12.1615      0.00000
     16      12.5083      0.00000
     17      12.5727      0.00000
     18      12.6015      0.00000
     19      12.7358      0.00000
     20      13.1705      0.00000
     21      13.3082      0.00000
     22      13.3199      0.00000
     23      13.4856      0.00000
     24      14.0937      0.00000
     25      14.2374      0.00000
     26      14.2726      0.00000
     27      14.4496      0.00000
     28      15.1968      0.00000
     29      15.3793      0.00000
     30      15.4284      0.00000
     31      15.5933      0.00000
     32      16.4975      0.00000
     33      16.7277      0.00000
     34      16.7812      0.00000
     35      16.9328      0.00000
     36      17.9971      0.00000
     37      18.2730      0.00000
     38      18.3324      0.00000
     39      18.4596      0.00000
     40      19.6648      0.00000
     41      20.0158      0.00000
     42      20.0781      0.00000

 k-point   132 :      -0.0455    0.4545    0.0000
  band No.  band energies     occupation 
      1      -5.1463      2.00000
      2       1.2968      0.00000
      3       3.5708      0.00000
      4       7.1710      0.00000
      5       9.6812      0.00000
      6      10.5100      0.00000
      7      10.6579      0.00000
      8      10.8502      0.00000
      9      10.9048      0.00000
     10      11.2245      0.00000
     11      11.3670      0.00000
     12      11.4020      0.00000
     13      11.8889      0.00000
     14      12.0392      0.00000
     15      12.2734      0.00000
     16      12.5038      0.00000
     17      12.6666      0.00000
     18      12.8393      0.00000
     19      12.9222      0.00000
     20      13.0173      0.00000
     21      13.1462      0.00000
     22      13.3804      0.00000
     23      13.4602      0.00000
     24      14.0033      0.00000
     25      14.1483      0.00000
     26      14.1941      0.00000
     27      14.3235      0.00000
     28      14.9893      0.00000
     29      15.1208      0.00000
     30      15.4668      0.00000
     31      15.6294      0.00000
     32      16.1403      0.00000
     33      16.2674      0.00000
     34      16.9659      0.00000
     35      17.1528      0.00000
     36      17.4949      0.00000
     37      17.6086      0.00000
     38      18.6425      0.00000
     39      18.8659      0.00000
     40      19.0674      0.00000
     41      19.1280      0.00000
     42      20.4709      0.00000

 k-point   133 :       0.0000    0.5000    0.0000
  band No.  band energies     occupation 
      1      -5.1393      2.00000
      2       1.2082      0.00000
      3       3.7667      0.00000
      4       6.8230      0.00000
      5      10.3808      0.00000
      6      10.8625      0.00000
      7      11.2842      0.00000
      8      11.5004      0.00000
      9      11.5689      0.00000
     10      11.5739      0.00000
     11      11.7326      0.00000
     12      11.7976      0.00000
     13      11.8132      0.00000
     14      11.8505      0.00000
     15      11.8560      0.00000
     16      12.2366      0.00000
     17      12.2990      0.00000
     18      12.3275      0.00000
     19      12.3892      0.00000
     20      12.9006      0.00000
     21      13.0345      0.00000
     22      13.0459      0.00000
     23      13.1364      0.00000
     24      13.8256      0.00000
     25      13.9637      0.00000
     26      13.9986      0.00000
     27      14.0873      0.00000
     28      14.9325      0.00000
     29      15.1057      0.00000
     30      15.1545      0.00000
     31      15.2247      0.00000
     32      16.2391      0.00000
     33      16.4542      0.00000
     34      16.5072      0.00000
     35      16.5543      0.00000
     36      17.7504      0.00000
     37      17.9996      0.00000
     38      18.0562      0.00000
     39      18.0584      0.00000
     40      19.4506      0.00000
     41      19.7014      0.00000
     42      19.7426      0.00000


--------------------------------------------------------------------------------------------------------


 soft charge-density along one line, spin component           1
         0         1         2         3         4         5         6         7         8         9
 total charge-density along one line
 
 pseudopotential strength for first ion, spin component:           1
  5.204 -13.224  -0.000   0.000   0.000   0.000  -0.000   0.000
-13.224  34.478   0.000  -0.000  -0.000   0.000   0.000   0.000
 -0.000   0.000  -0.361  -0.000   0.000   0.809   0.000  -0.000
  0.000  -0.000  -0.000  -0.367   0.000   0.000   0.824  -0.000
  0.000  -0.000   0.000   0.000  -0.361  -0.000  -0.000   0.809
  0.000   0.000   0.809   0.000  -0.000  -0.107  -0.000   0.000
 -0.000   0.000   0.000   0.824  -0.000  -0.000  -0.149   0.000
  0.000   0.000  -0.000  -0.000   0.809   0.000   0.000  -0.107
 total augmentation occupancy for first ion, spin component:           1
  1.630   0.084   0.000  -0.000   0.000   0.000  -0.000   0.000
  0.084   0.005   0.000   0.000   0.000   0.000  -0.000   0.000
  0.000   0.000   1.357   0.000   0.000   0.075   0.000   0.000
 -0.000   0.000   0.000   0.303   0.000   0.000   0.014   0.000
  0.000   0.000   0.000   0.000   1.356   0.000   0.000   0.075
  0.000   0.000   0.075   0.000   0.000   0.004   0.000   0.000
 -0.000  -0.000   0.000   0.014   0.000   0.000   0.001   0.000
  0.000   0.000   0.000   0.000   0.075   0.000   0.000   0.004


------------------------ aborting loop because EDIFF is reached ----------------------------------------


    CHARGE:  cpu time      0.1154: real time      0.1159
    FORLOC:  cpu time      0.0003: real time      0.0002
    FORNL :  cpu time      0.0406: real time      0.0408
    STRESS:  cpu time      1.2235: real time      1.2298
    FORCOR:  cpu time      0.0107: real time      0.0107
    FORHAR:  cpu time      0.0025: real time      0.0026
    MIXING:  cpu time      0.0007: real time      0.0007
    OFIELD:  cpu time      0.0000: real time      0.0000

  FORCE on cell =-STRESS in cart. coord.  units (eV):
  Direction    XX          YY          ZZ          XY          YZ          ZX
  --------------------------------------------------------------------------------------
  Alpha Z     0.11107     0.11107     0.11107
  Ewald     278.33301   278.32227  -306.80160     0.00000     0.00000     0.00000
  Hartree   270.26367   270.26369  -270.19896     0.00000    -0.00000    -0.00000
  E(xc)      -4.80487    -4.80485    -4.90790     0.00000     0.00000    -0.00000
  Local    -560.76892  -560.76902   565.72494     0.00000     0.00000     0.00000
  n-local     5.29734     5.29545     4.36794     0.71816     0.00000     0.00000
  augment    -0.27884    -0.27886    -0.35115    -0.00000     0.00000     0.00000
  Kinetic    11.84666    11.85001    12.05577    -6.46518    -0.00000     0.00000
  Fock        0.00000     0.00000     0.00000     0.00000     0.00000     0.00000
  -------------------------------------------------------------------------------------
  Total      -0.00088    -0.01026     0.00011     0.00000     0.00000     0.00000
  in kB      -0.00900    -0.10452     0.00109     0.00000     0.00000     0.00000
  external pressure =       -0.04 kB  Pullay stress =        0.00 kB


 VOLUME and BASIS-vectors are now :
 -----------------------------------------------------------------------------
  energy-cutoff  :      600.00
  volume of cell :      157.28
      direct lattice vectors                 reciprocal lattice vectors
     2.130000000  0.000000000  0.000000000     0.469483568 -0.270852317  0.000000000
     1.065000000  1.846024454  0.000000000     0.000000000  0.541704633  0.000000000
     0.000000000  0.000000000 40.000000000     0.000000000  0.000000000  0.025000000

  length of vectors
     2.130000000  2.131204187 40.000000000     0.542010884  0.541704633  0.025000000


 FORCES acting on ions
    electron-ion (+dipol)            ewald-force                    non-local-force                 convergence-correction
 -----------------------------------------------------------------------------------------------
   0.616E-16 -.894E-16 -.292E-10   0.757E-15 -.354E-15 0.000E+00   0.000E+00 0.000E+00 0.000E+00   -.710E-17 0.806E-17 0.298E-13
 -----------------------------------------------------------------------------------------------
   0.616E-16 -.894E-16 -.292E-10   0.757E-15 -.354E-15 0.000E+00   0.000E+00 0.000E+00 0.000E+00   -.710E-17 0.806E-17 0.298E-13
 
 
 POSITION                                       TOTAL-FORCE (eV/Angst)
 -----------------------------------------------------------------------------------
      0.00000      0.00000      4.00000         0.000000      0.000000     -0.000000
 -----------------------------------------------------------------------------------
    total drift:                                0.000000     -0.000000     -0.000000


--------------------------------------------------------------------------------------------------------



  FREE ENERGIE OF THE ION-ELECTRON SYSTEM (eV)
  ---------------------------------------------------
  free  energy   TOTEN  =        -2.96870065 eV

  energy  without entropy=       -2.96791173  energy(sigma->0) =       -2.96830619
 


--------------------------------------------------------------------------------------------------------


    POTLOK:  cpu time      0.0126: real time      0.0127


--------------------------------------------------------------------------------------------------------


     LOOP+:  cpu time    111.2855: real time    111.8775
 vacuum level on the upper side and lower side of the slab         0.469         0.469
    4ORBIT:  cpu time      0.0000: real time      0.0000

 total amount of memory used by VASP MPI-rank0    93830. kBytes
=======================================================================

   base                                    :      30000. kBytes
   nonl-proj                               :      45846. kBytes
   fftplans                                :       1192. kBytes
   grid                                    :       5260. kBytes
   one-center                              :          3. kBytes
   wavefun                                 :      11529. kBytes
 
  
  
 General timing and accounting informations for this job:
 ========================================================
  
                  Total CPU time used (sec):      113.447
                            User time (sec):      104.024
                          System time (sec):        9.424
                         Elapsed time (sec):      114.414
  
                   Maximum memory used (kb):      277144.
                   Average memory used (kb):          N/A
  
                          Minor page faults:        21887
                          Major page faults:           83
                 Voluntary context switches:          896
