Geometry                                
           1
     1.862614    1.067738    0.000000
    -1.886232    1.105633    0.000000
     0.000000    0.000000   40.000000
   Be   H 
     2     2
Direct configuration=     1
   0.34679415  0.68248722  0.12500000
   0.65320585  0.31751278  0.07500000
   0.65320585  0.31751278  0.17500000
   0.34679415  0.68248722  0.02500000
Geometry                                
           1
     1.852350    1.064826    0.000000
    -1.868456    1.089740    0.000000
     0.000000    0.000000   40.000000
   Be   H 
     2     2
Direct configuration=     2
   0.34525362  0.68055269  0.12596051
   0.65474638  0.31944731  0.07403949
   0.65362893  0.31803683  0.17384204
   0.34637107  0.68196317  0.02615796
Geometry                                
           1
     1.821558    1.056088    0.000000
    -1.815128    1.042061    0.000000
     0.000000    0.000000   40.000000
   Be   H 
     2     2
Direct configuration=     3
   0.34059791  0.67468543  0.12884204
   0.65940209  0.32531457  0.07115796
   0.65490751  0.31962620  0.17036814
   0.34509249  0.68037380  0.02963186
Geometry                                
           1
     1.759973    1.038613    0.000000
    -1.708472    0.946704    0.000000
     0.000000    0.000000   40.000000
   Be   H 
     2     2
Direct configuration=     4
   0.33107420  0.66255109  0.13460509
   0.66892580  0.33744891  0.06539491
   0.65752261  0.32291309  0.16342035
   0.34247739  0.67708691  0.03657965
Geometry                                
           1
     1.768749    1.043100    0.000000
    -1.717581    0.951793    0.000000
     0.000000    0.000000   40.000000
   Be   H 
     2     2
Direct configuration=     5
   0.33010249  0.66120409  0.13532840
   0.66989751  0.33879591  0.06467160
   0.65771254  0.32323385  0.16258296
   0.34228746  0.67676615  0.03741704
Geometry                                
           1
     1.778144    1.047902    0.000000
    -1.727332    0.957241    0.000000
     0.000000    0.000000   40.000000
   Be   H 
     2     2
Direct configuration=     6
   0.32906708  0.65976940  0.13610272
   0.67093292  0.34023060  0.06389728
   0.65791491  0.32357548  0.16168650
   0.34208509  0.67642452  0.03831350
Geometry                                
           1
     1.794837    1.056487    0.000000
    -1.748158    0.972903    0.000000
     0.000000    0.000000   40.000000
   Be   H 
     2     2
Direct configuration=     7
   0.32965575  0.66004723  0.13603213
   0.67034425  0.33995277  0.06396787
   0.65731826  0.32327682  0.16175987
   0.34268174  0.67672318  0.03824013
Geometry                                
           1
     1.844918    1.082241    0.000000
    -1.810635    1.019892    0.000000
     0.000000    0.000000   40.000000
   Be   H 
     2     2
Direct configuration=     8
   0.33140475  0.66087020  0.13582039
   0.66859525  0.33912980  0.06417961
   0.65554565  0.32239225  0.16197996
   0.34445435  0.67760775  0.03802004
Geometry                                
           1
     1.945079    1.133748    0.000000
    -1.935588    1.113869    0.000000
     0.000000    0.000000   40.000000
   Be   H 
     2     2
Direct configuration=     9
   0.33480461  0.66245610  0.13539690
   0.66519539  0.33754390  0.06460310
   0.65210045  0.32068800  0.16242016
   0.34789955  0.67931200  0.03757984
Geometry                                
           1
     1.895342    1.108171    0.000000
    -1.873540    1.067202    0.000000
     0.000000    0.000000   40.000000
   Be   H 
     2     2
Direct configuration=    10
   0.33320583  0.66172200  0.13560719
   0.66679417  0.33827800  0.06439281
   0.65372007  0.32147656  0.16220157
   0.34627993  0.67852344  0.03779843
Geometry                                
           1
     1.893264    1.107102    0.000000
    -1.870947    1.065252    0.000000
     0.000000    0.000000   40.000000
   Be   H 
     2     2
Direct configuration=    11
   0.33313722  0.66169025  0.13561598
   0.66686278  0.33830975  0.06438402
   0.65378959  0.32151067  0.16219243
   0.34621041  0.67848933  0.03780757
Geometry                                
           1
     1.894528    1.115450    0.000000
    -1.868217    1.066478    0.000000
     0.000000    0.000000   40.000000
   Be   H 
     2     2
Direct configuration=    12
   0.33623897  0.66348695  0.13564494
   0.66376103  0.33651305  0.06435506
   0.65063849  0.31968755  0.16204908
   0.34936151  0.68031245  0.03795092
Geometry                                
           1
     1.898322    1.140492    0.000000
    -1.860026    1.070156    0.000000
     0.000000    0.000000   40.000000
   Be   H 
     2     2
Direct configuration=    13
   0.34549899  0.66884533  0.13573180
   0.65450101  0.33115467  0.06426820
   0.64123114  0.31425041  0.16161900
   0.35876886  0.68574959  0.03838100
Geometry                                
           1
     1.905909    1.190578    0.000000
    -1.843645    1.077513    0.000000
     0.000000    0.000000   40.000000
   Be   H 
     2     2
Direct configuration=    14
   0.36375291  0.67937548  0.13590553
   0.63624709  0.32062452  0.06409447
   0.62268672  0.30356574  0.16075885
   0.37731328  0.69643426  0.03924115
Geometry                                
           1
     1.921083    1.290748    0.000000
    -1.810882    1.092226    0.000000
     0.000000    0.000000   40.000000
   Be   H 
     2     2
Direct configuration=    15
   0.39924232  0.69972030  0.13625298
   0.60075768  0.30027970  0.06374702
   0.58663233  0.28292326  0.15903856
   0.41336767  0.71707674  0.04096144
Geometry                                
           1
     1.926482    1.303745    0.000000
    -1.807584    1.090740    0.000000
     0.000000    0.000000   40.000000
   Be   H 
     2     2
Direct configuration=    16
   0.40397469  0.70181347  0.13613851
   0.59602531  0.29818653  0.06386149
   0.58167257  0.28072728  0.15895114
   0.41832743  0.71927272  0.04104886
Geometry                                
           1
     1.942679    1.342733    0.000000
    -1.797690    1.086283    0.000000
     0.000000    0.000000   40.000000
   Be   H 
     2     2
Direct configuration=    17
   0.41807693  0.70804573  0.13579508
   0.58192307  0.29195427  0.06420492
   0.56689268  0.27418884  0.15868887
   0.43310732  0.72581116  0.04131113
Geometry                                
           1
     1.975072    1.420710    0.000000
    -1.777902    1.077368    0.000000
     0.000000    0.000000   40.000000
   Be   H 
     2     2
Direct configuration=    18
   0.44572724  0.72023410  0.13510822
   0.55427276  0.27976590  0.06489178
   0.53791373  0.26140131  0.15816435
   0.46208627  0.73859869  0.04183565
Geometry                                
           1
     1.986931    1.424678    0.000000
    -1.785073    1.075506    0.000000
     0.000000    0.000000   40.000000
   Be   H 
     2     2
Direct configuration=    19
   0.45269910  0.72280037  0.13442957
   0.54730090  0.27719963  0.06557043
   0.53014345  0.25849248  0.15843011
   0.46985655  0.74150752  0.04156989
Geometry                                
           1
     2.015897    1.434370    0.000000
    -1.802589    1.070957    0.000000
     0.000000    0.000000   40.000000
   Be   H 
     2     2
Direct configuration=    20
   0.46967170  0.72909299  0.13277184
   0.53032830  0.27090701  0.06722816
   0.51122686  0.25136048  0.15907926
   0.48877314  0.74863952  0.04092074
Geometry                                
           1
     2.018148    1.425564    0.000000
    -1.802299    1.061147    0.000000
     0.000000    0.000000   40.000000
   Be   H 
     2     2
Direct configuration=    21
   0.47516263  0.73201377  0.13229945
   0.52483737  0.26798623  0.06770055
   0.50470014  0.24803744  0.15876982
   0.49529986  0.75196256  0.04123018
Geometry                                
           1
     2.024901    1.399149    0.000000
    -1.801430    1.031715    0.000000
     0.000000    0.000000   40.000000
   Be   H 
     2     2
Direct configuration=    22
   0.49171489  0.74088707  0.13088227
   0.50828511  0.25911293  0.06911773
   0.48502718  0.23793835  0.15784150
   0.51497282  0.76206165  0.04215850
Geometry                                
           1
     2.038406    1.346317    0.000000
    -1.799691    0.972853    0.000000
     0.000000    0.000000   40.000000
   Be   H 
     2     2
Direct configuration=    23
   0.52531179  0.75931979  0.12804790
   0.47468821  0.24068021  0.07195210
   0.44510616  0.21693650  0.15598486
   0.55489384  0.78306350  0.04401514
Geometry                                
           1
     2.034070    1.363281    0.000000
    -1.800249    0.991753    0.000000
     0.000000    0.000000   40.000000
   Be   H 
     2     2
Direct configuration=    24
   0.51418346  0.75292869  0.12895799
   0.48581654  0.24707131  0.07104201
   0.45832240  0.22423344  0.15658101
   0.54167760  0.77576656  0.04341899
Geometry                                
           1
     2.036985    1.362122    0.000000
    -1.802248    0.990042    0.000000
     0.000000    0.000000   40.000000
   Be   H 
     2     2
Direct configuration=    25
   0.51712112  0.75466941  0.12867225
   0.48287888  0.24533059  0.07132775
   0.45471374  0.22223429  0.15623824
   0.54528626  0.77776571  0.04376176
Geometry                                
           1
     2.045733    1.358646    0.000000
    -1.808245    0.984910    0.000000
     0.000000    0.000000   40.000000
   Be   H 
     2     2
Direct configuration=    26
   0.52593846  0.75990495  0.12781503
   0.47406154  0.24009505  0.07218497
   0.44388289  0.21622047  0.15520990
   0.55611711  0.78377953  0.04479010
Geometry                                
           1
     2.063228    1.351693    0.000000
    -1.820240    0.974646    0.000000
     0.000000    0.000000   40.000000
   Be   H 
     2     2
Direct configuration=    27
   0.54359951  0.77045644  0.12610058
   0.45640049  0.22954356  0.07389942
   0.42219164  0.20409448  0.15315324
   0.57780836  0.79590552  0.04684676
Geometry                                
           1
     2.098218    1.337787    0.000000
    -1.844229    0.954117    0.000000
     0.000000    0.000000   40.000000
   Be   H 
     2     2
Direct configuration=    28
   0.57903025  0.79188300  0.12267169
   0.42096975  0.20811700  0.07732831
   0.37868703  0.17944695  0.14903992
   0.62131297  0.82055305  0.05096008
Geometry                                
           1
     2.077889    1.345866    0.000000
    -1.830291    0.966044    0.000000
     0.000000    0.000000   40.000000
   Be   H 
     2     2
Direct configuration=    29
   0.55831134  0.77905353  0.12466388
   0.44168866  0.22094647  0.07533612
   0.40411419  0.19423218  0.15142977
   0.59588581  0.80576782  0.04857023
Geometry                                
           1
     2.079293    1.362209    0.000000
    -1.835593    0.984052    0.000000
     0.000000    0.000000   40.000000
   Be   H 
     2     2
Direct configuration=    30
   0.55816975  0.77936356  0.12465546
   0.44183025  0.22063644  0.07534454
   0.40494567  0.19498276  0.15060085
   0.59505433  0.80501724  0.04939915
Geometry                                
           1
     2.083506    1.411239    0.000000
    -1.851501    1.038075    0.000000
     0.000000    0.000000   40.000000
   Be   H 
     2     2
Direct configuration=    31
   0.55774221  0.78028753  0.12463020
   0.44225779  0.21971247  0.07536980
   0.40740911  0.19719478  0.14811409
   0.59259089  0.80280522  0.05188591
Geometry                                
           1
     2.083337    1.409270    0.000000
    -1.850862    1.035905    0.000000
     0.000000    0.000000   40.000000
   Be   H 
     2     2
Direct configuration=    32
   0.55775969  0.78025112  0.12463122
   0.44224031  0.21974888  0.07536878
   0.40731369  0.19711043  0.14821398
   0.59268631  0.80288957  0.05178602
Geometry                                
           1
     2.078241    1.425035    0.000000
    -1.843648    1.043521    0.000000
     0.000000    0.000000   40.000000
   Be   H 
     2     2
Direct configuration=    33
   0.55478583  0.77745840  0.12432729
   0.44521417  0.22254160  0.07567271
   0.41083515  0.20045745  0.14822119
   0.58916485  0.79954255  0.05177881
Geometry                                
           1
     2.063828    1.469628    0.000000
    -1.823244    1.065065    0.000000
     0.000000    0.000000   40.000000
   Be   H 
     2     2
Direct configuration=    34
   0.54645140  0.76963847  0.12346761
   0.45354860  0.23036153  0.07653239
   0.42070376  0.20983048  0.14824158
   0.57929624  0.79016952  0.05175842
Geometry                                
           1
     2.060028    1.487005    0.000000
    -1.812315    1.067025    0.000000
     0.000000    0.000000   40.000000
   Be   H 
     2     2
Direct configuration=    35
   0.54284801  0.76747857  0.12345526
   0.45715199  0.23252143  0.07654474
   0.42518516  0.21284570  0.14819385
   0.57481484  0.78715430  0.05180615
Geometry                                
           1
     2.050857    1.528931    0.000000
    -1.785944    1.071755    0.000000
     0.000000    0.000000   40.000000
   Be   H 
     2     2
Direct configuration=    36
   0.53421871  0.76232780  0.12342548
   0.46578129  0.23767220  0.07657452
   0.43591461  0.22004738  0.14807870
   0.56408539  0.77995262  0.05192130
Geometry                                
           1
     2.032516    1.612784    0.000000
    -1.733204    1.081214    0.000000
     0.000000    0.000000   40.000000
   Be   H 
     2     2
Direct configuration=    37
   0.51726464  0.75231246  0.12336590
   0.48273536  0.24768754  0.07663410
   0.45698301  0.23410479  0.14784838
   0.54301699  0.76589521  0.05215162
Geometry                                
           1
     2.044642    1.557347    0.000000
    -1.768072    1.074960    0.000000
     0.000000    0.000000   40.000000
   Be   H 
     2     2
Direct configuration=    38
   0.52809421  0.75857209  0.12340529
   0.47190579  0.24142791  0.07659471
   0.44354104  0.22524658  0.14800065
   0.55645896  0.77475342  0.05199935
Geometry                                
           1
     2.056589    1.565955    0.000000
    -1.774589    1.075894    0.000000
     0.000000    0.000000   40.000000
   Be   H 
     2     2
Direct configuration=    39
   0.52432907  0.75892924  0.12364506
   0.47567093  0.24107076  0.07635494
   0.44768347  0.22579369  0.14811203
   0.55231653  0.77420631  0.05188797
Geometry                                
           1
     2.088239    1.588758    0.000000
    -1.791853    1.078368    0.000000
     0.000000    0.000000   40.000000
   Be   H 
     2     2
Direct configuration=    40
   0.51441199  0.75987104  0.12428025
   0.48558801  0.24012896  0.07571975
   0.45859700  0.22724174  0.14840712
   0.54140300  0.77275826  0.05159288
Geometry                                
           1
     2.105268    1.594226    0.000000
    -1.801184    1.075137    0.000000
     0.000000    0.000000   40.000000
   Be   H 
     2     2
Direct configuration=    41
   0.50971869  0.75723209  0.12429903
   0.49028131  0.24276791  0.07570097
   0.46305634  0.23009175  0.14874938
   0.53694366  0.76990825  0.05125062
Geometry                                
           1
     2.136201    1.604158    0.000000
    -1.818132    1.069268    0.000000
     0.000000    0.000000   40.000000
   Be   H 
     2     2
Direct configuration=    42
   0.50122565  0.75242022  0.12433316
   0.49877435  0.24757978  0.07566684
   0.47112795  0.23528510  0.14937108
   0.52887205  0.76471490  0.05062892
Geometry                                
           1
     2.137716    1.605751    0.000000
    -1.808910    1.056332    0.000000
     0.000000    0.000000   40.000000
   Be   H 
     2     2
Direct configuration=    43
   0.49704553  0.74904822  0.12437971
   0.50295447  0.25095178  0.07562029
   0.47422694  0.23806113  0.14951821
   0.52577306  0.76193887  0.05048179
Geometry                                
           1
     2.138961    1.607061    0.000000
    -1.801329    1.045699    0.000000
     0.000000    0.000000   40.000000
   Be   H 
     2     2
Direct configuration=    44
   0.49360520  0.74625434  0.12441797
   0.50639480  0.25374566  0.07558203
   0.47677807  0.24036127  0.14963914
   0.52322193  0.75963873  0.05036086
Geometry                                
           1
     2.136022    1.601453    0.000000
    -1.800865    1.044726    0.000000
     0.000000    0.000000   40.000000
   Be   H 
     2     2
Direct configuration=    45
   0.49156530  0.74623483  0.12440121
   0.50843470  0.25376517  0.07559879
   0.47740290  0.23975082  0.14959498
   0.52259710  0.76024918  0.05040502
Geometry                                
           1
     2.131479    1.592783    0.000000
    -1.800148    1.043223    0.000000
     0.000000    0.000000   40.000000
   Be   H 
     2     2
Direct configuration=    46
   0.48840341  0.74620016  0.12437530
   0.51159659  0.25379984  0.07562470
   0.47837116  0.23880789  0.14952670
   0.52162884  0.76119211  0.05047330
Geometry                                
           1
     2.122393    1.575443    0.000000
    -1.798713    1.040216    0.000000
     0.000000    0.000000   40.000000
   Be   H 
     2     2
Direct configuration=    47
   0.48205431  0.74611680  0.12432348
   0.51794569  0.25388320  0.07567652
   0.48031470  0.23692470  0.14939014
   0.51968530  0.76307530  0.05060986
Geometry                                
           1
     2.128785    1.587642    0.000000
    -1.799723    1.042331    0.000000
     0.000000    0.000000   40.000000
   Be   H 
     2     2
Direct configuration=    48
   0.48655703  0.74619547  0.12435993
   0.51344297  0.25380453  0.07564007
   0.47893740  0.23824572  0.14948621
   0.52106260  0.76175428  0.05051379
Geometry                                
           1
     2.127042    1.582891    0.000000
    -1.801125    1.043068    0.000000
     0.000000    0.000000   40.000000
   Be   H 
     2     2
Direct configuration=    49
   0.48457227  0.74478876  0.12432236
   0.51542773  0.25521124  0.07567764
   0.47917958  0.23862077  0.14945383
   0.52082042  0.76137923  0.05054617
Geometry                                
           1
     2.121813    1.568638    0.000000
    -1.805331    1.045278    0.000000
     0.000000    0.000000   40.000000
   Be   H 
     2     2
Direct configuration=    50
   0.47860568  0.74056317  0.12420964
   0.52139432  0.25943683  0.07579036
   0.47990761  0.23974613  0.14935667
   0.52009239  0.76025387  0.05064333
Geometry                                
           1
     2.111355    1.540132    0.000000
    -1.813743    1.049698    0.000000
     0.000000    0.000000   40.000000
   Be   H 
     2     2
Direct configuration=    51
   0.46659810  0.73207880  0.12398421
   0.53340190  0.26792120  0.07601579
   0.48137287  0.24199817  0.14916235
   0.51862713  0.75800183  0.05083765
Geometry                                
           1
     2.116649    1.554562    0.000000
    -1.809485    1.047461    0.000000
     0.000000    0.000000   40.000000
   Be   H 
     2     2
Direct configuration=    52
   0.47275322  0.73640806  0.12409833
   0.52724678  0.26359194  0.07590167
   0.48062167  0.24085670  0.14926071
   0.51937833  0.75914330  0.05073929
Geometry                                
           1
     2.113393    1.550609    0.000000
    -1.808680    1.047490    0.000000
     0.000000    0.000000   40.000000
   Be   H 
     2     2
Direct configuration=    53
   0.46856984  0.73379324  0.12411093
   0.53143016  0.26620676  0.07588907
   0.48008440  0.24083985  0.14918581
   0.51991560  0.75916015  0.05081419
Geometry                                
           1
     2.103627    1.538749    0.000000
    -1.806264    1.047578    0.000000
     0.000000    0.000000   40.000000
   Be   H 
     2     2
Direct configuration=    54
   0.45599469  0.72593866  0.12414872
   0.54400531  0.27406134  0.07585128
   0.47846920  0.24078820  0.14896110
   0.52153080  0.75921180  0.05103890
Geometry                                
           1
     2.084095    1.515030    0.000000
    -1.801434    1.047754    0.000000
     0.000000    0.000000   40.000000
   Be   H 
     2     2
Direct configuration=    55
   0.43069310  0.71016830  0.12422432
   0.56930690  0.28983170  0.07577568
   0.47521833  0.24067841  0.14851167
   0.52478167  0.75932159  0.05148833
Geometry                                
           1
     2.090392    1.522677    0.000000
    -1.802991    1.047698    0.000000
     0.000000    0.000000   40.000000
   Be   H 
     2     2
Direct configuration=    56
   0.43894954  0.71529271  0.12419994
   0.56105046  0.28470729  0.07580006
   0.47627983  0.24071809  0.14865657
   0.52372017  0.75928191  0.05134343
Geometry                                
           1
     2.089774    1.521830    0.000000
    -1.802930    1.047763    0.000000
     0.000000    0.000000   40.000000
   Be   H 
     2     2
Direct configuration=    57
   0.43791768  0.71471654  0.12419741
   0.56208232  0.28528346  0.07580259
   0.47610144  0.24063700  0.14864357
   0.52389856  0.75936300  0.05135643
Geometry                                
           1
     2.087919    1.519289    0.000000
    -1.802746    1.047959    0.000000
     0.000000    0.000000   40.000000
   Be   H 
     2     2
Direct configuration=    58
   0.43482082  0.71298752  0.12418981
   0.56517918  0.28701248  0.07581019
   0.47556604  0.24039366  0.14860458
   0.52443396  0.75960634  0.05139542
Geometry                                
           1
     2.084209    1.514208    0.000000
    -1.802380    1.048352    0.000000
     0.000000    0.000000   40.000000
   Be   H 
     2     2
Direct configuration=    59
   0.42861928  0.70952645  0.12417462
   0.57138072  0.29047355  0.07582538
   0.47449388  0.23990645  0.14852659
   0.52550612  0.76009355  0.05147341
Geometry                                
           1
     2.076789    1.504044    0.000000
    -1.801646    1.049138    0.000000
     0.000000    0.000000   40.000000
   Be   H 
     2     2
Direct configuration=    60
   0.41618480  0.70259213  0.12414422
   0.58381520  0.29740787  0.07585578
   0.47234407  0.23892990  0.14837063
   0.52765593  0.76107010  0.05162937
Geometry                                
           1
     2.061949    1.483718    0.000000
    -1.800179    1.050709    0.000000
     0.000000    0.000000   40.000000
   Be   H 
     2     2
Direct configuration=    61
   0.39118929  0.68867438  0.12408343
   0.60881071  0.31132562  0.07591657
   0.46802238  0.23696828  0.14805869
   0.53197762  0.76303172  0.05194131
Geometry                                
           1
     2.032270    1.443065    0.000000
    -1.797244    1.053851    0.000000
     0.000000    0.000000   40.000000
   Be   H 
     2     2
Direct configuration=    62
   0.34068415  0.66063940  0.12396185
   0.65931585  0.33936060  0.07603815
   0.45928931  0.23301035  0.14743482
   0.54071069  0.76698965  0.05256518
Geometry                                
           1
     1.972912    1.361758    0.000000
    -1.791374    1.060135    0.000000
     0.000000    0.000000   40.000000
   Be   H 
     2     2
Direct configuration=    63
   0.23755158  0.60374613  0.12371870
   0.76244842  0.39625387  0.07628130
   0.44145291  0.22495131  0.14618708
   0.55854709  0.77504869  0.05381292
Geometry                                
           1
     2.014454    1.418660    0.000000
    -1.795482    1.055737    0.000000
     0.000000    0.000000   40.000000
   Be   H 
     2     2
Direct configuration=    64
   0.31289805  0.64479192  0.12388887
   0.68710195  0.35520808  0.07611113
   0.45448862  0.23080519  0.14706031
   0.54551138  0.76919481  0.05293969
Geometry                                
           1
     2.007687    1.409392    0.000000
    -1.794813    1.056453    0.000000
     0.000000    0.000000   40.000000
   Be   H 
     2     2
Direct configuration=    65
   0.30099081  0.63824788  0.12386115
   0.69900919  0.36175212  0.07613885
   0.45242907  0.22987634  0.14691807
   0.54757093  0.77012366  0.05308193
Geometry                                
           1
     2.004750    1.404536    0.000000
    -1.795148    1.057032    0.000000
     0.000000    0.000000   40.000000
   Be   H 
     2     2
Direct configuration=    66
   0.29434321  0.63478699  0.12382247
   0.70565679  0.36521301  0.07617753
   0.45109897  0.22910292  0.14685161
   0.54890103  0.77089708  0.05314839
Geometry                                
           1
     2.002248    1.400399    0.000000
    -1.795434    1.057525    0.000000
     0.000000    0.000000   40.000000
   Be   H 
     2     2
Direct configuration=    67
   0.28866611  0.63183283  0.12378952
   0.71133389  0.36816717  0.07621048
   0.44996307  0.22844291  0.14679500
   0.55003693  0.77155709  0.05320500
Geometry                                
           1
     2.003113    1.400682    0.000000
    -1.796179    1.057692    0.000000
     0.000000    0.000000   40.000000
   Be   H 
     2     2
Direct configuration=    68
   0.28899661  0.63221676  0.12376591
   0.71100339  0.36778324  0.07623409
   0.44980183  0.22817685  0.14681169
   0.55019817  0.77182315  0.05318831
Geometry                                
           1
     2.005710    1.401528    0.000000
    -1.798411    1.058194    0.000000
     0.000000    0.000000   40.000000
   Be   H 
     2     2
Direct configuration=    69
   0.28998793  0.63336835  0.12369511
   0.71001207  0.36663165  0.07630489
   0.44931819  0.22737884  0.14686176
   0.55068181  0.77262116  0.05313824
Geometry                                
           1
     2.010904    1.403222    0.000000
    -1.802876    1.059199    0.000000
     0.000000    0.000000   40.000000
   Be   H 
     2     2
Direct configuration=    70
   0.29196948  0.63567031  0.12355349
   0.70803052  0.36432969  0.07644651
   0.44835131  0.22578385  0.14696189
   0.55164869  0.77421615  0.05303811
Geometry                                
           1
     2.021291    1.406609    0.000000
    -1.811807    1.061207    0.000000
     0.000000    0.000000   40.000000
   Be   H 
     2     2
Direct configuration=    71
   0.29592817  0.64026933  0.12327026
   0.70407183  0.35973067  0.07672974
   0.44641909  0.22259792  0.14716217
   0.55358091  0.77740208  0.05283783
Geometry                                
           1
     2.042065    1.413383    0.000000
    -1.829667    1.065225    0.000000
     0.000000    0.000000   40.000000
   Be   H 
     2     2
Direct configuration=    72
   0.30382806  0.64944790  0.12270379
   0.69617194  0.35055210  0.07729621
   0.44256086  0.21624224  0.14756272
   0.55743914  0.78375776  0.05243728
Geometry                                
           1
     2.040127    1.412751    0.000000
    -1.828001    1.064850    0.000000
     0.000000    0.000000   40.000000
   Be   H 
     2     2
Direct configuration=    73
   0.30309452  0.64859547  0.12275663
   0.69690548  0.35140453  0.07724337
   0.44291954  0.21683201  0.14752536
   0.55708046  0.78316799  0.05247464
Geometry                                
           1
     2.041239    1.415194    0.000000
    -1.826731    1.063419    0.000000
     0.000000    0.000000   40.000000
   Be   H 
     2     2
Direct configuration=    74
   0.30409299  0.64944173  0.12273887
   0.69590701  0.35055827  0.07726113
   0.44015379  0.21523352  0.14752171
   0.55984621  0.78476648  0.05247829
Geometry                                
           1
     2.044572    1.422523    0.000000
    -1.822920    1.059127    0.000000
     0.000000    0.000000   40.000000
   Be   H 
     2     2
Direct configuration=    75
   0.30708554  0.65198089  0.12268560
   0.69291446  0.34801911  0.07731440
   0.43186513  0.21043924  0.14751077
   0.56813487  0.78956076  0.05248923
Geometry                                
           1
     2.051239    1.437182    0.000000
    -1.815297    1.050542    0.000000
     0.000000    0.000000   40.000000
   Be   H 
     2     2
Direct configuration=    76
   0.31305343  0.65706146  0.12257906
   0.68694657  0.34293854  0.07742094
   0.41533902  0.20085775  0.14748889
   0.58466098  0.79914225  0.05251111
Geometry                                
           1
     2.064572    1.466499    0.000000
    -1.800052    1.033371    0.000000
     0.000000    0.000000   40.000000
   Be   H 
     2     2
Direct configuration=    77
   0.32492115  0.66723221  0.12236598
   0.67507885  0.33276779  0.07763402
   0.38248953  0.18172202  0.14744514
   0.61751047  0.81827798  0.05255486
Geometry                                
           1
     2.070538    1.477114    0.000000
    -1.801866    1.036082    0.000000
     0.000000    0.000000   40.000000
   Be   H 
     2     2
Direct configuration=    78
   0.32410631  0.66375085  0.12232822
   0.67589369  0.33624915  0.07767178
   0.37351315  0.18005351  0.14745881
   0.62648685  0.81994649  0.05254119
Geometry                                
           1
     2.088437    1.508959    0.000000
    -1.807307    1.044213    0.000000
     0.000000    0.000000   40.000000
   Be   H 
     2     2
Direct configuration=    79
   0.32168118  0.65333148  0.12221493
   0.67831882  0.34666852  0.07778507
   0.34672895  0.17513039  0.14749983
   0.65327105  0.82486961  0.05250017
Geometry                                
           1
     2.094984    1.520608    0.000000
    -1.809298    1.047187    0.000000
     0.000000    0.000000   40.000000
   Be   H 
     2     2
Direct configuration=    80
   0.32081478  0.64954650  0.12217349
   0.67918522  0.35045350  0.07782651
   0.33708610  0.17341749  0.14751483
   0.66291390  0.82658251  0.05248517
Geometry                                
           1
     2.103717    1.537969    0.000000
    -1.808807    1.048076    0.000000
     0.000000    0.000000   40.000000
   Be   H 
     2     2
Direct configuration=    81
   0.31594626  0.64855099  0.12224353
   0.68405374  0.35144901  0.07775647
   0.32286863  0.16536789  0.14748244
   0.67713137  0.83463211  0.05251756
Geometry                                
           1
     2.129914    1.590050    0.000000
    -1.807333    1.050741    0.000000
     0.000000    0.000000   40.000000
   Be   H 
     2     2
Direct configuration=    82
   0.30146075  0.64563275  0.12245364
   0.69853925  0.35436725  0.07754636
   0.28057337  0.14142198  0.14738528
   0.71942663  0.85857802  0.05261472
Geometry                                
           1
     2.120689    1.578603    0.000000
    -1.802115    1.046673    0.000000
     0.000000    0.000000   40.000000
   Be   H 
     2     2
Direct configuration=    83
   0.29825120  0.64782444  0.12225286
   0.70174880  0.35217556  0.07774714
   0.27897601  0.13733514  0.14743726
   0.72102399  0.86266486  0.05256274
Geometry                                
           1
     2.116713    1.573670    0.000000
    -1.799867    1.044920    0.000000
     0.000000    0.000000   40.000000
   Be   H 
     2     2
Direct configuration=    84
   0.29686025  0.64876935  0.12216634
   0.70313975  0.35123065  0.07783366
   0.27828292  0.13556689  0.14745965
   0.72171708  0.86443311  0.05254035
Geometry                                
           1
     2.106342    1.560925    0.000000
    -1.794844    1.041563    0.000000
     0.000000    0.000000   40.000000
   Be   H 
     2     2
Direct configuration=    85
   0.29297954  0.64629662  0.12219715
   0.70702046  0.35370338  0.07780285
   0.27706448  0.13566851  0.14737822
   0.72293552  0.86433149  0.05262178
Geometry                                
           1
     2.096933    1.549364    0.000000
    -1.790288    1.038519    0.000000
     0.000000    0.000000   40.000000
   Be   H 
     2     2
Direct configuration=    86
   0.28943520  0.64403938  0.12222509
   0.71056480  0.35596062  0.07777491
   0.27595177  0.13575860  0.14730434
   0.72404823  0.86424140  0.05269566
Geometry                                
           1
     2.094264    1.534154    0.000000
    -1.799326    1.043642    0.000000
     0.000000    0.000000   40.000000
   Be   H 
     2     2
Direct configuration=    87
   0.28549012  0.64067160  0.12219154
   0.71450988  0.35932840  0.07780846
   0.27427772  0.13646403  0.14731711
   0.72572228  0.86353597  0.05268289
Geometry                                
           1
     2.094480    1.535385    0.000000
    -1.798595    1.043227    0.000000
     0.000000    0.000000   40.000000
   Be   H 
     2     2
Direct configuration=    88
   0.28581135  0.64094459  0.12219426
   0.71418865  0.35905541  0.07780574
   0.27441403  0.13640798  0.14731607
   0.72558597  0.86359202  0.05268393
Geometry                                
           1
     2.095297    1.533079    0.000000
    -1.801784    1.045053    0.000000
     0.000000    0.000000   40.000000
   Be   H 
     2     2
Direct configuration=    89
   0.28521254  0.64131057  0.12227715
   0.71478746  0.35868943  0.07772285
   0.27345077  0.13539853  0.14732881
   0.72654923  0.86460147  0.05267119
Geometry                                
           1
     2.095412    1.532755    0.000000
    -1.802232    1.045310    0.000000
     0.000000    0.000000   40.000000
   Be   H 
     2     2
Direct configuration=    90
   0.28512831  0.64136182  0.12228880
   0.71487169  0.35863818  0.07771120
   0.27331527  0.13525671  0.14733061
   0.72668473  0.86474329  0.05266939
Geometry                                
           1
     2.094975    1.533147    0.000000
    -1.801494    1.045082    0.000000
     0.000000    0.000000   40.000000
   Be   H 
     2     2
Direct configuration=    91
   0.28512395  0.64144971  0.12230781
   0.71487605  0.35855029  0.07769219
   0.27239255  0.13479082  0.14737523
   0.72760745  0.86520918  0.05262477
Geometry                                
           1
     2.094131    1.533904    0.000000
    -1.800070    1.044643    0.000000
     0.000000    0.000000   40.000000
   Be   H 
     2     2
Direct configuration=    92
   0.28511551  0.64161935  0.12234450
   0.71488449  0.35838065  0.07765550
   0.27061247  0.13389221  0.14746133
   0.72938753  0.86610779  0.05253867
Geometry                                
           1
     2.094321    1.533758    0.000000
    -1.800595    1.045038    0.000000
     0.000000    0.000000   40.000000
   Be   H 
     2     2
Direct configuration=    93
   0.28512363  0.64130758  0.12233721
   0.71487637  0.35869242  0.07766279
   0.26968909  0.13386041  0.14745872
   0.73031091  0.86613959  0.05254128
Geometry                                
           1
     2.094368    1.533723    0.000000
    -1.800723    1.045134    0.000000
     0.000000    0.000000   40.000000
   Be   H 
     2     2
Direct configuration=    94
   0.28512561  0.64123143  0.12233543
   0.71487439  0.35876857  0.07766457
   0.26946348  0.13385262  0.14745809
   0.73053652  0.86614738  0.05254191
Geometry                                
           1
     2.094411    1.533743    0.000000
    -1.800722    1.045095    0.000000
     0.000000    0.000000   40.000000
   Be   H 
     2     2
Direct configuration=    95
   0.28510574  0.64133159  0.12233673
   0.71489426  0.35866841  0.07766327
   0.26873955  0.13351775  0.14743932
   0.73126045  0.86648225  0.05256068
Geometry                                
           1
     2.094478    1.533773    0.000000
    -1.800720    1.045035    0.000000
     0.000000    0.000000   40.000000
   Be   H 
     2     2
Direct configuration=    96
   0.28507540  0.64148449  0.12233870
   0.71492460  0.35851551  0.07766130
   0.26763448  0.13300655  0.14741068
   0.73236552  0.86699345  0.05258932
Geometry                                
           1
     2.094599    1.533724    0.000000
    -1.800893    1.045095    0.000000
     0.000000    0.000000   40.000000
   Be   H 
     2     2
Direct configuration=    97
   0.28498693  0.64174649  0.12231818
   0.71501307  0.35825351  0.07768182
   0.26704311  0.13256929  0.14740774
   0.73295689  0.86743071  0.05259226
Geometry                                
           1
     2.094567    1.533737    0.000000
    -1.800846    1.045079    0.000000
     0.000000    0.000000   40.000000
   Be   H 
     2     2
Direct configuration=    98
   0.28501064  0.64167629  0.12232368
   0.71498936  0.35832371  0.07767632
   0.26720159  0.13268647  0.14740852
   0.73279841  0.86731353  0.05259148
Geometry                                
           1
     2.094471    1.533902    0.000000
    -1.800608    1.044978    0.000000
     0.000000    0.000000   40.000000
   Be   H 
     2     2
Direct configuration=    99
   0.28494644  0.64165962  0.12232246
   0.71505356  0.35834038  0.07767754
   0.26715374  0.13270362  0.14741035
   0.73284626  0.86729638  0.05258965
Geometry                                
           1
     2.094399    1.534025    0.000000
    -1.800430    1.044903    0.000000
     0.000000    0.000000   40.000000
   Be   H 
     2     2
Direct configuration=   100
   0.28489836  0.64164715  0.12232155
   0.71510164  0.35835285  0.07767845
   0.26711792  0.13271647  0.14741172
   0.73288208  0.86728353  0.05258828
