       N       E                     dE             d eps       ncg     rms          rms(c)
DAV:   1     0.430726480724E+02    0.43073E+02   -0.28110E+03   840   0.349E+02
DAV:   2     0.226157014845E+01   -0.40811E+02   -0.40518E+02  1260   0.612E+01
DAV:   3     0.160408718676E+01   -0.65748E+00   -0.65727E+00  1512   0.109E+01
DAV:   4     0.160398912584E+01   -0.98061E-04   -0.98061E-04  1148   0.136E-01
DAV:   5     0.160398901909E+01   -0.10675E-06   -0.10656E-06  1596   0.407E-03
DAV:   6     0.160398901919E+01    0.10027E-09    0.10598E-09  1176   0.173E-05
   1 F= 0.16039890E+01 E0= 0.16042885E+01  d E =-.599014E-03  mag=     0.0000    -0.0000     0.0000
