 running   42 mpi-ranks, on    1 nodes
 distrk:  each k-point on   42 cores,    1 groups
 distr:  one band on    1 cores,   42 groups
 vasp.6.5.0 16Dec24 (build Jan 08 2025 16:17:04) complex                        
  
 POSCAR found type information on POSCAR Be
 POSCAR found :  1 types and       2 ions
 Reading from existing POTCAR
 scaLAPACK will be used
 -----------------------------------------------------------------------------
|                                                                             |
|           W    W    AA    RRRRR   N    N  II  N    N   GGGG   !!!           |
|           W    W   A  A   R    R  NN   N  II  NN   N  G    G  !!!           |
|           W    W  A    A  R    R  N N  N  II  N N  N  G       !!!           |
|           W WW W  AAAAAA  RRRRR   N  N N  II  N  N N  G  GGG   !            |
|           WW  WW  A    A  R   R   N   NN  II  N   NN  G    G                |
|           W    W  A    A  R    R  N    N  II  N    N   GGGG   !!!           |
|                                                                             |
|     For optimal performance we recommend to set                             |
|       NCORE = 2 up to number-of-cores-per-socket                            |
|     NCORE specifies how many cores store one orbital (NPAR=cpu/NCORE).      |
|     This setting can greatly improve the performance of VASP for DFT.       |
|     The default, NCORE=1 might be grossly inefficient on modern             |
|     multi-core architectures or massively parallel machines. Do your        |
|     own testing! More info at https://www.vasp.at/wiki/index.php/NCORE      |
|     Unfortunately you need to use the default for GW and RPA                |
|     calculations (for HF NCORE is supported but not extensively tested      |
|     yet).                                                                   |
|                                                                             |
 -----------------------------------------------------------------------------

 Reading from existing POTCAR
 LDA part: xc-table for (Slater+PW92), standard interpolation
 POSCAR, INCAR and KPOINTS ok, starting setup
 FFT: planning ... GRIDC
 FFT: planning ... GRID_SOFT
 FFT: planning ... GRID
 WAVECAR not read
 entering main loop
       N       E                     dE             d eps       ncg     rms          ort
DAV:   1     0.877032692281E+00    0.87703E+00   -0.18448E+03  1890   0.865E+01
DAV:   2    -0.684454933505E+01   -0.77216E+01   -0.68045E+01  1890   0.969E+00
DAV:   3    -0.686700056375E+01   -0.22451E-01   -0.22451E-01  1890   0.612E-01
DAV:   4    -0.686705111278E+01   -0.50549E-04   -0.50548E-04  1890   0.308E-02
DAV:   5    -0.686705111680E+01   -0.40204E-08   -0.40688E-08  1890   0.228E-04
 gam= 0.000 g(H,U,f)=  0.231E+00 0.133E+01 0.724E-02 ort(H,U,f) = 0.000E+00 0.000E+00 0.000E+00
SDA:   6    -0.489299364238E+01    0.19741E+01   -0.40688E-08  1890   0.157E+01 0.000E+00
 gam= 0.000 trial= 0.400  step= 2.558 mean= 0.400
 gam= 0.000 trial= 2.600  step= 2.600 mean= 0.631
 gam= 0.000 g(H,U,f)=  0.307E+01 0.125E+02 0.133E+02 ort(H,U,f) =-0.516E+00-0.628E+01-0.536E+01
CGA:   7    -0.352050239408E+00    0.45409E+01   -0.13346E+01  1890   0.289E+02-0.122E+02
 gam= 0.000 trial= 0.730  step= 0.483 mean= 0.730
 gam= 0.028 g(H,U,f)=  0.302E+00 0.466E+00 0.503E-01 ort(H,U,f) =-0.213E+00 0.182E+01 0.218E+00
CGA:   8    -0.553877316046E+01   -0.51867E+01   -0.69736E+01  1890   0.819E+00 0.182E+01
 gam= 0.028 trial= 0.717  step= 0.808 mean= 0.717
 gam= 0.095 g(H,U,f)=  0.742E-01 0.323E-02 0.111E-04 ort(H,U,f) =-0.108E+00-0.496E-03-0.545E-03
CGA:   9    -0.588022520097E+01   -0.34145E+00   -0.35156E+00  1890   0.775E-01-0.109E+00
 gam= 0.095 trial= 0.722  step= 0.637 mean= 0.722
 gam= 0.108 g(H,U,f)=  0.501E-02 0.330E-02 0.256E-04 ort(H,U,f) =-0.210E-03 0.260E-03-0.316E-04
CGA:  10    -0.590159902833E+01   -0.21374E-01   -0.21388E-01  1890   0.833E-02 0.178E-04
 gam= 0.108 trial= 0.718  step= 0.901 mean= 0.718
 gam= 0.206 g(H,U,f)=  0.110E-02 0.619E-03 0.324E-05 ort(H,U,f) =-0.151E-02 0.140E-02 0.157E-04
CGA:  11    -0.590533877603E+01   -0.37397E-02   -0.37519E-02  1890   0.172E-02-0.100E-03
 gam= 0.206 trial= 0.727  step= 0.989 mean= 0.727
 gam= 0.301 g(H,U,f)=  0.353E-03 0.161E-03 0.379E-05 ort(H,U,f) =-0.271E-03 0.278E-03-0.895E-05
CGA:  12    -0.590617746021E+01   -0.83868E-03   -0.83994E-03  1890   0.517E-03-0.248E-05
 gam= 0.301 trial= 0.740  step= 0.999 mean= 0.740
 gam= 0.176 g(H,U,f)=  0.796E-04 0.109E-04 0.693E-06 ort(H,U,f) =-0.562E-04 0.544E-04 0.439E-06
CGA:  13    -0.590643537067E+01   -0.25791E-03   -0.25807E-03  1890   0.912E-04-0.134E-05
 gam= 0.176 trial= 0.753  step= 0.807 mean= 0.753
 gam= 0.119 g(H,U,f)=  0.106E-04 0.248E-06 0.173E-07 ort(H,U,f) =-0.211E-05 0.193E-05 0.116E-06
CGA:  14    -0.590647205565E+01   -0.36685E-04   -0.36688E-04  1890   0.108E-04-0.663E-07
 gam= 0.119 trial= 0.755  step= 0.790 mean= 0.755
 gam= 0.090 g(H,U,f)=  0.905E-06 0.718E-07 0.472E-08 ort(H,U,f) = 0.318E-07 0.758E-07 0.161E-07
CGA:  15    -0.590647634077E+01   -0.42851E-05   -0.42830E-05  1890   0.981E-06 0.124E-06
 gam= 0.090 trial= 0.757  step= 0.772 mean= 0.757
 gam= 0.135 g(H,U,f)=  0.101E-06 0.286E-07 0.283E-08 ort(H,U,f) = 0.215E-07 0.466E-07 0.476E-08
CGA:  16    -0.590647672427E+01   -0.38351E-06   -0.38317E-06  1890   0.132E-06 0.729E-07
 gam= 0.135 trial= 0.758  step= 0.794 mean= 0.758
 final diagonalization
   1 F= -.59064767E+01 E0= -.59064293E+01  d E =-.949371E-04
