       N       E                     dE             d eps       ncg     rms          ort
DAV:   1     0.217496880227E+01    0.21750E+01   -0.27842E+03  1890   0.130E+02
DAV:   2    -0.109430397868E+02   -0.13118E+02   -0.12712E+02  1890   0.166E+01
DAV:   3    -0.109894179375E+02   -0.46378E-01   -0.46375E-01  1890   0.109E+00
DAV:   4    -0.109895251973E+02   -0.10726E-03   -0.10726E-03  1890   0.566E-02
DAV:   5    -0.109895252035E+02   -0.62437E-08   -0.60698E-08  1890   0.384E-04
SDA:   6    -0.671448476520E+01    0.42750E+01   -0.60698E-08  1890   0.676E+01 0.000E+00
CGA:   7    -0.902481252531E+01   -0.23103E+01   -0.34041E+01  1890   0.195E+01-0.378E+01
CGA:   8    -0.957562902499E+01   -0.55082E+00   -0.55202E+00  1890   0.596E-01 0.815E-02
CGA:   9    -0.959296200664E+01   -0.17333E-01   -0.17370E-01  1890   0.638E-02-0.297E-03
CGA:  10    -0.959552701288E+01   -0.25650E-02   -0.25522E-02  1890   0.180E-02 0.856E-04
CGA:  11    -0.959642374440E+01   -0.89673E-03   -0.88975E-03  1890   0.426E-03 0.192E-04
CGA:  12    -0.959660602931E+01   -0.18228E-03   -0.18227E-03  1890   0.727E-04-0.259E-06
CGA:  13    -0.959663974604E+01   -0.33717E-04   -0.33689E-04  1890   0.141E-04 0.190E-06
CGA:  14    -0.959664600390E+01   -0.62579E-05   -0.62485E-05  1890   0.209E-05 0.496E-07
CGA:  15    -0.959664699981E+01   -0.99591E-06   -0.99926E-06  1890   0.426E-06-0.152E-07
   1 F= -.95966470E+01 E0= -.95958998E+01  d E =-.149448E-02
