       N       E                     dE             d eps       ncg     rms          rms(c)
DAV:   1    -0.343106288347E+01   -0.34311E+01   -0.10008E+00 57582   0.165E-01    0.236E+00
DAV:   2    -0.312642825326E+01    0.30463E+00   -0.14807E-01 64470   0.829E-02    0.125E+00
DAV:   3    -0.297570048384E+01    0.15073E+00   -0.21367E-01 63840   0.812E-02    0.185E-01
DAV:   4    -0.297375981278E+01    0.19407E-02   -0.10379E-03 60438   0.102E-02    0.831E-02
DAV:   5    -0.297052878759E+01    0.32310E-02   -0.28345E-03 64428   0.788E-03    0.518E-02
DAV:   6    -0.297139258493E+01   -0.86380E-03   -0.35883E-04 64344   0.526E-03    0.448E-02
DAV:   7    -0.297139086247E+01    0.17225E-05   -0.12738E-03 65352   0.535E-03    0.147E-02
DAV:   8    -0.297189457104E+01   -0.50371E-03   -0.47766E-05 62496   0.151E-03    0.117E-02
DAV:   9    -0.297206082972E+01   -0.16626E-03   -0.47010E-05 62202   0.122E-03    0.397E-03
DAV:  10    -0.297226148107E+01   -0.20065E-03   -0.37174E-05 60354   0.811E-04    0.156E-03
DAV:  11    -0.297230861450E+01   -0.47133E-04   -0.57467E-06 57456   0.237E-04    0.941E-04
DAV:  12    -0.297233850367E+01   -0.29889E-04   -0.42342E-06 59766   0.164E-04    0.455E-04
DAV:  13    -0.297234692682E+01   -0.84232E-05   -0.37748E-07 60480   0.621E-05    0.198E-04
DAV:  14    -0.297234773131E+01   -0.80449E-06   -0.55526E-08 57120   0.263E-05
   1 F= -.29723477E+01 E0= -.29723023E+01  d E =-.908057E-04
 imaginary and real dielectric function
