   3   3   0   0
  0.8374985E+02  0.2506240E-09  0.2506240E-09  0.4000000E-08  0.5000000E-15
  1.000000000000000E-004
  CAR 
 Convergence                             
     21.08706032    -14.12088542  301     -2.21160048      1.00000000
    -14.121  0.0000E+00  0.0000E+00
    -14.004  0.0000E+00  0.0000E+00
    -13.886  0.0000E+00  0.0000E+00
    -13.769  0.0000E+00  0.0000E+00
    -13.651  0.0000E+00  0.0000E+00
    -13.534  0.0000E+00  0.0000E+00
    -13.417  0.0000E+00  0.0000E+00
    -13.299  0.0000E+00  0.0000E+00
    -13.182  0.0000E+00  0.0000E+00
    -13.065  0.0000E+00  0.0000E+00
    -12.947  0.0000E+00  0.0000E+00
    -12.830  0.0000E+00  0.0000E+00
    -12.713  0.2813E-08  0.3301E-09
    -12.595  0.1747E-02  0.2051E-03
    -12.478  0.1048E+00  0.1251E-01
    -12.360  0.4123E+00  0.6090E-01
    -12.243  0.3792E+00  0.1054E+00
    -12.126  0.1273E+00  0.1203E+00
    -12.008  0.6351E+00  0.1949E+00
    -11.891  0.4565E+00  0.2484E+00
    -11.774  0.4645E-02  0.2490E+00
    -11.656  0.3457E+00  0.2896E+00
    -11.539  0.4755E+00  0.3454E+00
    -11.422  0.7584E+00  0.4344E+00
    -11.304  0.2996E-01  0.4379E+00
    -11.187  0.2801E+00  0.4707E+00
    -11.070  0.5252E+00  0.5324E+00
    -10.952  0.4229E-02  0.5329E+00
    -10.835  0.3375E+00  0.5725E+00
    -10.717  0.7978E+00  0.6661E+00
    -10.600  0.4505E+00  0.7190E+00
    -10.483  0.1637E+00  0.7382E+00
    -10.365  0.6607E+00  0.8157E+00
    -10.248  0.7100E-02  0.8166E+00
    -10.131  0.3498E-07  0.8166E+00
    -10.013  0.1819E-01  0.8187E+00
     -9.896  0.1074E+01  0.9447E+00
     -9.779  0.8881E+00  0.1049E+01
     -9.661  0.3666E-01  0.1053E+01
     -9.544  0.2532E+00  0.1083E+01
     -9.426  0.5516E+00  0.1148E+01
     -9.309  0.3476E-02  0.1148E+01
     -9.192  0.3003E+00  0.1183E+01
     -9.074  0.1355E+00  0.1199E+01
     -8.957  0.7316E+00  0.1285E+01
     -8.840  0.4396E+00  0.1337E+01
     -8.722  0.1071E+01  0.1462E+01
     -8.605  0.5320E+00  0.1525E+01
     -8.488  0.2521E+00  0.1554E+01
     -8.370  0.1099E+01  0.1683E+01
     -8.253  0.1502E+01  0.1860E+01
     -8.136  0.8608E-01  0.1870E+01
     -8.018  0.9799E-01  0.1881E+01
     -7.901  0.1221E+01  0.2025E+01
     -7.783  0.8020E+00  0.2119E+01
     -7.666  0.2994E+00  0.2154E+01
     -7.549  0.9450E-02  0.2155E+01
     -7.431  0.9146E+00  0.2262E+01
     -7.314  0.4667E+00  0.2317E+01
     -7.197  0.1743E+01  0.2522E+01
     -7.079  0.1108E+01  0.2652E+01
     -6.962  0.3567E+00  0.2694E+01
     -6.845  0.1039E+01  0.2815E+01
     -6.727  0.6981E+00  0.2897E+01
     -6.610  0.1184E+00  0.2911E+01
     -6.492  0.3586E+00  0.2953E+01
     -6.375  0.1632E+01  0.3145E+01
     -6.258  0.8150E+00  0.3240E+01
     -6.140  0.8017E+00  0.3335E+01
     -6.023  0.3386E-01  0.3339E+01
     -5.906  0.1367E+01  0.3499E+01
     -5.788  0.1140E+01  0.3633E+01
     -5.671  0.1070E+01  0.3758E+01
     -5.554  0.8707E+00  0.3861E+01
     -5.436  0.1296E+01  0.4013E+01
     -5.319  0.1390E+01  0.4176E+01
     -5.202  0.1126E+01  0.4308E+01
     -5.084  0.6555E+00  0.4385E+01
     -4.967  0.9577E+00  0.4497E+01
     -4.849  0.2998E+00  0.4532E+01
     -4.732  0.4926E+00  0.4590E+01
     -4.615  0.1792E+01  0.4801E+01
     -4.497  0.2156E+01  0.5054E+01
     -4.380  0.8765E+00  0.5157E+01
     -4.263  0.7489E+00  0.5244E+01
     -4.145  0.8438E+00  0.5343E+01
     -4.028  0.7313E+00  0.5429E+01
     -3.911  0.4110E-01  0.5434E+01
     -3.793  0.7142E+00  0.5518E+01
     -3.676  0.6997E+00  0.5600E+01
     -3.559  0.1620E+01  0.5790E+01
     -3.441  0.1739E+00  0.5811E+01
     -3.324  0.9378E-02  0.5812E+01
     -3.206  0.3568E+00  0.5854E+01
     -3.089  0.3715E-01  0.5858E+01
     -2.972  0.6781E-06  0.5858E+01
     -2.854  0.1305E-11  0.5858E+01
     -2.737  0.1067E-03  0.5858E+01
     -2.620  0.2995E+00  0.5893E+01
     -2.502  0.5060E+00  0.5953E+01
     -2.385  0.1121E-02  0.5953E+01
     -2.268  0.3173E-01  0.5956E+01
     -2.150  0.1675E+01  0.6153E+01
     -2.033  0.2535E+01  0.6451E+01
     -1.915  0.9060E+00  0.6557E+01
     -1.798  0.1061E+01  0.6681E+01
     -1.681  0.5115E+00  0.6741E+01
     -1.563  0.1665E+01  0.6937E+01
     -1.446  0.1226E+01  0.7081E+01
     -1.329  0.2376E+01  0.7359E+01
     -1.211  0.2078E+01  0.7603E+01
     -1.094  0.2117E+01  0.7852E+01
     -0.977  0.2153E+01  0.8105E+01
     -0.859  0.2106E+01  0.8352E+01
     -0.742  0.1502E+01  0.8528E+01
     -0.625  0.4035E+00  0.8575E+01
     -0.507  0.1994E+01  0.8809E+01
     -0.390  0.2279E+01  0.9077E+01
     -0.272  0.9080E+00  0.9183E+01
     -0.155  0.4768E+00  0.9239E+01
     -0.038  0.1252E+01  0.9386E+01
      0.080  0.1447E+01  0.9556E+01
      0.197  0.3340E+00  0.9595E+01
      0.314  0.1208E+00  0.9609E+01
      0.432  0.1521E-01  0.9611E+01
      0.549  0.1433E+01  0.9779E+01
      0.666  0.6630E+00  0.9857E+01
      0.784  0.4019E+00  0.9904E+01
      0.901  0.3589E+00  0.9947E+01
      1.019  0.4201E+00  0.9996E+01
      1.136  0.4109E+00  0.1004E+02
      1.253  0.8242E+00  0.1014E+02
      1.371  0.8143E+00  0.1024E+02
      1.488  0.1532E+01  0.1042E+02
      1.605  0.1880E+01  0.1064E+02
      1.723  0.3847E+01  0.1109E+02
      1.840  0.2410E+01  0.1137E+02
      1.957  0.2331E+01  0.1164E+02
      2.075  0.4094E+01  0.1213E+02
      2.192  0.3272E+01  0.1251E+02
      2.309  0.3159E+01  0.1288E+02
      2.427  0.2160E+01  0.1313E+02
      2.544  0.2619E+01  0.1344E+02
      2.662  0.3218E+01  0.1382E+02
      2.779  0.4049E+01  0.1429E+02
      2.896  0.4158E+01  0.1478E+02
      3.014  0.4553E+01  0.1532E+02
      3.131  0.4024E+01  0.1579E+02
      3.248  0.4881E+01  0.1636E+02
      3.366  0.2270E+01  0.1663E+02
      3.483  0.4135E+01  0.1711E+02
      3.600  0.2911E+01  0.1745E+02
      3.718  0.2914E+01  0.1780E+02
      3.835  0.4327E+01  0.1830E+02
      3.953  0.5596E+01  0.1896E+02
      4.070  0.2665E+01  0.1927E+02
      4.187  0.3579E+01  0.1969E+02
      4.305  0.3291E+01  0.2008E+02
      4.422  0.3581E+01  0.2050E+02
      4.539  0.4467E+01  0.2102E+02
      4.657  0.4484E+01  0.2155E+02
      4.774  0.3368E+01  0.2195E+02
      4.891  0.3999E+01  0.2242E+02
      5.009  0.4304E+01  0.2292E+02
      5.126  0.5953E+01  0.2362E+02
      5.243  0.4927E+01  0.2420E+02
      5.361  0.2192E+01  0.2445E+02
      5.478  0.3780E+01  0.2490E+02
      5.596  0.4213E+01  0.2539E+02
      5.713  0.5903E+01  0.2609E+02
      5.830  0.5441E+01  0.2672E+02
      5.948  0.3532E+01  0.2714E+02
      6.065  0.4002E+01  0.2761E+02
      6.182  0.4814E+01  0.2817E+02
      6.300  0.4049E+01  0.2865E+02
      6.417  0.4780E+01  0.2921E+02
      6.534  0.3815E+01  0.2966E+02
      6.652  0.4661E+01  0.3020E+02
      6.769  0.5177E+01  0.3081E+02
      6.887  0.5710E+01  0.3148E+02
      7.004  0.4716E+01  0.3204E+02
      7.121  0.6456E+01  0.3279E+02
      7.239  0.6490E+01  0.3355E+02
      7.356  0.5101E+01  0.3415E+02
      7.473  0.2917E+01  0.3450E+02
      7.591  0.4761E+01  0.3505E+02
      7.708  0.5600E+01  0.3571E+02
      7.825  0.5477E+01  0.3635E+02
      7.943  0.5367E+01  0.3698E+02
      8.060  0.4670E+01  0.3753E+02
      8.177  0.5386E+01  0.3816E+02
      8.295  0.6979E+01  0.3898E+02
      8.412  0.6726E+01  0.3977E+02
      8.530  0.6981E+01  0.4059E+02
      8.647  0.5405E+01  0.4123E+02
      8.764  0.6593E+01  0.4200E+02
      8.882  0.6975E+01  0.4282E+02
      8.999  0.4485E+01  0.4335E+02
      9.116  0.4825E+01  0.4391E+02
      9.234  0.4883E+01  0.4448E+02
      9.351  0.5298E+01  0.4511E+02
      9.468  0.5474E+01  0.4575E+02
      9.586  0.3370E+01  0.4614E+02
      9.703  0.5902E+01  0.4684E+02
      9.821  0.7696E+01  0.4774E+02
      9.938  0.5942E+01  0.4844E+02
     10.055  0.5358E+01  0.4907E+02
     10.173  0.5947E+01  0.4976E+02
     10.290  0.6553E+01  0.5053E+02
     10.407  0.6626E+01  0.5131E+02
     10.525  0.6518E+01  0.5208E+02
     10.642  0.6273E+01  0.5281E+02
     10.759  0.6375E+01  0.5356E+02
     10.877  0.4922E+01  0.5414E+02
     10.994  0.5115E+01  0.5474E+02
     11.111  0.6153E+01  0.5546E+02
     11.229  0.5674E+01  0.5613E+02
     11.346  0.3890E+01  0.5658E+02
     11.464  0.6876E+01  0.5739E+02
     11.581  0.6079E+01  0.5810E+02
     11.698  0.5550E+01  0.5876E+02
     11.816  0.6450E+01  0.5951E+02
     11.933  0.6287E+01  0.6025E+02
     12.050  0.5407E+01  0.6088E+02
     12.168  0.5654E+01  0.6155E+02
     12.285  0.6094E+01  0.6226E+02
     12.402  0.6111E+01  0.6298E+02
     12.520  0.7605E+01  0.6387E+02
     12.637  0.7736E+01  0.6478E+02
     12.755  0.6148E+01  0.6550E+02
     12.872  0.7240E+01  0.6635E+02
     12.989  0.5629E+01  0.6701E+02
     13.107  0.6315E+01  0.6775E+02
     13.224  0.7346E+01  0.6862E+02
     13.341  0.5933E+01  0.6931E+02
     13.459  0.6171E+01  0.7004E+02
     13.576  0.6013E+01  0.7074E+02
     13.693  0.6080E+01  0.7146E+02
     13.811  0.7764E+01  0.7237E+02
     13.928  0.6199E+01  0.7309E+02
     14.045  0.6073E+01  0.7381E+02
     14.163  0.5574E+01  0.7446E+02
     14.280  0.5980E+01  0.7516E+02
     14.398  0.4998E+01  0.7575E+02
     14.515  0.6145E+01  0.7647E+02
     14.632  0.4908E+01  0.7705E+02
     14.750  0.3469E+01  0.7745E+02
     14.867  0.4648E+01  0.7800E+02
     14.984  0.5527E+01  0.7865E+02
     15.102  0.2940E+01  0.7899E+02
     15.219  0.2577E+01  0.7930E+02
     15.336  0.2799E+01  0.7962E+02
     15.454  0.2159E+01  0.7988E+02
     15.571  0.2425E+01  0.8016E+02
     15.689  0.2233E+01  0.8042E+02
     15.806  0.3187E+01  0.8080E+02
     15.923  0.2576E+01  0.8110E+02
     16.041  0.2588E+01  0.8140E+02
     16.158  0.2528E+01  0.8170E+02
     16.275  0.2290E+01  0.8197E+02
     16.393  0.1997E+01  0.8220E+02
     16.510  0.1995E+01  0.8244E+02
     16.627  0.2153E+01  0.8269E+02
     16.745  0.1120E+01  0.8282E+02
     16.862  0.1722E+00  0.8284E+02
     16.979  0.6652E-01  0.8285E+02
     17.097  0.1610E+00  0.8287E+02
     17.214  0.5450E+00  0.8293E+02
     17.332  0.1273E+01  0.8308E+02
     17.449  0.1075E+01  0.8321E+02
     17.566  0.3236E+00  0.8325E+02
     17.684  0.7772E+00  0.8334E+02
     17.801  0.6287E+00  0.8341E+02
     17.918  0.5950E+00  0.8348E+02
     18.036  0.7064E+00  0.8356E+02
     18.153  0.1524E+00  0.8358E+02
     18.270  0.4271E+00  0.8363E+02
     18.388  0.1013E+01  0.8375E+02
     18.505  0.6026E+00  0.8382E+02
     18.623  0.3066E+00  0.8386E+02
     18.740  0.1408E+00  0.8387E+02
     18.857  0.1271E+00  0.8389E+02
     18.975  0.3668E-01  0.8389E+02
     19.092  0.1150E-03  0.8389E+02
     19.209  0.4720E-02  0.8389E+02
     19.327  0.1777E+00  0.8391E+02
     19.444  0.3508E+00  0.8396E+02
     19.561  0.3722E+00  0.8400E+02
     19.679  0.2156E-02  0.8400E+02
     19.796  0.1709E-08  0.8400E+02
     19.913  0.0000E+00  0.8400E+02
     20.031  0.0000E+00  0.8400E+02
     20.148  0.0000E+00  0.8400E+02
     20.266  0.0000E+00  0.8400E+02
     20.383  0.0000E+00  0.8400E+02
     20.500  0.0000E+00  0.8400E+02
     20.618  0.0000E+00  0.8400E+02
     20.735  0.0000E+00  0.8400E+02
     20.852  0.0000E+00  0.8400E+02
     20.970  0.0000E+00  0.8400E+02
     21.087  0.0000E+00  0.8400E+02
