   4   4   0   0
  0.4073369E+02  0.2146950E-09  0.2186389E-09  0.4000000E-08  0.5000000E-15
  1.000000000000000E-004
  CAR 
 Geometry                                
     15.72078967    -15.05498922  301     -3.09021694      1.00000000
    -15.055  0.0000E+00  0.0000E+00
    -14.952  0.0000E+00  0.0000E+00
    -14.850  0.0000E+00  0.0000E+00
    -14.747  0.0000E+00  0.0000E+00
    -14.645  0.0000E+00  0.0000E+00
    -14.542  0.0000E+00  0.0000E+00
    -14.439  0.0000E+00  0.0000E+00
    -14.337  0.0000E+00  0.0000E+00
    -14.234  0.0000E+00  0.0000E+00
    -14.132  0.0000E+00  0.0000E+00
    -14.029  0.0000E+00  0.0000E+00
    -13.927  0.2702E-17  0.2772E-18
    -13.824  0.2838E-09  0.2911E-10
    -13.721  0.1219E-04  0.1250E-05
    -13.619  0.1080E-02  0.1120E-03
    -13.516  0.2711E-02  0.3902E-03
    -13.414  0.2767E-02  0.6740E-03
    -13.311  0.2586E-02  0.9392E-03
    -13.208  0.3138E-02  0.1261E-02
    -13.106  0.2177E-02  0.1484E-02
    -13.003  0.3808E-02  0.1875E-02
    -12.901  0.1863E-02  0.2066E-02
    -12.798  0.2809E-02  0.2354E-02
    -12.696  0.3703E-02  0.2734E-02
    -12.593  0.2297E-02  0.2970E-02
    -12.490  0.1799E-02  0.3155E-02
    -12.388  0.4805E-02  0.3647E-02
    -12.285  0.1853E-02  0.3838E-02
    -12.183  0.2549E-02  0.4099E-02
    -12.080  0.4985E-02  0.4611E-02
    -11.977  0.6877E-02  0.5316E-02
    -11.875  0.4740E-02  0.5802E-02
    -11.772  0.4948E-02  0.6310E-02
    -11.670  0.6560E-02  0.6983E-02
    -11.567  0.5172E-02  0.7513E-02
    -11.464  0.6919E-02  0.8223E-02
    -11.362  0.3312E-02  0.8563E-02
    -11.259  0.7586E-02  0.9341E-02
    -11.157  0.5926E-02  0.9949E-02
    -11.054  0.4873E-02  0.1045E-01
    -10.952  0.5545E-02  0.1102E-01
    -10.849  0.6673E-02  0.1170E-01
    -10.746  0.5992E-02  0.1232E-01
    -10.644  0.6732E-02  0.1301E-01
    -10.541  0.3914E-02  0.1341E-01
    -10.439  0.7021E-02  0.1413E-01
    -10.336  0.4654E-02  0.1461E-01
    -10.233  0.9779E-02  0.1561E-01
    -10.131  0.5301E-02  0.1615E-01
    -10.028  0.3459E-02  0.1651E-01
     -9.926  0.6748E-02  0.1720E-01
     -9.823  0.8073E-02  0.1803E-01
     -9.721  0.6511E-02  0.1870E-01
     -9.618  0.6833E-02  0.1940E-01
     -9.515  0.5620E-02  0.1997E-01
     -9.413  0.7224E-02  0.2072E-01
     -9.310  0.6334E-02  0.2137E-01
     -9.208  0.7003E-02  0.2208E-01
     -9.105  0.8097E-02  0.2291E-01
     -9.002  0.9036E-02  0.2384E-01
     -8.900  0.8119E-02  0.2467E-01
     -8.797  0.8780E-02  0.2558E-01
     -8.695  0.1257E-01  0.2686E-01
     -8.592  0.1381E-01  0.2828E-01
     -8.489  0.1150E-01  0.2946E-01
     -8.387  0.9141E-02  0.3040E-01
     -8.284  0.1140E-01  0.3157E-01
     -8.182  0.1336E-01  0.3294E-01
     -8.079  0.1184E-01  0.3415E-01
     -7.977  0.7982E-02  0.3497E-01
     -7.874  0.9856E-02  0.3598E-01
     -7.771  0.1185E-01  0.3720E-01
     -7.669  0.8615E-02  0.3808E-01
     -7.566  0.1043E-01  0.3915E-01
     -7.464  0.1133E-01  0.4032E-01
     -7.361  0.1236E-01  0.4158E-01
     -7.258  0.1235E-01  0.4285E-01
     -7.156  0.9923E-02  0.4387E-01
     -7.053  0.1231E-01  0.4513E-01
     -6.951  0.1048E-01  0.4621E-01
     -6.848  0.7490E-02  0.4697E-01
     -6.746  0.4807E-02  0.4747E-01
     -6.643  0.5300E-02  0.4801E-01
     -6.540  0.4284E-02  0.4845E-01
     -6.438  0.4423E-02  0.4890E-01
     -6.335  0.4445E-02  0.4936E-01
     -6.233  0.3340E-02  0.4970E-01
     -6.130  0.2374E-02  0.4995E-01
     -6.027  0.3443E-02  0.5030E-01
     -5.925  0.6968E-02  0.5101E-01
     -5.822  0.3183E-02  0.5134E-01
     -5.720  0.2761E-02  0.5162E-01
     -5.617  0.3196E-02  0.5195E-01
     -5.514  0.1935E-02  0.5215E-01
     -5.412  0.5292E-02  0.5269E-01
     -5.309  0.1578E-02  0.5286E-01
     -5.207  0.4404E-02  0.5331E-01
     -5.104  0.3877E-02  0.5371E-01
     -5.002  0.3672E-02  0.5408E-01
     -4.899  0.4485E-02  0.5454E-01
     -4.796  0.2081E-02  0.5476E-01
     -4.694  0.1715E-02  0.5493E-01
     -4.591  0.1528E-02  0.5509E-01
     -4.489  0.3122E-02  0.5541E-01
     -4.386  0.5584E-02  0.5598E-01
     -4.283  0.4986E-02  0.5649E-01
     -4.181  0.3538E-02  0.5686E-01
     -4.078  0.2648E-02  0.5713E-01
     -3.976  0.1253E-02  0.5726E-01
     -3.873  0.2323E-02  0.5749E-01
     -3.771  0.1464E-02  0.5764E-01
     -3.668  0.2721E-02  0.5792E-01
     -3.565  0.7203E-02  0.5866E-01
     -3.463  0.3818E-02  0.5905E-01
     -3.360  0.2398E-02  0.5930E-01
     -3.258  0.3699E-02  0.5968E-01
     -3.155  0.2092E-02  0.5989E-01
     -3.052  0.1541E-02  0.6005E-01
     -2.950  0.2477E-02  0.6031E-01
     -2.847  0.4900E-02  0.6081E-01
     -2.745  0.1424E-02  0.6096E-01
     -2.642  0.4133E-02  0.6138E-01
     -2.540  0.5139E-02  0.6191E-01
     -2.437  0.3322E-02  0.6225E-01
     -2.334  0.2119E-02  0.6246E-01
     -2.232  0.4640E-02  0.6294E-01
     -2.129  0.3116E-02  0.6326E-01
     -2.027  0.2772E-02  0.6354E-01
     -1.924  0.2182E-02  0.6377E-01
     -1.821  0.1816E-02  0.6395E-01
     -1.719  0.4938E-02  0.6446E-01
     -1.616  0.8770E-02  0.6536E-01
     -1.514  0.6689E-02  0.6605E-01
     -1.411  0.3288E-02  0.6638E-01
     -1.308  0.2422E-02  0.6663E-01
     -1.206  0.3312E-02  0.6697E-01
     -1.103  0.3069E-02  0.6729E-01
     -1.001  0.1667E-02  0.6746E-01
     -0.898  0.2610E-03  0.6748E-01
     -0.796  0.1062E-02  0.6759E-01
     -0.693  0.4177E-02  0.6802E-01
     -0.590  0.4415E-02  0.6848E-01
     -0.488  0.6034E-02  0.6909E-01
     -0.385  0.9901E-02  0.7011E-01
     -0.283  0.1231E-01  0.7137E-01
     -0.180  0.1238E-01  0.7264E-01
     -0.077  0.1128E-01  0.7380E-01
      0.025  0.7477E-02  0.7457E-01
      0.128  0.1241E-01  0.7584E-01
      0.230  0.9784E-02  0.7684E-01
      0.333  0.7514E-02  0.7762E-01
      0.435  0.9421E-02  0.7858E-01
      0.538  0.9661E-02  0.7957E-01
      0.641  0.7528E-02  0.8035E-01
      0.743  0.7515E-02  0.8112E-01
      0.846  0.1101E-01  0.8224E-01
      0.948  0.1349E-01  0.8363E-01
      1.051  0.1527E-01  0.8520E-01
      1.154  0.1359E-01  0.8659E-01
      1.256  0.1459E-01  0.8809E-01
      1.359  0.1826E-01  0.8996E-01
      1.461  0.1843E-01  0.9185E-01
      1.564  0.2011E-01  0.9391E-01
      1.667  0.2278E-01  0.9625E-01
      1.769  0.2112E-01  0.9842E-01
      1.872  0.2358E-01  0.1008E+00
      1.974  0.2536E-01  0.1034E+00
      2.077  0.2206E-01  0.1057E+00
      2.179  0.2654E-01  0.1084E+00
      2.282  0.3245E-01  0.1118E+00
      2.385  0.3763E-01  0.1156E+00
      2.487  0.2713E-01  0.1184E+00
      2.590  0.2547E-01  0.1210E+00
      2.692  0.2399E-01  0.1235E+00
      2.795  0.2538E-01  0.1261E+00
      2.898  0.2222E-01  0.1284E+00
      3.000  0.2179E-01  0.1306E+00
      3.103  0.2565E-01  0.1332E+00
      3.205  0.2602E-01  0.1359E+00
      3.308  0.2501E-01  0.1385E+00
      3.410  0.2086E-01  0.1406E+00
      3.513  0.2807E-01  0.1435E+00
      3.616  0.2293E-01  0.1458E+00
      3.718  0.2778E-01  0.1487E+00
      3.821  0.3085E-01  0.1518E+00
      3.923  0.2575E-01  0.1545E+00
      4.026  0.2421E-01  0.1570E+00
      4.129  0.2662E-01  0.1597E+00
      4.231  0.3171E-01  0.1629E+00
      4.334  0.2563E-01  0.1656E+00
      4.436  0.2910E-01  0.1686E+00
      4.539  0.3372E-01  0.1720E+00
      4.642  0.4009E-01  0.1761E+00
      4.744  0.2786E-01  0.1790E+00
      4.847  0.3264E-01  0.1823E+00
      4.949  0.2940E-01  0.1854E+00
      5.052  0.3560E-01  0.1890E+00
      5.154  0.4083E-01  0.1932E+00
      5.257  0.3505E-01  0.1968E+00
      5.360  0.3209E-01  0.2001E+00
      5.462  0.3736E-01  0.2039E+00
      5.565  0.4331E-01  0.2084E+00
      5.667  0.4605E-01  0.2131E+00
      5.770  0.3525E-01  0.2167E+00
      5.873  0.3682E-01  0.2205E+00
      5.975  0.4194E-01  0.2248E+00
      6.078  0.4169E-01  0.2291E+00
      6.180  0.3780E-01  0.2329E+00
      6.283  0.3105E-01  0.2361E+00
      6.385  0.3566E-01  0.2398E+00
      6.488  0.4156E-01  0.2440E+00
      6.591  0.3662E-01  0.2478E+00
      6.693  0.3678E-01  0.2516E+00
      6.796  0.3507E-01  0.2552E+00
      6.898  0.4487E-01  0.2598E+00
      7.001  0.4106E-01  0.2640E+00
      7.104  0.3491E-01  0.2676E+00
      7.206  0.3610E-01  0.2713E+00
      7.309  0.4032E-01  0.2754E+00
      7.411  0.4054E-01  0.2796E+00
      7.514  0.4859E-01  0.2845E+00
      7.617  0.4035E-01  0.2887E+00
      7.719  0.3646E-01  0.2924E+00
      7.822  0.3673E-01  0.2962E+00
      7.924  0.3678E-01  0.3000E+00
      8.027  0.3419E-01  0.3035E+00
      8.129  0.3780E-01  0.3074E+00
      8.232  0.3897E-01  0.3114E+00
      8.335  0.4995E-01  0.3165E+00
      8.437  0.4481E-01  0.3211E+00
      8.540  0.3587E-01  0.3248E+00
      8.642  0.3483E-01  0.3283E+00
      8.745  0.4298E-01  0.3327E+00
      8.848  0.4519E-01  0.3374E+00
      8.950  0.4360E-01  0.3418E+00
      9.053  0.4807E-01  0.3468E+00
      9.155  0.4695E-01  0.3516E+00
      9.258  0.5157E-01  0.3569E+00
      9.360  0.4301E-01  0.3613E+00
      9.463  0.3978E-01  0.3654E+00
      9.566  0.3930E-01  0.3694E+00
      9.668  0.4139E-01  0.3737E+00
      9.771  0.3535E-01  0.3773E+00
      9.873  0.3886E-01  0.3813E+00
      9.976  0.4368E-01  0.3857E+00
     10.079  0.4263E-01  0.3901E+00
     10.181  0.4006E-01  0.3942E+00
     10.284  0.4260E-01  0.3986E+00
     10.386  0.4166E-01  0.4029E+00
     10.489  0.4500E-01  0.4075E+00
     10.591  0.3813E-01  0.4114E+00
     10.694  0.3441E-01  0.4149E+00
     10.797  0.3246E-01  0.4183E+00
     10.899  0.3110E-01  0.4215E+00
     11.002  0.2977E-01  0.4245E+00
     11.104  0.4120E-01  0.4287E+00
     11.207  0.3088E-01  0.4319E+00
     11.310  0.3249E-01  0.4352E+00
     11.412  0.1933E-01  0.4372E+00
     11.515  0.2852E-01  0.4401E+00
     11.617  0.2533E-01  0.4427E+00
     11.720  0.2060E-01  0.4449E+00
     11.823  0.2213E-01  0.4471E+00
     11.925  0.2043E-01  0.4492E+00
     12.028  0.2558E-01  0.4518E+00
     12.130  0.2290E-01  0.4542E+00
     12.233  0.2270E-01  0.4565E+00
     12.335  0.2057E-01  0.4586E+00
     12.438  0.2065E-01  0.4607E+00
     12.541  0.2195E-01  0.4630E+00
     12.643  0.1894E-01  0.4649E+00
     12.746  0.1683E-01  0.4667E+00
     12.848  0.1510E-01  0.4682E+00
     12.951  0.1504E-01  0.4698E+00
     13.054  0.1564E-01  0.4714E+00
     13.156  0.1080E-01  0.4725E+00
     13.259  0.1349E-01  0.4739E+00
     13.361  0.1436E-01  0.4753E+00
     13.464  0.1022E-01  0.4764E+00
     13.566  0.9838E-02  0.4774E+00
     13.669  0.8230E-02  0.4782E+00
     13.772  0.6741E-02  0.4789E+00
     13.874  0.2801E-02  0.4792E+00
     13.977  0.1363E-02  0.4794E+00
     14.079  0.1613E-02  0.4795E+00
     14.182  0.3657E-02  0.4799E+00
     14.285  0.5966E-03  0.4800E+00
     14.387  0.4401E-03  0.4800E+00
     14.490  0.1734E-04  0.4800E+00
     14.592  0.5494E-09  0.4800E+00
     14.695  0.5404E-17  0.4800E+00
     14.798  0.0000E+00  0.4800E+00
     14.900  0.0000E+00  0.4800E+00
     15.003  0.0000E+00  0.4800E+00
     15.105  0.0000E+00  0.4800E+00
     15.208  0.0000E+00  0.4800E+00
     15.310  0.0000E+00  0.4800E+00
     15.413  0.0000E+00  0.4800E+00
     15.516  0.0000E+00  0.4800E+00
     15.618  0.0000E+00  0.4800E+00
     15.721  0.0000E+00  0.4800E+00
