cubic-Beryllium
1.0
       -3.7522933193        -3.7522933193         3.7522933193
       -3.7522924933         3.7522937323        -3.7522937323
        3.7522953844        -3.7522924933        -3.7522920803
   Be
   27
Direct
     0.000000000         0.000000000         0.000000000
     0.000000000         0.000000000         0.333333333
     0.000000000         0.000000000         0.666666667
     0.000000000         0.333333333         0.000000000
     0.000000000         0.333333333         0.333333333
     0.000000000         0.333333333         0.666666667
     0.000000000         0.666666667         0.000000000
     0.000000000         0.666666667         0.333333333
     0.000000000         0.666666667         0.666666667
     0.333333333         0.000000000         0.000000000
     0.333333333         0.000000000         0.333333333
     0.333333333         0.000000000         0.666666667
     0.333333333         0.333333333         0.000000000
     0.333333333         0.333333333         0.333333333
     0.333333333         0.333333333         0.666666667
     0.333333333         0.666666667         0.000000000
     0.333333333         0.666666667         0.333333333
     0.333333333         0.666666667         0.666666667
     0.666666667         0.000000000         0.000000000
     0.666666667         0.000000000         0.333333333
     0.666666667         0.000000000         0.666666667
     0.666666667         0.333333333         0.000000000
     0.666666667         0.333333333         0.333333333
     0.666666667         0.333333333         0.666666667
     0.666666667         0.666666667         0.000000000
     0.666666667         0.666666667         0.333333333
     0.666666667         0.666666667         0.666666667
