 running   84 mpi-ranks, on    1 nodes
 distrk:  each k-point on   84 cores,    1 groups
 distr:  one band on    7 cores,   12 groups
 vasp.6.5.1 10Mar25 (build Mar 14 2025 17:12:02) complex                        
  
 POSCAR found type information on POSCAR BeH 
 POSCAR found :  2 types and     100 ions
 Reading from existing POTCAR
 scaLAPACK will be used
 Reading from existing POTCAR
 -----------------------------------------------------------------------------
|                                                                             |
|               ----> ADVICE to this user running VASP <----                  |
|                                                                             |
|     You have a (more or less) 'large supercell' and for larger cells it     |
|     might be more efficient to use real-space projection operators.         |
|     Therefore, try LREAL= Auto in the INCAR file.                           |
|     Mind: For very accurate calculation, you might also keep the            |
|     reciprocal projection scheme (i.e. LREAL=.FALSE.).                      |
|                                                                             |
 -----------------------------------------------------------------------------

 LDA part: xc-table for (Slater+PW92), standard interpolation
 POSCAR, INCAR and KPOINTS ok, starting setup
 FFT: planning ... GRIDC
 FFT: planning ... GRID_SOFT
 FFT: planning ... GRID
 WAVECAR not read
 entering main loop
       N       E                     dE             d eps       ncg     rms          rms(c)
DAV:   1     0.963397741290E+03    0.96340E+03   -0.41415E+04  3432   0.807E+02
DAV:   2    -0.213936871092E+03   -0.11773E+04   -0.11332E+04  5424   0.172E+02
DAV:   3    -0.359414133271E+03   -0.14548E+03   -0.14331E+03  4380   0.655E+01
DAV:   4    -0.363314749459E+03   -0.39006E+01   -0.38885E+01  4452   0.124E+01
DAV:   5    -0.363401587381E+03   -0.86838E-01   -0.86733E-01  4992   0.163E+00    0.210E+01
DAV:   6    -0.352167830525E+03    0.11234E+02   -0.41975E+00  3732   0.389E+00    0.121E+01
DAV:   7    -0.344986267399E+03    0.71816E+01   -0.96357E+00  3768   0.561E+00    0.143E+00
DAV:   8    -0.344561614200E+03    0.42465E+00   -0.10223E+00  4332   0.198E+00    0.870E-01
DAV:   9    -0.344486897135E+03    0.74717E-01   -0.14241E-01  4488   0.722E-01    0.632E-01
DAV:  10    -0.344449228813E+03    0.37668E-01   -0.53109E-02  4068   0.519E-01    0.230E-01
DAV:  11    -0.344445044010E+03    0.41848E-02   -0.23610E-02  4092   0.295E-01    0.240E-01
DAV:  12    -0.344456126044E+03   -0.11082E-01   -0.23308E-02  3864   0.249E-01    0.832E-02
DAV:  13    -0.344472998921E+03   -0.16873E-01   -0.84834E-03  3948   0.174E-01    0.131E-01
DAV:  14    -0.344486599071E+03   -0.13600E-01   -0.61415E-03  3696   0.161E-01    0.563E-02
DAV:  15    -0.344488941278E+03   -0.23422E-02   -0.63467E-04  4368   0.489E-02    0.524E-02
DAV:  16    -0.344492194857E+03   -0.32536E-02   -0.50400E-04  3780   0.480E-02    0.239E-02
DAV:  17    -0.344493075350E+03   -0.88049E-03   -0.12607E-04  4152   0.237E-02    0.574E-03
DAV:  18    -0.344493654587E+03   -0.57924E-03   -0.25289E-05  3936   0.810E-03    0.680E-03
DAV:  19    -0.344493775361E+03   -0.12077E-03   -0.24412E-06  4416   0.301E-03    0.174E-03
DAV:  20    -0.344493878464E+03   -0.10310E-03   -0.11439E-06  3852   0.187E-03    0.227E-03
DAV:  21    -0.344493906966E+03   -0.28503E-04   -0.73712E-08  3732   0.463E-04    0.159E-03
DAV:  22    -0.344493935467E+03   -0.28501E-04   -0.37318E-07  3564   0.120E-03    0.614E-04
DAV:  23    -0.344493942266E+03   -0.67996E-05   -0.53703E-08  3960   0.528E-04    0.295E-04
DAV:  24    -0.344493944934E+03   -0.26678E-05   -0.45081E-09  3288   0.173E-04    0.533E-05
DAV:  25    -0.344493946020E+03   -0.10861E-05    0.41871E-09  2856   0.922E-05    0.330E-05
DAV:  26    -0.344493946271E+03   -0.25029E-06    0.64483E-09  2784   0.510E-05    0.381E-05
DAV:  27    -0.344493946385E+03   -0.11451E-06    0.68197E-09  2664   0.328E-05    0.310E-06
DAV:  28    -0.344493946402E+03   -0.16792E-07    0.70470E-09  2640   0.171E-05    0.241E-06
DAV:  29    -0.344493946417E+03   -0.15239E-07    0.70680E-09  2580   0.126E-05    0.485E-06
DAV:  30    -0.344493946419E+03   -0.17376E-08    0.70202E-09  2688   0.821E-06
   1 F= -.35683594E+03 E0= -.35680078E+03  d E =-.703203E-01
