alpha-beryllene third hollow-hollow_3
1.0
       11.1017742157         0.0000000000         0.0000000000
       -5.5508871078         9.6144184979         0.0000000000
        0.0000000000         0.0000000000        40.0000000000
   Be    H
   27   18
Direct
     0.003738434         0.003738434         0.100000001
     0.003738434         0.337071776         0.100000001
     0.003738434         0.670405090         0.100000001
     0.337071776         0.003738434         0.100000001
     0.337071776         0.337071776         0.100000001
     0.337071776         0.670405090         0.100000001
     0.670405090         0.003738434         0.100000001
     0.670405090         0.337071776         0.100000001
     0.670405090         0.670405090         0.100000001
     0.218483850         0.111111157         0.100000001
     0.218483850         0.444444478         0.100000001
     0.218483850         0.777777851         0.100000001
     0.551817179         0.111111157         0.100000001
     0.551817179         0.444444478         0.100000001
     0.551817179         0.777777851         0.100000001
     0.885150492         0.111111157         0.100000001
     0.885150492         0.444444478         0.100000001
     0.885150492         0.777777851         0.100000001
     0.111111157         0.218483850         0.100000001
     0.111111157         0.551817179         0.100000001
     0.111111157         0.885150492         0.100000001
     0.444444478         0.218483850         0.100000001
     0.444444478         0.551817179         0.100000001
     0.444444478         0.885150492         0.100000001
     0.777777851         0.218483850         0.100000001
     0.777777851         0.551817179         0.100000001
     0.777777851         0.885150492         0.100000001
     0.111111052         0.111111052         0.125264481
     0.111111052         0.444444388         0.125264481
     0.111111052         0.777777731         0.125264481
     0.444444388         0.111111052         0.125264481
     0.444444388         0.444444388         0.125264481
     0.444444388         0.777777731         0.125264481
     0.777777731         0.111111052         0.125264481
     0.777777731         0.444444388         0.125264481
     0.777777731         0.777777731         0.125264481
     0.111111052         0.111111052         0.074735515
     0.111111052         0.444444388         0.074735515
     0.111111052         0.777777731         0.074735515
     0.444444388         0.111111052         0.074735515
     0.444444388         0.444444388         0.074735515
     0.444444388         0.777777731         0.074735515
     0.777777731         0.111111052         0.074735515
     0.777777731         0.444444388         0.074735515
     0.777777731         0.777777731         0.074735515
