alpha-beryllene third hollow-hollow_3
   1.00000000000000
     3.2048062424395165    1.8502955781863688    0.0000000000000000
    -3.2048062424395165    1.8502955781863688    0.0000000000000000
     0.0000000000000000    0.0000000000000000   40.0000000000000000
    Be  H             
    3   2
Direct
     0.0112153035264003    0.0112153035264003    0.1000000000000014
     0.6554515443908331    0.3333334657148091    0.1000000000000014
     0.3333334657148091    0.6554515443908331    0.1000000000000014
     0.3333331765173145    0.3333331765173145    0.1252644851284065
     0.3333331765173145    0.3333331765173145    0.0747355148715963
