       N       E                     dE             d eps       ncg     rms          rms(c)
DAV:   1     0.395006483424E+01    0.39501E+01   -0.11158E+03  5460   0.587E+01
DAV:   2    -0.330127151353E+01   -0.72513E+01   -0.67833E+01  7728   0.659E+00
DAV:   3    -0.336405919044E+01   -0.62788E-01   -0.62576E-01  6636   0.851E-01
DAV:   4    -0.336427122664E+01   -0.21204E-03   -0.21203E-03  9954   0.517E-02
DAV:   5    -0.336427125921E+01   -0.32567E-07   -0.33230E-07  6636   0.533E-04    0.185E+00
DAV:   6    -0.324835923415E+01    0.11591E+00   -0.43640E-02  8652   0.142E-01    0.104E+00
DAV:   7    -0.317878043373E+01    0.69579E-01   -0.80109E-02  8946   0.179E-01    0.127E-01
DAV:   8    -0.317670674567E+01    0.20737E-02   -0.23697E-03  8694   0.466E-02    0.440E-02
DAV:   9    -0.317626299456E+01    0.44375E-03   -0.46463E-04  8400   0.159E-02    0.298E-02
DAV:  10    -0.317744902354E+01   -0.11860E-02   -0.72385E-04  7938   0.206E-02    0.125E-02
DAV:  11    -0.317813609046E+01   -0.68707E-03   -0.12963E-04  8190   0.874E-03    0.564E-03
DAV:  12    -0.317838913614E+01   -0.25305E-03   -0.11486E-05  7266   0.236E-03    0.364E-03
DAV:  13    -0.317860239505E+01   -0.21326E-03   -0.27226E-05  7896   0.200E-03    0.135E-03
DAV:  14    -0.317870281084E+01   -0.10042E-03   -0.14202E-05  8274   0.119E-03    0.600E-04
DAV:  15    -0.317872134935E+01   -0.18539E-04   -0.17366E-06  7686   0.386E-04    0.380E-04
DAV:  16    -0.317873782281E+01   -0.16473E-04   -0.18787E-06  8106   0.370E-04    0.204E-04
DAV:  17    -0.317873981400E+01   -0.19912E-05   -0.59601E-08  8316   0.154E-04    0.196E-04
DAV:  18    -0.317874123323E+01   -0.14192E-05   -0.28917E-08  7602   0.736E-05    0.401E-05
DAV:  19    -0.317874161502E+01   -0.38179E-06   -0.10780E-09  8904   0.208E-05
   1 F= -.31787416E+01 E0= -.31778320E+01  d E =-.181913E-02
