       N       E                     dE             d eps       ncg     rms          rms(c)
DAV:   1     0.277634041861E+02    0.27763E+02   -0.25312E+03  1512   0.327E+02
DAV:   2    -0.242045420268E+01   -0.30184E+02   -0.28252E+02  2268   0.487E+01
DAV:   3    -0.291820187319E+01   -0.49775E+00   -0.49752E+00  2464   0.944E+00
DAV:   4    -0.291864494015E+01   -0.44307E-03   -0.44307E-03  2352   0.225E-01
DAV:   5    -0.291864508520E+01   -0.14504E-06   -0.14512E-06  2520   0.455E-03
DAV:   6    -0.291864508543E+01   -0.23553E-09   -0.15549E-10  2240   0.962E-05
   1 F= -.29186451E+01 E0= -.29185382E+01  d E =-.213760E-03  mag=     0.0000    -0.0000     0.0000
