       N       E                     dE             d eps       ncg     rms          rms(c)
DAV:   1    -0.828591127340E+01   -0.82859E+01   -0.14678E+03   840   0.201E+02
DAV:   2    -0.175546026907E+02   -0.92687E+01   -0.86107E+01  1120   0.274E+01
DAV:   3    -0.177650212308E+02   -0.21042E+00   -0.20666E+00  1120   0.512E+00
DAV:   4    -0.177656170755E+02   -0.59584E-03   -0.59584E-03  1400   0.292E-01
DAV:   5    -0.177656176205E+02   -0.54499E-06   -0.54499E-06  1148   0.774E-03
DAV:   6    -0.177656176221E+02   -0.15937E-08   -0.16181E-08  1372   0.448E-04
   1 F= -.17765618E+02 E0= -.17765430E+02  d E =-.376040E-03  mag=     0.0000    -0.0000     0.0000
