 running   24 mpi-ranks, on    1 nodes
 distrk:  each k-point on    6 cores,    4 groups
 distr:  one band on    6 cores,    1 groups
 vasp.6.5.0 16Dec24 (build Jan 08 2025 16:17:04) complex                        
  
 POSCAR found type information on POSCAR BeH 
 POSCAR found :  2 types and      75 ions
 Reading from existing POTCAR
 scaLAPACK will be used
 Reading from existing POTCAR
 -----------------------------------------------------------------------------
|                                                                             |
|               ----> ADVICE to this user running VASP <----                  |
|                                                                             |
|     You have a (more or less) 'large supercell' and for larger cells it     |
|     might be more efficient to use real-space projection operators.         |
|     Therefore, try LREAL= Auto in the INCAR file.                           |
|     Mind: For very accurate calculation, you might also keep the            |
|     reciprocal projection scheme (i.e. LREAL=.FALSE.).                      |
|                                                                             |
 -----------------------------------------------------------------------------

 LDA part: xc-table for (Slater+PW92), standard interpolation
 POSCAR, INCAR and KPOINTS ok, starting setup
 FFT: planning ... GRIDC
 FFT: planning ... GRID_SOFT
 FFT: planning ... GRID
 WAVECAR not read
 entering main loop
       N       E                     dE             d eps       ncg     rms          rms(c)
DAV:   1     0.841047389803E+03    0.84105E+03   -0.34097E+04 17344   0.875E+02
DAV:   2    -0.151485124421E+03   -0.99253E+03   -0.95393E+03 25984   0.183E+02
DAV:   3    -0.264831710167E+03   -0.11335E+03   -0.11130E+03 21368   0.684E+01
DAV:   4    -0.268460259079E+03   -0.36285E+01   -0.36056E+01 21488   0.136E+01
DAV:   5    -0.268566225153E+03   -0.10597E+00   -0.10580E+00 24140   0.202E+00    0.150E+01
DAV:   6    -0.258659913697E+03    0.99063E+01   -0.75990E+00 19132   0.563E+00    0.883E+00
DAV:   7    -0.253475068736E+03    0.51848E+01   -0.87220E+00 18272   0.611E+00    0.170E+00
DAV:   8    -0.253200376396E+03    0.27469E+00   -0.90387E-01 22136   0.202E+00    0.117E+00
DAV:   9    -0.252989591481E+03    0.21078E+00   -0.88616E-02 19952   0.821E-01    0.399E-01
DAV:  10    -0.252933557513E+03    0.56034E-01   -0.49790E-02 19896   0.495E-01    0.325E-01
DAV:  11    -0.252897275858E+03    0.36282E-01   -0.76567E-02 19888   0.507E-01    0.209E-01
DAV:  12    -0.252924475607E+03   -0.27200E-01   -0.32558E-02 19044   0.382E-01    0.201E-01
DAV:  13    -0.252926029459E+03   -0.15539E-02   -0.85818E-03 19604   0.235E-01    0.103E-01
DAV:  14    -0.252933517943E+03   -0.74885E-02   -0.16703E-03 20776   0.911E-02    0.343E-02
DAV:  15    -0.252942763528E+03   -0.92456E-02   -0.12388E-03 17968   0.603E-02    0.452E-02
DAV:  16    -0.252944597845E+03   -0.18343E-02   -0.12560E-04 21468   0.226E-02    0.213E-02
DAV:  17    -0.252945973503E+03   -0.13757E-02   -0.15229E-04 17928   0.275E-02    0.100E-02
DAV:  18    -0.252946717292E+03   -0.74379E-03   -0.67514E-05 19356   0.148E-02    0.800E-03
DAV:  19    -0.252946866286E+03   -0.14899E-03   -0.77943E-06 19960   0.712E-03    0.159E-03
DAV:  20    -0.252946992030E+03   -0.12574E-03   -0.30829E-06 18028   0.358E-03    0.663E-04
DAV:  21    -0.252947035285E+03   -0.43255E-04   -0.55964E-07 20772   0.115E-03    0.123E-03
DAV:  22    -0.252947063541E+03   -0.28256E-04   -0.32021E-07 18028   0.136E-03    0.688E-04
DAV:  23    -0.252947066938E+03   -0.33976E-05   -0.40704E-08 18140   0.640E-04    0.393E-04
DAV:  24    -0.252947072183E+03   -0.52448E-05   -0.43627E-08 15900   0.484E-04    0.214E-04
DAV:  25    -0.252947072633E+03   -0.44968E-06   -0.18875E-09 14004   0.256E-04    0.696E-05
DAV:  26    -0.252947073235E+03   -0.60284E-06    0.30161E-09 12016   0.946E-05    0.547E-05
DAV:  27    -0.252947073325E+03   -0.89056E-07    0.50841E-09 13416   0.559E-05    0.900E-06
DAV:  28    -0.252947073380E+03   -0.55251E-07    0.53877E-09 11540   0.386E-05    0.151E-05
DAV:  29    -0.252947073395E+03   -0.15185E-07    0.55972E-09 13364   0.220E-05    0.941E-06
DAV:  30    -0.252947073407E+03   -0.12198E-07    0.56227E-09 11876   0.170E-05    0.359E-06
DAV:  31    -0.252947073417E+03   -0.10162E-07    0.56404E-09 12448   0.114E-05    0.588E-06
DAV:  32    -0.252947073422E+03   -0.48426E-08    0.56683E-09 12488   0.603E-06
   1 F= -.25294707E+03 E0= -.25294044E+03  d E =-.132700E-01
