   8   8   0   0
  0.6009059E+02  0.3725229E-09  0.3725229E-09  0.4000000E-08  0.5000000E-15
  1.000000000000000E-004
  CAR 
 Geometry                                
      6.95831452    -14.57484172  301     -3.17390398      1.00000000
    -14.575  0.0000E+00  0.0000E+00
    -14.503  0.0000E+00  0.0000E+00
    -14.431  0.0000E+00  0.0000E+00
    -14.360  0.0000E+00  0.0000E+00
    -14.288  0.0000E+00  0.0000E+00
    -14.216  0.0000E+00  0.0000E+00
    -14.144  0.0000E+00  0.0000E+00
    -14.072  0.0000E+00  0.0000E+00
    -14.001  0.0000E+00  0.0000E+00
    -13.929  0.0000E+00  0.0000E+00
    -13.857  0.4040E-16  0.2900E-17
    -13.785  0.2910E-10  0.2089E-11
    -13.714  0.4435E-06  0.3183E-07
    -13.642  0.1752E-03  0.1261E-04
    -13.570  0.3135E-02  0.2376E-03
    -13.498  0.7224E-02  0.7561E-03
    -13.426  0.7785E-02  0.1315E-02
    -13.355  0.7714E-02  0.1869E-02
    -13.283  0.7726E-02  0.2423E-02
    -13.211  0.8290E-02  0.3018E-02
    -13.139  0.7247E-02  0.3538E-02
    -13.068  0.8739E-02  0.4166E-02
    -12.996  0.7068E-02  0.4673E-02
    -12.924  0.9225E-02  0.5335E-02
    -12.852  0.6806E-02  0.5824E-02
    -12.780  0.9643E-02  0.6516E-02
    -12.709  0.6952E-02  0.7015E-02
    -12.637  0.9017E-02  0.7662E-02
    -12.565  0.9007E-02  0.8309E-02
    -12.493  0.6701E-02  0.8790E-02
    -12.422  0.1085E-01  0.9568E-02
    -12.350  0.7777E-02  0.1013E-01
    -12.278  0.8025E-02  0.1070E-01
    -12.206  0.1145E-01  0.1152E-01
    -12.134  0.7395E-02  0.1205E-01
    -12.063  0.9804E-02  0.1276E-01
    -11.991  0.1186E-01  0.1361E-01
    -11.919  0.8039E-02  0.1419E-01
    -11.847  0.1239E-01  0.1508E-01
    -11.776  0.1391E-01  0.1607E-01
    -11.704  0.1242E-01  0.1697E-01
    -11.632  0.1569E-01  0.1809E-01
    -11.560  0.6589E-02  0.1856E-01
    -11.488  0.8271E-02  0.1916E-01
    -11.417  0.1076E-01  0.1993E-01
    -11.345  0.1499E-01  0.2101E-01
    -11.273  0.1584E-01  0.2214E-01
    -11.201  0.2319E-01  0.2381E-01
    -11.130  0.3712E-01  0.2647E-01
    -11.058  0.4638E-01  0.2980E-01
    -10.986  0.5761E-01  0.3394E-01
    -10.914  0.6404E-01  0.3853E-01
    -10.842  0.1977E-01  0.3995E-01
    -10.771  0.6683E-03  0.4000E-01
    -10.699  0.9853E-06  0.4000E-01
    -10.627  0.3600E-10  0.4000E-01
    -10.555  0.2546E-16  0.4000E-01
    -10.484  0.0000E+00  0.4000E-01
    -10.412  0.0000E+00  0.4000E-01
    -10.340  0.0000E+00  0.4000E-01
    -10.268  0.0000E+00  0.4000E-01
    -10.196  0.0000E+00  0.4000E-01
    -10.125  0.0000E+00  0.4000E-01
    -10.053  0.0000E+00  0.4000E-01
     -9.981  0.0000E+00  0.4000E-01
     -9.909  0.0000E+00  0.4000E-01
     -9.838  0.0000E+00  0.4000E-01
     -9.766  0.0000E+00  0.4000E-01
     -9.694  0.2504E-17  0.4000E-01
     -9.622  0.3577E-11  0.4000E-01
     -9.550  0.1041E-06  0.4000E-01
     -9.479  0.8509E-04  0.4001E-01
     -9.407  0.3522E-02  0.4026E-01
     -9.335  0.2422E-01  0.4200E-01
     -9.263  0.3527E-01  0.4453E-01
     -9.192  0.2218E-01  0.4612E-01
     -9.120  0.1709E-01  0.4735E-01
     -9.048  0.1377E-01  0.4834E-01
     -8.976  0.1351E-01  0.4931E-01
     -8.904  0.1181E-01  0.5015E-01
     -8.833  0.1270E-01  0.5106E-01
     -8.761  0.1855E-01  0.5240E-01
     -8.689  0.3039E-01  0.5458E-01
     -8.617  0.4658E-01  0.5792E-01
     -8.546  0.2752E-01  0.5990E-01
     -8.474  0.1455E-02  0.6000E-01
     -8.402  0.2849E-05  0.6000E-01
     -8.330  0.1339E-09  0.6000E-01
     -8.258  0.1682E-09  0.6000E-01
     -8.187  0.3216E-05  0.6000E-01
     -8.115  0.1542E-02  0.6011E-01
     -8.043  0.2933E-01  0.6222E-01
     -7.971  0.5682E-01  0.6629E-01
     -7.900  0.4385E-01  0.6944E-01
     -7.828  0.2720E-01  0.7139E-01
     -7.756  0.1810E-01  0.7269E-01
     -7.684  0.1732E-01  0.7394E-01
     -7.612  0.1406E-01  0.7495E-01
     -7.541  0.1167E-01  0.7578E-01
     -7.469  0.1569E-01  0.7691E-01
     -7.397  0.1153E-01  0.7774E-01
     -7.325  0.9203E-02  0.7840E-01
     -7.254  0.1444E-01  0.7943E-01
     -7.182  0.1066E-01  0.8020E-01
     -7.110  0.1150E-01  0.8102E-01
     -7.038  0.1046E-01  0.8177E-01
     -6.966  0.9341E-02  0.8245E-01
     -6.895  0.1513E-01  0.8353E-01
     -6.823  0.9378E-02  0.8420E-01
     -6.751  0.7992E-02  0.8478E-01
     -6.679  0.1463E-01  0.8583E-01
     -6.608  0.1244E-01  0.8672E-01
     -6.536  0.8692E-02  0.8734E-01
     -6.464  0.1266E-01  0.8825E-01
     -6.392  0.1700E-01  0.8947E-01
     -6.320  0.1469E-01  0.9053E-01
     -6.249  0.1286E-01  0.9145E-01
     -6.177  0.1097E-01  0.9224E-01
     -6.105  0.9514E-02  0.9292E-01
     -6.033  0.1097E-01  0.9371E-01
     -5.962  0.7661E-02  0.9426E-01
     -5.890  0.4159E-02  0.9456E-01
     -5.818  0.6555E-02  0.9503E-01
     -5.746  0.9641E-02  0.9572E-01
     -5.674  0.1394E-01  0.9672E-01
     -5.603  0.2045E-01  0.9819E-01
     -5.531  0.3183E-01  0.1005E+00
     -5.459  0.2654E-01  0.1024E+00
     -5.387  0.2582E-01  0.1042E+00
     -5.316  0.2026E-01  0.1057E+00
     -5.244  0.1380E-01  0.1067E+00
     -5.172  0.1084E-01  0.1075E+00
     -5.100  0.1339E-01  0.1084E+00
     -5.028  0.1348E-01  0.1094E+00
     -4.957  0.1246E-01  0.1103E+00
     -4.885  0.1014E-01  0.1110E+00
     -4.813  0.7058E-02  0.1115E+00
     -4.741  0.1684E-01  0.1127E+00
     -4.670  0.2348E-01  0.1144E+00
     -4.598  0.2838E-01  0.1164E+00
     -4.526  0.3771E-01  0.1191E+00
     -4.454  0.3617E-01  0.1217E+00
     -4.382  0.2857E-01  0.1238E+00
     -4.311  0.2883E-01  0.1259E+00
     -4.239  0.2176E-01  0.1274E+00
     -4.167  0.2069E-01  0.1289E+00
     -4.095  0.1805E-01  0.1302E+00
     -4.024  0.1362E-01  0.1312E+00
     -3.952  0.1516E-01  0.1323E+00
     -3.880  0.1714E-01  0.1335E+00
     -3.808  0.8911E-02  0.1341E+00
     -3.736  0.9623E-02  0.1348E+00
     -3.665  0.1355E-01  0.1358E+00
     -3.593  0.7737E-02  0.1364E+00
     -3.521  0.5788E-02  0.1368E+00
     -3.449  0.7162E-02  0.1373E+00
     -3.378  0.6910E-02  0.1378E+00
     -3.306  0.9121E-02  0.1384E+00
     -3.234  0.1217E-01  0.1393E+00
     -3.162  0.1118E-01  0.1401E+00
     -3.090  0.1218E-01  0.1410E+00
     -3.019  0.1699E-01  0.1422E+00
     -2.947  0.1470E-01  0.1433E+00
     -2.875  0.1081E-01  0.1440E+00
     -2.803  0.9769E-02  0.1447E+00
     -2.732  0.1036E-01  0.1455E+00
     -2.660  0.9596E-02  0.1462E+00
     -2.588  0.1038E-01  0.1469E+00
     -2.516  0.7502E-02  0.1475E+00
     -2.444  0.6924E-02  0.1480E+00
     -2.373  0.9432E-02  0.1486E+00
     -2.301  0.1030E-01  0.1494E+00
     -2.229  0.7302E-02  0.1499E+00
     -2.157  0.8616E-02  0.1505E+00
     -2.086  0.1016E-01  0.1512E+00
     -2.014  0.9641E-02  0.1519E+00
     -1.942  0.7899E-02  0.1525E+00
     -1.870  0.1055E-01  0.1533E+00
     -1.799  0.1516E-01  0.1543E+00
     -1.727  0.1210E-01  0.1552E+00
     -1.655  0.1622E-01  0.1564E+00
     -1.583  0.1518E-01  0.1575E+00
     -1.511  0.1675E-01  0.1587E+00
     -1.440  0.1324E-01  0.1596E+00
     -1.368  0.1208E-01  0.1605E+00
     -1.296  0.1125E-01  0.1613E+00
     -1.224  0.1356E-01  0.1623E+00
     -1.153  0.1092E-01  0.1631E+00
     -1.081  0.5820E-02  0.1635E+00
     -1.009  0.6147E-02  0.1639E+00
     -0.937  0.1215E-01  0.1648E+00
     -0.865  0.1045E-01  0.1655E+00
     -0.794  0.7013E-02  0.1660E+00
     -0.722  0.8445E-02  0.1666E+00
     -0.650  0.1213E-01  0.1675E+00
     -0.578  0.1669E-01  0.1687E+00
     -0.507  0.3107E-01  0.1709E+00
     -0.435  0.3554E-01  0.1735E+00
     -0.363  0.3167E-01  0.1758E+00
     -0.291  0.2248E-01  0.1774E+00
     -0.219  0.2339E-01  0.1791E+00
     -0.148  0.2025E-01  0.1805E+00
     -0.076  0.2154E-01  0.1821E+00
     -0.004  0.1754E-01  0.1833E+00
      0.068  0.1778E-01  0.1846E+00
      0.139  0.1557E-01  0.1857E+00
      0.211  0.1351E-01  0.1867E+00
      0.283  0.1483E-01  0.1877E+00
      0.355  0.1153E-01  0.1886E+00
      0.427  0.1787E-01  0.1899E+00
      0.498  0.3113E-01  0.1921E+00
      0.570  0.2518E-01  0.1939E+00
      0.642  0.2634E-01  0.1958E+00
      0.714  0.3029E-01  0.1980E+00
      0.785  0.3961E-01  0.2008E+00
      0.857  0.5189E-01  0.2045E+00
      0.929  0.3733E-01  0.2072E+00
      1.001  0.2289E-01  0.2089E+00
      1.073  0.2654E-01  0.2108E+00
      1.144  0.2980E-01  0.2129E+00
      1.216  0.2907E-01  0.2150E+00
      1.288  0.3251E-01  0.2173E+00
      1.360  0.4487E-01  0.2205E+00
      1.431  0.3984E-01  0.2234E+00
      1.503  0.3765E-01  0.2261E+00
      1.575  0.4949E-01  0.2297E+00
      1.647  0.5080E-01  0.2333E+00
      1.719  0.5417E-01  0.2372E+00
      1.790  0.5471E-01  0.2411E+00
      1.862  0.4802E-01  0.2446E+00
      1.934  0.5231E-01  0.2483E+00
      2.006  0.5392E-01  0.2522E+00
      2.077  0.5552E-01  0.2562E+00
      2.149  0.6555E-01  0.2609E+00
      2.221  0.6228E-01  0.2653E+00
      2.293  0.6278E-01  0.2699E+00
      2.365  0.7099E-01  0.2749E+00
      2.436  0.7143E-01  0.2801E+00
      2.508  0.5984E-01  0.2844E+00
      2.580  0.5839E-01  0.2886E+00
      2.652  0.4764E-01  0.2920E+00
      2.723  0.5490E-01  0.2959E+00
      2.795  0.6008E-01  0.3002E+00
      2.867  0.5031E-01  0.3038E+00
      2.939  0.5342E-01  0.3077E+00
      3.011  0.6882E-01  0.3126E+00
      3.082  0.5940E-01  0.3169E+00
      3.154  0.5267E-01  0.3207E+00
      3.226  0.4801E-01  0.3241E+00
      3.298  0.4717E-01  0.3275E+00
      3.369  0.6485E-01  0.3322E+00
      3.441  0.7151E-01  0.3373E+00
      3.513  0.5794E-01  0.3414E+00
      3.585  0.5067E-01  0.3451E+00
      3.657  0.6556E-01  0.3498E+00
      3.728  0.6684E-01  0.3546E+00
      3.800  0.5893E-01  0.3588E+00
      3.872  0.4798E-01  0.3623E+00
      3.944  0.6954E-01  0.3672E+00
      4.015  0.7362E-01  0.3725E+00
      4.087  0.6599E-01  0.3773E+00
      4.159  0.5105E-01  0.3809E+00
      4.231  0.7015E-01  0.3860E+00
      4.303  0.8935E-01  0.3924E+00
      4.374  0.7683E-01  0.3979E+00
      4.446  0.8509E-01  0.4040E+00
      4.518  0.1017E+00  0.4113E+00
      4.590  0.7990E-01  0.4170E+00
      4.661  0.6035E-01  0.4214E+00
      4.733  0.6304E-01  0.4259E+00
      4.805  0.6064E-01  0.4302E+00
      4.877  0.5691E-01  0.4343E+00
      4.949  0.5021E-01  0.4379E+00
      5.020  0.5600E-01  0.4420E+00
      5.092  0.5815E-01  0.4461E+00
      5.164  0.4955E-01  0.4497E+00
      5.236  0.4956E-01  0.4532E+00
      5.307  0.4514E-01  0.4565E+00
      5.379  0.5277E-01  0.4603E+00
      5.451  0.4942E-01  0.4638E+00
      5.523  0.4750E-01  0.4672E+00
      5.595  0.4340E-01  0.4703E+00
      5.666  0.2921E-01  0.4724E+00
      5.738  0.2282E-01  0.4741E+00
      5.810  0.2630E-01  0.4760E+00
      5.882  0.3100E-01  0.4782E+00
      5.953  0.1906E-01  0.4796E+00
      6.025  0.5712E-02  0.4800E+00
      6.097  0.4149E-03  0.4800E+00
      6.169  0.1547E-05  0.4800E+00
      6.241  0.1339E-09  0.4800E+00
      6.312  0.2202E-15  0.4800E+00
      6.384  0.0000E+00  0.4800E+00
      6.456  0.0000E+00  0.4800E+00
      6.528  0.0000E+00  0.4800E+00
      6.599  0.0000E+00  0.4800E+00
      6.671  0.0000E+00  0.4800E+00
      6.743  0.0000E+00  0.4800E+00
      6.815  0.0000E+00  0.4800E+00
      6.887  0.0000E+00  0.4800E+00
      6.958  0.0000E+00  0.4800E+00
