Geometry                                
           1
     3.226143    1.862614    0.000000
    -3.226143    1.862614    0.000000
     0.000000    0.000000   40.000000
   Be   H 
     6     2
Direct configuration=     1
   0.00000000  0.00000000  0.12500000
   0.66666667  0.33333333  0.12500000
   0.33333333  0.66666667  0.12500000
   0.33333333  0.33333333  0.07500000
   0.66666667  0.00000000  0.07500000
   0.00000000  0.66666667  0.07500000
   0.33333333  0.00000000  0.17500000
   0.00000000  0.33333333  0.02500000
Geometry                                
           1
     3.255001    1.879275    0.000000
    -3.255001    1.879275    0.000000
     0.000000    0.000000   40.000000
   Be   H 
     6     2
Direct configuration=     2
   0.00259783  0.00150201  0.12541811
   0.66557084  0.33073550  0.12541811
   0.33183132  0.66776249  0.12541811
   0.33073550  0.33183132  0.07458189
   0.66776249  0.00259783  0.07458189
   0.00150201  0.66557084  0.07458189
   0.33333333  0.00000000  0.17284230
   0.00000000  0.33333333  0.02715770
Geometry                                
           1
     3.341575    1.929259    0.000000
    -3.341575    1.929259    0.000000
     0.000000    0.000000   40.000000
   Be   H 
     6     2
Direct configuration=     3
   0.01032224  0.00596809  0.12667243
   0.66231251  0.32301109  0.12667243
   0.32736525  0.67102082  0.12667243
   0.32301109  0.32736525  0.07332757
   0.67102082  0.01032224  0.07332757
   0.00596809  0.66231251  0.07332757
   0.33333333  0.00000000  0.16636921
   0.00000000  0.33333333  0.03363079
Geometry                                
           1
     3.514723    2.029226    0.000000
    -3.514723    2.029226    0.000000
     0.000000    0.000000   40.000000
   Be   H 
     6     2
Direct configuration=     4
   0.02537080  0.01466882  0.12918107
   0.65596469  0.30796253  0.12918107
   0.31866451  0.67736865  0.12918107
   0.30796253  0.31866451  0.07081893
   0.67736865  0.02537080  0.07081893
   0.01466882  0.65596469  0.07081893
   0.33333333  0.00000000  0.15342303
   0.00000000  0.33333333  0.04657697
Geometry                                
           1
     3.468931    2.002788    0.000000
    -3.468931    2.002788    0.000000
     0.000000    0.000000   40.000000
   Be   H 
     6     2
Direct configuration=     5
   0.02158704  0.01248114  0.12851762
   0.65756076  0.31174629  0.12851762
   0.32085219  0.67577257  0.12851762
   0.31174629  0.32085219  0.07148238
   0.67577257  0.02158704  0.07148238
   0.01248114  0.65756076  0.07148238
   0.33333333  0.00000000  0.15684685
   0.00000000  0.33333333  0.04315315
Geometry                                
           1
     3.444077    1.988439    0.000000
    -3.444077    1.988439    0.000000
     0.000000    0.000000   40.000000
   Be   H 
     6     2
Direct configuration=     6
   0.02140650  0.01280743  0.12871916
   0.65806760  0.31192684  0.12871916
   0.32052590  0.67526573  0.12871916
   0.31192684  0.32052590  0.07128084
   0.67526573  0.02140650  0.07128084
   0.01280743  0.65806760  0.07128084
   0.33333333  0.00000000  0.15491111
   0.00000000  0.33333333  0.04508889
Geometry                                
           1
     3.386189    1.955017    0.000000
    -3.386189    1.955017    0.000000
     0.000000    0.000000   40.000000
   Be   H 
     6     2
Direct configuration=     7
   0.02098296  0.01357287  0.12918857
   0.65925658  0.31235037  0.12918857
   0.31976046  0.67407676  0.12918857
   0.31235037  0.31976046  0.07081143
   0.67407676  0.02098296  0.07081143
   0.01357287  0.65925658  0.07081143
   0.33333333  0.00000000  0.15040263
   0.00000000  0.33333333  0.04959737
Geometry                                
           1
     3.348730    1.933390    0.000000
    -3.348730    1.933390    0.000000
     0.000000    0.000000   40.000000
   Be   H 
     6     2
Direct configuration=     8
   0.01585929  0.01227537  0.12886487
   0.66308275  0.31747405  0.12886487
   0.32105796  0.67025058  0.12886487
   0.31747405  0.32105796  0.07113513
   0.67025058  0.01585929  0.07113513
   0.01227537  0.66308275  0.07113513
   0.33333333  0.00000000  0.15037277
   0.00000000  0.33333333  0.04962723
Geometry                                
           1
     3.236670    1.868692    0.000000
    -3.236670    1.868692    0.000000
     0.000000    0.000000   40.000000
   Be   H 
     6     2
Direct configuration=     9
   0.00036021  0.00835043  0.12789648
   0.67465689  0.33297313  0.12789648
   0.32498290  0.65867644  0.12789648
   0.33297313  0.32498290  0.07210352
   0.65867644  0.00036021  0.07210352
   0.00835043  0.67465689  0.07210352
   0.33333333  0.00000000  0.15028342
   0.00000000  0.33333333  0.04971658
Geometry                                
           1
     3.235076    1.867772    0.000000
    -3.235076    1.867772    0.000000
     0.000000    0.000000   40.000000
   Be   H 
     6     2
Direct configuration=    10
   0.99924569  0.00497851  0.12743804
   0.67239949  0.33408765  0.12743804
   0.32835482  0.66093384  0.12743804
   0.33408765  0.32835482  0.07256196
   0.66093384  0.99924569  0.07256196
   0.00497851  0.67239949  0.07256196
   0.33333333  0.00000000  0.14998911
   0.00000000  0.33333333  0.05001089
Geometry                                
           1
     3.230294    1.865011    0.000000
    -3.230294    1.865011    0.000000
     0.000000    0.000000   40.000000
   Be   H 
     6     2
Direct configuration=    11
   0.99590048  0.99485778  0.12606270
   0.66562397  0.33743285  0.12606270
   0.33847555  0.66770937  0.12606270
   0.33743285  0.33847555  0.07393730
   0.66770937  0.99590048  0.07393730
   0.99485778  0.66562397  0.07393730
   0.33333333  0.00000000  0.14910616
   0.00000000  0.33333333  0.05089384
Geometry                                
           1
     3.228098    1.863743    0.000000
    -3.228098    1.863743    0.000000
     0.000000    0.000000   40.000000
   Be   H 
     6     2
Direct configuration=    12
   0.99436184  0.99020273  0.12543105
   0.66250755  0.33897149  0.12543105
   0.34313061  0.67082579  0.12543105
   0.33897149  0.34313061  0.07456895
   0.67082579  0.99436184  0.07456895
   0.99020273  0.66250755  0.07456895
   0.33333333  0.00000000  0.14870065
   0.00000000  0.33333333  0.05129935
Geometry                                
           1
     3.240097    1.870671    0.000000
    -3.240097    1.870671    0.000000
     0.000000    0.000000   40.000000
   Be   H 
     6     2
Direct configuration=    13
   0.99730148  0.99209831  0.12481119
   0.66146350  0.33603185  0.12481119
   0.34123502  0.67186983  0.12481119
   0.33603185  0.34123502  0.07518881
   0.67186983  0.99730148  0.07518881
   0.99209831  0.66146350  0.07518881
   0.33333333  1.00000000  0.14813757
   0.00000000  0.33333333  0.05186243
Geometry                                
           1
     3.267828    1.886681    0.000000
    -3.267828    1.886681    0.000000
     0.000000    0.000000   40.000000
   Be   H 
     6     2
Direct configuration=    14
   0.00407068  0.99646335  0.12337851
   0.65905934  0.32926265  0.12337851
   0.33686998  0.67427399  0.12337851
   0.32926265  0.33686998  0.07662149
   0.67427399  0.00407068  0.07662149
   0.99646335  0.65905934  0.07662149
   0.33333333  0.00000000  0.14683611
   0.00000000  0.33333333  0.05316389
Geometry                                
           1
     3.264091    1.884524    0.000000
    -3.264091    1.884524    0.000000
     0.000000    0.000000   40.000000
   Be   H 
     6     2
Direct configuration=    15
   0.00316625  0.99588014  0.12357156
   0.65938056  0.33016708  0.12357156
   0.33745319  0.67395277  0.12357156
   0.33016708  0.33745319  0.07642844
   0.67395277  0.00316625  0.07642844
   0.99588014  0.65938056  0.07642844
   0.33333333  0.00000000  0.14701148
   0.00000000  0.33333333  0.05298852
Geometry                                
           1
     3.262914    1.883844    0.000000
    -3.262914    1.883844    0.000000
     0.000000    0.000000   40.000000
   Be   H 
     6     2
Direct configuration=    16
   0.00280937  0.99884117  0.12366640
   0.66269847  0.33052397  0.12366640
   0.33449216  0.67063486  0.12366640
   0.33052397  0.33449216  0.07633360
   0.67063486  0.00280937  0.07633360
   0.99884117  0.66269847  0.07633360
   0.33333333  0.00000000  0.14681273
   0.00000000  0.33333333  0.05318727
Geometry                                
           1
     3.261679    1.883131    0.000000
    -3.261679    1.883131    0.000000
     0.000000    0.000000   40.000000
   Be   H 
     6     2
Direct configuration=    17
   0.00243499  0.00194741  0.12376585
   0.66617909  0.33089835  0.12376585
   0.33138592  0.66715424  0.12376585
   0.33089835  0.33138592  0.07623415
   0.66715424  0.00243499  0.07623415
   0.00194741  0.66617909  0.07623415
   0.33333333  1.00000000  0.14660431
   0.00000000  0.33333333  0.05339569
Geometry                                
           1
     3.260202    1.882278    0.000000
    -3.260202    1.882278    0.000000
     0.000000    0.000000   40.000000
   Be   H 
     6     2
Direct configuration=    18
   0.00265635  0.00185972  0.12380659
   0.66587003  0.33067698  0.12380659
   0.33147362  0.66746330  0.12380659
   0.33067698  0.33147362  0.07619341
   0.66746330  0.00265635  0.07619341
   0.00185972  0.66587003  0.07619341
   0.33333333  0.00000000  0.14642200
   0.00000000  0.33333333  0.05357800
Geometry                                
           1
     3.259134    1.881662    0.000000
    -3.259134    1.881662    0.000000
     0.000000    0.000000   40.000000
   Be   H 
     6     2
Direct configuration=    19
   0.00281640  0.00179631  0.12383604
   0.66564658  0.33051694  0.12383604
   0.33153702  0.66768675  0.12383604
   0.33051694  0.33153702  0.07616396
   0.66768675  0.00281640  0.07616396
   0.00179631  0.66564658  0.07616396
   0.33333333  0.00000000  0.14629024
   0.00000000  0.33333333  0.05370976
Geometry                                
           1
     3.260913    1.882689    0.000000
    -3.260913    1.882689    0.000000
     0.000000    0.000000   40.000000
   Be   H 
     6     2
Direct configuration=    20
   0.00232932  0.00148121  0.12382354
   0.66581856  0.33100401  0.12382354
   0.33185212  0.66751478  0.12382354
   0.33100401  0.33185212  0.07617646
   0.66751478  0.00232932  0.07617646
   0.00148121  0.66581856  0.07617646
   0.33333333  0.00000000  0.14620844
   0.00000000  0.33333333  0.05379156
Geometry                                
           1
     3.261784    1.883192    0.000000
    -3.261784    1.883192    0.000000
     0.000000    0.000000   40.000000
   Be   H 
     6     2
Direct configuration=    21
   0.00209094  0.00132700  0.12381742
   0.66590272  0.33124239  0.12381742
   0.33200633  0.66743061  0.12381742
   0.33124239  0.33200633  0.07618258
   0.66743061  0.00209094  0.07618258
   0.00132700  0.66590272  0.07618258
   0.33333333  0.00000000  0.14616839
   0.00000000  0.33333333  0.05383161
Geometry                                
           1
     3.261649    1.883114    0.000000
    -3.261649    1.883114    0.000000
     0.000000    0.000000   40.000000
   Be   H 
     6     2
Direct configuration=    22
   0.00214929  0.00139135  0.12379571
   0.66590872  0.33118404  0.12379571
   0.33194199  0.66742461  0.12379571
   0.33118404  0.33194199  0.07620429
   0.66742461  0.00214929  0.07620429
   0.00139135  0.66590872  0.07620429
   0.33333333  0.00000000  0.14613935
   0.00000000  0.33333333  0.05386065
Geometry                                
           1
     3.261457    1.883003    0.000000
    -3.261457    1.883003    0.000000
     0.000000    0.000000   40.000000
   Be   H 
     6     2
Direct configuration=    23
   0.00223237  0.00148296  0.12376479
   0.66591726  0.33110096  0.12376479
   0.33185037  0.66741607  0.12376479
   0.33110096  0.33185037  0.07623521
   0.66741607  0.00223237  0.07623521
   0.00148296  0.66591726  0.07623521
   0.33333333  0.00000000  0.14609801
   0.00000000  0.33333333  0.05390199
Geometry                                
           1
     3.261766    1.883181    0.000000
    -3.261766    1.883181    0.000000
     0.000000    0.000000   40.000000
   Be   H 
     6     2
Direct configuration=    24
   0.00224061  0.00143970  0.12376007
   0.66586576  0.33109272  0.12376007
   0.33189363  0.66746758  0.12376007
   0.33109272  0.33189363  0.07623993
   0.66746758  0.00224061  0.07623993
   0.00143970  0.66586576  0.07623993
   0.33333333  0.00000000  0.14610090
   0.00000000  0.33333333  0.05389910
Geometry                                
           1
     3.261779    1.883189    0.000000
    -3.261779    1.883189    0.000000
     0.000000    0.000000   40.000000
   Be   H 
     6     2
Direct configuration=    25
   0.00224097  0.00143782  0.12375987
   0.66586352  0.33109237  0.12375987
   0.33189551  0.66746981  0.12375987
   0.33109237  0.33189551  0.07624013
   0.66746981  0.00224097  0.07624013
   0.00143782  0.66586352  0.07624013
   0.33333333  0.00000000  0.14610102
   0.00000000  0.33333333  0.05389898
