   3   3   0   0
  0.3112991E+02  0.2322032E-09  0.2322032E-09  0.2000000E-08  0.5000000E-15
  1.000000000000000E-004
  CAR 
 PBE reference for HSE06                 
     17.99406648    -15.83818017  301     -4.99776447      1.00000000
    -15.838  0.0000E+00  0.0000E+00
    -15.725  0.0000E+00  0.0000E+00
    -15.613  0.0000E+00  0.0000E+00
    -15.500  0.0000E+00  0.0000E+00
    -15.387  0.0000E+00  0.0000E+00
    -15.274  0.0000E+00  0.0000E+00
    -15.162  0.0000E+00  0.0000E+00
    -15.049  0.0000E+00  0.0000E+00
    -14.936  0.0000E+00  0.0000E+00
    -14.823  0.0000E+00  0.0000E+00
    -14.710  0.0000E+00  0.0000E+00
    -14.598  0.0000E+00  0.0000E+00
    -14.485  0.1104E-07  0.1245E-08
    -14.372  0.2609E-02  0.2943E-03
    -14.259  0.1054E+00  0.1218E-01
    -14.147  0.1354E+00  0.2746E-01
    -14.034  0.6085E+00  0.9608E-01
    -13.921  0.1010E-01  0.9722E-01
    -13.808  0.1607E-01  0.9903E-01
    -13.695  0.6336E+00  0.1705E+00
    -13.583  0.2259E+00  0.1960E+00
    -13.470  0.5943E+00  0.2630E+00
    -13.357  0.8077E-02  0.2639E+00
    -13.244  0.1549E-07  0.2639E+00
    -13.132  0.1049E-03  0.2639E+00
    -13.019  0.3978E+00  0.3088E+00
    -12.906  0.1073E+01  0.4297E+00
    -12.793  0.7418E-02  0.4306E+00
    -12.681  0.8198E-01  0.4398E+00
    -12.568  0.6388E+00  0.5118E+00
    -12.455  0.1812E-01  0.5139E+00
    -12.342  0.9224E-07  0.5139E+00
    -12.229  0.3131E-04  0.5139E+00
    -12.117  0.1695E+00  0.5330E+00
    -12.004  0.5821E+00  0.5987E+00
    -11.891  0.1208E+01  0.7349E+00
    -11.778  0.2573E+00  0.7639E+00
    -11.666  0.2707E-04  0.7639E+00
    -11.553  0.1755E-03  0.7639E+00
    -11.440  0.2808E+00  0.7956E+00
    -11.327  0.4565E+00  0.8471E+00
    -11.214  0.1446E-02  0.8472E+00
    -11.102  0.6305E-09  0.8472E+00
    -10.989  0.1212E-02  0.8474E+00
    -10.876  0.7620E+00  0.9333E+00
    -10.763  0.7138E+00  0.1014E+01
    -10.651  0.2678E+00  0.1044E+01
    -10.538  0.1194E+01  0.1179E+01
    -10.425  0.1685E-01  0.1181E+01
    -10.312  0.6614E-07  0.1181E+01
    -10.199  0.1132E-01  0.1182E+01
    -10.087  0.6153E+00  0.1251E+01
     -9.974  0.1123E+00  0.1264E+01
     -9.861  0.5049E-02  0.1264E+01
     -9.748  0.1091E+00  0.1277E+01
     -9.636  0.4035E-01  0.1281E+01
     -9.523  0.2017E+01  0.1509E+01
     -9.410  0.2411E+01  0.1781E+01
     -9.297  0.3440E+00  0.1819E+01
     -9.185  0.1319E-01  0.1821E+01
     -9.072  0.6231E+00  0.1891E+01
     -8.959  0.1152E+00  0.1904E+01
     -8.846  0.6206E+00  0.1974E+01
     -8.733  0.4675E+00  0.2027E+01
     -8.621  0.3769E+00  0.2069E+01
     -8.508  0.5774E-03  0.2069E+01
     -8.395  0.5618E-06  0.2069E+01
     -8.282  0.8502E-01  0.2079E+01
     -8.170  0.2574E+01  0.2369E+01
     -8.057  0.2965E+00  0.2403E+01
     -7.944  0.1612E-04  0.2403E+01
     -7.831  0.8318E-01  0.2412E+01
     -7.718  0.6380E+00  0.2484E+01
     -7.606  0.1776E-01  0.2486E+01
     -7.493  0.8811E-07  0.2486E+01
     -7.380  0.8712E-09  0.2486E+01
     -7.267  0.2001E-02  0.2486E+01
     -7.155  0.4846E+00  0.2541E+01
     -7.042  0.2947E+00  0.2574E+01
     -6.929  0.1292E+01  0.2720E+01
     -6.816  0.4930E+00  0.2776E+01
     -6.703  0.1431E+00  0.2792E+01
     -6.591  0.4692E-04  0.2792E+01
     -6.478  0.6252E-01  0.2799E+01
     -6.365  0.6507E+00  0.2872E+01
     -6.252  0.2568E-01  0.2875E+01
     -6.140  0.2191E-06  0.2875E+01
     -6.027  0.1052E-01  0.2876E+01
     -5.914  0.1127E+01  0.3003E+01
     -5.801  0.3447E+00  0.3042E+01
     -5.689  0.1734E+01  0.3238E+01
     -5.576  0.1218E+01  0.3375E+01
     -5.463  0.4851E+00  0.3430E+01
     -5.350  0.1082E+01  0.3552E+01
     -5.237  0.3259E+01  0.3919E+01
     -5.125  0.7146E+00  0.4000E+01
     -5.012  0.2095E-03  0.4000E+01
     -4.899  0.5379E-11  0.4000E+01
     -4.786  0.0000E+00  0.4000E+01
     -4.674  0.0000E+00  0.4000E+01
     -4.561  0.0000E+00  0.4000E+01
     -4.448  0.0000E+00  0.4000E+01
     -4.335  0.0000E+00  0.4000E+01
     -4.222  0.0000E+00  0.4000E+01
     -4.110  0.0000E+00  0.4000E+01
     -3.997  0.0000E+00  0.4000E+01
     -3.884  0.0000E+00  0.4000E+01
     -3.771  0.0000E+00  0.4000E+01
     -3.659  0.0000E+00  0.4000E+01
     -3.546  0.0000E+00  0.4000E+01
     -3.433  0.0000E+00  0.4000E+01
     -3.320  0.0000E+00  0.4000E+01
     -3.207  0.0000E+00  0.4000E+01
     -3.095  0.0000E+00  0.4000E+01
     -2.982  0.0000E+00  0.4000E+01
     -2.869  0.0000E+00  0.4000E+01
     -2.756  0.0000E+00  0.4000E+01
     -2.644  0.0000E+00  0.4000E+01
     -2.531  0.0000E+00  0.4000E+01
     -2.418  0.0000E+00  0.4000E+01
     -2.305  0.0000E+00  0.4000E+01
     -2.193  0.0000E+00  0.4000E+01
     -2.080  0.0000E+00  0.4000E+01
     -1.967  0.0000E+00  0.4000E+01
     -1.854  0.0000E+00  0.4000E+01
     -1.741  0.0000E+00  0.4000E+01
     -1.629  0.0000E+00  0.4000E+01
     -1.516  0.0000E+00  0.4000E+01
     -1.403  0.0000E+00  0.4000E+01
     -1.290  0.0000E+00  0.4000E+01
     -1.178  0.0000E+00  0.4000E+01
     -1.065  0.0000E+00  0.4000E+01
     -0.952  0.0000E+00  0.4000E+01
     -0.839  0.0000E+00  0.4000E+01
     -0.726  0.0000E+00  0.4000E+01
     -0.614  0.2209E-10  0.4000E+01
     -0.501  0.2937E-03  0.4000E+01
     -0.388  0.3208E+00  0.4036E+01
     -0.275  0.4169E+00  0.4083E+01
     -0.163  0.2427E-02  0.4084E+01
     -0.050  0.8167E+00  0.4176E+01
      0.063  0.1525E+01  0.4348E+01
      0.176  0.1332E+01  0.4498E+01
      0.289  0.1675E+01  0.4687E+01
      0.401  0.8778E+00  0.4786E+01
      0.514  0.1775E+00  0.4806E+01
      0.627  0.4018E-01  0.4810E+01
      0.740  0.6571E+00  0.4884E+01
      0.852  0.8373E-01  0.4894E+01
      0.965  0.8544E+00  0.4990E+01
      1.078  0.1406E+01  0.5148E+01
      1.191  0.2516E+01  0.5432E+01
      1.303  0.9867E+00  0.5544E+01
      1.416  0.5993E+00  0.5611E+01
      1.529  0.7335E+00  0.5694E+01
      1.642  0.1577E+01  0.5872E+01
      1.755  0.5960E+00  0.5939E+01
      1.867  0.8116E+00  0.6030E+01
      1.980  0.1004E+01  0.6144E+01
      2.093  0.2045E+01  0.6374E+01
      2.206  0.1595E+01  0.6554E+01
      2.318  0.8071E+00  0.6645E+01
      2.431  0.1040E+00  0.6657E+01
      2.544  0.7845E+00  0.6745E+01
      2.657  0.1246E+01  0.6886E+01
      2.770  0.1752E+01  0.7083E+01
      2.882  0.1397E+01  0.7241E+01
      2.995  0.5307E+00  0.7301E+01
      3.108  0.4178E+00  0.7348E+01
      3.221  0.1046E+01  0.7466E+01
      3.333  0.3589E+01  0.7871E+01
      3.446  0.1270E+01  0.8014E+01
      3.559  0.2914E+01  0.8343E+01
      3.672  0.2651E+01  0.8642E+01
      3.785  0.2453E+01  0.8918E+01
      3.897  0.8475E+00  0.9014E+01
      4.010  0.1740E-01  0.9016E+01
      4.123  0.6363E+00  0.9088E+01
      4.236  0.8232E+00  0.9180E+01
      4.348  0.8722E+00  0.9279E+01
      4.461  0.2940E+01  0.9610E+01
      4.574  0.3114E+01  0.9961E+01
      4.687  0.1235E+01  0.1010E+02
      4.799  0.6413E+00  0.1017E+02
      4.912  0.3238E+01  0.1054E+02
      5.025  0.2149E+01  0.1078E+02
      5.138  0.1068E+00  0.1079E+02
      5.251  0.9764E+00  0.1090E+02
      5.363  0.9781E+00  0.1101E+02
      5.476  0.7270E+00  0.1109E+02
      5.589  0.1588E+01  0.1127E+02
      5.702  0.2858E+01  0.1160E+02
      5.814  0.2164E+01  0.1184E+02
      5.927  0.2732E+01  0.1215E+02
      6.040  0.4191E+01  0.1262E+02
      6.153  0.1510E+01  0.1279E+02
      6.266  0.8701E+00  0.1289E+02
      6.378  0.2016E+01  0.1312E+02
      6.491  0.1414E+01  0.1328E+02
      6.604  0.2330E+01  0.1354E+02
      6.717  0.9088E+00  0.1364E+02
      6.829  0.1700E+01  0.1383E+02
      6.942  0.3071E+01  0.1418E+02
      7.055  0.8396E+00  0.1427E+02
      7.168  0.2675E+01  0.1458E+02
      7.281  0.1685E+01  0.1477E+02
      7.393  0.1584E+01  0.1494E+02
      7.506  0.2382E+01  0.1521E+02
      7.619  0.2137E+01  0.1545E+02
      7.732  0.9636E+00  0.1556E+02
      7.844  0.1791E+01  0.1576E+02
      7.957  0.4167E+01  0.1623E+02
      8.070  0.1915E+01  0.1645E+02
      8.183  0.4311E+01  0.1694E+02
      8.295  0.2787E+01  0.1725E+02
      8.408  0.1335E+01  0.1740E+02
      8.521  0.1154E+01  0.1753E+02
      8.634  0.2230E+01  0.1778E+02
      8.747  0.1049E+01  0.1790E+02
      8.859  0.1279E+01  0.1805E+02
      8.972  0.3100E+01  0.1840E+02
      9.085  0.1538E+01  0.1857E+02
      9.198  0.2219E+01  0.1882E+02
      9.310  0.1647E+01  0.1900E+02
      9.423  0.3654E+01  0.1942E+02
      9.536  0.1395E+01  0.1957E+02
      9.649  0.3071E+01  0.1992E+02
      9.762  0.3526E+01  0.2032E+02
      9.874  0.2806E+01  0.2063E+02
      9.987  0.6686E+00  0.2071E+02
     10.100  0.2782E+01  0.2102E+02
     10.213  0.2141E+01  0.2127E+02
     10.325  0.6537E+00  0.2134E+02
     10.438  0.3311E+01  0.2171E+02
     10.551  0.2737E+01  0.2202E+02
     10.664  0.1765E+01  0.2222E+02
     10.777  0.1939E+01  0.2244E+02
     10.889  0.2158E+01  0.2268E+02
     11.002  0.1074E+01  0.2280E+02
     11.115  0.4354E+01  0.2329E+02
     11.228  0.2081E+01  0.2353E+02
     11.340  0.1392E+01  0.2369E+02
     11.453  0.1646E+00  0.2370E+02
     11.566  0.1935E+01  0.2392E+02
     11.679  0.1969E+01  0.2414E+02
     11.791  0.2114E+01  0.2438E+02
     11.904  0.1069E+01  0.2450E+02
     12.017  0.3048E+01  0.2485E+02
     12.130  0.4260E+01  0.2533E+02
     12.243  0.3891E+01  0.2577E+02
     12.355  0.2494E+01  0.2605E+02
     12.468  0.3230E+01  0.2641E+02
     12.581  0.3669E+01  0.2683E+02
     12.694  0.3631E+01  0.2724E+02
     12.806  0.3112E+01  0.2759E+02
     12.919  0.2447E+00  0.2761E+02
     13.032  0.1198E+01  0.2775E+02
     13.145  0.1038E+01  0.2787E+02
     13.258  0.2536E+01  0.2815E+02
     13.370  0.2689E+01  0.2846E+02
     13.483  0.1478E+01  0.2862E+02
     13.596  0.3088E+01  0.2897E+02
     13.709  0.3646E+01  0.2938E+02
     13.821  0.1395E+01  0.2954E+02
     13.934  0.9257E+00  0.2964E+02
     14.047  0.1234E+01  0.2978E+02
     14.160  0.2054E+01  0.3001E+02
     14.273  0.2736E+01  0.3032E+02
     14.385  0.1576E+01  0.3050E+02
     14.498  0.2618E+01  0.3080E+02
     14.611  0.6960E+00  0.3087E+02
     14.724  0.2127E+00  0.3090E+02
     14.836  0.1593E+01  0.3108E+02
     14.949  0.3655E+01  0.3149E+02
     15.062  0.1425E+01  0.3165E+02
     15.175  0.6527E+00  0.3172E+02
     15.287  0.4002E+00  0.3177E+02
     15.400  0.4409E+00  0.3182E+02
     15.513  0.1449E-02  0.3182E+02
     15.626  0.7600E-01  0.3183E+02
     15.739  0.4689E-01  0.3183E+02
     15.851  0.2945E-04  0.3183E+02
     15.964  0.1447E-11  0.3183E+02
     16.077  0.0000E+00  0.3183E+02
     16.190  0.3539E-13  0.3183E+02
     16.302  0.1016E-04  0.3183E+02
     16.415  0.1824E+00  0.3185E+02
     16.528  0.1264E+01  0.3200E+02
     16.641  0.3117E-01  0.3200E+02
     16.754  0.1312E-06  0.3200E+02
     16.866  0.0000E+00  0.3200E+02
     16.979  0.0000E+00  0.3200E+02
     17.092  0.0000E+00  0.3200E+02
     17.205  0.0000E+00  0.3200E+02
     17.317  0.0000E+00  0.3200E+02
     17.430  0.0000E+00  0.3200E+02
     17.543  0.0000E+00  0.3200E+02
     17.656  0.0000E+00  0.3200E+02
     17.769  0.0000E+00  0.3200E+02
     17.881  0.0000E+00  0.3200E+02
     17.994  0.0000E+00  0.3200E+02
