 running   24 mpi-ranks, on    1 nodes
 distrk:  each k-point on    6 cores,    4 groups
 distr:  one band on    6 cores,    1 groups
 vasp.6.5.0 16Dec24 (build Jan 08 2025 16:17:04) complex                        
  
 POSCAR found type information on POSCAR BeH 
 POSCAR found :  2 types and       3 ions
 Reading from existing POTCAR
 scaLAPACK will be used
 Reading from existing POTCAR
 LDA part: xc-table for (Slater+PW92), standard interpolation
 found WAVECAR, reading the header
 POSCAR, INCAR and KPOINTS ok, starting setup
 FFT: planning ... GRIDC
 FFT: planning ... GRID_SOFT
 FFT: planning ... GRID
 reading WAVECAR
 the WAVECAR file was read successfully
 initial charge from wavefunction
 entering main loop
       N       E                     dE             d eps       ncg     rms          ort
 gam= 0.000 g(H,U,f)=  0.194E-01 0.630E-02 0.143E-11 ort(H,U,f) = 0.000E+00 0.000E+00 0.000E+00
SDA:   1    -0.115485573862E+02   -0.11549E+02   -0.10293E-01   800   0.257E-01 0.000E+00
 gam= 0.382 g(H,U,f)=  0.493E-02 0.409E-02 0.777E-17 ort(H,U,f) = 0.901E-02 0.490E-02 0.899E-17
DMP:   2    -0.115564816764E+02   -0.79243E-02   -0.57324E-02   800   0.902E-02 0.139E-01
 gam= 0.382 g(H,U,f)=  0.916E-03 0.225E-02 0.202E-11 ort(H,U,f) = 0.111E-02 0.423E-02 0.369E-11
DMP:   3    -0.115604078314E+02   -0.39262E-02   -0.20824E-02   800   0.317E-02 0.534E-02
 gam= 0.382 g(H,U,f)=  0.543E-03 0.114E-02 0.130E-16 ort(H,U,f) =-0.323E-03 0.265E-02 0.298E-16
DMP:   4    -0.115619082983E+02   -0.15005E-02   -0.10305E-02   800   0.169E-02 0.233E-02
 gam= 0.382 g(H,U,f)=  0.187E-03 0.543E-03 0.350E-13 ort(H,U,f) =-0.613E-04 0.144E-02 0.937E-13
DMP:   5    -0.115626944445E+02   -0.78615E-03   -0.50267E-03   800   0.730E-03 0.138E-02
 gam= 0.382 g(H,U,f)=  0.864E-04 0.241E-03 0.443E-17 ort(H,U,f) =-0.781E-05 0.710E-03 0.140E-16
DMP:   6    -0.115630837381E+02   -0.38929E-03   -0.23845E-03   800   0.328E-03 0.702E-03
 gam= 0.382 g(H,U,f)=  0.387E-04 0.102E-03 0.201E-19 ort(H,U,f) = 0.309E-04 0.325E-03 0.657E-19
DMP:   7    -0.115632735327E+02   -0.18979E-03   -0.11077E-03   800   0.141E-03 0.356E-03
 gam= 0.382 g(H,U,f)=  0.976E-05 0.422E-04 0.728E-19 ort(H,U,f) = 0.184E-04 0.142E-03 0.259E-18
DMP:   8    -0.115633610030E+02   -0.87470E-04   -0.45239E-04   800   0.520E-04 0.160E-03
 gam= 0.382 g(H,U,f)=  0.185E-05 0.172E-04 0.408E-18 ort(H,U,f) = 0.131E-05 0.601E-04 0.159E-17
DMP:   9    -0.115633960831E+02   -0.35080E-04   -0.17002E-04   800   0.191E-04 0.614E-04
 gam= 0.382 g(H,U,f)=  0.185E-05 0.694E-05 0.837E-18 ort(H,U,f) =-0.109E-05 0.251E-04 0.362E-17
DMP:  10    -0.115634094488E+02   -0.13366E-04   -0.71806E-05   800   0.880E-05 0.240E-04
 gam= 0.382 g(H,U,f)=  0.103E-05 0.275E-05 0.842E-18 ort(H,U,f) = 0.549E-06 0.103E-04 0.417E-17
DMP:  11    -0.115634151564E+02   -0.57076E-05   -0.31676E-05   800   0.378E-05 0.108E-04
 gam= 0.382 g(H,U,f)=  0.217E-06 0.106E-05 0.480E-18 ort(H,U,f) = 0.299E-06 0.414E-05 0.287E-17
DMP:  12    -0.115634175466E+02   -0.23903E-05   -0.11897E-05   800   0.128E-05 0.443E-05
 gam= 0.382 g(H,U,f)=  0.842E-07 0.403E-06 0.149E-18 ort(H,U,f) =-0.186E-07 0.162E-05 0.122E-17
DMP:  13    -0.115634184213E+02   -0.87463E-06   -0.43913E-06   800   0.487E-06 0.160E-05
 final diagonalization
   1 F= -.11563418E+02 E0= -.11563418E+02  d E =-.117809E-15
 writing wavefunctions
