       N       E                     dE             d eps       ncg     rms          ort
DAV:   1    -0.664334999091E+01   -0.66433E+01   -0.33181E+03 47880   0.126E+02
DAV:   2    -0.739273245750E+01   -0.74938E+00   -0.74047E+00 47880   0.540E+00
DAV:   3    -0.739278685576E+01   -0.54398E-04   -0.54397E-04 47880   0.524E-02
DAV:   4    -0.739278685647E+01   -0.71781E-09   -0.88980E-09 47880   0.171E-04
DAV:   5    -0.739278685609E+01    0.38583E-09    0.18042E-13 47880   0.480E-08
SDA:   6    -0.733129627572E+01    0.61491E-01    0.18042E-13 47880   0.302E-02 0.000E+00
CGA:   7    -0.733261984661E+01   -0.13236E-02   -0.13424E-02 47880   0.610E-03-0.709E-04
CGA:   8    -0.733314712907E+01   -0.52728E-03   -0.51777E-03 47880   0.144E-04 0.142E-04
CGA:   9    -0.733315383972E+01   -0.67106E-05   -0.65493E-05 47880   0.102E-05 0.813E-06
CGA:  10    -0.733315440507E+01   -0.56535E-06   -0.76906E-06 47880   0.254E-06-0.439E-06
   1 F= -.73331544E+01 E0= -.73329914E+01  d E =-.325968E-03
