beta-Beryllene third top-hollow_2
1.0
       11.3613853455         0.0000000000         0.0000000000
       -5.6806941454         9.8390481619         0.0000000000
        0.0000000000         0.0000000000        40.0000000000
   Be    H
   54   18
Direct
     0.322314292         0.000000000         0.123192698
     0.322314292         0.333333343         0.123192698
     0.322314292         0.666666687         0.123192698
     0.655647635         0.000000000         0.123192698
     0.655647635         0.333333343         0.123192698
     0.655647635         0.666666687         0.123192698
     0.988980949         0.000000000         0.123192698
     0.988980949         0.333333343         0.123192698
     0.988980949         0.666666687         0.123192698
     0.205455616         0.108236492         0.123190701
     0.205455616         0.441569835         0.123190701
     0.205455616         0.774903178         0.123190701
     0.538788974         0.108236492         0.123190701
     0.538788974         0.441569835         0.123190701
     0.538788974         0.774903178         0.123190701
     0.872122288         0.108236492         0.123190701
     0.872122288         0.441569835         0.123190701
     0.872122288         0.774903178         0.123190701
     0.097219132         0.225096837         0.123190701
     0.097219132         0.558430195         0.123190701
     0.097219132         0.891763508         0.123190701
     0.430552453         0.225096837         0.123190701
     0.430552453         0.558430195         0.123190701
     0.430552453         0.891763508         0.123190701
     0.763885796         0.225096837         0.123190701
     0.763885796         0.558430195         0.123190701
     0.763885796         0.891763508         0.123190701
     0.097222306         0.108236253         0.076808818
     0.097222306         0.441569597         0.076808818
     0.097222306         0.774902940         0.076808818
     0.430555642         0.108236253         0.076808818
     0.430555642         0.441569597         0.076808818
     0.430555642         0.774902940         0.076808818
     0.763888955         0.108236253         0.076808818
     0.763888955         0.441569597         0.076808818
     0.763888955         0.774902940         0.076808818
     0.205462933         0.000000000         0.076808229
     0.205462933         0.333333343         0.076808229
     0.205462933         0.666666687         0.076808229
     0.538796246         0.000000000         0.076808229
     0.538796246         0.333333343         0.076808229
     0.538796246         0.666666687         0.076808229
     0.872129619         0.000000000         0.076808229
     0.872129619         0.333333343         0.076808229
     0.872129619         0.666666687         0.076808229
     0.322319388         0.225097075         0.076808818
     0.322319388         0.558430433         0.076808818
     0.322319388         0.891763747         0.076808818
     0.655652702         0.225097075         0.076808818
     0.655652702         0.558430433         0.076808818
     0.655652702         0.891763747         0.076808818
     0.988986075         0.225097075         0.076808818
     0.988986075         0.558430433         0.076808818
     0.988986075         0.891763747         0.076808818
     0.097222738         0.000000000         0.146708935
     0.097222738         0.333333343         0.146708935
     0.097222738         0.666666687         0.146708935
     0.430556059         0.000000000         0.146708935
     0.430556059         0.333333343         0.146708935
     0.430556059         0.666666687         0.146708935
     0.763889432         0.000000000         0.146708935
     0.763889432         0.333333343         0.146708935
     0.763889432         0.666666687         0.146708935
     0.097228020         0.000000000         0.053291105
     0.097228020         0.333333343         0.053291105
     0.097228020         0.666666687         0.053291105
     0.430561364         0.000000000         0.053291105
     0.430561364         0.333333343         0.053291105
     0.430561364         0.666666687         0.053291105
     0.763894677         0.000000000         0.053291105
     0.763894677         0.333333343         0.053291105
     0.763894677         0.666666687         0.053291105
