 running  168 mpi-ranks, on    1 nodes
 distrk:  each k-point on  168 cores,    1 groups
 distr:  one band on    1 cores,  168 groups
 vasp.6.5.0 16Dec24 (build Jan 08 2025 16:17:04) complex                        
  
 POSCAR found type information on POSCAR BeH 
 POSCAR found :  2 types and      27 ions
 Reading from existing POTCAR
 scaLAPACK will be used
 -----------------------------------------------------------------------------
|                                                                             |
|           W    W    AA    RRRRR   N    N  II  N    N   GGGG   !!!           |
|           W    W   A  A   R    R  NN   N  II  NN   N  G    G  !!!           |
|           W    W  A    A  R    R  N N  N  II  N N  N  G       !!!           |
|           W WW W  AAAAAA  RRRRR   N  N N  II  N  N N  G  GGG   !            |
|           WW  WW  A    A  R   R   N   NN  II  N   NN  G    G                |
|           W    W  A    A  R    R  N    N  II  N    N   GGGG   !!!           |
|                                                                             |
|     For optimal performance we recommend to set                             |
|       NCORE = 2 up to number-of-cores-per-socket                            |
|     NCORE specifies how many cores store one orbital (NPAR=cpu/NCORE).      |
|     This setting can greatly improve the performance of VASP for DFT.       |
|     The default, NCORE=1 might be grossly inefficient on modern             |
|     multi-core architectures or massively parallel machines. Do your        |
|     own testing! More info at https://www.vasp.at/wiki/index.php/NCORE      |
|     Unfortunately you need to use the default for GW and RPA                |
|     calculations (for HF NCORE is supported but not extensively tested      |
|     yet).                                                                   |
|                                                                             |
 -----------------------------------------------------------------------------

 Reading from existing POTCAR
 -----------------------------------------------------------------------------
|                                                                             |
|               ----> ADVICE to this user running VASP <----                  |
|                                                                             |
|     You have a (more or less) 'large supercell' and for larger cells it     |
|     might be more efficient to use real-space projection operators.         |
|     Therefore, try LREAL= Auto in the INCAR file.                           |
|     Mind: For very accurate calculation, you might also keep the            |
|     reciprocal projection scheme (i.e. LREAL=.FALSE.).                      |
|                                                                             |
 -----------------------------------------------------------------------------

 LDA part: xc-table for (Slater+PW92), standard interpolation
 POSCAR, INCAR and KPOINTS ok, starting setup
 FFT: planning ... GRIDC
 FFT: planning ... GRID_SOFT
 FFT: planning ... GRID
 WAVECAR not read
 entering main loop
       N       E                     dE             d eps       ncg     rms          rms(c)
DAV:   1     0.230530257161E+02    0.23053E+02   -0.12156E+04  5376   0.143E+02
DAV:   2    -0.974642391289E+02   -0.12052E+03   -0.12052E+03  7392   0.256E+01
DAV:   3    -0.988245428422E+02   -0.13603E+01   -0.13603E+01  7728   0.374E+00
DAV:   4    -0.988264192400E+02   -0.18764E-02   -0.18764E-02  8064   0.130E-01
DAV:   5    -0.988264207981E+02   -0.15581E-05   -0.15569E-05  7896   0.349E-03    0.113E+01
DAV:   6    -0.957842636163E+02    0.30422E+01   -0.16598E+00  7728   0.721E-01    0.656E+00
DAV:   7    -0.938010870597E+02    0.19832E+01   -0.36045E+00  9912   0.111E+00    0.861E-01
DAV:   8    -0.937062799131E+02    0.94807E-01   -0.44852E-02  9912   0.160E-01    0.317E-01
DAV:   9    -0.936702188380E+02    0.36061E-01   -0.26696E-02  9576   0.833E-02    0.182E-01
DAV:  10    -0.936614510067E+02    0.87678E-02   -0.31826E-02  8904   0.886E-02    0.699E-02
DAV:  11    -0.936635982045E+02   -0.21472E-02   -0.22933E-03  9408   0.267E-02    0.455E-02
DAV:  12    -0.936734781683E+02   -0.98800E-02   -0.15542E-03  8064   0.242E-02    0.239E-02
DAV:  13    -0.936777536674E+02   -0.42755E-02   -0.60794E-04  9240   0.128E-02    0.123E-02
DAV:  14    -0.936791087187E+02   -0.13551E-02   -0.14196E-04  9240   0.615E-03    0.595E-03
DAV:  15    -0.936795481331E+02   -0.43941E-03   -0.81655E-05  9912   0.436E-03    0.286E-03
DAV:  16    -0.936797769100E+02   -0.22878E-03   -0.66025E-06  8736   0.142E-03    0.991E-04
DAV:  17    -0.936798222049E+02   -0.45295E-04   -0.78738E-07  9240   0.427E-04    0.657E-04
DAV:  18    -0.936798542773E+02   -0.32072E-04   -0.20798E-07  8064   0.281E-04    0.287E-04
DAV:  19    -0.936798691361E+02   -0.14859E-04   -0.10950E-07  7728   0.184E-04    0.120E-04
DAV:  20    -0.936798711979E+02   -0.20618E-05    0.13710E-08 10080   0.465E-05    0.768E-05
DAV:  21    -0.936798738318E+02   -0.26339E-05   -0.11558E-08  7728   0.770E-05    0.242E-05
DAV:  22    -0.936798743093E+02   -0.47751E-06    0.11929E-08  9408   0.258E-05
   1 F= -.95774970E+02 E0= -.95774970E+02  d E =-.222472E-15
 Found     4 degrees of freedom:
 Finite differences POTIM= 0.01500 DOF=   4
