  36  36   0   0
  0.4950351E+02  0.7788305E-09  0.6245026E-09  0.4000000E-08  0.1500000E-16
  1.000000000000000E-004
  CAR 
 phonon_dispersion                       
     11.26659231    -14.84259913  301     -3.08994493      1.00000000
    -14.843  0.0000E+00  0.0000E+00
    -14.756  0.0000E+00  0.0000E+00
    -14.669  0.0000E+00  0.0000E+00
    -14.582  0.0000E+00  0.0000E+00
    -14.494  0.0000E+00  0.0000E+00
    -14.407  0.0000E+00  0.0000E+00
    -14.320  0.0000E+00  0.0000E+00
    -14.233  0.0000E+00  0.0000E+00
    -14.146  0.0000E+00  0.0000E+00
    -14.059  0.0000E+00  0.0000E+00
    -13.972  0.0000E+00  0.0000E+00
    -13.885  0.1854E-13  0.1613E-14
    -13.798  0.1461E-07  0.1271E-08
    -13.711  0.5394E-04  0.4696E-05
    -13.624  0.2093E-02  0.1868E-03
    -13.537  0.5114E-02  0.6319E-03
    -13.450  0.5222E-02  0.1086E-02
    -13.363  0.5613E-02  0.1575E-02
    -13.276  0.4809E-02  0.1993E-02
    -13.189  0.6196E-02  0.2533E-02
    -13.102  0.4041E-02  0.2884E-02
    -13.015  0.6936E-02  0.3488E-02
    -12.928  0.4005E-02  0.3837E-02
    -12.841  0.5988E-02  0.4358E-02
    -12.754  0.5952E-02  0.4876E-02
    -12.667  0.4183E-02  0.5240E-02
    -12.580  0.5739E-02  0.5739E-02
    -12.493  0.6641E-02  0.6317E-02
    -12.406  0.3657E-02  0.6636E-02
    -12.319  0.6651E-02  0.7214E-02
    -12.232  0.4968E-02  0.7647E-02
    -12.145  0.7180E-02  0.8272E-02
    -12.058  0.1025E-01  0.9164E-02
    -11.971  0.1103E-01  0.1012E-01
    -11.884  0.1070E-01  0.1105E-01
    -11.797  0.8726E-02  0.1181E-01
    -11.709  0.1457E-01  0.1308E-01
    -11.622  0.9024E-02  0.1387E-01
    -11.535  0.1045E-01  0.1478E-01
    -11.448  0.1028E-01  0.1567E-01
    -11.361  0.1161E-01  0.1668E-01
    -11.274  0.1389E-01  0.1789E-01
    -11.187  0.8615E-02  0.1864E-01
    -11.100  0.9635E-02  0.1948E-01
    -11.013  0.1131E-01  0.2046E-01
    -10.926  0.1361E-01  0.2165E-01
    -10.839  0.1298E-01  0.2278E-01
    -10.752  0.8466E-02  0.2351E-01
    -10.665  0.7663E-02  0.2418E-01
    -10.578  0.1556E-01  0.2554E-01
    -10.491  0.1444E-01  0.2679E-01
    -10.404  0.8690E-02  0.2755E-01
    -10.317  0.1088E-01  0.2850E-01
    -10.230  0.1193E-01  0.2953E-01
    -10.143  0.1171E-01  0.3055E-01
    -10.056  0.1230E-01  0.3162E-01
     -9.969  0.1507E-01  0.3294E-01
     -9.882  0.1023E-01  0.3383E-01
     -9.795  0.1110E-01  0.3479E-01
     -9.708  0.1097E-01  0.3575E-01
     -9.621  0.1524E-01  0.3707E-01
     -9.534  0.1414E-01  0.3830E-01
     -9.447  0.1301E-01  0.3944E-01
     -9.360  0.9657E-02  0.4028E-01
     -9.273  0.1530E-01  0.4161E-01
     -9.186  0.1397E-01  0.4282E-01
     -9.099  0.1407E-01  0.4405E-01
     -9.012  0.1493E-01  0.4535E-01
     -8.925  0.1807E-01  0.4692E-01
     -8.837  0.1778E-01  0.4847E-01
     -8.750  0.2151E-01  0.5034E-01
     -8.663  0.2447E-01  0.5247E-01
     -8.576  0.2328E-01  0.5450E-01
     -8.489  0.2025E-01  0.5626E-01
     -8.402  0.2178E-01  0.5816E-01
     -8.315  0.2186E-01  0.6006E-01
     -8.228  0.2186E-01  0.6196E-01
     -8.141  0.2614E-01  0.6423E-01
     -8.054  0.1782E-01  0.6579E-01
     -7.967  0.1935E-01  0.6747E-01
     -7.880  0.1639E-01  0.6890E-01
     -7.793  0.2111E-01  0.7073E-01
     -7.706  0.2172E-01  0.7262E-01
     -7.619  0.1640E-01  0.7405E-01
     -7.532  0.1934E-01  0.7573E-01
     -7.445  0.2346E-01  0.7778E-01
     -7.358  0.2726E-01  0.8015E-01
     -7.271  0.2033E-01  0.8192E-01
     -7.184  0.2008E-01  0.8367E-01
     -7.097  0.1964E-01  0.8537E-01
     -7.010  0.2321E-01  0.8739E-01
     -6.923  0.2267E-01  0.8937E-01
     -6.836  0.9880E-02  0.9023E-01
     -6.749  0.1149E-01  0.9123E-01
     -6.662  0.7045E-02  0.9184E-01
     -6.575  0.8896E-02  0.9262E-01
     -6.488  0.8473E-02  0.9335E-01
     -6.401  0.6771E-02  0.9394E-01
     -6.314  0.1038E-01  0.9485E-01
     -6.227  0.7590E-02  0.9551E-01
     -6.140  0.6868E-02  0.9610E-01
     -6.053  0.4559E-02  0.9650E-01
     -5.965  0.7820E-02  0.9718E-01
     -5.878  0.7642E-02  0.9785E-01
     -5.791  0.7236E-02  0.9848E-01
     -5.704  0.8393E-02  0.9921E-01
     -5.617  0.6531E-02  0.9977E-01
     -5.530  0.6824E-02  0.1004E+00
     -5.443  0.3674E-02  0.1007E+00
     -5.356  0.3655E-02  0.1010E+00
     -5.269  0.8599E-02  0.1018E+00
     -5.182  0.1060E-01  0.1027E+00
     -5.095  0.8432E-02  0.1034E+00
     -5.008  0.2798E-02  0.1037E+00
     -4.921  0.5044E-02  0.1041E+00
     -4.834  0.4396E-02  0.1045E+00
     -4.747  0.6220E-02  0.1050E+00
     -4.660  0.6798E-02  0.1056E+00
     -4.573  0.8688E-02  0.1064E+00
     -4.486  0.7365E-02  0.1070E+00
     -4.399  0.5288E-02  0.1075E+00
     -4.312  0.3669E-02  0.1078E+00
     -4.225  0.7368E-02  0.1084E+00
     -4.138  0.6620E-02  0.1090E+00
     -4.051  0.3322E-02  0.1093E+00
     -3.964  0.5149E-02  0.1097E+00
     -3.877  0.7431E-02  0.1104E+00
     -3.790  0.7228E-02  0.1110E+00
     -3.703  0.6702E-02  0.1116E+00
     -3.616  0.8944E-02  0.1124E+00
     -3.529  0.3910E-02  0.1127E+00
     -3.442  0.4893E-02  0.1131E+00
     -3.355  0.2904E-02  0.1134E+00
     -3.268  0.4407E-02  0.1138E+00
     -3.180  0.6460E-02  0.1143E+00
     -3.093  0.8747E-02  0.1151E+00
     -3.006  0.1070E-01  0.1160E+00
     -2.919  0.6683E-02  0.1166E+00
     -2.832  0.4415E-02  0.1170E+00
     -2.745  0.2906E-02  0.1173E+00
     -2.658  0.4522E-02  0.1176E+00
     -2.571  0.4172E-02  0.1180E+00
     -2.484  0.5740E-02  0.1185E+00
     -2.397  0.1013E-01  0.1194E+00
     -2.310  0.1027E-01  0.1203E+00
     -2.223  0.6544E-02  0.1209E+00
     -2.136  0.4939E-02  0.1213E+00
     -2.049  0.6915E-02  0.1219E+00
     -1.962  0.4742E-02  0.1223E+00
     -1.875  0.5818E-02  0.1228E+00
     -1.788  0.5383E-02  0.1233E+00
     -1.701  0.6475E-02  0.1238E+00
     -1.614  0.1520E-01  0.1252E+00
     -1.527  0.1611E-01  0.1266E+00
     -1.440  0.6071E-02  0.1271E+00
     -1.353  0.5422E-02  0.1276E+00
     -1.266  0.5900E-02  0.1281E+00
     -1.179  0.5129E-02  0.1285E+00
     -1.092  0.6291E-02  0.1291E+00
     -1.005  0.3243E-02  0.1294E+00
     -0.918  0.2868E-02  0.1296E+00
     -0.831  0.3955E-02  0.1299E+00
     -0.744  0.7261E-02  0.1306E+00
     -0.657  0.5069E-02  0.1310E+00
     -0.570  0.4836E-02  0.1314E+00
     -0.483  0.1039E-01  0.1323E+00
     -0.396  0.1851E-01  0.1340E+00
     -0.308  0.2129E-01  0.1358E+00
     -0.221  0.2630E-01  0.1381E+00
     -0.134  0.2470E-01  0.1402E+00
     -0.047  0.2138E-01  0.1421E+00
      0.040  0.2159E-01  0.1440E+00
      0.127  0.2231E-01  0.1459E+00
      0.214  0.1496E-01  0.1472E+00
      0.301  0.1272E-01  0.1483E+00
      0.388  0.1693E-01  0.1498E+00
      0.475  0.1651E-01  0.1512E+00
      0.562  0.1220E-01  0.1523E+00
      0.649  0.2015E-01  0.1541E+00
      0.736  0.1871E-01  0.1557E+00
      0.823  0.2117E-01  0.1575E+00
      0.910  0.2396E-01  0.1596E+00
      0.997  0.2833E-01  0.1621E+00
      1.084  0.2437E-01  0.1642E+00
      1.171  0.2665E-01  0.1665E+00
      1.258  0.2981E-01  0.1691E+00
      1.345  0.3578E-01  0.1722E+00
      1.432  0.3035E-01  0.1749E+00
      1.519  0.4032E-01  0.1784E+00
      1.606  0.4191E-01  0.1820E+00
      1.693  0.4494E-01  0.1859E+00
      1.780  0.4144E-01  0.1895E+00
      1.867  0.4942E-01  0.1938E+00
      1.954  0.3945E-01  0.1973E+00
      2.041  0.4220E-01  0.2010E+00
      2.128  0.5338E-01  0.2056E+00
      2.215  0.5870E-01  0.2107E+00
      2.302  0.6130E-01  0.2160E+00
      2.389  0.6188E-01  0.2214E+00
      2.476  0.5649E-01  0.2263E+00
      2.564  0.5493E-01  0.2311E+00
      2.651  0.5555E-01  0.2360E+00
      2.738  0.4059E-01  0.2395E+00
      2.825  0.4106E-01  0.2431E+00
      2.912  0.4128E-01  0.2467E+00
      2.999  0.4238E-01  0.2503E+00
      3.086  0.4914E-01  0.2546E+00
      3.173  0.5723E-01  0.2596E+00
      3.260  0.5065E-01  0.2640E+00
      3.347  0.4635E-01  0.2680E+00
      3.434  0.4049E-01  0.2716E+00
      3.521  0.4671E-01  0.2756E+00
      3.608  0.4987E-01  0.2800E+00
      3.695  0.4924E-01  0.2843E+00
      3.782  0.5235E-01  0.2888E+00
      3.869  0.4866E-01  0.2931E+00
      3.956  0.4739E-01  0.2972E+00
      4.043  0.5696E-01  0.3021E+00
      4.130  0.6292E-01  0.3076E+00
      4.217  0.5678E-01  0.3126E+00
      4.304  0.5190E-01  0.3171E+00
      4.391  0.5569E-01  0.3219E+00
      4.478  0.5616E-01  0.3268E+00
      4.565  0.5383E-01  0.3315E+00
      4.652  0.7360E-01  0.3379E+00
      4.739  0.6716E-01  0.3437E+00
      4.826  0.5490E-01  0.3485E+00
      4.913  0.6225E-01  0.3539E+00
      5.000  0.6911E-01  0.3600E+00
      5.087  0.6409E-01  0.3655E+00
      5.174  0.7351E-01  0.3719E+00
      5.261  0.6529E-01  0.3776E+00
      5.349  0.6822E-01  0.3835E+00
      5.436  0.7366E-01  0.3900E+00
      5.523  0.7921E-01  0.3968E+00
      5.610  0.7932E-01  0.4038E+00
      5.697  0.7913E-01  0.4106E+00
      5.784  0.7245E-01  0.4169E+00
      5.871  0.8183E-01  0.4241E+00
      5.958  0.7436E-01  0.4305E+00
      6.045  0.6812E-01  0.4365E+00
      6.132  0.7812E-01  0.4433E+00
      6.219  0.7206E-01  0.4495E+00
      6.306  0.7040E-01  0.4557E+00
      6.393  0.7110E-01  0.4619E+00
      6.480  0.6229E-01  0.4673E+00
      6.567  0.6611E-01  0.4730E+00
      6.654  0.7828E-01  0.4798E+00
      6.741  0.7997E-01  0.4868E+00
      6.828  0.7429E-01  0.4933E+00
      6.915  0.7504E-01  0.4998E+00
      7.002  0.7679E-01  0.5065E+00
      7.089  0.8046E-01  0.5135E+00
      7.176  0.6419E-01  0.5191E+00
      7.263  0.6554E-01  0.5248E+00
      7.350  0.7523E-01  0.5313E+00
      7.437  0.8865E-01  0.5390E+00
      7.524  0.9539E-01  0.5473E+00
      7.611  0.7784E-01  0.5541E+00
      7.698  0.7038E-01  0.5602E+00
      7.785  0.7039E-01  0.5664E+00
      7.872  0.7395E-01  0.5728E+00
      7.959  0.5826E-01  0.5779E+00
      8.046  0.6465E-01  0.5835E+00
      8.133  0.7647E-01  0.5901E+00
      8.221  0.9608E-01  0.5985E+00
      8.308  0.8270E-01  0.6057E+00
      8.395  0.6179E-01  0.6111E+00
      8.482  0.8001E-01  0.6181E+00
      8.569  0.8132E-01  0.6251E+00
      8.656  0.8179E-01  0.6322E+00
      8.743  0.7893E-01  0.6391E+00
      8.830  0.8366E-01  0.6464E+00
      8.917  0.8956E-01  0.6542E+00
      9.004  0.8820E-01  0.6619E+00
      9.091  0.7796E-01  0.6687E+00
      9.178  0.8457E-01  0.6760E+00
      9.265  0.7951E-01  0.6829E+00
      9.352  0.7942E-01  0.6898E+00
      9.439  0.5678E-01  0.6948E+00
      9.526  0.6241E-01  0.7002E+00
      9.613  0.4862E-01  0.7044E+00
      9.700  0.4349E-01  0.7082E+00
      9.787  0.3838E-01  0.7116E+00
      9.874  0.2537E-01  0.7138E+00
      9.961  0.1493E-01  0.7151E+00
     10.048  0.1204E-01  0.7161E+00
     10.135  0.3232E-02  0.7164E+00
     10.222  0.8553E-04  0.7164E+00
     10.309  0.3008E-07  0.7164E+00
     10.396  0.4041E-13  0.7164E+00
     10.483  0.0000E+00  0.7164E+00
     10.570  0.0000E+00  0.7164E+00
     10.657  0.0000E+00  0.7164E+00
     10.744  0.0000E+00  0.7164E+00
     10.831  0.0000E+00  0.7164E+00
     10.918  0.0000E+00  0.7164E+00
     11.006  0.0000E+00  0.7164E+00
     11.093  0.0000E+00  0.7164E+00
     11.180  0.0000E+00  0.7164E+00
     11.267  0.0000E+00  0.7164E+00
