   3   3   0   0
  0.8374985E+02  0.2506240E-09  0.2506240E-09  0.4000000E-08  0.5000000E-15
  1.000000000000000E-004
  CAR 
 Convergence                             
     21.16714005    -14.08582808  301     -2.24227126      1.00000000
    -14.086  0.0000E+00  0.0000E+00
    -13.968  0.0000E+00  0.0000E+00
    -13.851  0.0000E+00  0.0000E+00
    -13.733  0.0000E+00  0.0000E+00
    -13.616  0.0000E+00  0.0000E+00
    -13.498  0.0000E+00  0.0000E+00
    -13.381  0.0000E+00  0.0000E+00
    -13.263  0.0000E+00  0.0000E+00
    -13.146  0.0000E+00  0.0000E+00
    -13.028  0.0000E+00  0.0000E+00
    -12.911  0.0000E+00  0.0000E+00
    -12.793  0.0000E+00  0.0000E+00
    -12.676  0.5715E-09  0.6716E-10
    -12.558  0.6673E-03  0.7842E-04
    -12.441  0.1353E+00  0.1598E-01
    -12.323  0.3513E+00  0.5726E-01
    -12.206  0.3491E+00  0.9829E-01
    -12.088  0.3668E+00  0.1414E+00
    -11.971  0.3917E+00  0.1874E+00
    -11.853  0.3076E+00  0.2236E+00
    -11.736  0.4121E+00  0.2720E+00
    -11.618  0.2777E+00  0.3046E+00
    -11.501  0.4733E+00  0.3602E+00
    -11.383  0.2525E+00  0.3899E+00
    -11.266  0.4411E+00  0.4417E+00
    -11.148  0.3356E+00  0.4812E+00
    -11.031  0.2749E+00  0.5135E+00
    -10.913  0.4712E+00  0.5689E+00
    -10.796  0.3339E+00  0.6081E+00
    -10.678  0.2820E+00  0.6412E+00
    -10.561  0.4754E+00  0.6971E+00
    -10.443  0.2862E+00  0.7307E+00
    -10.326  0.3569E+00  0.7727E+00
    -10.208  0.3873E+00  0.8182E+00
    -10.090  0.4292E+00  0.8686E+00
     -9.973  0.2826E+00  0.9018E+00
     -9.855  0.2737E+00  0.9340E+00
     -9.738  0.5666E+00  0.1001E+01
     -9.620  0.2459E+00  0.1029E+01
     -9.503  0.3103E+00  0.1066E+01
     -9.385  0.4851E+00  0.1123E+01
     -9.268  0.3160E+00  0.1160E+01
     -9.150  0.4098E+00  0.1208E+01
     -9.033  0.2417E+00  0.1237E+01
     -8.915  0.4882E+00  0.1294E+01
     -8.798  0.4877E+00  0.1351E+01
     -8.680  0.7112E+00  0.1435E+01
     -8.563  0.5903E+00  0.1504E+01
     -8.445  0.1020E+01  0.1624E+01
     -8.328  0.6847E+00  0.1704E+01
     -8.210  0.6778E+00  0.1784E+01
     -8.093  0.6441E+00  0.1860E+01
     -7.975  0.6654E+00  0.1938E+01
     -7.858  0.6043E+00  0.2009E+01
     -7.740  0.5002E+00  0.2068E+01
     -7.623  0.7409E+00  0.2155E+01
     -7.505  0.7477E+00  0.2243E+01
     -7.388  0.6650E+00  0.2321E+01
     -7.270  0.8246E+00  0.2418E+01
     -7.153  0.6596E+00  0.2495E+01
     -7.035  0.7340E+00  0.2582E+01
     -6.918  0.9489E+00  0.2693E+01
     -6.800  0.6899E+00  0.2774E+01
     -6.683  0.7086E+00  0.2857E+01
     -6.565  0.6289E+00  0.2931E+01
     -6.448  0.9825E+00  0.3047E+01
     -6.330  0.9093E+00  0.3154E+01
     -6.213  0.6791E+00  0.3233E+01
     -6.095  0.8005E+00  0.3327E+01
     -5.978  0.8677E+00  0.3429E+01
     -5.860  0.7837E+00  0.3522E+01
     -5.743  0.1193E+01  0.3662E+01
     -5.625  0.9696E+00  0.3776E+01
     -5.508  0.9869E+00  0.3892E+01
     -5.390  0.1032E+01  0.4013E+01
     -5.273  0.1026E+01  0.4133E+01
     -5.155  0.9713E+00  0.4248E+01
     -5.038  0.1080E+01  0.4375E+01
     -4.920  0.1241E+01  0.4520E+01
     -4.803  0.6659E+00  0.4599E+01
     -4.685  0.1199E+01  0.4740E+01
     -4.568  0.1206E+01  0.4881E+01
     -4.450  0.7944E+00  0.4975E+01
     -4.333  0.1020E+01  0.5094E+01
     -4.215  0.1413E+01  0.5260E+01
     -4.097  0.9748E+00  0.5375E+01
     -3.980  0.6283E+00  0.5449E+01
     -3.862  0.7325E+00  0.5535E+01
     -3.745  0.5844E+00  0.5604E+01
     -3.627  0.4718E+00  0.5659E+01
     -3.510  0.4710E+00  0.5714E+01
     -3.392  0.2845E+00  0.5748E+01
     -3.275  0.3903E+00  0.5794E+01
     -3.157  0.1756E+00  0.5814E+01
     -3.040  0.4044E+00  0.5862E+01
     -2.922  0.4513E-01  0.5867E+01
     -2.805  0.1507E+00  0.5885E+01
     -2.687  0.9480E-01  0.5896E+01
     -2.570  0.2379E+00  0.5924E+01
     -2.452  0.1389E-01  0.5926E+01
     -2.335  0.2468E+00  0.5955E+01
     -2.217  0.5536E+00  0.6020E+01
     -2.100  0.1462E+01  0.6191E+01
     -1.982  0.1396E+01  0.6355E+01
     -1.865  0.1762E+01  0.6562E+01
     -1.747  0.1608E+01  0.6751E+01
     -1.630  0.1260E+01  0.6899E+01
     -1.512  0.1561E+01  0.7083E+01
     -1.395  0.1384E+01  0.7245E+01
     -1.277  0.1174E+01  0.7383E+01
     -1.160  0.1992E+01  0.7617E+01
     -1.042  0.1863E+01  0.7836E+01
     -0.925  0.1810E+01  0.8049E+01
     -0.807  0.1841E+01  0.8265E+01
     -0.690  0.1687E+01  0.8464E+01
     -0.572  0.1939E+01  0.8691E+01
     -0.455  0.1928E+01  0.8918E+01
     -0.337  0.1726E+01  0.9121E+01
     -0.220  0.9781E+00  0.9236E+01
     -0.102  0.9704E+00  0.9350E+01
      0.015  0.8107E+00  0.9445E+01
      0.133  0.6680E+00  0.9524E+01
      0.250  0.8213E+00  0.9620E+01
      0.368  0.5909E+00  0.9690E+01
      0.485  0.4735E+00  0.9745E+01
      0.603  0.2754E+00  0.9778E+01
      0.720  0.2358E+00  0.9805E+01
      0.838  0.3267E+00  0.9844E+01
      0.955  0.5828E+00  0.9912E+01
      1.073  0.8260E+00  0.1001E+02
      1.190  0.7467E+00  0.1010E+02
      1.308  0.6103E+00  0.1017E+02
      1.425  0.1259E+01  0.1032E+02
      1.543  0.1726E+01  0.1052E+02
      1.660  0.2168E+01  0.1077E+02
      1.778  0.3669E+01  0.1121E+02
      1.896  0.2569E+01  0.1151E+02
      2.013  0.3213E+01  0.1188E+02
      2.131  0.3130E+01  0.1225E+02
      2.248  0.3010E+01  0.1261E+02
      2.366  0.2856E+01  0.1294E+02
      2.483  0.3412E+01  0.1334E+02
      2.601  0.3636E+01  0.1377E+02
      2.718  0.2842E+01  0.1410E+02
      2.836  0.4306E+01  0.1461E+02
      2.953  0.3315E+01  0.1500E+02
      3.071  0.3663E+01  0.1543E+02
      3.188  0.4402E+01  0.1595E+02
      3.306  0.3718E+01  0.1638E+02
      3.423  0.3773E+01  0.1683E+02
      3.541  0.3417E+01  0.1723E+02
      3.658  0.3937E+01  0.1769E+02
      3.776  0.3890E+01  0.1815E+02
      3.893  0.3592E+01  0.1857E+02
      4.011  0.3827E+01  0.1902E+02
      4.128  0.4210E+01  0.1952E+02
      4.246  0.4274E+01  0.2002E+02
      4.363  0.2997E+01  0.2037E+02
      4.481  0.3908E+01  0.2083E+02
      4.598  0.3901E+01  0.2129E+02
      4.716  0.4168E+01  0.2178E+02
      4.833  0.3772E+01  0.2222E+02
      4.951  0.4146E+01  0.2271E+02
      5.068  0.4118E+01  0.2319E+02
      5.186  0.4603E+01  0.2373E+02
      5.303  0.4655E+01  0.2428E+02
      5.421  0.3965E+01  0.2475E+02
      5.538  0.4611E+01  0.2529E+02
      5.656  0.4360E+01  0.2580E+02
      5.773  0.5388E+01  0.2643E+02
      5.891  0.4198E+01  0.2693E+02
      6.008  0.4512E+01  0.2746E+02
      6.126  0.3880E+01  0.2791E+02
      6.243  0.4039E+01  0.2839E+02
      6.361  0.5252E+01  0.2900E+02
      6.478  0.4757E+01  0.2956E+02
      6.596  0.4222E+01  0.3006E+02
      6.713  0.4474E+01  0.3058E+02
      6.831  0.4597E+01  0.3112E+02
      6.948  0.4701E+01  0.3168E+02
      7.066  0.6142E+01  0.3240E+02
      7.183  0.6067E+01  0.3311E+02
      7.301  0.4889E+01  0.3369E+02
      7.418  0.4952E+01  0.3427E+02
      7.536  0.4725E+01  0.3482E+02
      7.654  0.5653E+01  0.3549E+02
      7.771  0.5894E+01  0.3618E+02
      7.889  0.5698E+01  0.3685E+02
      8.006  0.6162E+01  0.3757E+02
      8.124  0.4725E+01  0.3813E+02
      8.241  0.4993E+01  0.3872E+02
      8.359  0.5942E+01  0.3941E+02
      8.476  0.5633E+01  0.4008E+02
      8.594  0.6185E+01  0.4080E+02
      8.711  0.6511E+01  0.4157E+02
      8.829  0.6066E+01  0.4228E+02
      8.946  0.4695E+01  0.4283E+02
      9.064  0.5227E+01  0.4345E+02
      9.181  0.6171E+01  0.4417E+02
      9.299  0.5758E+01  0.4485E+02
      9.416  0.5803E+01  0.4553E+02
      9.534  0.6199E+01  0.4626E+02
      9.651  0.5927E+01  0.4696E+02
      9.769  0.5394E+01  0.4759E+02
      9.886  0.6028E+01  0.4830E+02
     10.004  0.5245E+01  0.4891E+02
     10.121  0.5375E+01  0.4955E+02
     10.239  0.5940E+01  0.5024E+02
     10.356  0.6480E+01  0.5101E+02
     10.474  0.5738E+01  0.5168E+02
     10.591  0.5764E+01  0.5236E+02
     10.709  0.5656E+01  0.5302E+02
     10.826  0.5390E+01  0.5365E+02
     10.944  0.5792E+01  0.5434E+02
     11.061  0.6333E+01  0.5508E+02
     11.179  0.6528E+01  0.5585E+02
     11.296  0.6097E+01  0.5656E+02
     11.414  0.5891E+01  0.5726E+02
     11.531  0.6352E+01  0.5800E+02
     11.649  0.5617E+01  0.5866E+02
     11.766  0.5273E+01  0.5928E+02
     11.884  0.5263E+01  0.5990E+02
     12.001  0.6503E+01  0.6066E+02
     12.119  0.6228E+01  0.6140E+02
     12.236  0.6345E+01  0.6214E+02
     12.354  0.6687E+01  0.6293E+02
     12.471  0.5506E+01  0.6357E+02
     12.589  0.6798E+01  0.6437E+02
     12.706  0.6708E+01  0.6516E+02
     12.824  0.6236E+01  0.6589E+02
     12.941  0.6664E+01  0.6668E+02
     13.059  0.6782E+01  0.6747E+02
     13.176  0.6936E+01  0.6829E+02
     13.294  0.6238E+01  0.6902E+02
     13.411  0.5632E+01  0.6968E+02
     13.529  0.6908E+01  0.7050E+02
     13.647  0.7327E+01  0.7136E+02
     13.764  0.6729E+01  0.7215E+02
     13.882  0.5206E+01  0.7276E+02
     13.999  0.5789E+01  0.7344E+02
     14.117  0.6863E+01  0.7425E+02
     14.234  0.5432E+01  0.7488E+02
     14.352  0.5882E+01  0.7558E+02
     14.469  0.5306E+01  0.7620E+02
     14.587  0.4632E+01  0.7674E+02
     14.704  0.4946E+01  0.7732E+02
     14.822  0.5196E+01  0.7794E+02
     14.939  0.3994E+01  0.7840E+02
     15.057  0.3985E+01  0.7887E+02
     15.174  0.2687E+01  0.7919E+02
     15.292  0.3287E+01  0.7957E+02
     15.409  0.2479E+01  0.7987E+02
     15.527  0.2944E+01  0.8021E+02
     15.644  0.2606E+01  0.8052E+02
     15.762  0.1947E+01  0.8075E+02
     15.879  0.2488E+01  0.8104E+02
     15.997  0.2509E+01  0.8133E+02
     16.114  0.2011E+01  0.8157E+02
     16.232  0.1493E+01  0.8175E+02
     16.349  0.1617E+01  0.8194E+02
     16.467  0.1311E+01  0.8209E+02
     16.584  0.2032E+01  0.8233E+02
     16.702  0.2082E+01  0.8257E+02
     16.819  0.8385E+00  0.8267E+02
     16.937  0.7932E+00  0.8277E+02
     17.054  0.1270E+01  0.8291E+02
     17.172  0.1085E+01  0.8304E+02
     17.289  0.7435E+00  0.8313E+02
     17.407  0.5265E+00  0.8319E+02
     17.524  0.7237E+00  0.8328E+02
     17.642  0.9063E+00  0.8338E+02
     17.759  0.5490E+00  0.8345E+02
     17.877  0.2916E+00  0.8348E+02
     17.994  0.5026E+00  0.8354E+02
     18.112  0.6334E+00  0.8361E+02
     18.229  0.5332E+00  0.8368E+02
     18.347  0.8879E+00  0.8378E+02
     18.464  0.3470E+00  0.8382E+02
     18.582  0.6190E-01  0.8383E+02
     18.699  0.1292E+00  0.8385E+02
     18.817  0.1569E+00  0.8386E+02
     18.934  0.2991E+00  0.8390E+02
     19.052  0.6425E-01  0.8391E+02
     19.169  0.1783E-04  0.8391E+02
     19.287  0.9595E-02  0.8391E+02
     19.404  0.3554E+00  0.8395E+02
     19.522  0.2358E+00  0.8398E+02
     19.640  0.1945E+00  0.8400E+02
     19.757  0.1696E-02  0.8400E+02
     19.875  0.2009E-08  0.8400E+02
     19.992  0.0000E+00  0.8400E+02
     20.110  0.0000E+00  0.8400E+02
     20.227  0.0000E+00  0.8400E+02
     20.345  0.0000E+00  0.8400E+02
     20.462  0.0000E+00  0.8400E+02
     20.580  0.0000E+00  0.8400E+02
     20.697  0.0000E+00  0.8400E+02
     20.815  0.0000E+00  0.8400E+02
     20.932  0.0000E+00  0.8400E+02
     21.050  0.0000E+00  0.8400E+02
     21.167  0.0000E+00  0.8400E+02
