 running   42 mpi-ranks, on    1 nodes
 distrk:  each k-point on   42 cores,    1 groups
 distr:  one band on    1 cores,   42 groups
 vasp.6.5.0 16Dec24 (build Jan 08 2025 16:17:04) complex                        
  
 POSCAR found type information on POSCAR Be
 POSCAR found :  1 types and       2 ions
 Reading from existing POTCAR
 scaLAPACK will be used
 -----------------------------------------------------------------------------
|                                                                             |
|           W    W    AA    RRRRR   N    N  II  N    N   GGGG   !!!           |
|           W    W   A  A   R    R  NN   N  II  NN   N  G    G  !!!           |
|           W    W  A    A  R    R  N N  N  II  N N  N  G       !!!           |
|           W WW W  AAAAAA  RRRRR   N  N N  II  N  N N  G  GGG   !            |
|           WW  WW  A    A  R   R   N   NN  II  N   NN  G    G                |
|           W    W  A    A  R    R  N    N  II  N    N   GGGG   !!!           |
|                                                                             |
|     For optimal performance we recommend to set                             |
|       NCORE = 2 up to number-of-cores-per-socket                            |
|     NCORE specifies how many cores store one orbital (NPAR=cpu/NCORE).      |
|     This setting can greatly improve the performance of VASP for DFT.       |
|     The default, NCORE=1 might be grossly inefficient on modern             |
|     multi-core architectures or massively parallel machines. Do your        |
|     own testing! More info at https://www.vasp.at/wiki/index.php/NCORE      |
|     Unfortunately you need to use the default for GW and RPA                |
|     calculations (for HF NCORE is supported but not extensively tested      |
|     yet).                                                                   |
|                                                                             |
 -----------------------------------------------------------------------------

 Reading from existing POTCAR
 LDA part: xc-table for (Slater+PW92), standard interpolation
 -----------------------------------------------------------------------------
|                                                                             |
|           W    W    AA    RRRRR   N    N  II  N    N   GGGG   !!!           |
|           W    W   A  A   R    R  NN   N  II  NN   N  G    G  !!!           |
|           W    W  A    A  R    R  N N  N  II  N N  N  G       !!!           |
|           W WW W  AAAAAA  RRRRR   N  N N  II  N  N N  G  GGG   !            |
|           WW  WW  A    A  R   R   N   NN  II  N   NN  G    G                |
|           W    W  A    A  R    R  N    N  II  N    N   GGGG   !!!           |
|                                                                             |
|     The requested file  could not be found or opened for reading            |
|     k-point information. Automatic k-point generation is used as a          |
|     fallback, which may lead to unwanted results.                           |
|                                                                             |
 -----------------------------------------------------------------------------

 INCAR ok, starting setup
 POSCAR ok, starting setup
 FFT: planning ... GRIDC
 FFT: planning ... GRID_SOFT
 FFT: planning ... GRID
 WAVECAR not read
 entering main loop
       N       E                     dE             d eps       ncg     rms          rms(c)
DAV:   1     0.409960027753E+01    0.40996E+01   -0.10875E+03   336   0.569E+01
DAV:   2    -0.346026276686E+01   -0.75599E+01   -0.69193E+01   462   0.689E+00
DAV:   3    -0.359791049295E+01   -0.13765E+00   -0.13765E+00   420   0.115E+00
DAV:   4    -0.359862924152E+01   -0.71875E-03   -0.71875E-03   672   0.931E-02
DAV:   5    -0.359862925246E+01   -0.10937E-07   -0.10852E-07   420   0.458E-04    0.200E+00
DAV:   6    -0.342605229132E+01    0.17258E+00   -0.71495E-02   504   0.198E-01    0.123E+00
DAV:   7    -0.328642856875E+01    0.13962E+00   -0.18719E-01   546   0.290E-01    0.167E-01
DAV:   8    -0.327613449201E+01    0.10294E-01   -0.10745E-02   504   0.776E-02    0.637E-02
DAV:   9    -0.327599432418E+01    0.14017E-03   -0.52961E-04   546   0.181E-02    0.433E-02
DAV:  10    -0.327731248477E+01   -0.13182E-02   -0.18689E-03   588   0.309E-02    0.182E-02
DAV:  11    -0.327805419886E+01   -0.74171E-03   -0.42209E-04   504   0.111E-02    0.926E-03
DAV:  12    -0.327868950434E+01   -0.63531E-03   -0.67914E-05   420   0.600E-03    0.518E-03
DAV:  13    -0.327923593178E+01   -0.54643E-03   -0.11594E-04   504   0.498E-03    0.201E-03
DAV:  14    -0.327934837995E+01   -0.11245E-03   -0.10756E-05   336   0.167E-03    0.137E-03
DAV:  15    -0.327940708433E+01   -0.58704E-04   -0.13344E-05   420   0.141E-03    0.521E-04
DAV:  16    -0.327942978862E+01   -0.22704E-04   -0.25142E-06   462   0.451E-04    0.226E-04
DAV:  17    -0.327943223736E+01   -0.24487E-05   -0.78715E-08   420   0.164E-04    0.158E-04
DAV:  18    -0.327943555617E+01   -0.33188E-05   -0.73929E-08   378   0.849E-05    0.585E-05
DAV:  19    -0.327943640422E+01   -0.84805E-06   -0.23384E-08   462   0.633E-05
   1 F= -.34174620E+01 E0= -.34174620E+01  d E =-.975616E-15
 Found     2 degrees of freedom:
 Finite differences POTIM= 0.01500 DOF=   2
 -----------------------------------------------------------------------------
|                                                                             |
|           W    W    AA    RRRRR   N    N  II  N    N   GGGG   !!!           |
|           W    W   A  A   R    R  NN   N  II  NN   N  G    G  !!!           |
|           W    W  A    A  R    R  N N  N  II  N N  N  G       !!!           |
|           W WW W  AAAAAA  RRRRR   N  N N  II  N  N N  G  GGG   !            |
|           WW  WW  A    A  R   R   N   NN  II  N   NN  G    G                |
|           W    W  A    A  R    R  N    N  II  N    N   GGGG   !!!           |
|                                                                             |
|     The requested file  could not be found or opened for reading            |
|     k-point information. Automatic k-point generation is used as a          |
|     fallback, which may lead to unwanted results.                           |
|                                                                             |
 -----------------------------------------------------------------------------

 bond charge predicted
       N       E                     dE             d eps       ncg     rms          rms(c)
DAV:   1    -0.327855310050E+01    0.88246E-03   -0.37492E-02   588   0.182E-01    0.388E-02
DAV:   2    -0.327855697763E+01   -0.38771E-05   -0.17536E-04   924   0.174E-02    0.223E-02
DAV:   3    -0.327856037871E+01   -0.34011E-05   -0.52538E-05   924   0.476E-03    0.290E-03
DAV:   4    -0.327856052650E+01   -0.14779E-06   -0.10694E-06   966   0.114E-03
   2 F= -.34165867E+01 E0= -.34165867E+01  d E =-.738665E-14
 Finite differences progress:
  Degree of freedom:   1/  2
  Displacement:        1/  2
  Total:               1/  4
 -----------------------------------------------------------------------------
|                                                                             |
|           W    W    AA    RRRRR   N    N  II  N    N   GGGG   !!!           |
|           W    W   A  A   R    R  NN   N  II  NN   N  G    G  !!!           |
|           W    W  A    A  R    R  N N  N  II  N N  N  G       !!!           |
|           W WW W  AAAAAA  RRRRR   N  N N  II  N  N N  G  GGG   !            |
|           WW  WW  A    A  R   R   N   NN  II  N   NN  G    G                |
|           W    W  A    A  R    R  N    N  II  N    N   GGGG   !!!           |
|                                                                             |
|     The requested file  could not be found or opened for reading            |
|     k-point information. Automatic k-point generation is used as a          |
|     fallback, which may lead to unwanted results.                           |
|                                                                             |
 -----------------------------------------------------------------------------

 bond charge predicted
       N       E                     dE             d eps       ncg     rms          rms(c)
DAV:   1    -0.327856875296E+01   -0.83742E-05   -0.10100E-01   588   0.285E-01    0.769E-02
DAV:   2    -0.327856678869E+01    0.19643E-05   -0.48618E-04   924   0.275E-02    0.440E-02
DAV:   3    -0.327858017409E+01   -0.13385E-04   -0.19590E-04   924   0.920E-03    0.562E-03
DAV:   4    -0.327858106665E+01   -0.89257E-06   -0.50294E-06   840   0.232E-03
   3 F= -.34166072E+01 E0= -.34166072E+01  d E =-.441892E-13
 Finite differences progress:
  Degree of freedom:   1/  2
  Displacement:        2/  2
  Total:               2/  4
 -----------------------------------------------------------------------------
|                                                                             |
|           W    W    AA    RRRRR   N    N  II  N    N   GGGG   !!!           |
|           W    W   A  A   R    R  NN   N  II  NN   N  G    G  !!!           |
|           W    W  A    A  R    R  N N  N  II  N N  N  G       !!!           |
|           W WW W  AAAAAA  RRRRR   N  N N  II  N  N N  G  GGG   !            |
|           WW  WW  A    A  R   R   N   NN  II  N   NN  G    G                |
|           W    W  A    A  R    R  N    N  II  N    N   GGGG   !!!           |
|                                                                             |
|     The requested file  could not be found or opened for reading            |
|     k-point information. Automatic k-point generation is used as a          |
|     fallback, which may lead to unwanted results.                           |
|                                                                             |
 -----------------------------------------------------------------------------

 bond charge predicted
       N       E                     dE             d eps       ncg     rms          rms(c)
DAV:   1    -0.327921804148E+01   -0.63787E-03   -0.63584E-02   336   0.221E-01    0.497E-02
DAV:   2    -0.327929767607E+01   -0.79635E-04   -0.24187E-04   588   0.194E-02    0.319E-02
DAV:   3    -0.327940332215E+01   -0.10565E-03   -0.28566E-04   546   0.911E-03    0.286E-03
DAV:   4    -0.327940771158E+01   -0.43894E-05   -0.60646E-06   588   0.192E-03    0.119E-03
DAV:   5    -0.327940985381E+01   -0.21422E-05   -0.24434E-06   504   0.724E-04    0.370E-04
DAV:   6    -0.327940987947E+01   -0.25652E-07   -0.70409E-07   462   0.357E-04
   4 F= -.34174346E+01 E0= -.34174346E+01  d E =-.133938E-14
 Finite differences progress:
  Degree of freedom:   2/  2
  Displacement:        1/  2
  Total:               3/  4
 -----------------------------------------------------------------------------
|                                                                             |
|           W    W    AA    RRRRR   N    N  II  N    N   GGGG   !!!           |
|           W    W   A  A   R    R  NN   N  II  NN   N  G    G  !!!           |
|           W    W  A    A  R    R  N N  N  II  N N  N  G       !!!           |
|           W WW W  AAAAAA  RRRRR   N  N N  II  N  N N  G  GGG   !            |
|           WW  WW  A    A  R   R   N   NN  II  N   NN  G    G                |
|           W    W  A    A  R    R  N    N  II  N    N   GGGG   !!!           |
|                                                                             |
|     The requested file  could not be found or opened for reading            |
|     k-point information. Automatic k-point generation is used as a          |
|     fallback, which may lead to unwanted results.                           |
|                                                                             |
 -----------------------------------------------------------------------------

 bond charge predicted
       N       E                     dE             d eps       ncg     rms          rms(c)
DAV:   1    -0.327948956188E+01   -0.79708E-04   -0.10814E-01   336   0.269E-01    0.734E-02
DAV:   2    -0.327948382300E+01    0.57389E-05   -0.40477E-04   630   0.201E-02    0.477E-02
DAV:   3    -0.327940830849E+01    0.75515E-04   -0.93796E-04   462   0.154E-02    0.495E-03
DAV:   4    -0.327940627982E+01    0.20287E-05   -0.18424E-05   462   0.317E-03    0.211E-03
DAV:   5    -0.327940613919E+01    0.14063E-06   -0.82857E-06   420   0.140E-03
   5 F= -.34174309E+01 E0= -.34174309E+01  d E =-.712321E-14
 Finite differences progress:
  Degree of freedom:   2/  2
  Displacement:        2/  2
  Total:               4/  4
 -----------------------------------------------------------------------------
|                                                                             |
|           W    W    AA    RRRRR   N    N  II  N    N   GGGG   !!!           |
|           W    W   A  A   R    R  NN   N  II  NN   N  G    G  !!!           |
|           W    W  A    A  R    R  N N  N  II  N N  N  G       !!!           |
|           W WW W  AAAAAA  RRRRR   N  N N  II  N  N N  G  GGG   !            |
|           WW  WW  A    A  R   R   N   NN  II  N   NN  G    G                |
|           W    W  A    A  R    R  N    N  II  N    N   GGGG   !!!           |
|                                                                             |
|     The requested file  could not be found or opened for reading            |
|     k-point information. Automatic k-point generation is used as a          |
|     fallback, which may lead to unwanted results.                           |
|                                                                             |
 -----------------------------------------------------------------------------


===================================================================================
=   BAD TERMINATION OF ONE OF YOUR APPLICATION PROCESSES
=   RANK 0 PID 3866570 RUNNING AT cmt01.physics.usyd.edu.au
=   KILLED BY SIGNAL: 6 (Aborted)
===================================================================================
