phonon_dispersion                       
           1
     6.966718    0.000000    0.000000
    -4.096767    5.634964    0.000000
     0.000000    0.000000   40.000000
   Be   H 
    18     9
Direct configuration=     1
   0.06264332  0.16281803  0.10711622
   0.06264332  0.49615136  0.10711622
   0.06264332  0.82948470  0.10711622
   0.39597666  0.16281803  0.10711622
   0.39597666  0.49615136  0.10711622
   0.39597666  0.82948470  0.10711622
   0.72930998  0.16281803  0.10711622
   0.72930998  0.49615136  0.10711622
   0.72930998  0.82948470  0.10711622
   0.16169189  0.06383016  0.06089327
   0.16169189  0.39716348  0.06089327
   0.16169189  0.73049682  0.06089327
   0.49502522  0.06383016  0.06089327
   0.49502522  0.39716348  0.06089327
   0.49502522  0.73049682  0.06089327
   0.82835853  0.06383016  0.06089327
   0.82835853  0.39716348  0.06089327
   0.82835853  0.73049682  0.06089327
   0.22459616  0.00084755  0.13199051
   0.22459616  0.33418089  0.13199051
   0.22459616  0.66751421  0.13199051
   0.55792952  0.00084755  0.13199051
   0.55792952  0.33418089  0.13199051
   0.55792952  0.66751421  0.13199051
   0.89126283  0.00084755  0.13199051
   0.89126283  0.33418089  0.13199051
   0.89126283  0.66751421  0.13199051
Direct configuration=     2
   0.06479641  0.16281803  0.10711622
   0.06264332  0.49615136  0.10711622
   0.06264332  0.82948470  0.10711622
   0.39597666  0.16281803  0.10711622
   0.39597666  0.49615136  0.10711622
   0.39597666  0.82948470  0.10711622
   0.72930998  0.16281803  0.10711622
   0.72930998  0.49615136  0.10711622
   0.72930998  0.82948470  0.10711622
   0.16169189  0.06383016  0.06089327
   0.16169189  0.39716348  0.06089327
   0.16169189  0.73049682  0.06089327
   0.49502522  0.06383016  0.06089327
   0.49502522  0.39716348  0.06089327
   0.49502522  0.73049682  0.06089327
   0.82835853  0.06383016  0.06089327
   0.82835853  0.39716348  0.06089327
   0.82835853  0.73049682  0.06089327
   0.22459616  0.00084755  0.13199051
   0.22459616  0.33418089  0.13199051
   0.22459616  0.66751421  0.13199051
   0.55792952  0.00084755  0.13199051
   0.55792952  0.33418089  0.13199051
   0.55792952  0.66751421  0.13199051
   0.89126283  0.00084755  0.13199051
   0.89126283  0.33418089  0.13199051
   0.89126283  0.66751421  0.13199051
Direct configuration=     3
   0.06049022  0.16281803  0.10711622
   0.06264332  0.49615136  0.10711622
   0.06264332  0.82948470  0.10711622
   0.39597666  0.16281803  0.10711622
   0.39597666  0.49615136  0.10711622
   0.39597666  0.82948470  0.10711622
   0.72930998  0.16281803  0.10711622
   0.72930998  0.49615136  0.10711622
   0.72930998  0.82948470  0.10711622
   0.16169189  0.06383016  0.06089327
   0.16169189  0.39716348  0.06089327
   0.16169189  0.73049682  0.06089327
   0.49502522  0.06383016  0.06089327
   0.49502522  0.39716348  0.06089327
   0.49502522  0.73049682  0.06089327
   0.82835853  0.06383016  0.06089327
   0.82835853  0.39716348  0.06089327
   0.82835853  0.73049682  0.06089327
   0.22459616  0.00084755  0.13199051
   0.22459616  0.33418089  0.13199051
   0.22459616  0.66751421  0.13199051
   0.55792952  0.00084755  0.13199051
   0.55792952  0.33418089  0.13199051
   0.55792952  0.66751421  0.13199051
   0.89126283  0.00084755  0.13199051
   0.89126283  0.33418089  0.13199051
   0.89126283  0.66751421  0.13199051
Direct configuration=     4
   0.06420868  0.16547998  0.10711622
   0.06264332  0.49615136  0.10711622
   0.06264332  0.82948470  0.10711622
   0.39597666  0.16281803  0.10711622
   0.39597666  0.49615136  0.10711622
   0.39597666  0.82948470  0.10711622
   0.72930998  0.16281803  0.10711622
   0.72930998  0.49615136  0.10711622
   0.72930998  0.82948470  0.10711622
   0.16169189  0.06383016  0.06089327
   0.16169189  0.39716348  0.06089327
   0.16169189  0.73049682  0.06089327
   0.49502522  0.06383016  0.06089327
   0.49502522  0.39716348  0.06089327
   0.49502522  0.73049682  0.06089327
   0.82835853  0.06383016  0.06089327
   0.82835853  0.39716348  0.06089327
   0.82835853  0.73049682  0.06089327
   0.22459616  0.00084755  0.13199051
   0.22459616  0.33418089  0.13199051
   0.22459616  0.66751421  0.13199051
   0.55792952  0.00084755  0.13199051
   0.55792952  0.33418089  0.13199051
   0.55792952  0.66751421  0.13199051
   0.89126283  0.00084755  0.13199051
   0.89126283  0.33418089  0.13199051
   0.89126283  0.66751421  0.13199051
Direct configuration=     5
   0.06107796  0.16015608  0.10711622
   0.06264332  0.49615136  0.10711622
   0.06264332  0.82948470  0.10711622
   0.39597666  0.16281803  0.10711622
   0.39597666  0.49615136  0.10711622
   0.39597666  0.82948470  0.10711622
   0.72930998  0.16281803  0.10711622
   0.72930998  0.49615136  0.10711622
   0.72930998  0.82948470  0.10711622
   0.16169189  0.06383016  0.06089327
   0.16169189  0.39716348  0.06089327
   0.16169189  0.73049682  0.06089327
   0.49502522  0.06383016  0.06089327
   0.49502522  0.39716348  0.06089327
   0.49502522  0.73049682  0.06089327
   0.82835853  0.06383016  0.06089327
   0.82835853  0.39716348  0.06089327
   0.82835853  0.73049682  0.06089327
   0.22459616  0.00084755  0.13199051
   0.22459616  0.33418089  0.13199051
   0.22459616  0.66751421  0.13199051
   0.55792952  0.00084755  0.13199051
   0.55792952  0.33418089  0.13199051
   0.55792952  0.66751421  0.13199051
   0.89126283  0.00084755  0.13199051
   0.89126283  0.33418089  0.13199051
   0.89126283  0.66751421  0.13199051
Direct configuration=     6
   0.06264332  0.16281803  0.10749122
   0.06264332  0.49615136  0.10711622
   0.06264332  0.82948470  0.10711622
   0.39597666  0.16281803  0.10711622
   0.39597666  0.49615136  0.10711622
   0.39597666  0.82948470  0.10711622
   0.72930998  0.16281803  0.10711622
   0.72930998  0.49615136  0.10711622
   0.72930998  0.82948470  0.10711622
   0.16169189  0.06383016  0.06089327
   0.16169189  0.39716348  0.06089327
   0.16169189  0.73049682  0.06089327
   0.49502522  0.06383016  0.06089327
   0.49502522  0.39716348  0.06089327
   0.49502522  0.73049682  0.06089327
   0.82835853  0.06383016  0.06089327
   0.82835853  0.39716348  0.06089327
   0.82835853  0.73049682  0.06089327
   0.22459616  0.00084755  0.13199051
   0.22459616  0.33418089  0.13199051
   0.22459616  0.66751421  0.13199051
   0.55792952  0.00084755  0.13199051
   0.55792952  0.33418089  0.13199051
   0.55792952  0.66751421  0.13199051
   0.89126283  0.00084755  0.13199051
   0.89126283  0.33418089  0.13199051
   0.89126283  0.66751421  0.13199051
Direct configuration=     7
   0.06264332  0.16281803  0.10674122
   0.06264332  0.49615136  0.10711622
   0.06264332  0.82948470  0.10711622
   0.39597666  0.16281803  0.10711622
   0.39597666  0.49615136  0.10711622
   0.39597666  0.82948470  0.10711622
   0.72930998  0.16281803  0.10711622
   0.72930998  0.49615136  0.10711622
   0.72930998  0.82948470  0.10711622
   0.16169189  0.06383016  0.06089327
   0.16169189  0.39716348  0.06089327
   0.16169189  0.73049682  0.06089327
   0.49502522  0.06383016  0.06089327
   0.49502522  0.39716348  0.06089327
   0.49502522  0.73049682  0.06089327
   0.82835853  0.06383016  0.06089327
   0.82835853  0.39716348  0.06089327
   0.82835853  0.73049682  0.06089327
   0.22459616  0.00084755  0.13199051
   0.22459616  0.33418089  0.13199051
   0.22459616  0.66751421  0.13199051
   0.55792952  0.00084755  0.13199051
   0.55792952  0.33418089  0.13199051
   0.55792952  0.66751421  0.13199051
   0.89126283  0.00084755  0.13199051
   0.89126283  0.33418089  0.13199051
   0.89126283  0.66751421  0.13199051
Direct configuration=     8
   0.06264332  0.16281803  0.10711622
   0.06264332  0.49615136  0.10711622
   0.06264332  0.82948470  0.10711622
   0.39597666  0.16281803  0.10711622
   0.39597666  0.49615136  0.10711622
   0.39597666  0.82948470  0.10711622
   0.72930998  0.16281803  0.10711622
   0.72930998  0.49615136  0.10711622
   0.72930998  0.82948470  0.10711622
   0.16384498  0.06383016  0.06089327
   0.16169189  0.39716348  0.06089327
   0.16169189  0.73049682  0.06089327
   0.49502522  0.06383016  0.06089327
   0.49502522  0.39716348  0.06089327
   0.49502522  0.73049682  0.06089327
   0.82835853  0.06383016  0.06089327
   0.82835853  0.39716348  0.06089327
   0.82835853  0.73049682  0.06089327
   0.22459616  0.00084755  0.13199051
   0.22459616  0.33418089  0.13199051
   0.22459616  0.66751421  0.13199051
   0.55792952  0.00084755  0.13199051
   0.55792952  0.33418089  0.13199051
   0.55792952  0.66751421  0.13199051
   0.89126283  0.00084755  0.13199051
   0.89126283  0.33418089  0.13199051
   0.89126283  0.66751421  0.13199051
Direct configuration=     9
   0.06264332  0.16281803  0.10711622
   0.06264332  0.49615136  0.10711622
   0.06264332  0.82948470  0.10711622
   0.39597666  0.16281803  0.10711622
   0.39597666  0.49615136  0.10711622
   0.39597666  0.82948470  0.10711622
   0.72930998  0.16281803  0.10711622
   0.72930998  0.49615136  0.10711622
   0.72930998  0.82948470  0.10711622
   0.15953879  0.06383016  0.06089327
   0.16169189  0.39716348  0.06089327
   0.16169189  0.73049682  0.06089327
   0.49502522  0.06383016  0.06089327
   0.49502522  0.39716348  0.06089327
   0.49502522  0.73049682  0.06089327
   0.82835853  0.06383016  0.06089327
   0.82835853  0.39716348  0.06089327
   0.82835853  0.73049682  0.06089327
   0.22459616  0.00084755  0.13199051
   0.22459616  0.33418089  0.13199051
   0.22459616  0.66751421  0.13199051
   0.55792952  0.00084755  0.13199051
   0.55792952  0.33418089  0.13199051
   0.55792952  0.66751421  0.13199051
   0.89126283  0.00084755  0.13199051
   0.89126283  0.33418089  0.13199051
   0.89126283  0.66751421  0.13199051
Direct configuration=    10
   0.06264332  0.16281803  0.10711622
   0.06264332  0.49615136  0.10711622
   0.06264332  0.82948470  0.10711622
   0.39597666  0.16281803  0.10711622
   0.39597666  0.49615136  0.10711622
   0.39597666  0.82948470  0.10711622
   0.72930998  0.16281803  0.10711622
   0.72930998  0.49615136  0.10711622
   0.72930998  0.82948470  0.10711622
   0.16325725  0.06649211  0.06089327
   0.16169189  0.39716348  0.06089327
   0.16169189  0.73049682  0.06089327
   0.49502522  0.06383016  0.06089327
   0.49502522  0.39716348  0.06089327
   0.49502522  0.73049682  0.06089327
   0.82835853  0.06383016  0.06089327
   0.82835853  0.39716348  0.06089327
   0.82835853  0.73049682  0.06089327
   0.22459616  0.00084755  0.13199051
   0.22459616  0.33418089  0.13199051
   0.22459616  0.66751421  0.13199051
   0.55792952  0.00084755  0.13199051
   0.55792952  0.33418089  0.13199051
   0.55792952  0.66751421  0.13199051
   0.89126283  0.00084755  0.13199051
   0.89126283  0.33418089  0.13199051
   0.89126283  0.66751421  0.13199051
Direct configuration=    11
   0.06264332  0.16281803  0.10711622
   0.06264332  0.49615136  0.10711622
   0.06264332  0.82948470  0.10711622
   0.39597666  0.16281803  0.10711622
   0.39597666  0.49615136  0.10711622
   0.39597666  0.82948470  0.10711622
   0.72930998  0.16281803  0.10711622
   0.72930998  0.49615136  0.10711622
   0.72930998  0.82948470  0.10711622
   0.16012653  0.06116821  0.06089327
   0.16169189  0.39716348  0.06089327
   0.16169189  0.73049682  0.06089327
   0.49502522  0.06383016  0.06089327
   0.49502522  0.39716348  0.06089327
   0.49502522  0.73049682  0.06089327
   0.82835853  0.06383016  0.06089327
   0.82835853  0.39716348  0.06089327
   0.82835853  0.73049682  0.06089327
   0.22459616  0.00084755  0.13199051
   0.22459616  0.33418089  0.13199051
   0.22459616  0.66751421  0.13199051
   0.55792952  0.00084755  0.13199051
   0.55792952  0.33418089  0.13199051
   0.55792952  0.66751421  0.13199051
   0.89126283  0.00084755  0.13199051
   0.89126283  0.33418089  0.13199051
   0.89126283  0.66751421  0.13199051
Direct configuration=    12
   0.06264332  0.16281803  0.10711622
   0.06264332  0.49615136  0.10711622
   0.06264332  0.82948470  0.10711622
   0.39597666  0.16281803  0.10711622
   0.39597666  0.49615136  0.10711622
   0.39597666  0.82948470  0.10711622
   0.72930998  0.16281803  0.10711622
   0.72930998  0.49615136  0.10711622
   0.72930998  0.82948470  0.10711622
   0.16169189  0.06383016  0.06126827
   0.16169189  0.39716348  0.06089327
   0.16169189  0.73049682  0.06089327
   0.49502522  0.06383016  0.06089327
   0.49502522  0.39716348  0.06089327
   0.49502522  0.73049682  0.06089327
   0.82835853  0.06383016  0.06089327
   0.82835853  0.39716348  0.06089327
   0.82835853  0.73049682  0.06089327
   0.22459616  0.00084755  0.13199051
   0.22459616  0.33418089  0.13199051
   0.22459616  0.66751421  0.13199051
   0.55792952  0.00084755  0.13199051
   0.55792952  0.33418089  0.13199051
   0.55792952  0.66751421  0.13199051
   0.89126283  0.00084755  0.13199051
   0.89126283  0.33418089  0.13199051
   0.89126283  0.66751421  0.13199051
Direct configuration=    13
   0.06264332  0.16281803  0.10711622
   0.06264332  0.49615136  0.10711622
   0.06264332  0.82948470  0.10711622
   0.39597666  0.16281803  0.10711622
   0.39597666  0.49615136  0.10711622
   0.39597666  0.82948470  0.10711622
   0.72930998  0.16281803  0.10711622
   0.72930998  0.49615136  0.10711622
   0.72930998  0.82948470  0.10711622
   0.16169189  0.06383016  0.06051827
   0.16169189  0.39716348  0.06089327
   0.16169189  0.73049682  0.06089327
   0.49502522  0.06383016  0.06089327
   0.49502522  0.39716348  0.06089327
   0.49502522  0.73049682  0.06089327
   0.82835853  0.06383016  0.06089327
   0.82835853  0.39716348  0.06089327
   0.82835853  0.73049682  0.06089327
   0.22459616  0.00084755  0.13199051
   0.22459616  0.33418089  0.13199051
   0.22459616  0.66751421  0.13199051
   0.55792952  0.00084755  0.13199051
   0.55792952  0.33418089  0.13199051
   0.55792952  0.66751421  0.13199051
   0.89126283  0.00084755  0.13199051
   0.89126283  0.33418089  0.13199051
   0.89126283  0.66751421  0.13199051
Direct configuration=    14
   0.06264332  0.16281803  0.10711622
   0.06264332  0.49615136  0.10711622
   0.06264332  0.82948470  0.10711622
   0.39597666  0.16281803  0.10711622
   0.39597666  0.49615136  0.10711622
   0.39597666  0.82948470  0.10711622
   0.72930998  0.16281803  0.10711622
   0.72930998  0.49615136  0.10711622
   0.72930998  0.82948470  0.10711622
   0.16169189  0.06383016  0.06089327
   0.16169189  0.39716348  0.06089327
   0.16169189  0.73049682  0.06089327
   0.49502522  0.06383016  0.06089327
   0.49502522  0.39716348  0.06089327
   0.49502522  0.73049682  0.06089327
   0.82835853  0.06383016  0.06089327
   0.82835853  0.39716348  0.06089327
   0.82835853  0.73049682  0.06089327
   0.22674925  0.00084755  0.13199051
   0.22459616  0.33418089  0.13199051
   0.22459616  0.66751421  0.13199051
   0.55792952  0.00084755  0.13199051
   0.55792952  0.33418089  0.13199051
   0.55792952  0.66751421  0.13199051
   0.89126283  0.00084755  0.13199051
   0.89126283  0.33418089  0.13199051
   0.89126283  0.66751421  0.13199051
Direct configuration=    15
   0.06264332  0.16281803  0.10711622
   0.06264332  0.49615136  0.10711622
   0.06264332  0.82948470  0.10711622
   0.39597666  0.16281803  0.10711622
   0.39597666  0.49615136  0.10711622
   0.39597666  0.82948470  0.10711622
   0.72930998  0.16281803  0.10711622
   0.72930998  0.49615136  0.10711622
   0.72930998  0.82948470  0.10711622
   0.16169189  0.06383016  0.06089327
   0.16169189  0.39716348  0.06089327
   0.16169189  0.73049682  0.06089327
   0.49502522  0.06383016  0.06089327
   0.49502522  0.39716348  0.06089327
   0.49502522  0.73049682  0.06089327
   0.82835853  0.06383016  0.06089327
   0.82835853  0.39716348  0.06089327
   0.82835853  0.73049682  0.06089327
   0.22244306  0.00084755  0.13199051
   0.22459616  0.33418089  0.13199051
   0.22459616  0.66751421  0.13199051
   0.55792952  0.00084755  0.13199051
   0.55792952  0.33418089  0.13199051
   0.55792952  0.66751421  0.13199051
   0.89126283  0.00084755  0.13199051
   0.89126283  0.33418089  0.13199051
   0.89126283  0.66751421  0.13199051
Direct configuration=    16
   0.06264332  0.16281803  0.10711622
   0.06264332  0.49615136  0.10711622
   0.06264332  0.82948470  0.10711622
   0.39597666  0.16281803  0.10711622
   0.39597666  0.49615136  0.10711622
   0.39597666  0.82948470  0.10711622
   0.72930998  0.16281803  0.10711622
   0.72930998  0.49615136  0.10711622
   0.72930998  0.82948470  0.10711622
   0.16169189  0.06383016  0.06089327
   0.16169189  0.39716348  0.06089327
   0.16169189  0.73049682  0.06089327
   0.49502522  0.06383016  0.06089327
   0.49502522  0.39716348  0.06089327
   0.49502522  0.73049682  0.06089327
   0.82835853  0.06383016  0.06089327
   0.82835853  0.39716348  0.06089327
   0.82835853  0.73049682  0.06089327
   0.22616151  0.00350950  0.13199051
   0.22459616  0.33418089  0.13199051
   0.22459616  0.66751421  0.13199051
   0.55792952  0.00084755  0.13199051
   0.55792952  0.33418089  0.13199051
   0.55792952  0.66751421  0.13199051
   0.89126283  0.00084755  0.13199051
   0.89126283  0.33418089  0.13199051
   0.89126283  0.66751421  0.13199051
Direct configuration=    17
   0.06264332  0.16281803  0.10711622
   0.06264332  0.49615136  0.10711622
   0.06264332  0.82948470  0.10711622
   0.39597666  0.16281803  0.10711622
   0.39597666  0.49615136  0.10711622
   0.39597666  0.82948470  0.10711622
   0.72930998  0.16281803  0.10711622
   0.72930998  0.49615136  0.10711622
   0.72930998  0.82948470  0.10711622
   0.16169189  0.06383016  0.06089327
   0.16169189  0.39716348  0.06089327
   0.16169189  0.73049682  0.06089327
   0.49502522  0.06383016  0.06089327
   0.49502522  0.39716348  0.06089327
   0.49502522  0.73049682  0.06089327
   0.82835853  0.06383016  0.06089327
   0.82835853  0.39716348  0.06089327
   0.82835853  0.73049682  0.06089327
   0.22303080 -0.00181441  0.13199051
   0.22459616  0.33418089  0.13199051
   0.22459616  0.66751421  0.13199051
   0.55792952  0.00084755  0.13199051
   0.55792952  0.33418089  0.13199051
   0.55792952  0.66751421  0.13199051
   0.89126283  0.00084755  0.13199051
   0.89126283  0.33418089  0.13199051
   0.89126283  0.66751421  0.13199051
Direct configuration=    18
   0.06264332  0.16281803  0.10711622
   0.06264332  0.49615136  0.10711622
   0.06264332  0.82948470  0.10711622
   0.39597666  0.16281803  0.10711622
   0.39597666  0.49615136  0.10711622
   0.39597666  0.82948470  0.10711622
   0.72930998  0.16281803  0.10711622
   0.72930998  0.49615136  0.10711622
   0.72930998  0.82948470  0.10711622
   0.16169189  0.06383016  0.06089327
   0.16169189  0.39716348  0.06089327
   0.16169189  0.73049682  0.06089327
   0.49502522  0.06383016  0.06089327
   0.49502522  0.39716348  0.06089327
   0.49502522  0.73049682  0.06089327
   0.82835853  0.06383016  0.06089327
   0.82835853  0.39716348  0.06089327
   0.82835853  0.73049682  0.06089327
   0.22459616  0.00084755  0.13236551
   0.22459616  0.33418089  0.13199051
   0.22459616  0.66751421  0.13199051
   0.55792952  0.00084755  0.13199051
   0.55792952  0.33418089  0.13199051
   0.55792952  0.66751421  0.13199051
   0.89126283  0.00084755  0.13199051
   0.89126283  0.33418089  0.13199051
   0.89126283  0.66751421  0.13199051
Direct configuration=    19
   0.06264332  0.16281803  0.10711622
   0.06264332  0.49615136  0.10711622
   0.06264332  0.82948470  0.10711622
   0.39597666  0.16281803  0.10711622
   0.39597666  0.49615136  0.10711622
   0.39597666  0.82948470  0.10711622
   0.72930998  0.16281803  0.10711622
   0.72930998  0.49615136  0.10711622
   0.72930998  0.82948470  0.10711622
   0.16169189  0.06383016  0.06089327
   0.16169189  0.39716348  0.06089327
   0.16169189  0.73049682  0.06089327
   0.49502522  0.06383016  0.06089327
   0.49502522  0.39716348  0.06089327
   0.49502522  0.73049682  0.06089327
   0.82835853  0.06383016  0.06089327
   0.82835853  0.39716348  0.06089327
   0.82835853  0.73049682  0.06089327
   0.22459616  0.00084755  0.13161551
   0.22459616  0.33418089  0.13199051
   0.22459616  0.66751421  0.13199051
   0.55792952  0.00084755  0.13199051
   0.55792952  0.33418089  0.13199051
   0.55792952  0.66751421  0.13199051
   0.89126283  0.00084755  0.13199051
   0.89126283  0.33418089  0.13199051
   0.89126283  0.66751421  0.13199051
