<?xml version="1.0" encoding="ISO-8859-1"?>
<modeling>
 <generator>
  <i name="program" type="string">vasp </i>
  <i name="version" type="string">6.5.0  </i>
  <i name="subversion" type="string">16Dec24 (build Jan 08 2025 16:17:04) complex                          parallel </i>
  <i name="platform" type="string">LinuxIFC </i>
  <i name="date" type="string">2026 10 01 </i>
  <i name="time" type="string">19:11:42 </i>
 </generator>
 <incar>
  <i type="string" name="SYSTEM">SCF</i>
  <i type="int" name="ISTART">     0</i>
  <i type="string" name="PREC">Accurate</i>
  <i type="string" name="ALGO">Normal</i>
  <i type="int" name="ICHARG">     2</i>
  <i type="int" name="NELM">   150</i>
  <i type="int" name="IBRION">    -1</i>
  <i name="EDIFF">      0.00000100</i>
  <i name="EDIFFG">     -0.00100000</i>
  <i name="SYMPREC">      0.00000100</i>
  <i name="ENCUT">    600.00000000</i>
  <i type="int" name="ISMEAR">     0</i>
  <i name="SIGMA">      0.10000000</i>
  <i type="logical" name="LWAVE"> T  </i>
  <i type="logical" name="LCHARG"> T  </i>
  <i type="string" name="GGA">PE</i>
  <i type="logical" name="LDIPOL"> T  </i>
  <i type="int" name="IDIPOL">     3</i>
  <v name="DIPOL">      0.50000000      0.50000000      0.10000000</v>
  <i type="int" name="IVDW">    12</i>
 </incar>
 <primitive_cell>
  <structure name="primitive_cell" >
   <crystal>
    <varray name="basis" >
     <v>       1.87643720       1.08336152       0.00000000 </v>
     <v>      -1.87643720       1.08336152       0.00000000 </v>
     <v>       0.00000000       0.00000000      40.00000000 </v>
    </varray>
    <i name="volume">    162.62878935 </i>
    <varray name="rec_basis" >
     <v>       0.26646242       0.46152645       0.00000000 </v>
     <v>      -0.26646242       0.46152645       0.00000000 </v>
     <v>       0.00000000       0.00000000       0.02500000 </v>
    </varray>
   </crystal>
   <varray name="positions" >
    <v>       0.33333333       0.66666667       0.12386834 </v>
    <v>       0.66666667       0.33333333       0.07613166 </v>
   </varray>
  </structure>
  <varray name="primitive_index" >
   <v type="int" >        1 </v>
   <v type="int" >        2 </v>
  </varray>
 </primitive_cell>
 <kpoints>
  <generation param="Gamma">
   <v type="int" name="divisions">      27       27        1 </v>
   <v name="usershift">      0.00000000       0.00000000       0.00000000 </v>
   <v name="genvec1">      0.03703704       0.00000000       0.00000000 </v>
   <v name="genvec2">      0.00000000       0.03703704       0.00000000 </v>
   <v name="genvec3">      0.00000000       0.00000000       1.00000000 </v>
   <v name="shift">      0.00000000       0.00000000       0.00000000 </v>
  </generation>
  <varray name="kpointlist" >
   <v>       0.00000000       0.00000000       0.00000000 </v>
   <v>       0.03703704       0.00000000       0.00000000 </v>
   <v>       0.07407407       0.00000000       0.00000000 </v>
   <v>       0.11111111       0.00000000       0.00000000 </v>
   <v>       0.14814815       0.00000000       0.00000000 </v>
   <v>       0.18518519       0.00000000       0.00000000 </v>
   <v>       0.22222222       0.00000000       0.00000000 </v>
   <v>       0.25925926       0.00000000       0.00000000 </v>
   <v>       0.29629630       0.00000000       0.00000000 </v>
   <v>       0.33333333       0.00000000       0.00000000 </v>
   <v>       0.37037037       0.00000000       0.00000000 </v>
   <v>       0.40740741       0.00000000       0.00000000 </v>
   <v>       0.44444444       0.00000000       0.00000000 </v>
   <v>       0.48148148       0.00000000       0.00000000 </v>
   <v>       0.03703704       0.03703704       0.00000000 </v>
   <v>       0.07407407       0.03703704       0.00000000 </v>
   <v>       0.11111111       0.03703704       0.00000000 </v>
   <v>       0.14814815       0.03703704       0.00000000 </v>
   <v>       0.18518519       0.03703704       0.00000000 </v>
   <v>       0.22222222       0.03703704       0.00000000 </v>
   <v>       0.25925926       0.03703704       0.00000000 </v>
   <v>       0.29629630       0.03703704       0.00000000 </v>
   <v>       0.33333333       0.03703704       0.00000000 </v>
   <v>       0.37037037       0.03703704       0.00000000 </v>
   <v>       0.40740741       0.03703704       0.00000000 </v>
   <v>       0.44444444       0.03703704       0.00000000 </v>
   <v>       0.48148148       0.03703704       0.00000000 </v>
   <v>       0.07407407       0.07407407       0.00000000 </v>
   <v>       0.11111111       0.07407407       0.00000000 </v>
   <v>       0.14814815       0.07407407       0.00000000 </v>
   <v>       0.18518519       0.07407407       0.00000000 </v>
   <v>       0.22222222       0.07407407       0.00000000 </v>
   <v>       0.25925926       0.07407407       0.00000000 </v>
   <v>       0.29629630       0.07407407       0.00000000 </v>
   <v>       0.33333333       0.07407407       0.00000000 </v>
   <v>       0.37037037       0.07407407       0.00000000 </v>
   <v>       0.40740741       0.07407407       0.00000000 </v>
   <v>       0.44444444       0.07407407       0.00000000 </v>
   <v>       0.11111111       0.11111111       0.00000000 </v>
   <v>       0.14814815       0.11111111       0.00000000 </v>
   <v>       0.18518519       0.11111111       0.00000000 </v>
   <v>       0.22222222       0.11111111       0.00000000 </v>
   <v>       0.25925926       0.11111111       0.00000000 </v>
   <v>       0.29629630       0.11111111       0.00000000 </v>
   <v>       0.33333333       0.11111111       0.00000000 </v>
   <v>       0.37037037       0.11111111       0.00000000 </v>
   <v>       0.40740741       0.11111111       0.00000000 </v>
   <v>       0.44444444       0.11111111       0.00000000 </v>
   <v>       0.14814815       0.14814815       0.00000000 </v>
   <v>       0.18518519       0.14814815       0.00000000 </v>
   <v>       0.22222222       0.14814815       0.00000000 </v>
   <v>       0.25925926       0.14814815       0.00000000 </v>
   <v>       0.29629630       0.14814815       0.00000000 </v>
   <v>       0.33333333       0.14814815       0.00000000 </v>
   <v>       0.37037037       0.14814815       0.00000000 </v>
   <v>       0.40740741       0.14814815       0.00000000 </v>
   <v>       0.18518519       0.18518519       0.00000000 </v>
   <v>       0.22222222       0.18518519       0.00000000 </v>
   <v>       0.25925926       0.18518519       0.00000000 </v>
   <v>       0.29629630       0.18518519       0.00000000 </v>
   <v>       0.33333333       0.18518519       0.00000000 </v>
   <v>       0.37037037       0.18518519       0.00000000 </v>
   <v>       0.40740741       0.18518519       0.00000000 </v>
   <v>       0.22222222       0.22222222       0.00000000 </v>
   <v>       0.25925926       0.22222222       0.00000000 </v>
   <v>       0.29629630       0.22222222       0.00000000 </v>
   <v>       0.33333333       0.22222222       0.00000000 </v>
   <v>       0.37037037       0.22222222       0.00000000 </v>
   <v>       0.25925926       0.25925926       0.00000000 </v>
   <v>       0.29629630       0.25925926       0.00000000 </v>
   <v>       0.33333333       0.25925926       0.00000000 </v>
   <v>       0.37037037       0.25925926       0.00000000 </v>
   <v>       0.29629630       0.29629630       0.00000000 </v>
   <v>       0.33333333       0.29629630       0.00000000 </v>
   <v>       0.33333333       0.33333333       0.00000000 </v>
  </varray>
  <varray name="weights" >
   <v>       0.00137174 </v>
   <v>       0.00823045 </v>
   <v>       0.00823045 </v>
   <v>       0.00823045 </v>
   <v>       0.00823045 </v>
   <v>       0.00823045 </v>
   <v>       0.00823045 </v>
   <v>       0.00823045 </v>
   <v>       0.00823045 </v>
   <v>       0.00823045 </v>
   <v>       0.00823045 </v>
   <v>       0.00823045 </v>
   <v>       0.00823045 </v>
   <v>       0.00823045 </v>
   <v>       0.00823045 </v>
   <v>       0.01646091 </v>
   <v>       0.01646091 </v>
   <v>       0.01646091 </v>
   <v>       0.01646091 </v>
   <v>       0.01646091 </v>
   <v>       0.01646091 </v>
   <v>       0.01646091 </v>
   <v>       0.01646091 </v>
   <v>       0.01646091 </v>
   <v>       0.01646091 </v>
   <v>       0.01646091 </v>
   <v>       0.00823045 </v>
   <v>       0.00823045 </v>
   <v>       0.01646091 </v>
   <v>       0.01646091 </v>
   <v>       0.01646091 </v>
   <v>       0.01646091 </v>
   <v>       0.01646091 </v>
   <v>       0.01646091 </v>
   <v>       0.01646091 </v>
   <v>       0.01646091 </v>
   <v>       0.01646091 </v>
   <v>       0.01646091 </v>
   <v>       0.00823045 </v>
   <v>       0.01646091 </v>
   <v>       0.01646091 </v>
   <v>       0.01646091 </v>
   <v>       0.01646091 </v>
   <v>       0.01646091 </v>
   <v>       0.01646091 </v>
   <v>       0.01646091 </v>
   <v>       0.01646091 </v>
   <v>       0.00823045 </v>
   <v>       0.00823045 </v>
   <v>       0.01646091 </v>
   <v>       0.01646091 </v>
   <v>       0.01646091 </v>
   <v>       0.01646091 </v>
   <v>       0.01646091 </v>
   <v>       0.01646091 </v>
   <v>       0.01646091 </v>
   <v>       0.00823045 </v>
   <v>       0.01646091 </v>
   <v>       0.01646091 </v>
   <v>       0.01646091 </v>
   <v>       0.01646091 </v>
   <v>       0.01646091 </v>
   <v>       0.00823045 </v>
   <v>       0.00823045 </v>
   <v>       0.01646091 </v>
   <v>       0.01646091 </v>
   <v>       0.01646091 </v>
   <v>       0.01646091 </v>
   <v>       0.00823045 </v>
   <v>       0.01646091 </v>
   <v>       0.01646091 </v>
   <v>       0.00823045 </v>
   <v>       0.00823045 </v>
   <v>       0.01646091 </v>
   <v>       0.00274348 </v>
  </varray>
 </kpoints>
 <parameters>
  <separator name="general" >
   <i type="string" name="SYSTEM">SCF</i>
   <i type="logical" name="LCOMPAT"> F  </i>
  </separator>
  <separator name="electronic" >
   <i type="string" name="PREC">accura</i>
   <i name="ENMAX">    600.00000000</i>
   <i name="ENAUG">    318.78100000</i>
   <i name="EDIFF">      0.00000100</i>
   <i type="int" name="IALGO">    38</i>
   <i type="int" name="IWAVPR">    10</i>
   <i type="int" name="NBANDS">     6</i>
   <i type="int" name="NBANDSLOW">    -1</i>
   <i type="int" name="NBANDSHIGH">    -1</i>
   <i name="NELECT">      4.00000000</i>
   <i type="int" name="TURBO">     0</i>
   <i type="int" name="IRESTART">     0</i>
   <i type="int" name="NREBOOT">     0</i>
   <i type="int" name="NMIN">     0</i>
   <i name="EREF">      0.00000000</i>
   <separator name="electronic smearing" >
    <i type="int" name="ISMEAR">     0</i>
    <i name="SIGMA">      0.10000000</i>
    <i name="KSPACING">      0.50000000</i>
    <i type="logical" name="KGAMMA"> T  </i>
    <i type="logical" name="KBLOWUP"> T  </i>
   </separator>
   <separator name="electronic projectors" >
    <i type="logical" name="LREAL"> F  </i>
    <v name="ROPT">      0.00000000</v>
    <i type="int" name="LMAXPAW">  -100</i>
    <i type="int" name="LMAXMIX">     2</i>
    <i type="logical" name="NLSPLINE"> F  </i>
   </separator>
   <separator name="electronic startup" >
    <i type="int" name="ISTART">     0</i>
    <i type="int" name="ICHARG">     2</i>
    <i type="int" name="INIWAV">     1</i>
   </separator>
   <separator name="electronic spin" >
    <i type="int" name="ISPIN">     1</i>
    <i type="logical" name="LNONCOLLINEAR"> F  </i>
    <v name="MAGMOM">      1.00000000      1.00000000</v>
    <i name="NUPDOWN">     -1.00000000</i>
    <i type="logical" name="LSORBIT"> F  </i>
    <v name="SAXIS">      0.00000000      0.00000000      1.00000000</v>
    <i type="logical" name="LSPIRAL"> F  </i>
    <v name="QSPIRAL">      0.00000000      0.00000000      0.00000000</v>
    <i type="logical" name="LZEROZ"> F  </i>
   </separator>
   <separator name="electronic exchange-correlation" >
    <i type="logical" name="LASPH"> F  </i>
   </separator>
   <separator name="electronic convergence" >
    <i type="int" name="NELM">   150</i>
    <i type="int" name="NELMDL">    -5</i>
    <i type="int" name="NELMIN">     2</i>
    <i name="ENINI">    600.00000000</i>
    <separator name="electronic convergence detail" >
     <i type="logical" name="LDIAG"> T  </i>
     <i type="logical" name="LSUBROT"> F  </i>
     <i name="WEIMIN">      0.00000000</i>
     <i name="EBREAK">      0.00000004</i>
     <i name="DEPER">      0.30000000</i>
     <i type="int" name="NRMM">     4</i>
     <i name="TIME">      0.40000000</i>
    </separator>
   </separator>
   <separator name="electronic mixer" >
    <i name="AMIX">      0.40000000</i>
    <i name="BMIX">      1.00000000</i>
    <i name="AMIN">      0.10000000</i>
    <i name="AMIX_MAG">      1.60000000</i>
    <i name="BMIX_MAG">      1.00000000</i>
    <separator name="electronic mixer details" >
     <i type="int" name="IMIX">     4</i>
     <i type="logical" name="MIXFIRST"> F  </i>
     <i type="int" name="MAXMIX">   -45</i>
     <i name="WC">    100.00000000</i>
     <i type="int" name="INIMIX">     1</i>
     <i type="int" name="MIXPRE">     1</i>
     <i type="int" name="MREMOVE">     5</i>
    </separator>
   </separator>
   <separator name="electronic dipolcorrection" >
    <i type="logical" name="LDIPOL"> T  </i>
    <i type="logical" name="LMONO"> F  </i>
    <i type="int" name="IDIPOL">     3</i>
    <i name="EPSILON">      1.00000000</i>
    <v name="DIPOL">      0.50000000      0.50000000      0.10000000</v>
    <i name="EFIELD">      0.00000000</i>
    <i type="logical" name="LVACPOTAV"> F  </i>
   </separator>
  </separator>
  <separator name="grids" >
   <i type="int" name="NGX">    18</i>
   <i type="int" name="NGY">    18</i>
   <i type="int" name="NGZ">   320</i>
   <i type="int" name="NGXF">    36</i>
   <i type="int" name="NGYF">    36</i>
   <i type="int" name="NGZF">   640</i>
   <i type="logical" name="ADDGRID"> F  </i>
  </separator>
  <separator name="ionic" >
   <i type="int" name="NSW">     0</i>
   <i type="int" name="IBRION">    -1</i>
   <i type="int" name="MDALGO">     0</i>
   <i type="int" name="ISIF">     2</i>
   <i name="PSTRESS">      0.00000000</i>
   <i name="EDIFFG">     -0.00100000</i>
   <i type="int" name="NFREE">     0</i>
   <i name="POTIM">      0.50000000</i>
   <i name="SMASS">     -3.00000000</i>
   <i name="SCALEE">      1.00000000</i>
  </separator>
  <separator name="ionic md" >
   <i name="TEBEG">      0.00010000</i>
   <i name="TEEND">      0.00010000</i>
   <i type="int" name="NBLOCK">     1</i>
   <i type="int" name="KBLOCK">     1</i>
   <i type="int" name="NPACO">   256</i>
   <i name="APACO">     10.00000000</i>
  </separator>
  <separator name="symmetry" >
   <i type="int" name="ISYM">     2</i>
   <i name="SYMPREC">      0.00000100</i>
  </separator>
  <separator name="dos" >
   <i type="int" name="LORBIT">     0</i>
   <v name="RWIGS">     -1.00000000</v>
   <i type="int" name="NEDOS">   301</i>
   <i name="EMIN">     10.00000000</i>
   <i name="EMAX">    -10.00000000</i>
   <i name="EFERMI">      0.00000000</i>
  </separator>
  <separator name="writing" >
   <i type="int" name="NWRITE">     2</i>
   <i type="logical" name="LWAVE"> T  </i>
   <i type="logical" name="LDOWNSAMPLE"> F  </i>
   <i type="logical" name="LCHARG"> T  </i>
   <i type="logical" name="LPARD"> F  </i>
   <i type="logical" name="LVTOT"> F  </i>
   <i type="logical" name="LVHAR"> F  </i>
   <i type="logical" name="LELF"> F  </i>
   <i type="logical" name="LOPTICS"> F  </i>
   <v name="STM">      0.00000000      0.00000000      0.00000000      0.00000000      0.00000000      0.00000000      0.00000000</v>
  </separator>
  <separator name="performance" >
   <i type="int" name="NPAR">     3</i>
   <i type="int" name="NSIM">     4</i>
   <i type="int" name="NBLK">    -1</i>
   <i type="logical" name="LPLANE"> T  </i>
   <i type="logical" name="LSCALAPACK"> T  </i>
   <i type="logical" name="LSCAAWARE"> F  </i>
   <i type="logical" name="LSCALU"> F  </i>
   <i type="logical" name="LASYNC"> F  </i>
   <i type="logical" name="LORBITALREAL"> F  </i>
  </separator>
  <separator name="miscellaneous" >
   <i type="int" name="IDIOT">     3</i>
   <i type="int" name="PHON_NSTRUCT">    -1</i>
   <i type="logical" name="LMUSIC"> F  </i>
   <v name="POMASS">      9.01300000</v>
   <v name="DARWINR">      0.00000000</v>
   <v name="DARWINV">      1.00000000</v>
   <i type="logical" name="LCORR"> T  </i>
  </separator>
  <i type="logical" name="GGA_COMPAT"> T  </i>
  <i type="logical" name="LBERRY"> F  </i>
  <i type="int" name="ICORELEVEL">     0</i>
  <i type="logical" name="LDAU"> F  </i>
  <i type="int" name="I_CONSTRAINED_M">     0</i>
  <separator name="electronic exchange-correlation" >
   <i type="string" name="GGA    ">PE</i>
   <i type="string" name="XC_C">1</i>
   <i type="int" name="VOSKOWN">     0</i>
   <i type="logical" name="LHFCALC"> F  </i>
   <i type="string" name="PRECFOCK"></i>
   <i type="logical" name="LSYMGRAD"> F  </i>
   <i type="logical" name="LHFONE"> F  </i>
   <i type="logical" name="LRHFCALC"> F  </i>
   <i type="logical" name="LTHOMAS"> F  </i>
   <i type="logical" name="LMODELHF"> F  </i>
   <i type="logical" name="LFOCKACE"> F  </i>
   <i name="ENCUT4O">     -1.00000000</i>
   <i type="int" name="EXXOEP">     0</i>
   <i type="int" name="FOURORBIT">     0</i>
   <i name="AEXX">      0.00000000</i>
   <i name="HFALPHA">      0.00000000</i>
   <i name="MCALPHA">      0.00000000</i>
   <i name="ALDAX">      1.00000000</i>
   <i name="AGGAX">      1.00000000</i>
   <i name="AMGGAX">      1.00000000</i>
   <i name="ALDAC">      1.00000000</i>
   <i name="AGGAC">      1.00000000</i>
   <i name="AMGGAC">      1.00000000</i>
   <i type="int" name="NKREDX">     1</i>
   <i type="int" name="NKREDY">     1</i>
   <i type="int" name="NKREDZ">     1</i>
   <i type="logical" name="SHIFTRED"> F  </i>
   <i type="logical" name="ODDONLY"> F  </i>
   <i type="logical" name="EVENONLY"> F  </i>
   <i type="int" name="LMAXFOCK">     0</i>
   <i type="int" name="NMAXFOCKAE">     0</i>
   <i type="logical" name="LFOCKAEDFT"> F  </i>
   <i name="HFSCREEN">      0.00000000</i>
   <i name="HFSCREENC">      0.00000000</i>
   <i type="int" name="NBANDSGWLOW">     0</i>
  </separator>
  <separator name="vdW DFT" >
   <i type="logical" name="LUSE_VDW"> F  </i>
   <i type="int" name="IVDW_NL">    -1</i>
   <i type="logical" name="LSPIN_VDW"> F  </i>
   <i name="ZAB_VDW">     -0.84910000</i>
   <i name="GAMMA_VDW">      1.39626340</i>
   <i name="ALPHA_VDW">      0.00000000</i>
   <i name="PARAM1">      0.12340000</i>
   <i name="PARAM2">      1.00000000</i>
   <i name="BPARAM">      6.30000000</i>
   <i name="CPARAM">      0.00930000</i>
  </separator>
  <separator name="model GW" >
   <i type="int" name="MODEL_GW">     0</i>
   <i name="MODEL_EPS0">     48.78863681</i>
   <i name="MODEL_ALPHA">      1.00000000</i>
  </separator>
  <separator name="linear response parameters" >
   <i type="logical" name="LEPSILON"> F  </i>
   <i type="logical" name="LRPA"> F  </i>
   <i type="logical" name="LNABLA"> F  </i>
   <i type="logical" name="LVEL"> F  </i>
   <i name="CSHIFT">      0.10000000</i>
   <i name="OMEGAMAX">     -1.00000000</i>
   <i name="DEG_THRESHOLD">      0.00200000</i>
   <i name="RTIME">     -0.10000000</i>
   <i name="WPLASMAI">      0.00000000</i>
   <v name="DFIELD">      0.00000000      0.00000000      0.00000000</v>
   <v name="WPLASMA">      0.00000000      0.00000000      0.00000000      0.00000000      0.00000000      0.00000000      0.00000000      0.00000000      0.00000000</v>
  </separator>
  <separator name="orbital magnetization" >
   <i type="logical" name="NUCIND"> F  </i>
   <v name="MAGPOS">      0.00000000      0.00000000      0.00000000</v>
   <i type="logical" name="LNICSALL"> T  </i>
   <i type="logical" name="ORBITALMAG"> F  </i>
   <i type="logical" name="LMAGBLOCH"> F  </i>
   <i type="logical" name="LCHIMAG"> F  </i>
   <i type="logical" name="LGAUGE"> T  </i>
   <i type="int" name="MAGATOM">     0</i>
   <v name="MAGDIPOL">      0.00000000      0.00000000      0.00000000</v>
   <v name="AVECCONST">      0.00000000      0.00000000      0.00000000</v>
  </separator>
  <separator name="response functions" >
   <i type="logical" name="LALL_IN_ONE"> F  </i>
   <i type="int" name="IALL_IN_ONE">    -1</i>
   <i type="int" name="NBANDS_WAVE">    -1</i>
   <i type="logical" name="LFINITE_TEMPERATURE"> F  </i>
   <i type="logical" name="LADDER"> F  </i>
   <i type="logical" name="LRPAFORCE"> F  </i>
   <i type="logical" name="LFXC"> F  </i>
   <i type="logical" name="LHARTREE"> T  </i>
   <i type="int" name="IBSE">     2</i>
   <v type="int" name="KPOINT">    -1     0     0     0</v>
   <i type="logical" name="LTCTC"> F  </i>
   <i type="logical" name="LTCTE"> F  </i>
   <i type="logical" name="LTETE"> F  </i>
   <i type="logical" name="LTRIPLET"> F  </i>
   <i type="logical" name="LFXCEPS"> F  </i>
   <i type="logical" name="LFXHEG"> F  </i>
   <i type="int" name="NATURALO">     2</i>
   <i type="logical" name="LHOLEGF"> F  </i>
   <i type="logical" name="L2ORDER"> F  </i>
   <i type="logical" name="LDMP1"> F  </i>
   <i type="logical" name="LMP2LT"> F  </i>
   <i type="logical" name="LSMP2LT"> F  </i>
   <i type="logical" name="LGWLF"> F  </i>
   <i name="ENCUTGW">     -1.60000002</i>
   <i name="ENCUTGWSOFT">     -1.60000002</i>
   <i name="ENCUTLF">     -1.00000000</i>
   <i type="logical" name="ESF_SPLINES"> F  </i>
   <i name="ESF_CONV">      0.01000000</i>
   <i type="int" name="ESF_NINTER">    15</i>
   <i type="int" name="LMAXMP2">    -1</i>
   <i name="SCISSOR">      0.00000000</i>
   <i type="int" name="NOMEGA">     0</i>
   <i type="int" name="NOMEGAR">     0</i>
   <i type="int" name="NBANDSGW">    -1</i>
   <i type="int" name="NBANDSO">    -1</i>
   <i type="int" name="NBANDSV">    -1</i>
   <i type="int" name="NELMGW">     1</i>
   <i type="int" name="NELMHF">     1</i>
   <i type="int" name="DIM">     3</i>
   <i type="int" name="IESPILON">     4</i>
   <i type="int" name="ANTIRES">     0</i>
   <i name="OMEGAMAX">    -30.00000000</i>
   <i name="OMEGAMIN">    -30.00000000</i>
   <i name="OMEGATL">   -200.00000000</i>
   <i type="int" name="OMEGAGRID">     0</i>
   <i name="CSHIFT">     -0.10000000</i>
   <i type="logical" name="LSELFENERGY"> F  </i>
   <i type="logical" name="LSPECTRAL"> F  </i>
   <i type="logical" name="LSPECTRALGW"> F  </i>
   <i type="logical" name="LSINGLES"> F  </i>
   <i type="logical" name="LFERMIGW"> F  </i>
   <i type="logical" name="ODDONLYGW"> F  </i>
   <i type="logical" name="EVENONLYGW"> F  </i>
   <i type="int" name="NKREDLFX">     1</i>
   <i type="int" name="NKREDLFY">     1</i>
   <i type="int" name="NKREDLFZ">     1</i>
   <i type="int" name="MAXMEM">  2800</i>
   <i type="int" name="TELESCOPE">     0</i>
   <i type="int" name="NTAUPAR">    -1</i>
   <i type="int" name="NOMEGAPAR">    -1</i>
   <i name="DAMP_NEWTON">      0.80000001</i>
   <i name="LAMBDA">      1.00000000</i>
  </separator>
  <separator name="External order field" >
   <i name="OFIELD_KAPPA">      0.00000000</i>
   <v name="OFIELD_K">      0.00000000      0.00000000      0.00000000</v>
   <i name="OFIELD_Q6_NEAR">      0.00000000</i>
   <i name="OFIELD_Q6_FAR">      0.00000000</i>
   <i name="OFIELD_A">      0.00000000</i>
  </separator>
  <separator name="optional k-points parameters" >
   <i type="int" name="KPOINTS_OPT_MODE">     1</i>
   <i type="logical" name="LKPOINTS_OPT"> F  </i>
  </separator>
 </parameters>
 <atominfo>
  <atoms>       2 </atoms>
  <types>       1 </types>
  <array name="atoms" >
   <dimension dim="1">ion</dimension>
   <field type="string">element</field>
   <field type="int">atomtype</field>
   <set>
    <rc><c>Be</c><c>   1</c></rc>
    <rc><c>Be</c><c>   1</c></rc>
   </set>
  </array>
  <array name="atomtypes" >
   <dimension dim="1">type</dimension>
   <field type="int">atomspertype</field>
   <field type="string">element</field>
   <field>mass</field>
   <field>valence</field>
   <field type="string">pseudopotential</field>
   <set>
    <rc><c>   2</c><c>Be</c><c>      9.01300000</c><c>      2.00000000</c><c>  PAW_PBE Be 06Sep2000                  </c></rc>
   </set>
  </array>
 </atominfo>
 <structure name="initialpos" >
  <crystal>
   <varray name="basis" >
    <v>       1.87643720       1.08336152       0.00000000 </v>
    <v>      -1.87643720       1.08336152       0.00000000 </v>
    <v>       0.00000000       0.00000000      40.00000000 </v>
   </varray>
   <i name="volume">    162.62878935 </i>
   <varray name="rec_basis" >
    <v>       0.26646242       0.46152645       0.00000000 </v>
    <v>      -0.26646242       0.46152645       0.00000000 </v>
    <v>       0.00000000       0.00000000       0.02500000 </v>
   </varray>
  </crystal>
  <varray name="positions" >
   <v>       0.33333333       0.66666667       0.12386834 </v>
   <v>       0.66666667       0.33333333       0.07613166 </v>
  </varray>
 </structure>
 <calculation>
  <scstep>
   <time name="dav">    0.17    0.17</time>
   <time name="total">    0.19    0.19</time>
   <dipole>
    <v name="dipole">      0.00000000       0.00000000       0.00000000 </v>
    <i name="Tr[quadrupol]">     -1.69589995 </i>
    <i name="Echarged">      0.00000000 </i>
    <i name="Edipol_quadrupol">      0.00000000 </i>
    <i name="Eion">      0.00000000 </i>
   </dipole>
   <energy>
    <i name="alphaZ">      0.42966819 </i>
    <i name="ewald">    912.85856497 </i>
    <i name="hartreedc">   -938.64850261 </i>
    <i name="XCdc">      6.91265918 </i>
    <i name="pawpsdc">     30.51246266 </i>
    <i name="pawaedc">    -29.24515235 </i>
    <i name="eentropy">     -0.00320709 </i>
    <i name="bandstr">    -20.07839477 </i>
    <i name="atom">     54.95850721 </i>
    <i name="e_fr_energy">     17.69660540 </i>
    <i name="e_wo_entrp">     17.69981249 </i>
    <i name="e_0_energy">     17.69820894 </i>
   </energy>
  </scstep>
  <scstep>
   <time name="dav">    0.22    0.22</time>
   <time name="total">    0.22    0.22</time>
   <dipole>
    <v name="dipole">      0.00000000       0.00000000       0.00000000 </v>
    <i name="Tr[quadrupol]">     -1.69589995 </i>
    <i name="Echarged">      0.00000000 </i>
    <i name="Edipol_quadrupol">      0.00000000 </i>
    <i name="Eion">      0.00000000 </i>
   </dipole>
   <energy>
    <i name="e_fr_energy">     -6.83259061 </i>
    <i name="e_wo_entrp">     -6.83031389 </i>
    <i name="e_0_energy">     -6.83145225 </i>
   </energy>
  </scstep>
  <scstep>
   <time name="dav">    0.21    0.21</time>
   <time name="total">    0.21    0.21</time>
   <dipole>
    <v name="dipole">      0.00000000       0.00000000       0.00000000 </v>
    <i name="Tr[quadrupol]">     -1.69589995 </i>
    <i name="Echarged">      0.00000000 </i>
    <i name="Edipol_quadrupol">      0.00000000 </i>
    <i name="Eion">      0.00000000 </i>
   </dipole>
   <energy>
    <i name="e_fr_energy">     -7.32187296 </i>
    <i name="e_wo_entrp">     -7.31972078 </i>
    <i name="e_0_energy">     -7.32079687 </i>
   </energy>
  </scstep>
  <scstep>
   <time name="dav">    0.27    0.28</time>
   <time name="total">    0.27    0.28</time>
   <dipole>
    <v name="dipole">      0.00000000       0.00000000       0.00000000 </v>
    <i name="Tr[quadrupol]">     -1.69589995 </i>
    <i name="Echarged">      0.00000000 </i>
    <i name="Edipol_quadrupol">      0.00000000 </i>
    <i name="Eion">      0.00000000 </i>
   </dipole>
   <energy>
    <i name="e_fr_energy">     -7.32364974 </i>
    <i name="e_wo_entrp">     -7.32148152 </i>
    <i name="e_0_energy">     -7.32256563 </i>
   </energy>
  </scstep>
  <scstep>
   <time name="dav">    0.23    0.23</time>
   <time name="total">    0.25    0.25</time>
   <dipole>
    <v name="dipole">      0.00000000       0.00000000       0.00000000 </v>
    <i name="Tr[quadrupol]">     -1.69589995 </i>
    <i name="Echarged">      0.00000000 </i>
    <i name="Edipol_quadrupol">      0.00000000 </i>
    <i name="Eion">      0.00000000 </i>
   </dipole>
   <energy>
    <i name="e_fr_energy">     -7.32365299 </i>
    <i name="e_wo_entrp">     -7.32148477 </i>
    <i name="e_0_energy">     -7.32256888 </i>
   </energy>
  </scstep>
  <scstep>
   <time name="dav">    0.20    0.20</time>
   <time name="total">    0.23    0.23</time>
   <dipole>
    <v name="dipole">      0.00000000       0.00000000       0.00000000 </v>
    <i name="Tr[quadrupol]">     -1.89016872 </i>
    <i name="Echarged">      0.00000000 </i>
    <i name="Edipol_quadrupol">      0.00000000 </i>
    <i name="Eion">      0.00000000 </i>
   </dipole>
   <energy>
    <i name="e_fr_energy">     -6.84768985 </i>
    <i name="e_wo_entrp">     -6.84458640 </i>
    <i name="e_0_energy">     -6.84613812 </i>
   </energy>
  </scstep>
  <scstep>
   <time name="dav">    0.20    0.20</time>
   <time name="total">    0.23    0.23</time>
   <dipole>
    <v name="dipole">      0.00000000       0.00000000       0.00000000 </v>
    <i name="Tr[quadrupol]">     -2.11440269 </i>
    <i name="Echarged">      0.00000000 </i>
    <i name="Edipol_quadrupol">      0.00000000 </i>
    <i name="Eion">      0.00000000 </i>
   </dipole>
   <energy>
    <i name="e_fr_energy">     -6.68444347 </i>
    <i name="e_wo_entrp">     -6.68177666 </i>
    <i name="e_0_energy">     -6.68311006 </i>
   </energy>
  </scstep>
  <scstep>
   <time name="dav">    0.20    0.20</time>
   <time name="total">    0.23    0.23</time>
   <dipole>
    <v name="dipole">      0.00000000       0.00000000      -0.00000000 </v>
    <i name="Tr[quadrupol]">     -2.22106979 </i>
    <i name="Echarged">      0.00000000 </i>
    <i name="Edipol_quadrupol">      0.00000000 </i>
    <i name="Eion">      0.00000000 </i>
   </dipole>
   <energy>
    <i name="e_fr_energy">     -6.66655271 </i>
    <i name="e_wo_entrp">     -6.66384385 </i>
    <i name="e_0_energy">     -6.66519828 </i>
   </energy>
  </scstep>
  <scstep>
   <time name="dav">    0.20    0.20</time>
   <time name="total">    0.23    0.23</time>
   <dipole>
    <v name="dipole">      0.00000000       0.00000000      -0.00000000 </v>
    <i name="Tr[quadrupol]">     -2.33854136 </i>
    <i name="Echarged">      0.00000000 </i>
    <i name="Edipol_quadrupol">      0.00000000 </i>
    <i name="Eion">      0.00000000 </i>
   </dipole>
   <energy>
    <i name="e_fr_energy">     -6.65800219 </i>
    <i name="e_wo_entrp">     -6.65564043 </i>
    <i name="e_0_energy">     -6.65682131 </i>
   </energy>
  </scstep>
  <scstep>
   <time name="dav">    0.21    0.21</time>
   <time name="total">    0.24    0.24</time>
   <dipole>
    <v name="dipole">      0.00000000       0.00000000      -0.00000000 </v>
    <i name="Tr[quadrupol]">     -2.41995949 </i>
    <i name="Echarged">      0.00000000 </i>
    <i name="Edipol_quadrupol">      0.00000000 </i>
    <i name="Eion">      0.00000000 </i>
   </dipole>
   <energy>
    <i name="e_fr_energy">     -6.65688824 </i>
    <i name="e_wo_entrp">     -6.65447172 </i>
    <i name="e_0_energy">     -6.65567998 </i>
   </energy>
  </scstep>
  <scstep>
   <time name="dav">    0.18    0.18</time>
   <time name="total">    0.21    0.22</time>
   <dipole>
    <v name="dipole">      0.00000000       0.00000000      -0.00000000 </v>
    <i name="Tr[quadrupol]">     -2.48207711 </i>
    <i name="Echarged">      0.00000000 </i>
    <i name="Edipol_quadrupol">      0.00000000 </i>
    <i name="Eion">      0.00000000 </i>
   </dipole>
   <energy>
    <i name="e_fr_energy">     -6.65755411 </i>
    <i name="e_wo_entrp">     -6.65509406 </i>
    <i name="e_0_energy">     -6.65632409 </i>
   </energy>
  </scstep>
  <scstep>
   <time name="dav">    0.17    0.17</time>
   <time name="total">    0.21    0.21</time>
   <dipole>
    <v name="dipole">      0.00000000       0.00000000      -0.00000000 </v>
    <i name="Tr[quadrupol]">     -2.52716394 </i>
    <i name="Echarged">      0.00000000 </i>
    <i name="Edipol_quadrupol">      0.00000000 </i>
    <i name="Eion">      0.00000000 </i>
   </dipole>
   <energy>
    <i name="e_fr_energy">     -6.65817092 </i>
    <i name="e_wo_entrp">     -6.65565699 </i>
    <i name="e_0_energy">     -6.65691395 </i>
   </energy>
  </scstep>
  <scstep>
   <time name="dav">    0.18    0.18</time>
   <time name="total">    0.21    0.22</time>
   <dipole>
    <v name="dipole">      0.00000000       0.00000000      -0.00000000 </v>
    <i name="Tr[quadrupol]">     -2.54369193 </i>
    <i name="Echarged">      0.00000000 </i>
    <i name="Edipol_quadrupol">      0.00000000 </i>
    <i name="Eion">      0.00000000 </i>
   </dipole>
   <energy>
    <i name="e_fr_energy">     -6.65856836 </i>
    <i name="e_wo_entrp">     -6.65606471 </i>
    <i name="e_0_energy">     -6.65731653 </i>
   </energy>
  </scstep>
  <scstep>
   <time name="dav">    0.18    0.18</time>
   <time name="total">    0.22    0.22</time>
   <dipole>
    <v name="dipole">      0.00000000       0.00000000      -0.00000000 </v>
    <i name="Tr[quadrupol]">     -2.54776698 </i>
    <i name="Echarged">      0.00000000 </i>
    <i name="Edipol_quadrupol">      0.00000000 </i>
    <i name="Eion">      0.00000000 </i>
   </dipole>
   <energy>
    <i name="e_fr_energy">     -6.65875524 </i>
    <i name="e_wo_entrp">     -6.65625371 </i>
    <i name="e_0_energy">     -6.65750448 </i>
   </energy>
  </scstep>
  <scstep>
   <time name="dav">    0.19    0.19</time>
   <time name="total">    0.22    0.22</time>
   <dipole>
    <v name="dipole">      0.00000000       0.00000000      -0.00000000 </v>
    <i name="Tr[quadrupol]">     -2.55371118 </i>
    <i name="Echarged">      0.00000000 </i>
    <i name="Edipol_quadrupol">      0.00000000 </i>
    <i name="Eion">      0.00000000 </i>
   </dipole>
   <energy>
    <i name="e_fr_energy">     -6.65887928 </i>
    <i name="e_wo_entrp">     -6.65636757 </i>
    <i name="e_0_energy">     -6.65762343 </i>
   </energy>
  </scstep>
  <scstep>
   <time name="dav">    0.18    0.19</time>
   <time name="total">    0.21    0.22</time>
   <dipole>
    <v name="dipole">      0.00000000       0.00000000      -0.00000000 </v>
    <i name="Tr[quadrupol]">     -2.55618773 </i>
    <i name="Echarged">      0.00000000 </i>
    <i name="Edipol_quadrupol">      0.00000000 </i>
    <i name="Eion">      0.00000000 </i>
   </dipole>
   <energy>
    <i name="e_fr_energy">     -6.65890558 </i>
    <i name="e_wo_entrp">     -6.65639427 </i>
    <i name="e_0_energy">     -6.65764992 </i>
   </energy>
  </scstep>
  <scstep>
   <time name="dav">    0.18    0.18</time>
   <time name="total">    0.21    0.21</time>
   <dipole>
    <v name="dipole">      0.00000000       0.00000000      -0.00000000 </v>
    <i name="Tr[quadrupol]">     -2.55672123 </i>
    <i name="Echarged">      0.00000000 </i>
    <i name="Edipol_quadrupol">      0.00000000 </i>
    <i name="Eion">      0.00000000 </i>
   </dipole>
   <energy>
    <i name="e_fr_energy">     -6.65891926 </i>
    <i name="e_wo_entrp">     -6.65641006 </i>
    <i name="e_0_energy">     -6.65766466 </i>
   </energy>
  </scstep>
  <scstep>
   <time name="dav">    0.16    0.17</time>
   <time name="total">    0.19    0.20</time>
   <dipole>
    <v name="dipole">      0.00000000       0.00000000      -0.00000000 </v>
    <i name="Tr[quadrupol]">     -2.55805562 </i>
    <i name="Echarged">      0.00000000 </i>
    <i name="Edipol_quadrupol">      0.00000000 </i>
    <i name="Eion">      0.00000000 </i>
   </dipole>
   <energy>
    <i name="e_fr_energy">     -6.65892536 </i>
    <i name="e_wo_entrp">     -6.65641563 </i>
    <i name="e_0_energy">     -6.65767050 </i>
   </energy>
  </scstep>
  <scstep>
   <time name="dav">    0.18    0.18</time>
   <time name="total">    0.19    0.19</time>
   <dipole>
    <v name="dipole">      0.00000000       0.00000000      -0.00000000 </v>
    <i name="Tr[quadrupol]">     -2.55841793 </i>
    <i name="Echarged">      0.00000000 </i>
    <i name="Edipol_quadrupol">      0.00000000 </i>
    <i name="Eion">      0.00000000 </i>
   </dipole>
   <energy>
    <i name="alphaZ">      0.42966819 </i>
    <i name="ewald">    912.85856497 </i>
    <i name="hartreedc">   -953.78141290 </i>
    <i name="XCdc">      7.13508984 </i>
    <i name="pawpsdc">    124.82795801 </i>
    <i name="pawaedc">   -123.69137397 </i>
    <i name="eentropy">     -0.00250994 </i>
    <i name="bandstr">    -29.39341750 </i>
    <i name="atom">     54.95850721 </i>
    <i name="e_fr_energy">     -6.65892609 </i>
    <i name="e_wo_entrp">     -6.65641615 </i>
    <i name="e_0_energy">     -6.65767112 </i>
   </energy>
  </scstep>
  <structure>
   <crystal>
    <varray name="basis" >
     <v>       1.87643720       1.08336152       0.00000000 </v>
     <v>      -1.87643720       1.08336152       0.00000000 </v>
     <v>       0.00000000       0.00000000      40.00000000 </v>
    </varray>
    <i name="volume">    162.62878935 </i>
    <varray name="rec_basis" >
     <v>       0.26646242       0.46152645       0.00000000 </v>
     <v>      -0.26646242       0.46152645       0.00000000 </v>
     <v>       0.00000000       0.00000000       0.02500000 </v>
    </varray>
   </crystal>
   <varray name="positions" >
    <v>       0.33333333       0.66666667       0.12386834 </v>
    <v>       0.66666667       0.33333333       0.07613166 </v>
   </varray>
  </structure>
  <varray name="forces" >
   <v>       0.00000000       0.00000000      -0.04353037 </v>
   <v>      -0.00000000      -0.00000000       0.04353037 </v>
  </varray>
  <varray name="stress" >
   <v>      -4.06393675       0.00000000       0.00000000 </v>
   <v>       0.00000000      -4.06393675       0.00000000 </v>
   <v>      -0.00000000       0.00000000      -0.82102284 </v>
  </varray>
  <energy>
   <i name="e_fr_energy">     -7.03809718 </i>
   <i name="e_wo_entrp">     -7.03558723 </i>
   <i name="e_0_energy">     -7.03684221 </i>
  </energy>
  <time name="totalsc">    4.84    4.92</time>
  <eigenvalues>
   <array>
    <dimension dim="1">band</dimension>
    <dimension dim="2">kpoint</dimension>
    <dimension dim="3">spin</dimension>
    <field>eigene</field>
    <field>occ</field>
    <set>
     <set comment="spin 1">
      <set comment="kpoint 1">
       <r>  -13.0570    1.0000 </r>
       <r>   -8.7831    1.0000 </r>
       <r>   -5.9797    1.0000 </r>
       <r>   -0.0323    0.0000 </r>
       <r>    0.7788    0.0000 </r>
       <r>    1.0727    0.0000 </r>
      </set>
      <set comment="kpoint 2">
       <r>  -13.0137    1.0000 </r>
       <r>   -8.7420    1.0000 </r>
       <r>   -5.9237    1.0000 </r>
       <r>    0.0175    0.0000 </r>
       <r>    0.8366    0.0000 </r>
       <r>    1.1315    0.0000 </r>
      </set>
      <set comment="kpoint 3">
       <r>  -12.8840    1.0000 </r>
       <r>   -8.6189    1.0000 </r>
       <r>   -5.7556    1.0000 </r>
       <r>    0.1663    0.0000 </r>
       <r>    1.0099    0.0000 </r>
       <r>    1.3097    0.0000 </r>
      </set>
      <set comment="kpoint 4">
       <r>  -12.6680    1.0000 </r>
       <r>   -8.4149    1.0000 </r>
       <r>   -5.4757    1.0000 </r>
       <r>    0.4124    0.0000 </r>
       <r>    1.2985    0.0000 </r>
       <r>    1.5995    0.0000 </r>
      </set>
      <set comment="kpoint 5">
       <r>  -12.3661    1.0000 </r>
       <r>   -8.1320    1.0000 </r>
       <r>   -5.0843    1.0000 </r>
       <r>    0.7520    0.0000 </r>
       <r>    1.7022    0.0000 </r>
       <r>    2.0103    0.0000 </r>
      </set>
      <set comment="kpoint 6">
       <r>  -11.9789    1.0000 </r>
       <r>   -7.7737    1.0000 </r>
       <r>   -4.5821    1.0000 </r>
       <r>    1.1775    0.0000 </r>
       <r>    2.2200    0.0000 </r>
       <r>    2.5404    0.0000 </r>
      </set>
      <set comment="kpoint 7">
       <r>  -11.5075    1.0000 </r>
       <r>   -7.3454    1.0000 </r>
       <r>   -3.9702    0.1166 </r>
       <r>    1.6719    0.0000 </r>
       <r>    2.8500    0.0000 </r>
       <r>    3.1859    0.0000 </r>
      </set>
      <set comment="kpoint 8">
       <r>  -10.9539    1.0000 </r>
       <r>   -6.8564    1.0000 </r>
       <r>   -3.2507    0.0000 </r>
       <r>    2.1896    0.0000 </r>
       <r>    3.5852    0.0000 </r>
       <r>    3.9597    0.0000 </r>
      </set>
      <set comment="kpoint 9">
       <r>  -10.3212    1.0000 </r>
       <r>   -6.3231    1.0000 </r>
       <r>   -2.4277    0.0000 </r>
       <r>    2.5800    0.0000 </r>
       <r>    4.3703    0.0000 </r>
       <r>    4.7961    0.0000 </r>
      </set>
      <set comment="kpoint 10">
       <r>   -9.6150    1.0000 </r>
       <r>   -5.7759    1.0000 </r>
       <r>   -1.5113    0.0000 </r>
       <r>    2.4380    0.0000 </r>
       <r>    4.6477    0.0000 </r>
       <r>    5.5367    0.0000 </r>
      </set>
      <set comment="kpoint 11">
       <r>   -8.8458    1.0000 </r>
       <r>   -5.2749    1.0000 </r>
       <r>   -0.5374    0.0000 </r>
       <r>    1.7508    0.0000 </r>
       <r>    4.4245    0.0000 </r>
       <r>    6.3335    0.0000 </r>
      </set>
      <set comment="kpoint 12">
       <r>   -8.0340    1.0000 </r>
       <r>   -4.9320    1.0000 </r>
       <r>    0.2374    0.0000 </r>
       <r>    1.3485    0.0000 </r>
       <r>    3.6374    0.0000 </r>
       <r>    6.8383    0.0000 </r>
      </set>
      <set comment="kpoint 13">
       <r>   -7.2268    1.0000 </r>
       <r>   -4.8924    1.0000 </r>
       <r>    0.2686    0.0000 </r>
       <r>    2.1009    0.0000 </r>
       <r>    2.7162    0.0000 </r>
       <r>    6.4664    0.0000 </r>
      </set>
      <set comment="kpoint 14">
       <r>   -6.5756    1.0000 </r>
       <r>   -5.1294    1.0000 </r>
       <r>    0.3223    0.0000 </r>
       <r>    2.0318    0.0000 </r>
       <r>    3.1186    0.0000 </r>
       <r>    5.4037    0.0000 </r>
      </set>
      <set comment="kpoint 15">
       <r>  -12.9272    1.0000 </r>
       <r>   -8.6598    1.0000 </r>
       <r>   -5.8116    1.0000 </r>
       <r>    0.1168    0.0000 </r>
       <r>    0.9521    0.0000 </r>
       <r>    1.2483    0.0000 </r>
      </set>
      <set comment="kpoint 16">
       <r>  -12.7543    1.0000 </r>
       <r>   -8.4963    1.0000 </r>
       <r>   -5.5876    1.0000 </r>
       <r>    0.3144    0.0000 </r>
       <r>    1.1831    0.0000 </r>
       <r>    1.4825    0.0000 </r>
      </set>
      <set comment="kpoint 17">
       <r>  -12.4953    1.0000 </r>
       <r>   -8.2527    1.0000 </r>
       <r>   -5.2519    1.0000 </r>
       <r>    0.6076    0.0000 </r>
       <r>    1.5293    0.0000 </r>
       <r>    1.8337    0.0000 </r>
      </set>
      <set comment="kpoint 18">
       <r>  -12.1507    1.0000 </r>
       <r>   -7.9318    1.0000 </r>
       <r>   -4.8051    1.0000 </r>
       <r>    0.9912    0.0000 </r>
       <r>    1.9901    0.0000 </r>
       <r>    2.3021    0.0000 </r>
      </set>
      <set comment="kpoint 19">
       <r>  -11.7212    1.0000 </r>
       <r>   -7.5378    1.0000 </r>
       <r>   -4.2480    0.9969 </r>
       <r>    1.4543    0.0000 </r>
       <r>    2.5644    0.0000 </r>
       <r>    2.8977    0.0000 </r>
      </set>
      <set comment="kpoint 20">
       <r>  -11.2083    1.0000 </r>
       <r>   -7.0777    1.0000 </r>
       <r>   -3.5820    0.0000 </r>
       <r>    1.9703    0.0000 </r>
       <r>    3.2486    0.0000 </r>
       <r>    3.6044    0.0000 </r>
      </set>
      <set comment="kpoint 21">
       <r>  -10.6144    1.0000 </r>
       <r>   -6.5635    1.0000 </r>
       <r>   -2.8102    0.0000 </r>
       <r>    2.4592    0.0000 </r>
       <r>    4.0254    0.0000 </r>
       <r>    4.4350    0.0000 </r>
      </set>
      <set comment="kpoint 22">
       <r>   -9.9436    1.0000 </r>
       <r>   -6.0170    1.0000 </r>
       <r>   -1.9388    0.0000 </r>
       <r>    2.6443    0.0000 </r>
       <r>    4.6457    0.0000 </r>
       <r>    5.1621    0.0000 </r>
      </set>
      <set comment="kpoint 23">
       <r>   -9.2035    1.0000 </r>
       <r>   -5.4808    1.0000 </r>
       <r>   -0.9858    0.0000 </r>
       <r>    2.1474    0.0000 </r>
       <r>    4.6244    0.0000 </r>
       <r>    6.0419    0.0000 </r>
      </set>
      <set comment="kpoint 24">
       <r>   -8.4082    1.0000 </r>
       <r>   -5.0377    1.0000 </r>
       <r>   -0.0428    0.0000 </r>
       <r>    1.4575    0.0000 </r>
       <r>    4.0922    0.0000 </r>
       <r>    6.5429    0.0000 </r>
      </set>
      <set comment="kpoint 25">
       <r>   -7.5879    1.0000 </r>
       <r>   -4.8277    1.0000 </r>
       <r>    0.3124    0.0000 </r>
       <r>    1.6521    0.0000 </r>
       <r>    3.1628    0.0000 </r>
       <r>    6.8519    0.0000 </r>
      </set>
      <set comment="kpoint 26">
       <r>   -6.8224    1.0000 </r>
       <r>   -4.9548    1.0000 </r>
       <r>    0.2817    0.0000 </r>
       <r>    2.2976    0.0000 </r>
       <r>    2.6820    0.0000 </r>
       <r>    5.9442    0.0000 </r>
      </set>
      <set comment="kpoint 27">
       <r>   -6.4158    1.0000 </r>
       <r>   -5.1589    1.0000 </r>
       <r>    0.3580    0.0000 </r>
       <r>    1.9045    0.0000 </r>
       <r>    3.3794    0.0000 </r>
       <r>    5.2041    0.0000 </r>
      </set>
      <set comment="kpoint 28">
       <r>  -12.5384    1.0000 </r>
       <r>   -8.2930    1.0000 </r>
       <r>   -5.3078    1.0000 </r>
       <r>    0.5592    0.0000 </r>
       <r>    1.4716    0.0000 </r>
       <r>    1.7800    0.0000 </r>
      </set>
      <set comment="kpoint 29">
       <r>  -12.2366    1.0000 </r>
       <r>   -8.0111    1.0000 </r>
       <r>   -4.9167    1.0000 </r>
       <r>    0.8975    0.0000 </r>
       <r>    1.8751    0.0000 </r>
       <r>    2.1863    0.0000 </r>
      </set>
      <set comment="kpoint 30">
       <r>  -11.8494    1.0000 </r>
       <r>   -7.6537    1.0000 </r>
       <r>   -4.4148    1.0000 </r>
       <r>    1.3220    0.0000 </r>
       <r>    2.3927    0.0000 </r>
       <r>    2.7134    0.0000 </r>
      </set>
      <set comment="kpoint 31">
       <r>  -11.3777    1.0000 </r>
       <r>   -7.2259    1.0000 </r>
       <r>   -3.8033    0.0002 </r>
       <r>    1.8174    0.0000 </r>
       <r>    3.0224    0.0000 </r>
       <r>    3.3752    0.0000 </r>
      </set>
      <set comment="kpoint 32">
       <r>  -10.8235    1.0000 </r>
       <r>   -6.7364    1.0000 </r>
       <r>   -3.0844    0.0000 </r>
       <r>    2.3415    0.0000 </r>
       <r>    3.7570    0.0000 </r>
       <r>    4.1550    0.0000 </r>
      </set>
      <set comment="kpoint 33">
       <r>  -10.1896    1.0000 </r>
       <r>   -6.2007    1.0000 </r>
       <r>   -2.2622    0.0000 </r>
       <r>    2.7448    0.0000 </r>
       <r>    4.5298    0.0000 </r>
       <r>    4.9614    0.0000 </r>
      </set>
      <set comment="kpoint 34">
       <r>   -9.4813    1.0000 </r>
       <r>   -5.6479    1.0000 </r>
       <r>   -1.3473    0.0000 </r>
       <r>    2.5770    0.0000 </r>
       <r>    4.7163    0.0000 </r>
       <r>    5.6900    0.0000 </r>
      </set>
      <set comment="kpoint 35">
       <r>   -8.7086    1.0000 </r>
       <r>   -5.1364    1.0000 </r>
       <r>   -0.3794    0.0000 </r>
       <r>    1.8301    0.0000 </r>
       <r>    4.5016    0.0000 </r>
       <r>    6.2089    0.0000 </r>
      </set>
      <set comment="kpoint 36">
       <r>   -7.8912    1.0000 </r>
       <r>   -4.7788    1.0000 </r>
       <r>    0.3375    0.0000 </r>
       <r>    1.4393    0.0000 </r>
       <r>    3.6379    0.0000 </r>
       <r>    6.6373    0.0000 </r>
      </set>
      <set comment="kpoint 37">
       <r>   -7.0752    1.0000 </r>
       <r>   -4.7293    1.0000 </r>
       <r>    0.2921    0.0000 </r>
       <r>    2.2420    0.0000 </r>
       <r>    2.6700    0.0000 </r>
       <r>    6.5363    0.0000 </r>
      </set>
      <set comment="kpoint 38">
       <r>   -6.4115    1.0000 </r>
       <r>   -4.9714    1.0000 </r>
       <r>    0.3462    0.0000 </r>
       <r>    1.9468    0.0000 </r>
       <r>    3.2695    0.0000 </r>
       <r>    5.5429    0.0000 </r>
      </set>
      <set comment="kpoint 39">
       <r>  -11.8921    1.0000 </r>
       <r>   -7.6924    1.0000 </r>
       <r>   -4.4704    1.0000 </r>
       <r>    1.2777    0.0000 </r>
       <r>    2.3354    0.0000 </r>
       <r>    2.6732    0.0000 </r>
      </set>
      <set comment="kpoint 40">
       <r>  -11.4624    1.0000 </r>
       <r>   -7.3002    1.0000 </r>
       <r>   -3.9141    0.0235 </r>
       <r>    1.7392    0.0000 </r>
       <r>    2.9090    0.0000 </r>
       <r>    3.2530    0.0000 </r>
      </set>
      <set comment="kpoint 41">
       <r>  -10.9488    1.0000 </r>
       <r>   -6.8407    1.0000 </r>
       <r>   -3.2492    0.0000 </r>
       <r>    2.2603    0.0000 </r>
       <r>    3.5921    0.0000 </r>
       <r>    3.9634    0.0000 </r>
      </set>
      <set comment="kpoint 42">
       <r>  -10.3533    1.0000 </r>
       <r>   -6.3244    1.0000 </r>
       <r>   -2.4788    0.0000 </r>
       <r>    2.7710    0.0000 </r>
       <r>    4.3631    0.0000 </r>
       <r>    4.7861    0.0000 </r>
      </set>
      <set comment="kpoint 43">
       <r>   -9.6795    1.0000 </r>
       <r>   -5.7710    1.0000 </r>
       <r>   -1.6099    0.0000 </r>
       <r>    2.9665    0.0000 </r>
       <r>    4.7930    0.0000 </r>
       <r>    5.4459    0.0000 </r>
      </set>
      <set comment="kpoint 44">
       <r>   -8.9341    1.0000 </r>
       <r>   -5.2193    1.0000 </r>
       <r>   -0.6631    0.0000 </r>
       <r>    2.3477    0.0000 </r>
       <r>    4.7806    0.0000 </r>
       <r>    5.9332    0.0000 </r>
      </set>
      <set comment="kpoint 45">
       <r>   -8.1302    1.0000 </r>
       <r>   -4.7497    1.0000 </r>
       <r>    0.2373    0.0000 </r>
       <r>    1.5837    0.0000 </r>
       <r>    4.1141    0.0000 </r>
       <r>    6.0137    0.0000 </r>
      </set>
      <set comment="kpoint 46">
       <r>   -7.2959    1.0000 </r>
       <r>   -4.5100    1.0000 </r>
       <r>    0.3832    0.0000 </r>
       <r>    1.9143    0.0000 </r>
       <r>    3.0531    0.0000 </r>
       <r>    6.4953    0.0000 </r>
      </set>
      <set comment="kpoint 47">
       <r>   -6.5084    1.0000 </r>
       <r>   -4.6312    1.0000 </r>
       <r>    0.3034    0.0000 </r>
       <r>    2.1132    0.0000 </r>
       <r>    2.9803    0.0000 </r>
       <r>    6.1640    0.0000 </r>
      </set>
      <set comment="kpoint 48">
       <r>   -6.0807    1.0000 </r>
       <r>   -4.8505    1.0000 </r>
       <r>    0.4062    0.0000 </r>
       <r>    1.6665    0.0000 </r>
       <r>    3.6817    0.0000 </r>
       <r>    5.4833    0.0000 </r>
      </set>
      <set comment="kpoint 49">
       <r>  -10.9906    1.0000 </r>
       <r>   -6.8755    1.0000 </r>
       <r>   -3.3042    0.0000 </r>
       <r>    2.2317    0.0000 </r>
       <r>    3.5367    0.0000 </r>
       <r>    3.9306    0.0000 </r>
      </set>
      <set comment="kpoint 50">
       <r>  -10.4351    1.0000 </r>
       <r>   -6.3866    1.0000 </r>
       <r>   -2.5874    0.0000 </r>
       <r>    2.7703    0.0000 </r>
       <r>    4.2658    0.0000 </r>
       <r>    4.6947    0.0000 </r>
      </set>
      <set comment="kpoint 51">
       <r>   -9.7983    1.0000 </r>
       <r>   -5.8463    1.0000 </r>
       <r>   -1.7686    0.0000 </r>
       <r>    3.2273    0.0000 </r>
       <r>    4.8962    0.0000 </r>
       <r>    5.3853    0.0000 </r>
      </set>
      <set comment="kpoint 52">
       <r>   -9.0846    1.0000 </r>
       <r>   -5.2789    1.0000 </r>
       <r>   -0.8606    0.0000 </r>
       <r>    2.9569    0.0000 </r>
       <r>    4.7406    0.0000 </r>
       <r>    5.7787    0.0000 </r>
      </set>
      <set comment="kpoint 53">
       <r>   -8.3022    1.0000 </r>
       <r>   -4.7364    1.0000 </r>
       <r>    0.0796    0.0000 </r>
       <r>    2.0102    0.0000 </r>
       <r>    4.5221    0.0000 </r>
       <r>    5.2710    0.0000 </r>
      </set>
      <set comment="kpoint 54">
       <r>   -7.4686    1.0000 </r>
       <r>   -4.3304    1.0000 </r>
       <r>    0.5344    0.0000 </r>
       <r>    1.7400    0.0000 </r>
       <r>    3.3719    0.0000 </r>
       <r>    5.8173    0.0000 </r>
      </set>
      <set comment="kpoint 55">
       <r>   -6.6262    1.0000 </r>
       <r>   -4.2443    0.9964 </r>
       <r>    0.2801    0.0000 </r>
       <r>    2.2915    0.0000 </r>
       <r>    2.7082    0.0000 </r>
       <r>    6.1947    0.0000 </r>
      </set>
      <set comment="kpoint 56">
       <r>   -5.9220    1.0000 </r>
       <r>   -4.5027    1.0000 </r>
       <r>    0.3665    0.0000 </r>
       <r>    1.4956    0.0000 </r>
       <r>    3.7231    0.0000 </r>
       <r>    5.9002    0.0000 </r>
      </set>
      <set comment="kpoint 57">
       <r>   -9.8379    1.0000 </r>
       <r>   -5.8716    1.0000 </r>
       <r>   -1.8218    0.0000 </r>
       <r>    3.3138    0.0000 </r>
       <r>    4.9328    0.0000 </r>
       <r>    5.4955    0.0000 </r>
      </set>
      <set comment="kpoint 58">
       <r>   -9.1598    1.0000 </r>
       <r>   -5.3100    1.0000 </r>
       <r>   -0.9611    0.0000 </r>
       <r>    3.5921    0.0000 </r>
       <r>    4.3263    0.0000 </r>
       <r>    5.7315    0.0000 </r>
      </set>
      <set comment="kpoint 59">
       <r>   -8.4058    1.0000 </r>
       <r>   -4.7322    1.0000 </r>
       <r>   -0.0383    0.0000 </r>
       <r>    2.5839    0.0000 </r>
       <r>    4.3237    0.0000 </r>
       <r>    5.0083    0.0000 </r>
      </set>
      <set comment="kpoint 60">
       <r>   -7.5863    1.0000 </r>
       <r>   -4.2075    0.9847 </r>
       <r>    0.6583    0.0000 </r>
       <r>    1.7985    0.0000 </r>
       <r>    3.4339    0.0000 </r>
       <r>    5.3278    0.0000 </r>
      </set>
      <set comment="kpoint 61">
       <r>   -6.7251    1.0000 </r>
       <r>   -3.8931    0.0112 </r>
       <r>    0.3107    0.0000 </r>
       <r>    2.3314    0.0000 </r>
       <r>    2.5435    0.0000 </r>
       <r>    5.7056    0.0000 </r>
      </set>
      <set comment="kpoint 62">
       <r>   -5.8913    1.0000 </r>
       <r>   -3.9920    0.1885 </r>
       <r>    0.1608    0.0000 </r>
       <r>    1.4340    0.0000 </r>
       <r>    3.5821    0.0000 </r>
       <r>    5.9094    0.0000 </r>
      </set>
      <set comment="kpoint 63">
       <r>   -5.4133    1.0000 </r>
       <r>   -4.2500    0.9971 </r>
       <r>    0.4363    0.0000 </r>
       <r>    0.8049    0.0000 </r>
       <r>    4.2866    0.0000 </r>
       <r>    5.8487    0.0000 </r>
      </set>
      <set comment="kpoint 64">
       <r>   -8.4404    1.0000 </r>
       <r>   -4.7314    1.0000 </r>
       <r>   -0.0802    0.0000 </r>
       <r>    3.0101    0.0000 </r>
       <r>    3.8528    0.0000 </r>
       <r>    5.1056    0.0000 </r>
      </set>
      <set comment="kpoint 65">
       <r>   -7.6458    1.0000 </r>
       <r>   -4.1462    0.9027 </r>
       <r>    0.6998    0.0000 </r>
       <r>    2.0315    0.0000 </r>
       <r>    3.1990    0.0000 </r>
       <r>    5.2114    0.0000 </r>
      </set>
      <set comment="kpoint 66">
       <r>   -6.7888    1.0000 </r>
       <r>   -3.6471    0.0000 </r>
       <r>    0.3841    0.0000 </r>
       <r>    2.2610    0.0000 </r>
       <r>    2.4281    0.0000 </r>
       <r>    5.4853    0.0000 </r>
      </set>
      <set comment="kpoint 67">
       <r>   -5.9026    1.0000 </r>
       <r>   -3.4609    0.0000 </r>
       <r>   -0.1588    0.0000 </r>
       <r>    1.4148    0.0000 </r>
       <r>    3.4439    0.0000 </r>
       <r>    5.6772    0.0000 </r>
      </set>
      <set comment="kpoint 68">
       <r>   -5.1204    1.0000 </r>
       <r>   -3.7458    0.0000 </r>
       <r>   -0.0826    0.0000 </r>
       <r>    0.6214    0.0000 </r>
       <r>    4.4757    0.0000 </r>
       <r>    5.7528    0.0000 </r>
      </set>
      <set comment="kpoint 69">
       <r>   -6.8106    1.0000 </r>
       <r>   -3.5585    0.0000 </r>
       <r>    0.4276    0.0000 </r>
       <r>    2.2360    0.0000 </r>
       <r>    2.3498    0.0000 </r>
       <r>    5.4541    0.0000 </r>
      </set>
      <set comment="kpoint 70">
       <r>   -5.9152    1.0000 </r>
       <r>   -3.0863    0.0000 </r>
       <r>   -0.4303    0.0000 </r>
       <r>    1.4022    0.0000 </r>
       <r>    3.3672    0.0000 </r>
       <r>    5.6344    0.0000 </r>
      </set>
      <set comment="kpoint 71">
       <r>   -5.0089    1.0000 </r>
       <r>   -3.0709    0.0000 </r>
       <r>   -0.8885    0.0000 </r>
       <r>    0.6902    0.0000 </r>
       <r>    4.4736    0.0000 </r>
       <r>    5.7350    0.0000 </r>
      </set>
      <set comment="kpoint 72">
       <r>   -4.4262    1.0000 </r>
       <r>   -3.4164    0.0000 </r>
       <r>   -0.8589    0.0000 </r>
       <r>    0.3350    0.0000 </r>
       <r>    5.1839    0.0000 </r>
       <r>    5.7585    0.0000 </r>
      </set>
      <set comment="kpoint 73">
       <r>   -4.9815    1.0000 </r>
       <r>   -2.6261    0.0000 </r>
       <r>   -1.3741    0.0000 </r>
       <r>    0.7180    0.0000 </r>
       <r>    4.4591    0.0000 </r>
       <r>    5.7746    0.0000 </r>
      </set>
      <set comment="kpoint 74">
       <r>   -4.0704    0.5891 </r>
       <r>   -2.7812    0.0000 </r>
       <r>   -1.8283    0.0000 </r>
       <r>    0.2919    0.0000 </r>
       <r>    5.4784    0.0000 </r>
       <r>    5.8885    0.0000 </r>
      </set>
      <set comment="kpoint 75">
       <r>   -3.3791    0.0000 </r>
       <r>   -2.6047    0.0000 </r>
       <r>   -2.6047    0.0000 </r>
       <r>    0.1635    0.0000 </r>
       <r>    6.0768    0.0000 </r>
       <r>    6.0768    0.0000 </r>
      </set>
     </set>
    </set>
   </array>
  </eigenvalues>
  <separator name="orbital magnetization" >
   <v name="MAGDIPOLOUT">      0.00000000      0.00000000      0.00000000</v>
  </separator>
  <dos>
   <i name="efermi">     -4.05450842 </i>
   <total>
    <array>
     <dimension dim="1">gridpoints</dimension>
     <dimension dim="2">spin</dimension>
     <field>energy</field>
     <field>total</field>
     <field>integrated</field>
     <set>
      <set comment="spin 1">
       <r>   -14.0570     0.0000     0.0000 </r>
       <r>   -13.9839     0.0000     0.0000 </r>
       <r>   -13.9109     0.0000     0.0000 </r>
       <r>   -13.8379     0.0000     0.0000 </r>
       <r>   -13.7648     0.0000     0.0000 </r>
       <r>   -13.6918     0.0000     0.0000 </r>
       <r>   -13.6188     0.0000     0.0000 </r>
       <r>   -13.5458     0.0000     0.0000 </r>
       <r>   -13.4727     0.0000     0.0000 </r>
       <r>   -13.3997     0.0000     0.0000 </r>
       <r>   -13.3267     0.0000     0.0000 </r>
       <r>   -13.2536     0.0002     0.0000 </r>
       <r>   -13.1806     0.0034     0.0003 </r>
       <r>   -13.1076     0.0275     0.0023 </r>
       <r>   -13.0346     0.0973     0.0094 </r>
       <r>   -12.9615     0.1817     0.0226 </r>
       <r>   -12.8885     0.2238     0.0390 </r>
       <r>   -12.8155     0.2205     0.0551 </r>
       <r>   -12.7424     0.2423     0.0728 </r>
       <r>   -12.6694     0.2370     0.0901 </r>
       <r>   -12.5964     0.1965     0.1045 </r>
       <r>   -12.5233     0.2455     0.1224 </r>
       <r>   -12.4503     0.2748     0.1425 </r>
       <r>   -12.3773     0.2008     0.1571 </r>
       <r>   -12.3043     0.1784     0.1702 </r>
       <r>   -12.2312     0.2517     0.1885 </r>
       <r>   -12.1582     0.3077     0.2110 </r>
       <r>   -12.0852     0.2327     0.2280 </r>
       <r>   -12.0121     0.1464     0.2387 </r>
       <r>   -11.9391     0.1884     0.2524 </r>
       <r>   -11.8661     0.2867     0.2734 </r>
       <r>   -11.7931     0.3059     0.2957 </r>
       <r>   -11.7200     0.2572     0.3145 </r>
       <r>   -11.6470     0.1792     0.3276 </r>
       <r>   -11.5740     0.1176     0.3362 </r>
       <r>   -11.5009     0.2133     0.3518 </r>
       <r>   -11.4279     0.3430     0.3768 </r>
       <r>   -11.3549     0.3209     0.4002 </r>
       <r>   -11.2818     0.2172     0.4161 </r>
       <r>   -11.2088     0.1953     0.4304 </r>
       <r>   -11.1358     0.1689     0.4427 </r>
       <r>   -11.0628     0.1254     0.4519 </r>
       <r>   -10.9897     0.2495     0.4701 </r>
       <r>   -10.9167     0.3831     0.4981 </r>
       <r>   -10.8437     0.3315     0.5223 </r>
       <r>   -10.7706     0.2240     0.5386 </r>
       <r>   -10.6976     0.1372     0.5486 </r>
       <r>   -10.6246     0.1632     0.5606 </r>
       <r>   -10.5516     0.1900     0.5744 </r>
       <r>   -10.4785     0.1901     0.5883 </r>
       <r>   -10.4055     0.2990     0.6102 </r>
       <r>   -10.3325     0.3751     0.6376 </r>
       <r>   -10.2594     0.3087     0.6601 </r>
       <r>   -10.1864     0.2377     0.6775 </r>
       <r>   -10.1134     0.1676     0.6897 </r>
       <r>   -10.0403     0.0916     0.6964 </r>
       <r>    -9.9673     0.1459     0.7070 </r>
       <r>    -9.8943     0.2520     0.7254 </r>
       <r>    -9.8213     0.3150     0.7485 </r>
       <r>    -9.7482     0.3319     0.7727 </r>
       <r>    -9.6752     0.3123     0.7955 </r>
       <r>    -9.6022     0.2750     0.8156 </r>
       <r>    -9.5291     0.2194     0.8316 </r>
       <r>    -9.4561     0.2056     0.8466 </r>
       <r>    -9.3831     0.1313     0.8562 </r>
       <r>    -9.3101     0.0685     0.8612 </r>
       <r>    -9.2370     0.1779     0.8742 </r>
       <r>    -9.1640     0.3827     0.9021 </r>
       <r>    -9.0910     0.4225     0.9330 </r>
       <r>    -9.0179     0.3001     0.9549 </r>
       <r>    -8.9449     0.2411     0.9725 </r>
       <r>    -8.8719     0.2558     0.9912 </r>
       <r>    -8.7988     0.2602     1.0102 </r>
       <r>    -8.7258     0.3429     1.0352 </r>
       <r>    -8.6528     0.4025     1.0646 </r>
       <r>    -8.5798     0.3290     1.0887 </r>
       <r>    -8.5067     0.3599     1.1149 </r>
       <r>    -8.4337     0.5996     1.1587 </r>
       <r>    -8.3607     0.7247     1.2117 </r>
       <r>    -8.2876     0.6408     1.2585 </r>
       <r>    -8.2146     0.5163     1.2962 </r>
       <r>    -8.1416     0.4254     1.3272 </r>
       <r>    -8.0686     0.4328     1.3588 </r>
       <r>    -7.9955     0.4712     1.3932 </r>
       <r>    -7.9225     0.4965     1.4295 </r>
       <r>    -7.8495     0.4125     1.4596 </r>
       <r>    -7.7764     0.2913     1.4809 </r>
       <r>    -7.7034     0.3957     1.5098 </r>
       <r>    -7.6304     0.7049     1.5613 </r>
       <r>    -7.5573     0.8385     1.6225 </r>
       <r>    -7.4843     0.6427     1.6694 </r>
       <r>    -7.4113     0.4069     1.6991 </r>
       <r>    -7.3383     0.4259     1.7302 </r>
       <r>    -7.2652     0.6063     1.7745 </r>
       <r>    -7.1922     0.5644     1.8157 </r>
       <r>    -7.1192     0.4284     1.8470 </r>
       <r>    -7.0461     0.4036     1.8765 </r>
       <r>    -6.9731     0.2921     1.8978 </r>
       <r>    -6.9001     0.3544     1.9237 </r>
       <r>    -6.8271     0.7510     1.9786 </r>
       <r>    -6.7540     0.9467     2.0477 </r>
       <r>    -6.6810     0.7546     2.1028 </r>
       <r>    -6.6080     0.5930     2.1461 </r>
       <r>    -6.5349     0.5983     2.1898 </r>
       <r>    -6.4619     0.6006     2.2337 </r>
       <r>    -6.3889     0.6647     2.2822 </r>
       <r>    -6.3158     0.6428     2.3291 </r>
       <r>    -6.2428     0.4414     2.3614 </r>
       <r>    -6.1698     0.2946     2.3829 </r>
       <r>    -6.0968     0.2589     2.4018 </r>
       <r>    -6.0237     0.3836     2.4298 </r>
       <r>    -5.9507     0.7475     2.4844 </r>
       <r>    -5.8777     1.1499     2.5684 </r>
       <r>    -5.8046     1.1000     2.6487 </r>
       <r>    -5.7316     0.7533     2.7037 </r>
       <r>    -5.6586     0.4935     2.7398 </r>
       <r>    -5.5856     0.4259     2.7709 </r>
       <r>    -5.5125     0.4210     2.8016 </r>
       <r>    -5.4395     0.4273     2.8328 </r>
       <r>    -5.3665     0.4669     2.8669 </r>
       <r>    -5.2934     0.7235     2.9198 </r>
       <r>    -5.2204     0.9547     2.9895 </r>
       <r>    -5.1474     0.9562     3.0593 </r>
       <r>    -5.0743     0.9601     3.1294 </r>
       <r>    -5.0013     1.0405     3.2054 </r>
       <r>    -4.9283     1.1335     3.2882 </r>
       <r>    -4.8553     1.1126     3.3694 </r>
       <r>    -4.7822     1.2490     3.4607 </r>
       <r>    -4.7092     1.3047     3.5559 </r>
       <r>    -4.6362     0.9025     3.6218 </r>
       <r>    -4.5631     0.6030     3.6659 </r>
       <r>    -4.4901     0.6537     3.7136 </r>
       <r>    -4.4171     0.6838     3.7636 </r>
       <r>    -4.3441     0.6022     3.8075 </r>
       <r>    -4.2710     0.6793     3.8572 </r>
       <r>    -4.1980     0.7971     3.9154 </r>
       <r>    -4.1250     0.6621     3.9637 </r>
       <r>    -4.0519     0.5145     4.0013 </r>
       <r>    -3.9789     0.5416     4.0408 </r>
       <r>    -3.9059     0.6115     4.0855 </r>
       <r>    -3.8328     0.5664     4.1269 </r>
       <r>    -3.7598     0.4802     4.1619 </r>
       <r>    -3.6868     0.4289     4.1933 </r>
       <r>    -3.6138     0.4411     4.2255 </r>
       <r>    -3.5407     0.4528     4.2585 </r>
       <r>    -3.4677     0.4020     4.2879 </r>
       <r>    -3.3947     0.3521     4.3136 </r>
       <r>    -3.3216     0.3247     4.3373 </r>
       <r>    -3.2486     0.3775     4.3649 </r>
       <r>    -3.1756     0.3902     4.3934 </r>
       <r>    -3.1026     0.4838     4.4287 </r>
       <r>    -3.0295     0.5342     4.4677 </r>
       <r>    -2.9565     0.2768     4.4879 </r>
       <r>    -2.8835     0.1403     4.4982 </r>
       <r>    -2.8104     0.2821     4.5188 </r>
       <r>    -2.7374     0.3583     4.5450 </r>
       <r>    -2.6644     0.2934     4.5664 </r>
       <r>    -2.5913     0.3528     4.5922 </r>
       <r>    -2.5183     0.3915     4.6207 </r>
       <r>    -2.4453     0.3399     4.6456 </r>
       <r>    -2.3723     0.2367     4.6629 </r>
       <r>    -2.2992     0.1772     4.6758 </r>
       <r>    -2.2262     0.1876     4.6895 </r>
       <r>    -2.1532     0.1110     4.6976 </r>
       <r>    -2.0801     0.0353     4.7002 </r>
       <r>    -2.0071     0.0708     4.7053 </r>
       <r>    -1.9341     0.2057     4.7204 </r>
       <r>    -1.8611     0.3583     4.7465 </r>
       <r>    -1.7880     0.4564     4.7799 </r>
       <r>    -1.7150     0.3691     4.8068 </r>
       <r>    -1.6420     0.2435     4.8246 </r>
       <r>    -1.5689     0.2365     4.8419 </r>
       <r>    -1.4959     0.2058     4.8569 </r>
       <r>    -1.4229     0.1938     4.8711 </r>
       <r>    -1.3498     0.2655     4.8904 </r>
       <r>    -1.2768     0.2259     4.9069 </r>
       <r>    -1.2038     0.0802     4.9128 </r>
       <r>    -1.1308     0.0232     4.9145 </r>
       <r>    -1.0577     0.1015     4.9219 </r>
       <r>    -0.9847     0.3463     4.9472 </r>
       <r>    -0.9117     0.5908     4.9903 </r>
       <r>    -0.8386     0.5873     5.0332 </r>
       <r>    -0.7656     0.3419     5.0582 </r>
       <r>    -0.6926     0.1968     5.0726 </r>
       <r>    -0.6196     0.2104     5.0879 </r>
       <r>    -0.5465     0.1975     5.1024 </r>
       <r>    -0.4735     0.2404     5.1199 </r>
       <r>    -0.4005     0.3454     5.1451 </r>
       <r>    -0.3274     0.3023     5.1672 </r>
       <r>    -0.2544     0.1589     5.1788 </r>
       <r>    -0.1814     0.2180     5.1947 </r>
       <r>    -0.1083     0.5071     5.2318 </r>
       <r>    -0.0353     0.7611     5.2874 </r>
       <r>     0.0377     0.7191     5.3399 </r>
       <r>     0.1107     0.6481     5.3872 </r>
       <r>     0.1838     0.8840     5.4518 </r>
       <r>     0.2568     1.6652     5.5734 </r>
       <r>     0.3298     2.6186     5.7646 </r>
       <r>     0.4029     2.4231     5.9416 </r>
       <r>     0.4759     1.3507     6.0402 </r>
       <r>     0.5489     0.7603     6.0957 </r>
       <r>     0.6219     0.8514     6.1579 </r>
       <r>     0.6950     0.9977     6.2308 </r>
       <r>     0.7680     0.8235     6.2909 </r>
       <r>     0.8410     0.5571     6.3316 </r>
       <r>     0.9141     0.4844     6.3670 </r>
       <r>     0.9871     0.4985     6.4034 </r>
       <r>     1.0601     0.4219     6.4342 </r>
       <r>     1.1332     0.3795     6.4619 </r>
       <r>     1.2062     0.5104     6.4992 </r>
       <r>     1.2792     0.6933     6.5498 </r>
       <r>     1.3522     0.9739     6.6209 </r>
       <r>     1.4253     1.4276     6.7252 </r>
       <r>     1.4983     1.6528     6.8459 </r>
       <r>     1.5713     1.2755     6.9390 </r>
       <r>     1.6444     0.9684     7.0098 </r>
       <r>     1.7174     1.0765     7.0884 </r>
       <r>     1.7904     1.3362     7.1860 </r>
       <r>     1.8634     1.4417     7.2912 </r>
       <r>     1.9365     1.3927     7.3930 </r>
       <r>     2.0095     1.3680     7.4929 </r>
       <r>     2.0825     1.2019     7.5806 </r>
       <r>     2.1556     1.1318     7.6633 </r>
       <r>     2.2286     1.5042     7.7731 </r>
       <r>     2.3016     1.9691     7.9169 </r>
       <r>     2.3747     1.8897     8.0549 </r>
       <r>     2.4477     1.3703     8.1550 </r>
       <r>     2.5207     1.1150     8.2364 </r>
       <r>     2.5937     1.2989     8.3313 </r>
       <r>     2.6668     1.5234     8.4426 </r>
       <r>     2.7398     1.5604     8.5565 </r>
       <r>     2.8128     1.2061     8.6446 </r>
       <r>     2.8859     0.9119     8.7112 </r>
       <r>     2.9589     1.0554     8.7883 </r>
       <r>     3.0319     1.1049     8.8690 </r>
       <r>     3.1049     0.8801     8.9332 </r>
       <r>     3.1780     0.9113     8.9998 </r>
       <r>     3.2510     1.1882     9.0866 </r>
       <r>     3.3240     1.2354     9.1768 </r>
       <r>     3.3971     1.1635     9.2617 </r>
       <r>     3.4701     0.9788     9.3332 </r>
       <r>     3.5431     0.9164     9.4001 </r>
       <r>     3.6162     1.1978     9.4876 </r>
       <r>     3.6892     1.1258     9.5698 </r>
       <r>     3.7622     0.7302     9.6232 </r>
       <r>     3.8352     0.4342     9.6549 </r>
       <r>     3.9083     0.3826     9.6828 </r>
       <r>     3.9813     0.5350     9.7219 </r>
       <r>     4.0543     0.6456     9.7690 </r>
       <r>     4.1274     0.6725     9.8181 </r>
       <r>     4.2004     0.5977     9.8618 </r>
       <r>     4.2734     0.6509     9.9093 </r>
       <r>     4.3464     0.9311     9.9773 </r>
       <r>     4.4195     1.1479    10.0612 </r>
       <r>     4.4925     1.2963    10.1558 </r>
       <r>     4.5655     1.1706    10.2413 </r>
       <r>     4.6386     0.9790    10.3128 </r>
       <r>     4.7116     1.0976    10.3930 </r>
       <r>     4.7846     1.1958    10.4803 </r>
       <r>     4.8577     0.9580    10.5503 </r>
       <r>     4.9307     0.6867    10.6004 </r>
       <r>     5.0037     0.5801    10.6428 </r>
       <r>     5.0767     0.4621    10.6765 </r>
       <r>     5.1498     0.5171    10.7143 </r>
       <r>     5.2228     0.6991    10.7653 </r>
       <r>     5.2958     0.7110    10.8173 </r>
       <r>     5.3689     0.7351    10.8710 </r>
       <r>     5.4419     0.9840    10.9428 </r>
       <r>     5.5149     1.1517    11.0269 </r>
       <r>     5.5879     0.9595    11.0970 </r>
       <r>     5.6610     0.9941    11.1696 </r>
       <r>     5.7340     1.4221    11.2735 </r>
       <r>     5.8070     1.5155    11.3841 </r>
       <r>     5.8801     1.3222    11.4807 </r>
       <r>     5.9531     1.2002    11.5683 </r>
       <r>     6.0261     0.9206    11.6356 </r>
       <r>     6.0992     0.6395    11.6823 </r>
       <r>     6.1722     0.5874    11.7252 </r>
       <r>     6.2452     0.5540    11.7656 </r>
       <r>     6.3182     0.3277    11.7896 </r>
       <r>     6.3913     0.2070    11.8047 </r>
       <r>     6.4643     0.3543    11.8306 </r>
       <r>     6.5373     0.6059    11.8748 </r>
       <r>     6.6104     0.5749    11.9168 </r>
       <r>     6.6834     0.3333    11.9411 </r>
       <r>     6.7564     0.1759    11.9540 </r>
       <r>     6.8294     0.2233    11.9703 </r>
       <r>     6.9025     0.2590    11.9892 </r>
       <r>     6.9755     0.1240    11.9982 </r>
       <r>     7.0485     0.0225    11.9999 </r>
       <r>     7.1216     0.0015    12.0000 </r>
       <r>     7.1946     0.0000    12.0000 </r>
       <r>     7.2676     0.0000    12.0000 </r>
       <r>     7.3407     0.0000    12.0000 </r>
       <r>     7.4137     0.0000    12.0000 </r>
       <r>     7.4867     0.0000    12.0000 </r>
       <r>     7.5597     0.0000    12.0000 </r>
       <r>     7.6328     0.0000    12.0000 </r>
       <r>     7.7058     0.0000    12.0000 </r>
       <r>     7.7788     0.0000    12.0000 </r>
       <r>     7.8519     0.0000    12.0000 </r>
      </set>
     </set>
    </array>
   </total>
  </dos>
 </calculation>
 <structure name="finalpos" >
  <crystal>
   <varray name="basis" >
    <v>       1.87643720       1.08336152       0.00000000 </v>
    <v>      -1.87643720       1.08336152       0.00000000 </v>
    <v>       0.00000000       0.00000000      40.00000000 </v>
   </varray>
   <i name="volume">    162.62878935 </i>
   <varray name="rec_basis" >
    <v>       0.26646242       0.46152645       0.00000000 </v>
    <v>      -0.26646242       0.46152645       0.00000000 </v>
    <v>       0.00000000       0.00000000       0.02500000 </v>
   </varray>
  </crystal>
  <varray name="positions" >
   <v>       0.33333333       0.66666667       0.12386834 </v>
   <v>       0.66666667       0.33333333       0.07613166 </v>
  </varray>
 </structure>
</modeling>
