 running   24 mpi-ranks, on    1 nodes
 distrk:  each k-point on   24 cores,    1 groups
 distr:  one band on    8 cores,    3 groups
 vasp.6.5.0 16Dec24 (build Jan 08 2025 16:17:04) complex                        
  
 POSCAR found type information on POSCAR Be
 POSCAR found :  1 types and       2 ions
 Reading from existing POTCAR
 scaLAPACK will be used
 Reading from existing POTCAR
 LDA part: xc-table for (Slater+PW92), standard interpolation
 POSCAR, INCAR and KPOINTS ok, starting setup
 FFT: planning ... GRIDC
 FFT: planning ... GRID_SOFT
 FFT: planning ... GRID
 WAVECAR not read
 entering main loop
       N       E                     dE             d eps       ncg     rms          rms(c)
DAV:   1     0.176966054000E+02    0.17697E+02   -0.16964E+03   954   0.522E+02
DAV:   2    -0.683259060859E+01   -0.24529E+02   -0.18081E+02  1368   0.677E+01
DAV:   3    -0.732187295857E+01   -0.48928E+00   -0.48818E+00  1278   0.158E+01
DAV:   4    -0.732364973922E+01   -0.17768E-02   -0.17765E-02  1590   0.986E-01
DAV:   5    -0.732365298803E+01   -0.32488E-05   -0.32485E-05  1404   0.353E-02    0.226E+00
DAV:   6    -0.684768985011E+01    0.47596E+00   -0.76353E-01  1212   0.341E+00    0.122E+00
DAV:   7    -0.668444346547E+01    0.16325E+00   -0.43676E-01  1290   0.280E+00    0.401E-01
DAV:   8    -0.666655271085E+01    0.17891E-01   -0.28150E-02  1284   0.108E+00    0.127E-01
DAV:   9    -0.665800218604E+01    0.85505E-02   -0.17005E-02  1260   0.520E-01    0.989E-02
DAV:  10    -0.665688824258E+01    0.11139E-02   -0.14173E-03  1362   0.201E-01    0.417E-02
DAV:  11    -0.665755411166E+01   -0.66587E-03   -0.69151E-04  1140   0.133E-01    0.266E-02
DAV:  12    -0.665817091777E+01   -0.61681E-03   -0.60644E-04  1074   0.968E-02    0.130E-02
DAV:  13    -0.665856835812E+01   -0.39744E-03   -0.65108E-05  1158   0.411E-02    0.417E-03
DAV:  14    -0.665875523736E+01   -0.18688E-03   -0.23443E-05  1176   0.180E-02    0.442E-03
DAV:  15    -0.665887928466E+01   -0.12405E-03   -0.33318E-05  1212   0.210E-02    0.175E-03
DAV:  16    -0.665890557894E+01   -0.26294E-04   -0.18632E-06  1284   0.607E-03    0.691E-04
DAV:  17    -0.665891926170E+01   -0.13683E-04   -0.13983E-06  1218   0.380E-03    0.318E-04
DAV:  18    -0.665892536381E+01   -0.61021E-05   -0.20748E-07  1110   0.160E-03    0.177E-04
DAV:  19    -0.665892609449E+01   -0.73068E-06   -0.13609E-08  1200   0.523E-04
   1 F= -.70380972E+01 E0= -.70368422E+01  d E =-.250994E-02
 writing wavefunctions
