 running   24 mpi-ranks, on    1 nodes
 distrk:  each k-point on   24 cores,    1 groups
 distr:  one band on    6 cores,    4 groups
 vasp.6.5.0 16Dec24 (build Jan 08 2025 16:17:04) complex                        
  
 POSCAR found type information on POSCAR Be
 POSCAR found :  1 types and       2 ions
 Reading from existing POTCAR
 scaLAPACK will be used
 Reading from existing POTCAR
 LDA part: xc-table for (Slater+PW92), standard interpolation
 -----------------------------------------------------------------------------
|                                                                             |
|           W    W    AA    RRRRR   N    N  II  N    N   GGGG   !!!           |
|           W    W   A  A   R    R  NN   N  II  NN   N  G    G  !!!           |
|           W    W  A    A  R    R  N N  N  II  N N  N  G       !!!           |
|           W WW W  AAAAAA  RRRRR   N  N N  II  N  N N  G  GGG   !            |
|           WW  WW  A    A  R   R   N   NN  II  N   NN  G    G                |
|           W    W  A    A  R    R  N    N  II  N    N   GGGG   !!!           |
|                                                                             |
|     The number of bands has been changed from the values supplied in        |
|     the INCAR file. This is a result of running the parallel version.       |
|     The orbitals not found in the WAVECAR file will be initialized with     |
|     random numbers, which is usually adequate. For correlated               |
|     calculations, however, you should redo the groundstate calculation.     |
|     I found NBANDS = 14. Now, NBANDS = 16.                                  |
|                                                                             |
 -----------------------------------------------------------------------------

 POSCAR, INCAR and KPOINTS ok, starting setup
 FFT: planning ... GRIDC
 FFT: planning ... GRID_SOFT
 FFT: planning ... GRID
 WAVECAR not read
 entering main loop
       N       E                     dE             d eps       ncg     rms          rms(c)
DAV:   1     0.104781956712E+02    0.10478E+02   -0.14146E+03 62272   0.171E+02
DAV:   2    -0.650115292015E+01   -0.16979E+02   -0.15693E+02 89248   0.400E+01
DAV:   3    -0.694519621583E+01   -0.44404E+00   -0.44095E+00 92400   0.600E+00
DAV:   4    -0.694962284770E+01   -0.44266E-02   -0.44262E-02 76336   0.713E-01
DAV:   5    -0.694975070588E+01   -0.12786E-03   -0.12786E-03 93992   0.947E-02    0.346E+00
DAV:   6    -0.571724057903E+01    0.12325E+01   -0.17873E+00 75728   0.286E+00    0.175E+00
DAV:   7    -0.605116979524E+01   -0.33393E+00   -0.72154E-01 81344   0.176E+00    0.955E-01
DAV:   8    -0.612481723830E+01   -0.73647E-01   -0.68642E-02 86712   0.900E-01    0.612E-01
DAV:   9    -0.629560054271E+01   -0.17078E+00   -0.62617E-02 84192   0.645E-01    0.410E-01
DAV:  10    -0.643056453087E+01   -0.13496E+00   -0.68879E-02 77080   0.634E-01    0.304E-01
DAV:  11    -0.652026920082E+01   -0.89705E-01   -0.41650E-02 80904   0.438E-01    0.218E-01
DAV:  12    -0.656812102892E+01   -0.47852E-01   -0.39695E-02 65896   0.369E-01    0.128E-01
DAV:  13    -0.658789452468E+01   -0.19773E-01   -0.57814E-03 77512   0.163E-01    0.868E-02
DAV:  14    -0.662196072283E+01   -0.34066E-01   -0.45245E-03 74872   0.118E-01    0.489E-02
DAV:  15    -0.664218494416E+01   -0.20224E-01   -0.70400E-04 73688   0.655E-02    0.297E-02
DAV:  16    -0.665056624686E+01   -0.83813E-02   -0.18946E-04 83160   0.411E-02    0.210E-02
DAV:  17    -0.665550523433E+01   -0.49390E-02   -0.23876E-04 90392   0.314E-02    0.122E-02
DAV:  18    -0.665725881742E+01   -0.17536E-02   -0.71330E-05 89104   0.148E-02    0.722E-03
DAV:  19    -0.665837505255E+01   -0.11162E-02   -0.12485E-05 84888   0.121E-02    0.466E-03
DAV:  20    -0.665953378362E+01   -0.11587E-02   -0.12661E-05 77808   0.132E-02    0.232E-03
DAV:  21    -0.665980774511E+01   -0.27396E-03   -0.46929E-06 77080   0.101E-02    0.131E-03
DAV:  22    -0.665986996843E+01   -0.62223E-04   -0.85183E-07 63472   0.457E-03    0.793E-04
DAV:  23    -0.665989128510E+01   -0.21317E-04   -0.52334E-07 67240   0.247E-03    0.399E-04
DAV:  24    -0.665989764038E+01   -0.63553E-05   -0.18353E-07 66416   0.172E-03    0.242E-04
DAV:  25    -0.665990233863E+01   -0.46983E-05   -0.69294E-08 66936   0.112E-03    0.143E-04
DAV:  26    -0.665990502098E+01   -0.26824E-05   -0.35373E-08 72280   0.561E-04    0.709E-05
DAV:  27    -0.665990503362E+01   -0.12643E-07   -0.27134E-09 73496   0.189E-04
   1 F= -.66599050E+01 E0= -.66598880E+01  d E =-.340868E-04  mag=     0.0000
