 running   42 mpi-ranks, on    1 nodes
 distrk:  each k-point on   42 cores,    1 groups
 distr:  one band on    1 cores,   42 groups
 vasp.6.5.0 16Dec24 (build Jan 08 2025 16:17:04) complex                        
  
 POSCAR found type information on POSCAR Be
 POSCAR found :  1 types and       2 ions
 Reading from existing POTCAR
 scaLAPACK will be used
 -----------------------------------------------------------------------------
|                                                                             |
|           W    W    AA    RRRRR   N    N  II  N    N   GGGG   !!!           |
|           W    W   A  A   R    R  NN   N  II  NN   N  G    G  !!!           |
|           W    W  A    A  R    R  N N  N  II  N N  N  G       !!!           |
|           W WW W  AAAAAA  RRRRR   N  N N  II  N  N N  G  GGG   !            |
|           WW  WW  A    A  R   R   N   NN  II  N   NN  G    G                |
|           W    W  A    A  R    R  N    N  II  N    N   GGGG   !!!           |
|                                                                             |
|     For optimal performance we recommend to set                             |
|       NCORE = 2 up to number-of-cores-per-socket                            |
|     NCORE specifies how many cores store one orbital (NPAR=cpu/NCORE).      |
|     This setting can greatly improve the performance of VASP for DFT.       |
|     The default, NCORE=1 might be grossly inefficient on modern             |
|     multi-core architectures or massively parallel machines. Do your        |
|     own testing! More info at https://www.vasp.at/wiki/index.php/NCORE      |
|     Unfortunately you need to use the default for GW and RPA                |
|     calculations (for HF NCORE is supported but not extensively tested      |
|     yet).                                                                   |
|                                                                             |
 -----------------------------------------------------------------------------

 Reading from existing POTCAR
 LDA part: xc-table for (Slater+PW92), standard interpolation
 POSCAR, INCAR and KPOINTS ok, starting setup
 FFT: planning ... GRIDC
 FFT: planning ... GRID_SOFT
 FFT: planning ... GRID
 WAVECAR not read
 entering main loop
       N       E                     dE             d eps       ncg     rms          ort
DAV:   1    -0.691053406768E+01   -0.69105E+01   -0.34562E+03 44100   0.129E+02
DAV:   2    -0.759745669698E+01   -0.68692E+00   -0.68490E+00 44100   0.522E+00
DAV:   3    -0.759749845208E+01   -0.41755E-04   -0.41756E-04 44100   0.464E-02
DAV:   4    -0.759749845267E+01   -0.59617E-09   -0.52374E-09 44100   0.153E-04
DAV:   5    -0.759749845303E+01   -0.36374E-09   -0.11090E-13 44100   0.250E-08
 gam= 0.000 g(H,U,f)=  0.203E-02 0.163E-02 0.529E-05 ort(H,U,f) = 0.000E+00 0.000E+00 0.000E+00
SDA:   6    -0.753124024608E+01    0.66258E-01   -0.11090E-13 44100   0.366E-02 0.000E+00
 gam= 0.000 trial= 0.400  step= 0.988 mean= 0.400
 gam= 0.268 g(H,U,f)=  0.469E-03 0.510E-03 0.148E-05 ort(H,U,f) =-0.981E-03 0.908E-03 0.263E-05
CGA:   7    -0.753302604072E+01   -0.17858E-02   -0.18088E-02 44100   0.981E-03-0.700E-04
 gam= 0.268 trial= 0.429  step= 1.564 mean= 0.429
 gam= 0.016 g(H,U,f)=  0.144E-04 0.858E-06 0.232E-09 ort(H,U,f) = 0.276E-05 0.238E-04-0.966E-08
CGA:   8    -0.753379356820E+01   -0.76753E-03   -0.75212E-03 44100   0.152E-04 0.265E-04
 gam= 0.016 trial= 0.486  step= 0.827 mean= 0.486
 gam= 0.081 g(H,U,f)=  0.983E-06 0.257E-06 0.238E-09 ort(H,U,f) = 0.130E-05 0.621E-06-0.125E-09
CGA:   9    -0.753380036830E+01   -0.68001E-05   -0.64720E-05 44100   0.124E-05 0.192E-05
 gam= 0.081 trial= 0.503  step= 1.466 mean= 0.503
 gam= 0.272 g(H,U,f)=  0.316E-06 0.213E-07 0.404E-10 ort(H,U,f) =-0.625E-06 0.852E-07 0.899E-10
CGA:  10    -0.753380113353E+01   -0.76523E-06   -0.10243E-05 44100   0.337E-06-0.540E-06
 gam= 0.272 trial= 0.551  step= 4.545 mean= 0.551
 gam= 0.272 trial= 3.584  step= 3.584 mean= 0.870
 final diagonalization
   1 F= -.75338011E+01 E0= -.75336894E+01  d E =-.753380E+01
 curvature:   0.00 expect dE= 0.000E+00 dE for cont linesearch  0.000E+00
 trial: gam= 0.00000 g(F)=  0.266E-56 g(S)=  0.436E-03 ort = 0.000E+00 (trialstep = 0.100E+01)
 search vector abs. value=  0.436E-03
 bond charge predicted
 wavefunctions rotated
       N       E                     dE             d eps       ncg     rms          ort
 gam= 0.000 g(H,U,f)=  0.377E-04 0.228E-06 0.526E-08 ort(H,U,f) = 0.000E+00 0.000E+00 0.000E+00
SDA:   1    -0.753403476435E+01   -0.23440E-03    0.00000E+00 44100   0.380E-04 0.000E+00
 gam= 0.000 trial= 1.006  step= 0.941 mean= 1.006
 gam= 0.068 g(H,U,f)=  0.252E-05 0.705E-07 0.167E-08 ort(H,U,f) =-0.243E-05 0.124E-06 0.296E-08
CGA:   2    -0.753405269088E+01   -0.17927E-04   -0.17852E-04 44100   0.259E-05-0.230E-05
 gam= 0.068 trial= 1.002  step= 0.620 mean= 1.002
 gam= 0.064 g(H,U,f)=  0.129E-06 0.364E-07 0.833E-09 ort(H,U,f) = 0.481E-06 0.567E-07 0.132E-08
CGA:   3    -0.753405334139E+01   -0.65051E-06   -0.75382E-06 44100   0.166E-06 0.539E-06
 gam= 0.064 trial= 0.983  step= 0.343 mean= 0.983
 final diagonalization
   2 F= -.75340533E+01 E0= -.75339571E+01  d E =-.252208E-03
 trial-energy change:   -0.000252  1 .order   -0.000251   -0.000436   -0.000066
 step:   1.1781(harm=  1.1781)  dis= 0.00000  next Energy=    -7.534058 (dE=-0.257E-03)
 bond charge predicted
 wavefunctions rotated
       N       E                     dE             d eps       ncg     rms          ort
 gam= 0.000 g(H,U,f)=  0.103E-05 0.553E-08 0.131E-09 ort(H,U,f) = 0.000E+00 0.000E+00 0.000E+00
SDA:   1    -0.753405854343E+01   -0.58525E-05    0.00000E+00 44100   0.104E-05 0.000E+00
 gam= 0.000 trial= 0.951  step= 1.345 mean= 0.951
 gam= 0.272 g(H,U,f)=  0.282E-06 0.845E-09 0.188E-10 ort(H,U,f) =-0.441E-06 0.201E-08 0.497E-10
CGA:   2    -0.753405915693E+01   -0.61349E-06   -0.69957E-06 44100   0.282E-06-0.438E-06
 gam= 0.272 trial= 0.971  step= 0.383 mean= 0.971
 final diagonalization
   3 F= -.75340592E+01 E0= -.75339659E+01  d E =-.258023E-03
 curvature:  -0.59 expect dE=-0.194E-05 dE for cont linesearch -0.140E-08
 ZBRENT: interpolating
 opt :   1.1754  next Energy=    -7.534059 (dE=-0.258E-03)
 bond charge predicted
 wavefunctions rotated
       N       E                     dE             d eps       ncg     rms          ort
 gam= 0.000 g(H,U,f)=  0.150E-06 0.773E-11 0.138E-12 ort(H,U,f) = 0.000E+00 0.000E+00 0.000E+00
SDA:   1    -0.753405916037E+01   -0.61694E-06    0.00000E+00 44100   0.150E-06 0.000E+00
 gam= 0.000 trial= 0.941  step= 0.380 mean= 0.941
 gam= 0.000 g(H,U,f)=  0.428E-07 0.597E-11 0.613E-13 ort(H,U,f) = 0.790E-07 0.475E-11 0.920E-13
CGA:   2    -0.753405916593E+01   -0.55622E-08   -0.28549E-07 44100   0.428E-07 0.790E-07
 gam= 0.000 trial= 0.913  step= 0.312 mean= 0.913
 final diagonalization
   4 F= -.75340592E+01 E0= -.75339659E+01  d E =-.258032E-03
 curvature:  -0.58 expect dE=-0.193E-05 dE for cont linesearch -0.300E-08
 ZBRENT: bisectioning
 opt :   1.0877  next Energy=    -7.534060 (dE=-0.259E-03)
 bond charge predicted
 wavefunctions rotated
       N       E                     dE             d eps       ncg     rms          ort
 gam= 0.000 g(H,U,f)=  0.444E-06 0.177E-08 0.399E-10 ort(H,U,f) = 0.000E+00 0.000E+00 0.000E+00
SDA:   1    -0.753405757557E+01    0.15848E-05    0.00000E+00 44100   0.446E-06 0.000E+00
 gam= 0.000 trial= 0.883  step= 0.575 mean= 0.883
 gam= 0.154 g(H,U,f)=  0.679E-07 0.927E-09 0.213E-10 ort(H,U,f) = 0.160E-06 0.127E-08 0.292E-10
CGA:   2    -0.753405767939E+01   -0.10381E-06   -0.12835E-06 44100   0.689E-07 0.161E-06
 gam= 0.154 trial= 0.868  step= 0.454 mean= 0.868
 final diagonalization
   5 F= -.75340577E+01 E0= -.75339630E+01  d E =-.256546E-03
 curvature: ****** expect dE=-0.804E-03 dE for cont linesearch -0.349E-03
 ZBRENT: interpolating
 opt :   1.1713  next Energy=    -7.534059 (dE=-0.258E-03)
 bond charge predicted
 wavefunctions rotated
       N       E                     dE             d eps       ncg     rms          ort
 gam= 0.000 g(H,U,f)=  0.188E-06 0.174E-08 0.380E-10 ort(H,U,f) = 0.000E+00 0.000E+00 0.000E+00
SDA:   1    -0.753405900200E+01   -0.14264E-05    0.00000E+00 44100   0.190E-06 0.000E+00
 gam= 0.000 trial= 0.847  step=****** mean= 0.847
 BOPT < 0, no correction made
 gam= 0.061 g(H,U,f)=  0.109E-07 0.631E-09 0.145E-10 ort(H,U,f) =-0.579E-08 0.104E-08 0.234E-10
CGA:   2    -0.753405916989E+01   -0.16789E-06    0.95232E-06 44100   0.116E-07-0.473E-08
 gam= 0.061 trial= 0.847  step= 0.170 mean= 0.847
 final diagonalization
   6 F= -.75340592E+01 E0= -.75339658E+01  d E =-.258036E-03
 curvature:  -0.00 expect dE=-0.454E-08 dE for cont linesearch -0.951E-12
 trial: gam= 0.00877 g(F)=  0.200E-55 g(S)=  0.328E-05 ort =-0.547E-06 (trialstep = 0.103E+01)
 search vector abs. value=  0.330E-05
 bond charge predicted
 wavefunctions rotated
       N       E                     dE             d eps       ncg     rms          ort
 gam= 0.000 g(H,U,f)=  0.465E-06 0.130E-08 0.139E-10 ort(H,U,f) = 0.000E+00 0.000E+00 0.000E+00
SDA:   1    -0.753406076513E+01   -0.17631E-05    0.00000E+00 44100   0.467E-06 0.000E+00
 gam= 0.000 trial= 0.813  step= 0.374 mean= 0.813
 gam= 0.239 g(H,U,f)=  0.111E-06 0.830E-09 0.942E-11 ort(H,U,f) = 0.226E-06 0.103E-08 0.114E-10
CGA:   2    -0.753406080336E+01   -0.38235E-07   -0.87338E-07 44100   0.112E-06 0.227E-06
 gam= 0.239 trial= 0.791  step= 0.225 mean= 0.791
 final diagonalization
   7 F= -.75340608E+01 E0= -.75339682E+01  d E =-.163347E-05
 trial-energy change:   -0.000002  1 .order   -0.000002   -0.000003   -0.000000
 step:   1.1843(harm=  1.1843)  dis= 0.00000  next Energy=    -7.534061 (dE=-0.194E-05)
 reached required accuracy - stopping structural energy minimisation
