       N       E                     dE             d eps       ncg     rms          rms(c)
DAV:   1     0.212054960976E+01    0.21205E+01   -0.20838E+03 17544   0.148E+02
DAV:   2    -0.935185778090E+01   -0.11472E+02   -0.10686E+02 25224   0.227E+01
DAV:   3    -0.943086716050E+01   -0.79009E-01   -0.78948E-01 21528   0.211E+00
DAV:   4    -0.943104309525E+01   -0.17593E-03   -0.17593E-03 30480   0.104E-01
DAV:   5    -0.943104315953E+01   -0.64279E-07   -0.64233E-07 21456   0.135E-03    0.318E+00
DAV:   6    -0.934614359432E+01    0.84900E-01   -0.20110E+01 24696   0.351E+00    0.378E+00
DAV:   7    -0.863045985005E+01    0.71568E+00   -0.12944E+01 28416   0.328E+00    0.130E+00
DAV:   8    -0.850949286618E+01    0.12097E+00   -0.68148E-01 29160   0.862E-01    0.418E-01
DAV:   9    -0.849032166556E+01    0.19171E-01   -0.32761E-02 28944   0.250E-01    0.123E-01
DAV:  10    -0.848914936771E+01    0.11723E-02   -0.83120E-03 29208   0.111E-01    0.104E-01
DAV:  11    -0.848716402134E+01    0.19853E-02   -0.45751E-03 28704   0.771E-02    0.356E-02
DAV:  12    -0.848692152924E+01    0.24249E-03   -0.15790E-03 28536   0.421E-02    0.241E-02
DAV:  13    -0.848739523980E+01   -0.47371E-03   -0.40654E-04 25896   0.279E-02    0.148E-02
DAV:  14    -0.848766235013E+01   -0.26711E-03   -0.22034E-04 22056   0.166E-02    0.907E-03
DAV:  15    -0.848780134104E+01   -0.13899E-03   -0.41355E-05 21648   0.741E-03    0.385E-03
DAV:  16    -0.848791989140E+01   -0.11855E-03   -0.12449E-05 20808   0.415E-03    0.255E-03
DAV:  17    -0.848798255473E+01   -0.62663E-04   -0.75765E-06 21312   0.237E-03    0.106E-03
DAV:  18    -0.848800603141E+01   -0.23477E-04   -0.29548E-06 20904   0.153E-03    0.928E-04
DAV:  19    -0.848802082676E+01   -0.14795E-04   -0.19075E-06 20712   0.110E-03    0.277E-04
DAV:  20    -0.848802370184E+01   -0.28751E-05   -0.59565E-08 23376   0.253E-04    0.201E-04
DAV:  21    -0.848802542649E+01   -0.17246E-05   -0.76036E-08 20112   0.233E-04    0.941E-05
DAV:  22    -0.848802596444E+01   -0.53795E-06   -0.63827E-09 23088   0.707E-05
   1 F= -.84880260E+01 E0= -.84875342E+01  d E =-.848803E+01
       N       E                     dE             d eps       ncg     rms          rms(c)
DAV:   1    -0.856428520947E+01   -0.76260E-01   -0.92815E-01 19176   0.196E+00    0.181E-01
DAV:   2    -0.856313787628E+01    0.11473E-02   -0.12213E-02 25392   0.194E-01    0.102E-01
DAV:   3    -0.856305767120E+01    0.80205E-04   -0.13991E-02 23160   0.124E-01    0.893E-02
DAV:   4    -0.856243270003E+01    0.62497E-03   -0.56829E-03 27696   0.769E-02    0.188E-02
DAV:   5    -0.856241657407E+01    0.16126E-04   -0.82180E-05 23376   0.186E-02    0.614E-03
DAV:   6    -0.856241564071E+01    0.93337E-06   -0.38864E-06 22896   0.410E-03
   2 F= -.85624156E+01 E0= -.85617885E+01  d E =-.743897E-01
       N       E                     dE             d eps       ncg     rms          rms(c)
DAV:   1    -0.879500589350E+01   -0.23259E+00   -0.88088E+00 19320   0.607E+00    0.545E-01
DAV:   2    -0.878336123068E+01    0.11645E-01   -0.82169E-02 28392   0.580E-01    0.297E-01
DAV:   3    -0.878292148276E+01    0.43975E-03   -0.99369E-02 26400   0.375E-01    0.251E-01
DAV:   4    -0.877727247869E+01    0.56490E-02   -0.43477E-02 28152   0.224E-01    0.492E-02
DAV:   5    -0.877719494481E+01    0.77534E-04   -0.35531E-04 31680   0.478E-02    0.304E-02
DAV:   6    -0.877713439480E+01    0.60550E-04   -0.23345E-04 23352   0.177E-02    0.952E-03
DAV:   7    -0.877712255397E+01    0.11841E-04   -0.23508E-05 25104   0.824E-03    0.444E-03
DAV:   8    -0.877713262136E+01   -0.10067E-04   -0.57333E-06 21408   0.333E-03    0.269E-03
DAV:   9    -0.877715004770E+01   -0.17426E-04   -0.83997E-06 21744   0.325E-03    0.126E-03
DAV:  10    -0.877716398533E+01   -0.13938E-04   -0.18856E-06 20472   0.168E-03    0.672E-04
DAV:  11    -0.877717111740E+01   -0.71321E-05   -0.65584E-07 20688   0.978E-04    0.331E-04
DAV:  12    -0.877717569637E+01   -0.45790E-05   -0.17698E-07 20544   0.351E-04    0.187E-04
DAV:  13    -0.877717719531E+01   -0.14989E-05   -0.43534E-08 20856   0.166E-04    0.924E-05
DAV:  14    -0.877717824207E+01   -0.10468E-05   -0.47055E-08 21408   0.125E-04    0.359E-05
DAV:  15    -0.877717840709E+01   -0.16502E-06   -0.20260E-09 22968   0.399E-05
   3 F= -.87771784E+01 E0= -.87767760E+01  d E =-.289152E+00
       N       E                     dE             d eps       ncg     rms          rms(c)
DAV:   1    -0.896422843996E+01   -0.18705E+00   -0.39282E+01 19200   0.132E+01    0.129E+00
DAV:   2    -0.890933224325E+01    0.54896E-01   -0.35084E-01 26064   0.126E+00    0.725E-01
DAV:   3    -0.889498796405E+01    0.14344E-01   -0.26373E-01 26112   0.589E-01    0.383E-01
DAV:   4    -0.887928695556E+01    0.15701E-01   -0.10491E-01 27864   0.374E-01    0.669E-02
DAV:   5    -0.887914734471E+01    0.13961E-03   -0.60270E-04 27264   0.719E-02    0.405E-02
DAV:   6    -0.887901760797E+01    0.12974E-03   -0.25124E-04 27024   0.222E-02    0.128E-02
DAV:   7    -0.887901415923E+01    0.34487E-05   -0.25441E-05 24672   0.729E-03    0.809E-03
DAV:   8    -0.887902592435E+01   -0.11765E-04   -0.40044E-05 25920   0.728E-03    0.390E-03
DAV:   9    -0.887906019723E+01   -0.34273E-04   -0.83768E-06 21288   0.345E-03    0.214E-03
DAV:  10    -0.887909047351E+01   -0.30276E-04   -0.44211E-06 20568   0.230E-03    0.972E-04
DAV:  11    -0.887910303817E+01   -0.12565E-04   -0.10071E-06 20952   0.124E-03    0.637E-04
DAV:  12    -0.887911350853E+01   -0.10470E-04   -0.10833E-06 20472   0.644E-04    0.242E-04
DAV:  13    -0.887911647736E+01   -0.29688E-05   -0.11500E-07 20232   0.263E-04    0.187E-04
DAV:  14    -0.887911840551E+01   -0.19281E-05   -0.10483E-07 20472   0.177E-04    0.648E-05
DAV:  15    -0.887911903610E+01   -0.63059E-06   -0.18459E-08 21312   0.619E-05
   4 F= -.88791190E+01 E0= -.88786576E+01  d E =-.391093E+00
       N       E                     dE             d eps       ncg     rms          rms(c)
DAV:   1    -0.895079134319E+01   -0.71673E-01   -0.79229E+00 18432   0.597E+00    0.601E-01
DAV:   2    -0.894025803355E+01    0.10533E-01   -0.13371E-01 26616   0.612E-01    0.351E-01
DAV:   3    -0.893650949451E+01    0.37485E-02   -0.89251E-02 25944   0.363E-01    0.216E-01
DAV:   4    -0.893290554534E+01    0.36039E-02   -0.22762E-02 29016   0.183E-01    0.308E-02
DAV:   5    -0.893295177625E+01   -0.46231E-04   -0.29428E-04 28416   0.406E-02    0.207E-02
DAV:   6    -0.893303651169E+01   -0.84735E-04   -0.86491E-05 21384   0.143E-02    0.507E-03
DAV:   7    -0.893309671698E+01   -0.60205E-04   -0.15197E-05 22296   0.557E-03    0.310E-03
DAV:   8    -0.893316300072E+01   -0.66284E-04   -0.24249E-05 22008   0.430E-03    0.159E-03
DAV:   9    -0.893318884887E+01   -0.25848E-04   -0.67109E-06 22032   0.195E-03    0.900E-04
DAV:  10    -0.893320345678E+01   -0.14608E-04   -0.40987E-06 21888   0.120E-03    0.478E-04
DAV:  11    -0.893320795758E+01   -0.45008E-05   -0.81263E-07 21864   0.550E-04    0.262E-04
DAV:  12    -0.893321023313E+01   -0.22755E-05   -0.53246E-07 21024   0.323E-04    0.109E-04
DAV:  13    -0.893321041476E+01   -0.18163E-06   -0.81872E-09 21168   0.911E-05
   5 F= -.89332104E+01 E0= -.89329458E+01  d E =-.445184E+00
       N       E                     dE             d eps       ncg     rms          rms(c)
DAV:   1    -0.894151053645E+01   -0.83003E-02   -0.85025E-01 18816   0.198E+00    0.198E-01
DAV:   2    -0.894045081154E+01    0.10597E-02   -0.16366E-02 27096   0.240E-01    0.115E-01
DAV:   3    -0.894001151749E+01    0.43929E-03   -0.92190E-03 22968   0.112E-01    0.718E-02
DAV:   4    -0.893960925116E+01    0.40227E-03   -0.26073E-03 28848   0.631E-02    0.114E-02
DAV:   5    -0.893960604844E+01    0.32027E-05   -0.17326E-05 22296   0.127E-02    0.656E-03
DAV:   6    -0.893960452680E+01    0.15216E-05   -0.57726E-06 21552   0.399E-03    0.187E-03
DAV:   7    -0.893960644435E+01   -0.19175E-05   -0.45747E-07 21360   0.117E-03    0.132E-03
DAV:   8    -0.893961155233E+01   -0.51080E-05   -0.15922E-06 21048   0.137E-03    0.555E-04
DAV:   9    -0.893961533535E+01   -0.37830E-05   -0.42330E-07 20616   0.504E-04    0.233E-04
DAV:  10    -0.893961683369E+01   -0.14983E-05   -0.12824E-07 21528   0.206E-04    0.152E-04
DAV:  11    -0.893961796863E+01   -0.11349E-05   -0.13541E-07 20088   0.136E-04    0.696E-05
DAV:  12    -0.893961835832E+01   -0.38969E-06   -0.28305E-08 20544   0.644E-05
   6 F= -.89396184E+01 E0= -.89392745E+01  d E =-.451592E+00
       N       E                     dE             d eps       ncg     rms          rms(c)
DAV:   1    -0.895648372587E+01   -0.16866E-01   -0.64000E-02 17664   0.539E-01    0.585E-02
DAV:   2    -0.895641123860E+01    0.72487E-04   -0.75118E-04 21336   0.638E-02    0.311E-02
DAV:   3    -0.895639876137E+01    0.12477E-04   -0.32906E-04 19560   0.232E-02    0.137E-02
DAV:   4    -0.895638186212E+01    0.16899E-04   -0.18855E-04 19800   0.153E-02    0.518E-03
DAV:   5    -0.895638103331E+01    0.82880E-06   -0.73148E-06 24840   0.507E-03
   7 F= -.89563810E+01 E0= -.89560523E+01  d E =-.167627E-01
       N       E                     dE             d eps       ncg     rms          rms(c)
DAV:   1    -0.900214204681E+01   -0.45760E-01   -0.57869E-01 17664   0.162E+00    0.179E-01
DAV:   2    -0.900147370729E+01    0.66834E-03   -0.62836E-03 26568   0.180E-01    0.971E-02
DAV:   3    -0.900135886137E+01    0.11485E-03   -0.36105E-03 19728   0.724E-02    0.443E-02
DAV:   4    -0.900116533929E+01    0.19352E-03   -0.18044E-03 23424   0.467E-02    0.127E-02
DAV:   5    -0.900116015206E+01    0.51872E-05   -0.40369E-05 24384   0.133E-02    0.424E-03
DAV:   6    -0.900116063380E+01   -0.48173E-06   -0.24786E-06 22632   0.371E-03
   8 F= -.90011606E+01 E0= -.90006694E+01  d E =-.615423E-01
       N       E                     dE             d eps       ncg     rms          rms(c)
DAV:   1    -0.906194466284E+01   -0.60785E-01   -0.23306E+00 17736   0.328E+00    0.371E-01
DAV:   2    -0.905942519657E+01    0.25195E-02   -0.21013E-02 28728   0.339E-01    0.215E-01
DAV:   3    -0.905920784274E+01    0.21735E-03   -0.19287E-02 24480   0.155E-01    0.101E-01
DAV:   4    -0.905788959116E+01    0.13183E-02   -0.91833E-03 28104   0.993E-02    0.155E-02
DAV:   5    -0.905787989276E+01    0.96984E-05   -0.77984E-05 29304   0.207E-02    0.105E-02
DAV:   6    -0.905787893103E+01    0.96173E-06   -0.29982E-05 21864   0.747E-03    0.361E-03
DAV:   7    -0.905788159725E+01   -0.26662E-05   -0.70583E-06 23952   0.324E-03    0.222E-03
DAV:   8    -0.905788985469E+01   -0.82574E-05   -0.22980E-06 21168   0.198E-03    0.100E-03
DAV:   9    -0.905789459974E+01   -0.47450E-05   -0.96317E-07 22344   0.107E-03    0.789E-04
DAV:  10    -0.905789911554E+01   -0.45158E-05   -0.15569E-06 21480   0.917E-04    0.348E-04
DAV:  11    -0.905790074257E+01   -0.16270E-05   -0.17149E-07 21312   0.432E-04    0.192E-04
DAV:  12    -0.905790181003E+01   -0.10675E-05   -0.13598E-07 20400   0.150E-04    0.122E-04
DAV:  13    -0.905790228194E+01   -0.47191E-06   -0.22938E-08 20688   0.943E-05
   9 F= -.90579023E+01 E0= -.90573545E+01  d E =-.118284E+00
       N       E                     dE             d eps       ncg     rms          rms(c)
DAV:   1    -0.900219774302E+01    0.55704E-01   -0.93527E+00 17808   0.664E+00    0.880E-01
DAV:   2    -0.899735722500E+01    0.48405E-02   -0.26875E-01 27480   0.800E-01    0.524E-01
DAV:   3    -0.898417274277E+01    0.13184E-01   -0.24192E-01 25968   0.452E-01    0.419E-01
DAV:   4    -0.897572976888E+01    0.84430E-02   -0.45051E-02 26520   0.236E-01    0.472E-02
DAV:   5    -0.897540838410E+01    0.32138E-03   -0.21946E-03 29376   0.737E-02    0.266E-02
DAV:   6    -0.897532272599E+01    0.85658E-04   -0.12930E-04 27624   0.180E-02    0.116E-02
DAV:   7    -0.897529230644E+01    0.30420E-04   -0.19055E-05 26448   0.667E-03    0.566E-03
DAV:   8    -0.897529615458E+01   -0.38481E-05   -0.18299E-05 25944   0.530E-03    0.343E-03
DAV:   9    -0.897532448075E+01   -0.28326E-04   -0.63657E-06 23160   0.352E-03    0.178E-03
DAV:  10    -0.897535034556E+01   -0.25865E-04   -0.26465E-06 21480   0.251E-03    0.110E-03
DAV:  11    -0.897536539691E+01   -0.15051E-04   -0.11660E-06 21096   0.939E-04    0.487E-04
DAV:  12    -0.897537078093E+01   -0.53840E-05   -0.44996E-07 21696   0.509E-04    0.362E-04
DAV:  13    -0.897537531768E+01   -0.45368E-05   -0.62273E-07 20448   0.559E-04    0.290E-04
DAV:  14    -0.897537585784E+01   -0.54015E-06   -0.20756E-08 21864   0.125E-04
  10 F= -.89753759E+01 E0= -.89748301E+01  d E =-.357575E-01
       N       E                     dE             d eps       ncg     rms          rms(c)
DAV:   1    -0.908197013626E+01   -0.10659E+00   -0.61757E+00 17808   0.534E+00    0.671E-01
DAV:   2    -0.907030215598E+01    0.11668E-01   -0.55758E-02 24336   0.468E-01    0.382E-01
DAV:   3    -0.906908434607E+01    0.12178E-02   -0.82863E-02 26304   0.301E-01    0.227E-01
DAV:   4    -0.906407809438E+01    0.50063E-02   -0.29268E-02 28992   0.189E-01    0.335E-02
DAV:   5    -0.906418720673E+01   -0.10911E-03   -0.31243E-04 22176   0.406E-02    0.149E-02
DAV:   6    -0.906430940408E+01   -0.12220E-03   -0.99720E-05 24384   0.139E-02    0.669E-03
DAV:   7    -0.906434876448E+01   -0.39360E-04   -0.34392E-05 20280   0.669E-03    0.433E-03
DAV:   8    -0.906440544506E+01   -0.56681E-04   -0.34411E-05 23880   0.575E-03    0.277E-03
DAV:   9    -0.906444293293E+01   -0.37488E-04   -0.21152E-05 22200   0.336E-03    0.128E-03
DAV:  10    -0.906445289591E+01   -0.99630E-05   -0.31956E-06 20496   0.116E-03    0.559E-04
DAV:  11    -0.906445829436E+01   -0.53985E-05   -0.16631E-06 21744   0.599E-04    0.374E-04
DAV:  12    -0.906446094941E+01   -0.26550E-05   -0.95094E-07 20400   0.400E-04    0.137E-04
DAV:  13    -0.906446107536E+01   -0.12595E-06   -0.61215E-09 22392   0.895E-05
  11 F= -.90644611E+01 E0= -.90637970E+01  d E =-.124843E+00
       N       E                     dE             d eps       ncg     rms          rms(c)
DAV:   1    -0.912255620939E+01   -0.58095E-01   -0.27724E-02 26232   0.414E-01    0.106E-01
DAV:   2    -0.912249479414E+01    0.61415E-04   -0.43563E-03 20832   0.801E-02    0.503E-02
DAV:   3    -0.912236213502E+01    0.13266E-03   -0.37342E-03 20376   0.596E-02    0.489E-02
DAV:   4    -0.912224618796E+01    0.11595E-03   -0.60842E-04 19992   0.290E-02    0.826E-03
DAV:   5    -0.912224330956E+01    0.28784E-05   -0.17540E-05 29328   0.951E-03    0.253E-03
DAV:   6    -0.912224359517E+01   -0.28561E-06   -0.16299E-06 22200   0.175E-03
  12 F= -.91222436E+01 E0= -.91215144E+01  d E =-.577825E-01
       N       E                     dE             d eps       ncg     rms          rms(c)
DAV:   1    -0.927884614865E+01   -0.15660E+00   -0.24087E-01 24792   0.122E+00    0.301E-01
DAV:   2    -0.927728734700E+01    0.15588E-02   -0.33775E-02 28128   0.222E-01    0.128E-01
DAV:   3    -0.927663863258E+01    0.64871E-03   -0.19602E-02 26808   0.133E-01    0.108E-01
DAV:   4    -0.927610420149E+01    0.53443E-03   -0.33899E-03 26544   0.674E-02    0.224E-02
DAV:   5    -0.927609587751E+01    0.83240E-05   -0.78783E-05 29568   0.208E-02    0.538E-03
DAV:   6    -0.927610846844E+01   -0.12591E-04   -0.43244E-06 22392   0.362E-03    0.245E-03
DAV:   7    -0.927611590730E+01   -0.74389E-05   -0.99608E-07 21696   0.138E-03    0.125E-03
DAV:   8    -0.927612616056E+01   -0.10253E-04   -0.15998E-06 20880   0.139E-03    0.641E-04
DAV:   9    -0.927613320203E+01   -0.70415E-05   -0.15097E-06 21072   0.117E-03    0.292E-04
DAV:  10    -0.927613499055E+01   -0.17885E-05   -0.87982E-08 22608   0.339E-04    0.182E-04
DAV:  11    -0.927613604201E+01   -0.10515E-05   -0.42805E-08 21984   0.194E-04    0.988E-05
DAV:  12    -0.927613658704E+01   -0.54502E-06   -0.17517E-08 22704   0.118E-04
  13 F= -.92761366E+01 E0= -.92755286E+01  d E =-.211676E+00
       N       E                     dE             d eps       ncg     rms          rms(c)
DAV:   1    -0.950021302352E+01   -0.22408E+00   -0.89790E-01 24408   0.235E+00    0.496E-01
DAV:   2    -0.949703049887E+01    0.31825E-02   -0.74857E-02 27024   0.333E-01    0.250E-01
DAV:   3    -0.949628059883E+01    0.74990E-03   -0.72091E-02 26088   0.235E-01    0.228E-01
DAV:   4    -0.949342260368E+01    0.28580E-02   -0.16249E-02 28728   0.132E-01    0.471E-02
DAV:   5    -0.949338366300E+01    0.38941E-04   -0.45459E-04 25968   0.376E-02    0.110E-02
DAV:   6    -0.949341056603E+01   -0.26903E-04   -0.45724E-05 25800   0.968E-03    0.708E-03
DAV:   7    -0.949346825721E+01   -0.57691E-04   -0.24553E-05 21408   0.657E-03    0.294E-03
DAV:   8    -0.949350826277E+01   -0.40006E-04   -0.10267E-05 22320   0.390E-03    0.165E-03
DAV:   9    -0.949353125611E+01   -0.22993E-04   -0.71704E-06 21816   0.270E-03    0.102E-03
DAV:  10    -0.949353754484E+01   -0.62887E-05   -0.12569E-06 21840   0.121E-03    0.520E-04
DAV:  11    -0.949354102325E+01   -0.34784E-05   -0.64648E-07 21936   0.780E-04    0.220E-04
DAV:  12    -0.949354166445E+01   -0.64120E-06   -0.29994E-08 21624   0.188E-04
  14 F= -.94935417E+01 E0= -.94928024E+01  d E =-.429081E+00
       N       E                     dE             d eps       ncg     rms          rms(c)
DAV:   1    -0.967172007528E+01   -0.17818E+00   -0.31522E+00 23544   0.437E+00    0.852E-01
DAV:   2    -0.966700305157E+01    0.47170E-02   -0.37039E-01 27552   0.602E-01    0.479E-01
DAV:   3    -0.965709732193E+01    0.99057E-02   -0.24013E-01 26328   0.380E-01    0.368E-01
DAV:   4    -0.965176775893E+01    0.53296E-02   -0.36054E-02 30768   0.201E-01    0.578E-02
DAV:   5    -0.965179663699E+01   -0.28878E-04   -0.76097E-04 27408   0.581E-02    0.165E-02
DAV:   6    -0.965186474648E+01   -0.68109E-04   -0.55200E-05 26136   0.136E-02    0.914E-03
DAV:   7    -0.965194576744E+01   -0.81021E-04   -0.36283E-05 24192   0.804E-03    0.505E-03
DAV:   8    -0.965201983137E+01   -0.74064E-04   -0.30374E-05 22728   0.647E-03    0.246E-03
DAV:   9    -0.965205276445E+01   -0.32933E-04   -0.11532E-05 22128   0.348E-03    0.139E-03
DAV:  10    -0.965206381075E+01   -0.11046E-04   -0.24393E-06 22296   0.158E-03    0.732E-04
DAV:  11    -0.965206907943E+01   -0.52687E-05   -0.10073E-06 21504   0.931E-04    0.338E-04
DAV:  12    -0.965207022697E+01   -0.11475E-05   -0.78862E-08 22224   0.263E-04    0.146E-04
DAV:  13    -0.965207068547E+01   -0.45849E-06   -0.23233E-08 21816   0.136E-04
  15 F= -.96520707E+01 E0= -.96517586E+01  d E =-.587610E+00
       N       E                     dE             d eps       ncg     rms          rms(c)
DAV:   1    -0.967007490099E+01   -0.18005E-01   -0.90565E-02 17712   0.542E-01    0.735E-02
DAV:   2    -0.966991197418E+01    0.16293E-03   -0.31610E-03 22680   0.948E-02    0.406E-02
DAV:   3    -0.966986562422E+01    0.46350E-04   -0.15060E-03 21264   0.341E-02    0.280E-02
DAV:   4    -0.966982493175E+01    0.40692E-04   -0.37024E-04 26544   0.170E-02    0.626E-03
DAV:   5    -0.966981962102E+01    0.53107E-05   -0.12932E-05 21480   0.554E-03    0.198E-03
DAV:   6    -0.966981891669E+01    0.70433E-06   -0.75954E-07 20592   0.150E-03
  16 F= -.96698189E+01 E0= -.96694880E+01  d E =-.177482E-01
       N       E                     dE             d eps       ncg     rms          rms(c)
DAV:   1    -0.972065991768E+01   -0.50840E-01   -0.81413E-01 17736   0.163E+00    0.226E-01
DAV:   2    -0.971909772428E+01    0.15622E-02   -0.34445E-02 24936   0.272E-01    0.125E-01
DAV:   3    -0.971841509020E+01    0.68263E-03   -0.13753E-02 25056   0.109E-01    0.827E-02
DAV:   4    -0.971812166226E+01    0.29343E-03   -0.24403E-03 28536   0.464E-02    0.181E-02
DAV:   5    -0.971808696016E+01    0.34702E-04   -0.94436E-05 20424   0.153E-02    0.530E-03
DAV:   6    -0.971808533234E+01    0.16278E-05   -0.53276E-06 23232   0.431E-03    0.308E-03
DAV:   7    -0.971809232609E+01   -0.69938E-05   -0.41676E-06 23760   0.235E-03    0.161E-03
DAV:   8    -0.971810272466E+01   -0.10399E-04   -0.21757E-06 22368   0.170E-03    0.854E-04
DAV:   9    -0.971811052485E+01   -0.78002E-05   -0.16948E-06 22176   0.128E-03    0.554E-04
DAV:  10    -0.971811532488E+01   -0.48000E-05   -0.12805E-06 22008   0.952E-04    0.218E-04
DAV:  11    -0.971811615570E+01   -0.83082E-06   -0.11197E-07 22008   0.284E-04
  17 F= -.97181162E+01 E0= -.97176706E+01  d E =-.660455E-01
       N       E                     dE             d eps       ncg     rms          rms(c)
DAV:   1    -0.979973427432E+01   -0.81619E-01   -0.32366E+00 17904   0.327E+00    0.453E-01
DAV:   2    -0.979184693418E+01    0.78873E-02   -0.13707E-01 27072   0.532E-01    0.233E-01
DAV:   3    -0.978929327491E+01    0.25537E-02   -0.38071E-02 27312   0.211E-01    0.145E-01
DAV:   4    -0.978857933380E+01    0.71394E-03   -0.55324E-03 28104   0.787E-02    0.342E-02
DAV:   5    -0.978847888241E+01    0.10045E-03   -0.29191E-04 23280   0.271E-02    0.970E-03
DAV:   6    -0.978847444055E+01    0.44419E-05   -0.13217E-05 24384   0.709E-03    0.550E-03
DAV:   7    -0.978848644784E+01   -0.12007E-04   -0.14024E-05 23736   0.429E-03    0.289E-03
DAV:   8    -0.978850628705E+01   -0.19839E-04   -0.61541E-06 23640   0.296E-03    0.146E-03
DAV:   9    -0.978852212526E+01   -0.15838E-04   -0.42820E-06 22560   0.213E-03    0.961E-04
DAV:  10    -0.978853165870E+01   -0.95334E-05   -0.33330E-06 21912   0.158E-03    0.380E-04
DAV:  11    -0.978853306490E+01   -0.14062E-05   -0.19141E-07 22752   0.408E-04    0.169E-04
DAV:  12    -0.978853348094E+01   -0.41603E-06   -0.65286E-08 21456   0.213E-04
  18 F= -.97885335E+01 E0= -.97881091E+01  d E =-.136463E+00
       N       E                     dE             d eps       ncg     rms          rms(c)
DAV:   1    -0.983873745623E+01   -0.50204E-01   -0.12811E+01 17904   0.660E+00    0.958E-01
DAV:   2    -0.978622004550E+01    0.52517E-01   -0.54286E-01 28080   0.107E+00    0.428E-01
DAV:   3    -0.977837876899E+01    0.78413E-02   -0.90404E-02 27960   0.423E-01    0.241E-01
DAV:   4    -0.977694451670E+01    0.14343E-02   -0.11261E-02 28800   0.129E-01    0.721E-02
DAV:   5    -0.977669629012E+01    0.24823E-03   -0.11173E-03 24552   0.479E-02    0.199E-02
DAV:   6    -0.977668106039E+01    0.15230E-04   -0.71807E-05 24000   0.139E-02    0.855E-03
DAV:   7    -0.977667870958E+01    0.23508E-05   -0.48179E-05 24384   0.829E-03    0.439E-03
DAV:   8    -0.977671090021E+01   -0.32191E-04   -0.15050E-05 24864   0.480E-03    0.200E-03
DAV:   9    -0.977672850915E+01   -0.17609E-04   -0.51962E-06 24288   0.248E-03    0.145E-03
DAV:  10    -0.977674397466E+01   -0.15466E-04   -0.68882E-06 22536   0.237E-03    0.575E-04
DAV:  11    -0.977674630996E+01   -0.23353E-05   -0.50894E-07 23064   0.650E-04    0.216E-04
DAV:  12    -0.977674660504E+01   -0.29509E-06   -0.62599E-08 21552   0.215E-04
  19 F= -.97767466E+01 E0= -.97762634E+01  d E =-.124676E+00
       N       E                     dE             d eps       ncg     rms          rms(c)
DAV:   1    -0.983824911169E+01   -0.61503E-01   -0.48243E+00 18120   0.407E+00    0.617E-01
DAV:   2    -0.981941468291E+01    0.18834E-01   -0.33762E-01 25368   0.821E-01    0.321E-01
DAV:   3    -0.981311161240E+01    0.63031E-02   -0.79664E-02 28104   0.319E-01    0.186E-01
DAV:   4    -0.981174897547E+01    0.13626E-02   -0.11179E-02 30048   0.117E-01    0.440E-02
DAV:   5    -0.981164863344E+01    0.10034E-03   -0.74287E-04 23184   0.358E-02    0.152E-02
DAV:   6    -0.981163508797E+01    0.13545E-04   -0.45263E-05 22320   0.111E-02    0.651E-03
DAV:   7    -0.981163174697E+01    0.33410E-05   -0.13818E-05 21960   0.505E-03    0.252E-03
DAV:   8    -0.981163652441E+01   -0.47774E-05   -0.15840E-06 22008   0.185E-03    0.125E-03
DAV:   9    -0.981164352437E+01   -0.70000E-05   -0.14170E-06 21384   0.125E-03    0.855E-04
DAV:  10    -0.981165284521E+01   -0.93208E-05   -0.15970E-06 20904   0.114E-03    0.328E-04
DAV:  11    -0.981165533791E+01   -0.24927E-05   -0.68898E-08 21960   0.339E-04    0.214E-04
DAV:  12    -0.981165775204E+01   -0.24141E-05   -0.10057E-07 20808   0.273E-04    0.956E-05
DAV:  13    -0.981165861353E+01   -0.86148E-06   -0.25723E-08 22680   0.125E-04
  20 F= -.98116586E+01 E0= -.98109901E+01  d E =-.159588E+00
       N       E                     dE             d eps       ncg     rms          rms(c)
DAV:   1    -0.984861260172E+01   -0.36955E-01   -0.89740E-01 19128   0.201E+00    0.270E-01
DAV:   2    -0.984533085865E+01    0.32817E-02   -0.41136E-02 25344   0.289E-01    0.142E-01
DAV:   3    -0.984449366180E+01    0.83720E-03   -0.11460E-02 27960   0.126E-01    0.854E-02
DAV:   4    -0.984423603526E+01    0.25763E-03   -0.16408E-03 27072   0.474E-02    0.229E-02
DAV:   5    -0.984423084730E+01    0.51880E-05   -0.10374E-04 28776   0.162E-02    0.485E-03
DAV:   6    -0.984423358577E+01   -0.27385E-05   -0.69200E-06 23064   0.435E-03    0.240E-03
DAV:   7    -0.984424120570E+01   -0.76199E-05   -0.20598E-06 23040   0.195E-03    0.110E-03
DAV:   8    -0.984424675535E+01   -0.55497E-05   -0.56276E-07 22416   0.870E-04    0.549E-04
DAV:   9    -0.984425161220E+01   -0.48568E-05   -0.51536E-07 22224   0.790E-04    0.341E-04
DAV:  10    -0.984425452880E+01   -0.29166E-05   -0.32789E-07 21672   0.561E-04    0.146E-04
DAV:  11    -0.984425584620E+01   -0.13174E-05   -0.25544E-08 22320   0.201E-04    0.691E-05
DAV:  12    -0.984425623564E+01   -0.38945E-06   -0.53890E-09 22992   0.652E-05
  21 F= -.98442562E+01 E0= -.98435848E+01  d E =-.325976E-01
       N       E                     dE             d eps       ncg     rms          rms(c)
DAV:   1    -0.985855554122E+01   -0.14300E-01   -0.80516E-01 18936   0.191E+00    0.242E-01
DAV:   2    -0.985602510490E+01    0.25304E-02   -0.25764E-02 25080   0.260E-01    0.126E-01
DAV:   3    -0.985557068282E+01    0.45442E-03   -0.59370E-03 27072   0.991E-02    0.697E-02
DAV:   4    -0.985542704570E+01    0.14364E-03   -0.98417E-04 25152   0.386E-02    0.196E-02
DAV:   5    -0.985542511764E+01    0.19281E-05   -0.55227E-05 28320   0.142E-02    0.327E-03
DAV:   6    -0.985542779604E+01   -0.26784E-05   -0.15400E-06 24936   0.329E-03    0.225E-03
DAV:   7    -0.985543423972E+01   -0.64437E-05   -0.12031E-06 22488   0.146E-03    0.814E-04
DAV:   8    -0.985543688400E+01   -0.26443E-05   -0.10810E-07 23448   0.440E-04    0.592E-04
DAV:   9    -0.985544221250E+01   -0.53285E-05   -0.65524E-07 22080   0.888E-04    0.262E-04
DAV:  10    -0.985544428948E+01   -0.20770E-05   -0.20115E-07 21840   0.431E-04    0.115E-04
DAV:  11    -0.985544499442E+01   -0.70494E-06   -0.11235E-08 22944   0.128E-04
  22 F= -.98554450E+01 E0= -.98549306E+01  d E =-.437864E-01
       N       E                     dE             d eps       ncg     rms          rms(c)
DAV:   1    -0.986746865516E+01   -0.12024E-01   -0.20066E-01 18696   0.104E+00    0.116E-01
DAV:   2    -0.986727442163E+01    0.19423E-03   -0.15053E-03 24672   0.932E-02    0.664E-02
DAV:   3    -0.986722457095E+01    0.49851E-04   -0.40007E-04 22440   0.300E-02    0.165E-02
DAV:   4    -0.986721793257E+01    0.66384E-05   -0.98075E-05 23232   0.161E-02    0.483E-03
DAV:   5    -0.986721541139E+01    0.25212E-05   -0.17829E-05 19416   0.620E-03    0.143E-03
DAV:   6    -0.986721569770E+01   -0.28631E-06   -0.22398E-07 21144   0.118E-03
  23 F= -.98672157E+01 E0= -.98668559E+01  d E =-.117707E-01
       N       E                     dE             d eps       ncg     rms          rms(c)
DAV:   1    -0.988942435173E+01   -0.22209E-01   -0.18415E+00 18504   0.313E+00    0.369E-01
DAV:   2    -0.988802587733E+01    0.13985E-02   -0.10640E-02 29304   0.269E-01    0.216E-01
DAV:   3    -0.988743828663E+01    0.58759E-03   -0.30902E-03 29064   0.819E-02    0.315E-02
DAV:   4    -0.988741257454E+01    0.25712E-04   -0.44418E-04 22416   0.350E-02    0.105E-02
DAV:   5    -0.988740155948E+01    0.11015E-04   -0.10186E-04 25968   0.140E-02    0.460E-03
DAV:   6    -0.988740741656E+01   -0.58571E-05   -0.23432E-06 22128   0.322E-03    0.270E-03
DAV:   7    -0.988741766321E+01   -0.10247E-04   -0.29270E-06 21768   0.222E-03    0.107E-03
DAV:   8    -0.988742646616E+01   -0.88030E-05   -0.17172E-06 21816   0.113E-03    0.482E-04
DAV:   9    -0.988743048660E+01   -0.40204E-05   -0.85944E-07 21840   0.736E-04    0.303E-04
DAV:  10    -0.988743255475E+01   -0.20681E-05   -0.51575E-07 21696   0.501E-04    0.123E-04
DAV:  11    -0.988743286374E+01   -0.30900E-06   -0.32239E-08 21984   0.141E-04
  24 F= -.98874329E+01 E0= -.98868549E+01  d E =-.319879E-01
       N       E                     dE             d eps       ncg     rms          rms(c)
DAV:   1    -0.989834383328E+01   -0.10911E-01   -0.10442E-01 21288   0.706E-01    0.146E-01
DAV:   2    -0.989805978335E+01    0.28405E-03   -0.33408E-03 20736   0.882E-02    0.830E-02
DAV:   3    -0.989801202558E+01    0.47758E-04   -0.16879E-03 22080   0.477E-02    0.461E-02
DAV:   4    -0.989792870581E+01    0.83320E-04   -0.46799E-04 26400   0.263E-02    0.340E-03
DAV:   5    -0.989792922126E+01   -0.51544E-06   -0.75080E-06 21024   0.736E-03
  25 F= -.98979292E+01 E0= -.98974033E+01  d E =-.104964E-01
       N       E                     dE             d eps       ncg     rms          rms(c)
DAV:   1    -0.993207035295E+01   -0.34142E-01   -0.95217E-01 21120   0.213E+00    0.343E-01
DAV:   2    -0.993119529508E+01    0.87506E-03   -0.43437E-03 24648   0.181E-01    0.204E-01
DAV:   3    -0.993063089061E+01    0.56440E-03   -0.13198E-03 27312   0.533E-02    0.144E-02
DAV:   4    -0.993061974775E+01    0.11143E-04   -0.12739E-04 22512   0.170E-02    0.581E-03
DAV:   5    -0.993062057078E+01   -0.82303E-06   -0.70822E-06 24096   0.538E-03
  26 F= -.99306206E+01 E0= -.99304304E+01  d E =-.431877E-01
       N       E                     dE             d eps       ncg     rms          rms(c)
DAV:   1    -0.988799121107E+01    0.42629E-01   -0.39085E+00 20808   0.430E+00    0.733E-01
DAV:   2    -0.987812411334E+01    0.98671E-02   -0.88344E-02 26640   0.489E-01    0.417E-01
DAV:   3    -0.987580319102E+01    0.23209E-02   -0.93132E-03 27384   0.144E-01    0.141E-01
DAV:   4    -0.987538818804E+01    0.41500E-03   -0.19814E-03 28248   0.662E-02    0.148E-02
DAV:   5    -0.987539783207E+01   -0.96440E-05   -0.72227E-05 28248   0.188E-02    0.540E-03
DAV:   6    -0.987540151581E+01   -0.36837E-05   -0.10045E-05 23016   0.477E-03    0.180E-03
DAV:   7    -0.987540777684E+01   -0.62610E-05   -0.92568E-07 23976   0.178E-03    0.104E-03
DAV:   8    -0.987541350521E+01   -0.57284E-05   -0.56970E-07 24360   0.923E-04    0.725E-04
DAV:   9    -0.987541848758E+01   -0.49824E-05   -0.81961E-07 22992   0.961E-04    0.347E-04
DAV:  10    -0.987542136856E+01   -0.28810E-05   -0.18687E-07 22632   0.516E-04    0.168E-04
DAV:  11    -0.987542296788E+01   -0.15993E-05   -0.26092E-08 23664   0.221E-04    0.124E-04
DAV:  12    -0.987542347047E+01   -0.50260E-06   -0.51577E-09 24384   0.798E-05
  27 F= -.98754235E+01 E0= -.98750971E+01  d E =0.120094E-01
       N       E                     dE             d eps       ncg     rms          rms(c)
DAV:   1    -0.994411805249E+01   -0.68695E-01   -0.27890E+00 20712   0.368E+00    0.615E-01
DAV:   2    -0.993652555806E+01    0.75925E-02   -0.77617E-02 26616   0.445E-01    0.352E-01
DAV:   3    -0.993497448824E+01    0.15511E-02   -0.11544E-02 27528   0.140E-01    0.146E-01
DAV:   4    -0.993449396924E+01    0.48052E-03   -0.23443E-03 29088   0.690E-02    0.116E-02
DAV:   5    -0.993451610724E+01   -0.22138E-04   -0.43382E-05 20592   0.180E-02    0.577E-03
DAV:   6    -0.993453202354E+01   -0.15916E-04   -0.33281E-06 22104   0.317E-03    0.140E-03
DAV:   7    -0.993453729786E+01   -0.52743E-05   -0.53066E-07 25104   0.998E-04    0.102E-03
DAV:   8    -0.993455158238E+01   -0.14285E-04   -0.33143E-06 22680   0.202E-03    0.616E-04
DAV:   9    -0.993455539827E+01   -0.38159E-05   -0.42558E-07 23904   0.697E-04    0.273E-04
DAV:  10    -0.993455739320E+01   -0.19949E-05   -0.27588E-07 23088   0.489E-04    0.142E-04
DAV:  11    -0.993455798404E+01   -0.59084E-06   -0.28905E-08 22464   0.175E-04
  28 F= -.99345580E+01 E0= -.99342540E+01  d E =-.471251E-01
       N       E                     dE             d eps       ncg     rms          rms(c)
DAV:   1    -0.994986049958E+01   -0.15303E-01   -0.16807E-01 22128   0.905E-01    0.138E-01
DAV:   2    -0.994951960280E+01    0.34090E-03   -0.39790E-03 21384   0.105E-01    0.821E-02
DAV:   3    -0.994944341706E+01    0.76186E-04   -0.82554E-04 22296   0.366E-02    0.371E-02
DAV:   4    -0.994940723001E+01    0.36187E-04   -0.17710E-04 29328   0.189E-02    0.309E-03
DAV:   5    -0.994940804268E+01   -0.81267E-06   -0.26235E-06 20400   0.468E-03
  29 F= -.99494080E+01 E0= -.99489869E+01  d E =-.148501E-01
       N       E                     dE             d eps       ncg     rms          rms(c)
DAV:   1    -0.997658085791E+01   -0.27174E-01   -0.14645E+00 21432   0.270E+00    0.394E-01
DAV:   2    -0.997297340024E+01    0.36075E-02   -0.33539E-02 28608   0.297E-01    0.229E-01
DAV:   3    -0.997235373924E+01    0.61966E-03   -0.21885E-03 25392   0.773E-02    0.871E-02
DAV:   4    -0.997222949390E+01    0.12425E-03   -0.50690E-04 28920   0.363E-02    0.930E-03
DAV:   5    -0.997223432554E+01   -0.48316E-05   -0.17160E-05 19992   0.101E-02    0.377E-03
DAV:   6    -0.997223938498E+01   -0.50594E-05   -0.20521E-06 21696   0.279E-03    0.140E-03
DAV:   7    -0.997224391119E+01   -0.45262E-05   -0.38076E-07 21384   0.966E-04    0.784E-04
DAV:   8    -0.997225104141E+01   -0.71302E-05   -0.84717E-07 21192   0.104E-03    0.512E-04
DAV:   9    -0.997225485288E+01   -0.38115E-05   -0.39925E-07 21936   0.628E-04    0.261E-04
DAV:  10    -0.997225708881E+01   -0.22359E-05   -0.99106E-08 21936   0.330E-04    0.126E-04
DAV:  11    -0.997225844508E+01   -0.13563E-05   -0.42929E-08 21672   0.183E-04    0.722E-05
DAV:  12    -0.997225869431E+01   -0.24923E-06   -0.17208E-09 23424   0.456E-05
  30 F= -.99722587E+01 E0= -.99720166E+01  d E =-.377007E-01
       N       E                     dE             d eps       ncg     rms          rms(c)
DAV:   1    -0.100027005014E+02   -0.30442E-01   -0.31840E-01 19056   0.134E+00    0.132E-01
DAV:   2    -0.100026106374E+02    0.89864E-04   -0.23060E-03 23424   0.118E-01    0.799E-02
DAV:   3    -0.100025532683E+02    0.57369E-04   -0.20446E-04 25128   0.245E-02    0.148E-02
DAV:   4    -0.100025483429E+02    0.49254E-05   -0.42992E-05 31752   0.933E-03    0.296E-03
DAV:   5    -0.100025488313E+02   -0.48833E-06   -0.12639E-06 23184   0.237E-03
  31 F= -.10002549E+02 E0= -.10002262E+02  d E =-.302901E-01
       N       E                     dE             d eps       ncg     rms          rms(c)
DAV:   1    -0.100563581228E+02   -0.53810E-01   -0.27788E+00 19368   0.399E+00    0.368E-01
DAV:   2    -0.100555670230E+02    0.79110E-03   -0.17486E-02 28968   0.319E-01    0.222E-01
DAV:   3    -0.100551597689E+02    0.40725E-03   -0.12845E-03 26760   0.642E-02    0.420E-02
DAV:   4    -0.100551426415E+02    0.17127E-04   -0.18551E-04 30744   0.217E-02    0.844E-03
DAV:   5    -0.100551515800E+02   -0.89386E-05   -0.93996E-06 20664   0.615E-03    0.218E-03
DAV:   6    -0.100551574235E+02   -0.58435E-05   -0.52543E-07 21600   0.145E-03    0.950E-04
DAV:   7    -0.100551637502E+02   -0.63267E-05   -0.75565E-07 21024   0.106E-03    0.442E-04
DAV:   8    -0.100551687085E+02   -0.49583E-05   -0.56736E-07 22704   0.778E-04    0.240E-04
DAV:   9    -0.100551706058E+02   -0.18973E-05   -0.20785E-07 21576   0.430E-04    0.995E-05
DAV:  10    -0.100551714817E+02   -0.87581E-06   -0.64984E-08 22368   0.220E-04
  32 F= -.10055171E+02 E0= -.10054989E+02  d E =-.829128E-01
       N       E                     dE             d eps       ncg     rms          rms(c)
DAV:   1    -0.100587594036E+02   -0.35888E-02   -0.34608E-01 19488   0.143E+00    0.125E-01
DAV:   2    -0.100587092902E+02    0.50113E-04   -0.22446E-03 21312   0.118E-01    0.761E-02
DAV:   3    -0.100586701800E+02    0.39110E-04   -0.16262E-04 25512   0.241E-02    0.137E-02
DAV:   4    -0.100586678451E+02    0.23349E-05   -0.23224E-05 29472   0.816E-03    0.287E-03
DAV:   5    -0.100586683148E+02   -0.46963E-06   -0.12717E-06 22944   0.223E-03
  33 F= -.10058668E+02 E0= -.10058470E+02  d E =-.864096E-01
       N       E                     dE             d eps       ncg     rms          rms(c)
DAV:   1    -0.100758892508E+02   -0.17221E-01   -0.18144E-01 22320   0.102E+00    0.108E-01
DAV:   2    -0.100757212813E+02    0.16797E-03   -0.13900E-03 22056   0.912E-02    0.615E-02
DAV:   3    -0.100756835127E+02    0.37769E-04   -0.29633E-04 22056   0.306E-02    0.126E-02
DAV:   4    -0.100756847336E+02   -0.12209E-05   -0.30185E-05 21432   0.127E-02    0.354E-03
DAV:   5    -0.100756863957E+02   -0.16621E-05   -0.30099E-06 23136   0.366E-03    0.107E-03
DAV:   6    -0.100756874031E+02   -0.10074E-05   -0.14341E-07 22752   0.853E-04    0.536E-04
DAV:   7    -0.100756887248E+02   -0.13217E-05   -0.83883E-08 22848   0.388E-04    0.156E-04
DAV:   8    -0.100756896488E+02   -0.92399E-06   -0.44124E-08 23256   0.214E-04
  34 F= -.10075690E+02 E0= -.10075510E+02  d E =-.170213E-01
       N       E                     dE             d eps       ncg     rms          rms(c)
DAV:   1    -0.100972572417E+02   -0.21569E-01   -0.16191E+00 21288   0.305E+00    0.316E-01
DAV:   2    -0.100960079529E+02    0.12493E-02   -0.11314E-02 23256   0.256E-01    0.182E-01
DAV:   3    -0.100957406545E+02    0.26730E-03   -0.21699E-03 25704   0.805E-02    0.363E-02
DAV:   4    -0.100957383927E+02    0.22618E-05   -0.19541E-04 21192   0.307E-02    0.105E-02
DAV:   5    -0.100957469038E+02   -0.85112E-05   -0.30495E-05 22128   0.113E-02    0.300E-03
DAV:   6    -0.100957515142E+02   -0.46103E-05   -0.12529E-06 22248   0.276E-03    0.163E-03
DAV:   7    -0.100957577516E+02   -0.62375E-05   -0.57093E-07 22080   0.108E-03    0.389E-04
DAV:   8    -0.100957606626E+02   -0.29110E-05   -0.13791E-07 23520   0.415E-04    0.259E-04
DAV:   9    -0.100957639979E+02   -0.33354E-05   -0.24845E-07 22608   0.472E-04    0.158E-04
DAV:  10    -0.100957663537E+02   -0.23558E-05   -0.31217E-07 22632   0.468E-04    0.519E-05
DAV:  11    -0.100957665875E+02   -0.23381E-06   -0.57329E-09 23904   0.800E-05
  35 F= -.10095767E+02 E0= -.10095439E+02  d E =-.370983E-01
       N       E                     dE             d eps       ncg     rms          rms(c)
DAV:   1    -0.101062242759E+02   -0.10458E-01   -0.26670E-01 19392   0.123E+00    0.134E-01
DAV:   2    -0.101060291034E+02    0.19517E-03   -0.24289E-03 22152   0.121E-01    0.771E-02
DAV:   3    -0.101059388818E+02    0.90222E-04   -0.29037E-04 21720   0.300E-02    0.164E-02
DAV:   4    -0.101059312996E+02    0.75822E-05   -0.32620E-05 25512   0.112E-02    0.398E-03
DAV:   5    -0.101059288132E+02    0.24864E-05   -0.64634E-06 23616   0.397E-03    0.196E-03
DAV:   6    -0.101059290027E+02   -0.18950E-06   -0.48592E-07 22728   0.129E-03
  36 F= -.10105929E+02 E0= -.10105653E+02  d E =-.101624E-01
       N       E                     dE             d eps       ncg     rms          rms(c)
DAV:   1    -0.101086940397E+02   -0.27652E-02   -0.17500E-01 19368   0.992E-01    0.109E-01
DAV:   2    -0.101085540486E+02    0.13999E-03   -0.17613E-03 24504   0.992E-02    0.629E-02
DAV:   3    -0.101084954501E+02    0.58599E-04   -0.19255E-04 21696   0.245E-02    0.160E-02
DAV:   4    -0.101084896774E+02    0.57727E-05   -0.30662E-05 30768   0.101E-02    0.319E-03
DAV:   5    -0.101084889470E+02    0.73042E-06   -0.42829E-06 25920   0.325E-03
  37 F= -.10108489E+02 E0= -.10108223E+02  d E =-.127224E-01
       N       E                     dE             d eps       ncg     rms          rms(c)
DAV:   1    -0.101111222291E+02   -0.26326E-02   -0.67852E-02 18672   0.628E-01    0.657E-02
DAV:   2    -0.101111008533E+02    0.21376E-04   -0.42821E-04 29784   0.593E-02    0.383E-02
DAV:   3    -0.101110898112E+02    0.11042E-04   -0.76313E-05 24552   0.156E-02    0.505E-03
DAV:   4    -0.101110904061E+02   -0.59490E-06   -0.56250E-06 24168   0.470E-03
  38 F= -.10111090E+02 E0= -.10110836E+02  d E =-.260146E-02
       N       E                     dE             d eps       ncg     rms          rms(c)
DAV:   1    -0.101122606733E+02   -0.11709E-02   -0.88239E-02 18672   0.715E-01    0.749E-02
DAV:   2    -0.101122334098E+02    0.27264E-04   -0.61147E-04 27840   0.708E-02    0.436E-02
DAV:   3    -0.101122173929E+02    0.16017E-04   -0.10362E-04 25608   0.183E-02    0.609E-03
DAV:   4    -0.101122172161E+02    0.17674E-06   -0.77159E-06 24288   0.539E-03
  39 F= -.10112217E+02 E0= -.10111967E+02  d E =-.372827E-02
       N       E                     dE             d eps       ncg     rms          rms(c)
DAV:   1    -0.101139464433E+02   -0.17291E-02   -0.62304E-02 17736   0.594E-01    0.540E-02
DAV:   2    -0.101139504989E+02   -0.40556E-05   -0.28079E-04 25224   0.515E-02    0.324E-02
DAV:   3    -0.101139428172E+02    0.76817E-05   -0.26609E-05 24336   0.974E-03    0.259E-03
DAV:   4    -0.101139430893E+02   -0.27214E-06   -0.14060E-06 25896   0.255E-03
  40 F= -.10113943E+02 E0= -.10113695E+02  d E =-.172587E-02
       N       E                     dE             d eps       ncg     rms          rms(c)
DAV:   1    -0.101145913645E+02   -0.64855E-03   -0.67674E-02 17664   0.619E-01    0.562E-02
DAV:   2    -0.101145942993E+02   -0.29348E-05   -0.30828E-04 23616   0.540E-02    0.337E-02
DAV:   3    -0.101145839622E+02    0.10337E-04   -0.30164E-05 21768   0.103E-02    0.280E-03
DAV:   4    -0.101145840479E+02   -0.85642E-07   -0.17171E-06 23520   0.292E-03
  41 F= -.10114584E+02 E0= -.10114332E+02  d E =-.236683E-02
       N       E                     dE             d eps       ncg     rms          rms(c)
DAV:   1    -0.101157048496E+02   -0.11209E-02   -0.69821E-02 19680   0.636E-01    0.626E-02
DAV:   2    -0.101156927933E+02    0.12056E-04   -0.31104E-04 24672   0.509E-02    0.374E-02
DAV:   3    -0.101156801907E+02    0.12603E-04   -0.43066E-05 21240   0.117E-02    0.363E-03
DAV:   4    -0.101156793414E+02    0.84929E-06   -0.47341E-06 21312   0.469E-03
  42 F= -.10115679E+02 E0= -.10115409E+02  d E =-.109529E-02
       N       E                     dE             d eps       ncg     rms          rms(c)
DAV:   1    -0.101158883142E+02   -0.20812E-03   -0.28360E-02 19584   0.405E-01    0.402E-02
DAV:   2    -0.101158830084E+02    0.53057E-05   -0.13403E-04 23448   0.329E-02    0.240E-02
DAV:   3    -0.101158777114E+02    0.52970E-05   -0.18555E-05 23832   0.771E-03    0.256E-03
DAV:   4    -0.101158774152E+02    0.29626E-06   -0.20522E-06 21048   0.309E-03
  43 F= -.10115877E+02 E0= -.10115607E+02  d E =-.129337E-02
       N       E                     dE             d eps       ncg     rms          rms(c)
DAV:   1    -0.101164969342E+02   -0.61922E-03   -0.37875E-02 19344   0.435E-01    0.523E-02
DAV:   2    -0.101164107287E+02    0.86206E-04   -0.61310E-04 19824   0.559E-02    0.259E-02
DAV:   3    -0.101164011204E+02    0.96083E-05   -0.10729E-04 24528   0.193E-02    0.716E-03
DAV:   4    -0.101164018287E+02   -0.70830E-06   -0.91526E-06 23808   0.754E-03
  44 F= -.10116402E+02 E0= -.10116150E+02  d E =-.524413E-03
       N       E                     dE             d eps       ncg     rms          rms(c)
DAV:   1    -0.101164538025E+02   -0.52682E-04   -0.41214E-03 19920   0.144E-01    0.172E-02
DAV:   2    -0.101164451813E+02    0.86213E-05   -0.76962E-05 30672   0.204E-02    0.870E-03
DAV:   3    -0.101164443517E+02    0.82960E-06   -0.11332E-05 21696   0.585E-03    0.245E-03
DAV:   4    -0.101164446048E+02   -0.25317E-06   -0.86879E-07 24000   0.238E-03
  45 F= -.10116445E+02 E0= -.10116201E+02  d E =-.567190E-03
       N       E                     dE             d eps       ncg     rms          rms(c)
DAV:   1    -0.101166097803E+02   -0.16543E-03   -0.68714E-03 17904   0.190E-01    0.129E-02
DAV:   2    -0.101166112265E+02   -0.14462E-05   -0.38900E-05 24888   0.170E-02    0.760E-03
DAV:   3    -0.101166114581E+02   -0.23155E-06   -0.23017E-06 24240   0.283E-03
  46 F= -.10116611E+02 E0= -.10116375E+02  d E =-.166853E-03
       N       E                     dE             d eps       ncg     rms          rms(c)
DAV:   1    -0.101166282955E+02   -0.17069E-04   -0.13306E-03 18120   0.838E-02    0.569E-03
DAV:   2    -0.101166286538E+02   -0.35824E-06   -0.79266E-06 24312   0.773E-03
  47 F= -.10116629E+02 E0= -.10116394E+02  d E =-.184049E-03
       N       E                     dE             d eps       ncg     rms          rms(c)
DAV:   1    -0.101167383440E+02   -0.11005E-03   -0.81719E-03 18264   0.214E-01    0.215E-02
DAV:   2    -0.101167383768E+02   -0.32786E-07   -0.47901E-05 22536   0.209E-02    0.130E-02
DAV:   3    -0.101167361718E+02    0.22050E-05   -0.42862E-06 21408   0.392E-03    0.102E-03
DAV:   4    -0.101167360997E+02    0.72101E-07   -0.24537E-07 24072   0.832E-04
  48 F= -.10116736E+02 E0= -.10116510E+02  d E =-.107446E-03
       N       E                     dE             d eps       ncg     rms          rms(c)
DAV:   1    -0.101167423774E+02   -0.62056E-05   -0.71394E-04 22440   0.632E-02    0.636E-03
DAV:   2    -0.101167421110E+02    0.26648E-06   -0.34351E-06 23736   0.540E-03
  49 F= -.10116742E+02 E0= -.10116518E+02  d E =-.113457E-03
       N       E                     dE             d eps       ncg     rms          rms(c)
DAV:   1    -0.101167809421E+02   -0.38565E-04   -0.15673E-03 24216   0.904E-02    0.105E-02
DAV:   2    -0.101167810871E+02   -0.14498E-06   -0.86857E-06 21288   0.765E-03
  50 F= -.10116781E+02 E0= -.10116555E+02  d E =-.389761E-04
       N       E                     dE             d eps       ncg     rms          rms(c)
DAV:   1    -0.101167866880E+02   -0.57459E-05   -0.48643E-04 22488   0.508E-02    0.644E-03
DAV:   2    -0.101167867524E+02   -0.64413E-07   -0.36144E-06 19896   0.463E-03
  51 F= -.10116787E+02 E0= -.10116559E+02  d E =-.446415E-04
       N       E                     dE             d eps       ncg     rms          rms(c)
DAV:   1    -0.101168135765E+02   -0.26888E-04   -0.17385E-03 22128   0.901E-02    0.733E-03
DAV:   2    -0.101168135162E+02    0.60279E-07   -0.11686E-05 21048   0.806E-03    0.432E-03
DAV:   3    -0.101168134739E+02    0.42348E-07   -0.84007E-07 20400   0.166E-03
  52 F= -.10116813E+02 E0= -.10116581E+02  d E =-.267214E-04
       N       E                     dE             d eps       ncg     rms          rms(c)
DAV:   1    -0.101168145262E+02   -0.10100E-05   -0.10869E-04 24096   0.227E-02    0.179E-03
DAV:   2    -0.101168145158E+02    0.10444E-07   -0.64381E-07 21480   0.196E-03
  53 F= -.10116815E+02 E0= -.10116581E+02  d E =-.277633E-04
       N       E                     dE             d eps       ncg     rms          rms(c)
DAV:   1    -0.101168295367E+02   -0.15011E-04   -0.91382E-04 19608   0.704E-02    0.718E-03
DAV:   2    -0.101168289591E+02    0.57762E-06   -0.92820E-06 20184   0.829E-03
  54 F= -.10116829E+02 E0= -.10116595E+02  d E =-.144434E-04
       N       E                     dE             d eps       ncg     rms          rms(c)
DAV:   1    -0.101168297558E+02   -0.21909E-06   -0.16489E-04 21624   0.306E-02    0.349E-03
DAV:   2    -0.101168296130E+02    0.14281E-06   -0.11634E-06 24072   0.298E-03
  55 F= -.10116830E+02 E0= -.10116595E+02  d E =-.150973E-04
       N       E                     dE             d eps       ncg     rms          rms(c)
DAV:   1    -0.101168331127E+02   -0.33569E-05   -0.33723E-04 23304   0.431E-02    0.485E-03
DAV:   2    -0.101168330682E+02    0.44482E-07   -0.35971E-06 22080   0.470E-03
  56 F= -.10116833E+02 E0= -.10116600E+02  d E =-.345518E-05
       N       E                     dE             d eps       ncg     rms          rms(c)
DAV:   1    -0.101168331686E+02   -0.55882E-07   -0.86746E-07 23280   0.170E-03    0.504E-04
DAV:   2    -0.101168331751E+02   -0.65882E-08   -0.55964E-08 21288   0.520E-04
  57 F= -.10116833E+02 E0= -.10116600E+02  d E =-.356213E-05
       N       E                     dE             d eps       ncg     rms          rms(c)
DAV:   1    -0.101168347409E+02   -0.15724E-05   -0.11054E-04 19704   0.238E-02    0.246E-03
DAV:   2    -0.101168346888E+02    0.52130E-07   -0.17983E-06 20448   0.329E-03
  58 F= -.10116835E+02 E0= -.10116602E+02  d E =-.151364E-05
       N       E                     dE             d eps       ncg     rms          rms(c)
DAV:   1    -0.101168347260E+02    0.14871E-07   -0.84089E-07 20736   0.231E-03    0.567E-04
DAV:   2    -0.101168347400E+02   -0.13968E-07   -0.21286E-08 21216   0.319E-04
  59 F= -.10116835E+02 E0= -.10116602E+02  d E =-.156487E-05
       N       E                     dE             d eps       ncg     rms          rms(c)
DAV:   1    -0.101168353926E+02   -0.66659E-06   -0.59185E-05 26256   0.187E-02    0.185E-03
DAV:   2    -0.101168353722E+02    0.20463E-07   -0.37688E-07 21672   0.169E-03
  60 F= -.10116835E+02 E0= -.10116602E+02  d E =-.632154E-06
       N       E                     dE             d eps       ncg     rms          rms(c)
DAV:   1    -0.101168353590E+02    0.33668E-07   -0.59112E-08 22584   0.426E-04    0.128E-04
DAV:   2    -0.101168353584E+02    0.60687E-09   -0.34616E-09 20424   0.994E-05
  61 F= -.10116835E+02 E0= -.10116602E+02  d E =-.618342E-06
       N       E                     dE             d eps       ncg     rms          rms(c)
DAV:   1    -0.101168356120E+02   -0.25308E-06   -0.17461E-05 21528   0.100E-02    0.102E-03
DAV:   2    -0.101168355814E+02    0.30672E-07   -0.10918E-07 20928   0.924E-04
  62 F= -.10116836E+02 E0= -.10116602E+02  d E =-.223013E-06
