 running   42 mpi-ranks, on    1 nodes
 distrk:  each k-point on   42 cores,    1 groups
 distr:  one band on    6 cores,    7 groups
 vasp.6.5.0 16Dec24 (build Jan 08 2025 16:49:20) complex                        
  
 POSCAR found type information on POSCAR Be
 POSCAR found :  1 types and       2 ions
 Reading from existing POTCAR
 scaLAPACK will be used
 Reading from existing POTCAR
 LDA part: xc-table for (Slater+PW92), standard interpolation
 WARNING: stress and forces are not correct
 POSCAR, INCAR and KPOINTS ok, starting setup
 FFT: planning ... GRIDC
 FFT: planning ... GRID_SOFT
 FFT: planning ... GRID
 WAVECAR not read
 reading imaginary part of occupancies ...
 charge-density read from file: beta                                    
 reading imaginary part of occupancies ...
 magnetization density read from file 1
 reading imaginary part of occupancies ...
 magnetization density read from file 2
 reading imaginary part of occupancies ...
 magnetization density read from file 3
 entering main loop
       N       E                     dE             d eps       ncg     rms          rms(c)
DAV:   1     0.817224081314E+01    0.81722E+01   -0.15129E+03 13832   0.199E+02
DAV:   2    -0.213138793202E+01   -0.10304E+02   -0.20988E+01 21490   0.178E+01
DAV:   3    -0.253010508191E+01   -0.39872E+00   -0.39323E+00 18480   0.617E+00
DAV:   4    -0.253251666238E+01   -0.24116E-02   -0.24112E-02 19768   0.634E-01
DAV:   5    -0.253258206919E+01   -0.65407E-04   -0.65407E-04 20202   0.777E-02
DAV:   6    -0.253258294005E+01   -0.87086E-06   -0.87000E-06 20566   0.777E-03
DAV:   7    -0.253258298459E+01   -0.44544E-07   -0.44432E-07 20174   0.144E-03
DAV:   8    -0.253258298554E+01   -0.94786E-09   -0.97564E-09 20482   0.200E-04
   1 F= -.25325830E+01 E0= -.25324000E+01  d E =-.365946E-03  mag=     0.0000    -0.0000     0.0000
