 running   24 mpi-ranks, on    1 nodes
 distrk:  each k-point on   24 cores,    1 groups
 distr:  one band on    6 cores,    4 groups
 vasp.6.5.0 16Dec24 (build Jan 08 2025 16:17:04) complex                        
  
 POSCAR found type information on POSCAR Be
 POSCAR found :  1 types and       3 ions
 Reading from existing POTCAR
 scaLAPACK will be used
 Reading from existing POTCAR
 LDA part: xc-table for (Slater+PW92), standard interpolation
 -----------------------------------------------------------------------------
|                                                                             |
|           W    W    AA    RRRRR   N    N  II  N    N   GGGG   !!!           |
|           W    W   A  A   R    R  NN   N  II  NN   N  G    G  !!!           |
|           W    W  A    A  R    R  N N  N  II  N N  N  G       !!!           |
|           W WW W  AAAAAA  RRRRR   N  N N  II  N  N N  G  GGG   !            |
|           WW  WW  A    A  R   R   N   NN  II  N   NN  G    G                |
|           W    W  A    A  R    R  N    N  II  N    N   GGGG   !!!           |
|                                                                             |
|     The number of bands has been changed from the values supplied in        |
|     the INCAR file. This is a result of running the parallel version.       |
|     The orbitals not found in the WAVECAR file will be initialized with     |
|     random numbers, which is usually adequate. For correlated               |
|     calculations, however, you should redo the groundstate calculation.     |
|     I found NBANDS = 14. Now, NBANDS = 16.                                  |
|                                                                             |
 -----------------------------------------------------------------------------

 POSCAR, INCAR and KPOINTS ok, starting setup
 FFT: planning ... GRIDC
 FFT: planning ... GRID_SOFT
 FFT: planning ... GRID
 WAVECAR not read
 entering main loop
       N       E                     dE             d eps       ncg     rms          rms(c)
DAV:   1     0.198238096708E+02    0.19824E+02   -0.21097E+03 91864   0.264E+02
DAV:   2    -0.104459300645E+02   -0.30270E+02   -0.27734E+02142680   0.605E+01
DAV:   3    -0.113160220194E+02   -0.87009E+00   -0.86433E+00135576   0.992E+00
DAV:   4    -0.113254568451E+02   -0.94348E-02   -0.94329E-02123992   0.128E+00
DAV:   5    -0.113257091688E+02   -0.25232E-03   -0.25232E-03134872   0.155E-01    0.391E+00
DAV:   6    -0.919814601977E+01    0.21276E+01   -0.51025E+00116168   0.466E+00    0.175E+00
DAV:   7    -0.924142821908E+01   -0.43282E-01   -0.70742E-01119752   0.207E+00    0.123E+00
DAV:   8    -0.912538678507E+01    0.11604E+00   -0.12029E-01126528   0.140E+00    0.940E-01
DAV:   9    -0.914222810261E+01   -0.16841E-01   -0.60944E-02121984   0.949E-01    0.707E-01
DAV:  10    -0.923083885793E+01   -0.88611E-01   -0.28255E-02116864   0.459E-01    0.610E-01
DAV:  11    -0.942775230826E+01   -0.19691E+00   -0.87640E-02119376   0.608E-01    0.490E-01
DAV:  12    -0.953063711512E+01   -0.10288E+00   -0.50927E-02111800   0.443E-01    0.454E-01
DAV:  13    -0.967329832459E+01   -0.14266E+00   -0.17616E-01102840   0.822E-01    0.385E-01
DAV:  14    -0.978855758972E+01   -0.11526E+00   -0.66900E-02108752   0.498E-01    0.332E-01
DAV:  15    -0.988551603997E+01   -0.96958E-01   -0.23883E-02115848   0.395E-01    0.278E-01
DAV:  16    -0.984584716316E+01    0.39669E-01   -0.14158E-02101272   0.278E-01    0.226E-01
DAV:  17    -0.991470303479E+01   -0.68856E-01   -0.30196E-03110928   0.146E-01    0.190E-01
DAV:  18    -0.995996153729E+01   -0.45259E-01   -0.11537E-02108136   0.186E-01    0.138E-01
DAV:  19    -0.998234865497E+01   -0.22387E-01   -0.19435E-03112944   0.977E-02    0.965E-02
DAV:  20    -0.999887676453E+01   -0.16528E-01   -0.57886E-04113672   0.741E-02    0.658E-02
DAV:  21    -0.100063909658E+02   -0.75142E-02   -0.74467E-04113544   0.887E-02    0.441E-02
DAV:  22    -0.100058663250E+02    0.52464E-03   -0.83362E-04108792   0.676E-02    0.275E-02
DAV:  23    -0.100056939665E+02    0.17236E-03   -0.16464E-04107224   0.394E-02    0.165E-02
DAV:  24    -0.100064447503E+02   -0.75078E-03   -0.19971E-04102200   0.474E-02    0.112E-02
DAV:  25    -0.100076707494E+02   -0.12260E-02   -0.26892E-04 99368   0.438E-02    0.555E-03
DAV:  26    -0.100090364071E+02   -0.13657E-02   -0.30301E-05104776   0.144E-02    0.371E-03
DAV:  27    -0.100094050463E+02   -0.36864E-03   -0.13866E-05100832   0.916E-03    0.181E-03
DAV:  28    -0.100095058261E+02   -0.10078E-03   -0.22416E-06100144   0.399E-03    0.956E-04
DAV:  29    -0.100095562593E+02   -0.50433E-04   -0.17003E-06 92424   0.230E-03    0.663E-04
DAV:  30    -0.100095860280E+02   -0.29769E-04   -0.16173E-06103360   0.180E-03    0.288E-04
DAV:  31    -0.100095933197E+02   -0.72917E-05   -0.38246E-07108864   0.836E-04    0.188E-04
DAV:  32    -0.100095984060E+02   -0.50863E-05   -0.11179E-07101064   0.513E-04    0.109E-04
DAV:  33    -0.100095999301E+02   -0.15241E-05   -0.25088E-08111112   0.325E-04    0.629E-05
DAV:  34    -0.100096003939E+02   -0.46375E-06   -0.85163E-09109424   0.157E-04    0.469E-05
DAV:  35    -0.100096008406E+02   -0.44675E-06   -0.34497E-09101520   0.115E-04    0.263E-05
DAV:  36    -0.100096009867E+02   -0.14614E-06   -0.12541E-09 98576   0.924E-05    0.174E-05
DAV:  37    -0.100096010740E+02   -0.87274E-07   -0.41158E-10104320   0.646E-05
   1 F= -.10009601E+02 E0= -.10009588E+02  d E =-.257196E-04  mag=    -0.0000
