beta-Beryllene full hollow-hollow_2     
   1.00000000000000     
     7.7873759270000003    0.0000000000000000    0.0000000000000000
    -2.5037705693999999    5.7216422345000000    0.0000000000000000
     0.0000000000000000    0.0000000000000000   40.0000000000000000
  Be              H             
    18    18
Direct
     0.0404840409999991    0.1876592639999970    0.1223261949999994
     0.0404840409999991    0.5209925770000012    0.1223261949999994
     0.0404840409999991    0.8543259500000033    0.1223261949999994
     0.3738173839999988    0.1876592639999970    0.1223261949999994
     0.3738173839999988    0.5209925770000012    0.1223261949999994
     0.3738173839999988    0.8543259500000033    0.1223261949999994
     0.7071506979999995    0.1876592639999970    0.1223261949999994
     0.7071506979999995    0.5209925770000012    0.1223261949999994
     0.7071506979999995    0.8543259500000033    0.1223261949999994
     0.1840044859999992    0.0927603470000022    0.0776737030000021
     0.1840044859999992    0.4260936680000000    0.0776737030000021
     0.1840044859999992    0.7594270109999997    0.0776737030000021
     0.5173377990000034    0.0927603470000022    0.0776737030000021
     0.5173377990000034    0.4260936680000000    0.0776737030000021
     0.5173377990000034    0.7594270109999997    0.0776737030000021
     0.8506711719999984    0.0927603470000022    0.0776737030000021
     0.8506711719999984    0.4260936680000000    0.0776737030000021
     0.8506711719999984    0.7594270109999997    0.0776737030000021
     0.0345871560000006    0.0180491939999996    0.1474172320000022
     0.0345871560000006    0.3513825240000017    0.1474172320000022
     0.0345871560000006    0.6847158670000013    0.1474172320000022
     0.3679204880000029    0.0180491939999996    0.1474172320000022
     0.3679204880000029    0.3513825240000017    0.1474172320000022
     0.3679204880000029    0.6847158670000013    0.1474172320000022
     0.7012538310000025    0.0180491939999996    0.1474172320000022
     0.7012538310000025    0.3513825240000017    0.1474172320000022
     0.7012538310000025    0.6847158670000013    0.1474172320000022
     0.1898557100000033    0.2623602449999965    0.0522078709999985
     0.1898557100000033    0.5956935880000032    0.0525828709999985
     0.1898557100000033    0.9290269019999968    0.0525828709999985
     0.5231890680000006    0.2623602449999964    0.0525828709999985
     0.5231890680000006    0.5956935880000032    0.0525828709999985
     0.5231890680000006    0.9290269019999968    0.0525828709999985
     0.8565223809999978    0.2623602449999964    0.0525828709999985
     0.8565223809999978    0.5956935880000032    0.0525828709999985
     0.8565223809999978    0.9290269019999968    0.0525828709999985
 
  0.00000000E+00  0.00000000E+00  0.00000000E+00
  0.00000000E+00  0.00000000E+00  0.00000000E+00
  0.00000000E+00  0.00000000E+00  0.00000000E+00
  0.00000000E+00  0.00000000E+00  0.00000000E+00
  0.00000000E+00  0.00000000E+00  0.00000000E+00
  0.00000000E+00  0.00000000E+00  0.00000000E+00
  0.00000000E+00  0.00000000E+00  0.00000000E+00
  0.00000000E+00  0.00000000E+00  0.00000000E+00
  0.00000000E+00  0.00000000E+00  0.00000000E+00
  0.00000000E+00  0.00000000E+00  0.00000000E+00
  0.00000000E+00  0.00000000E+00  0.00000000E+00
  0.00000000E+00  0.00000000E+00  0.00000000E+00
  0.00000000E+00  0.00000000E+00  0.00000000E+00
  0.00000000E+00  0.00000000E+00  0.00000000E+00
  0.00000000E+00  0.00000000E+00  0.00000000E+00
  0.00000000E+00  0.00000000E+00  0.00000000E+00
  0.00000000E+00  0.00000000E+00  0.00000000E+00
  0.00000000E+00  0.00000000E+00  0.00000000E+00
  0.00000000E+00  0.00000000E+00  0.00000000E+00
  0.00000000E+00  0.00000000E+00  0.00000000E+00
  0.00000000E+00  0.00000000E+00  0.00000000E+00
  0.00000000E+00  0.00000000E+00  0.00000000E+00
  0.00000000E+00  0.00000000E+00  0.00000000E+00
  0.00000000E+00  0.00000000E+00  0.00000000E+00
  0.00000000E+00  0.00000000E+00  0.00000000E+00
  0.00000000E+00  0.00000000E+00  0.00000000E+00
  0.00000000E+00  0.00000000E+00  0.00000000E+00
  0.00000000E+00  0.00000000E+00  0.00000000E+00
  0.00000000E+00  0.00000000E+00  0.00000000E+00
  0.00000000E+00  0.00000000E+00  0.00000000E+00
  0.00000000E+00  0.00000000E+00  0.00000000E+00
  0.00000000E+00  0.00000000E+00  0.00000000E+00
  0.00000000E+00  0.00000000E+00  0.00000000E+00
  0.00000000E+00  0.00000000E+00  0.00000000E+00
  0.00000000E+00  0.00000000E+00  0.00000000E+00
  0.00000000E+00  0.00000000E+00  0.00000000E+00
