  75  75   0   0
  0.5815868E+02  0.1161076E-08  0.1053976E-08  0.4000000E-08  0.5000000E-15
  1.000000000000000E-004
  CAR 
 Phonopy                                 
      2.65221322    -15.28785072  301     -3.62017092      1.00000000
    -15.288  0.0000E+00  0.0000E+00
    -15.228  0.0000E+00  0.0000E+00
    -15.168  0.0000E+00  0.0000E+00
    -15.108  0.0000E+00  0.0000E+00
    -15.049  0.0000E+00  0.0000E+00
    -14.989  0.0000E+00  0.0000E+00
    -14.929  0.0000E+00  0.0000E+00
    -14.869  0.1485E-15  0.8882E-17
    -14.809  0.1121E-12  0.6715E-14
    -14.750  0.4605E-10  0.2761E-11
    -14.690  0.9532E-08  0.5728E-09
    -14.630  0.1005E-05  0.6068E-07
    -14.570  0.5486E-04  0.3341E-05
    -14.510  0.1579E-02  0.9777E-04
    -14.451  0.2443E-01  0.1559E-02
    -14.391  0.2063E+00  0.1390E-01
    -14.331  0.9663E+00  0.7168E-01
    -14.271  0.2603E+01  0.2274E+00
    -14.211  0.4463E+01  0.4942E+00
    -14.152  0.5752E+01  0.8382E+00
    -14.092  0.6112E+01  0.1204E+01
    -14.032  0.5753E+01  0.1548E+01
    -13.972  0.6149E+01  0.1915E+01
    -13.912  0.6788E+01  0.2321E+01
    -13.853  0.6053E+01  0.2683E+01
    -13.793  0.5177E+01  0.2993E+01
    -13.733  0.5918E+01  0.3347E+01
    -13.673  0.7274E+01  0.3782E+01
    -13.613  0.6997E+01  0.4200E+01
    -13.554  0.5407E+01  0.4524E+01
    -13.494  0.4833E+01  0.4813E+01
    -13.434  0.5895E+01  0.5165E+01
    -13.374  0.7099E+01  0.5590E+01
    -13.314  0.7390E+01  0.6032E+01
    -13.255  0.6756E+01  0.6436E+01
    -13.195  0.5368E+01  0.6757E+01
    -13.135  0.4445E+01  0.7022E+01
    -13.075  0.5561E+01  0.7355E+01
    -13.015  0.7305E+01  0.7792E+01
    -12.956  0.7564E+01  0.8244E+01
    -12.896  0.6925E+01  0.8658E+01
    -12.836  0.6149E+01  0.9026E+01
    -12.776  0.5525E+01  0.9356E+01
    -12.716  0.5136E+01  0.9664E+01
    -12.657  0.5289E+01  0.9980E+01
    -12.597  0.6495E+01  0.1037E+02
    -12.537  0.7489E+01  0.1082E+02
    -12.477  0.7421E+01  0.1126E+02
    -12.417  0.7146E+01  0.1169E+02
    -12.358  0.6317E+01  0.1206E+02
    -12.298  0.4957E+01  0.1236E+02
    -12.238  0.4650E+01  0.1264E+02
    -12.178  0.5890E+01  0.1299E+02
    -12.118  0.7272E+01  0.1343E+02
    -12.059  0.7392E+01  0.1387E+02
    -11.999  0.6679E+01  0.1427E+02
    -11.939  0.6420E+01  0.1465E+02
    -11.879  0.7076E+01  0.1507E+02
    -11.819  0.7352E+01  0.1551E+02
    -11.760  0.6062E+01  0.1588E+02
    -11.700  0.4346E+01  0.1614E+02
    -11.640  0.4196E+01  0.1639E+02
    -11.580  0.6516E+01  0.1678E+02
    -11.520  0.9022E+01  0.1732E+02
    -11.461  0.8650E+01  0.1783E+02
    -11.401  0.7210E+01  0.1827E+02
    -11.341  0.7926E+01  0.1874E+02
    -11.281  0.1032E+02  0.1936E+02
    -11.221  0.1246E+02  0.2010E+02
    -11.162  0.1282E+02  0.2087E+02
    -11.102  0.1135E+02  0.2155E+02
    -11.042  0.1016E+02  0.2215E+02
    -10.982  0.1098E+02  0.2281E+02
    -10.922  0.1316E+02  0.2360E+02
    -10.863  0.1471E+02  0.2448E+02
    -10.803  0.1439E+02  0.2534E+02
    -10.743  0.1271E+02  0.2610E+02
    -10.683  0.1183E+02  0.2681E+02
    -10.623  0.1236E+02  0.2754E+02
    -10.564  0.1253E+02  0.2829E+02
    -10.504  0.1259E+02  0.2905E+02
    -10.444  0.1271E+02  0.2981E+02
    -10.384  0.1149E+02  0.3049E+02
    -10.324  0.1058E+02  0.3113E+02
    -10.265  0.1219E+02  0.3186E+02
    -10.205  0.1456E+02  0.3273E+02
    -10.145  0.1519E+02  0.3363E+02
    -10.085  0.1453E+02  0.3450E+02
    -10.025  0.1398E+02  0.3534E+02
     -9.966  0.1377E+02  0.3616E+02
     -9.906  0.1267E+02  0.3692E+02
     -9.846  0.1160E+02  0.3761E+02
     -9.786  0.1203E+02  0.3833E+02
     -9.726  0.1235E+02  0.3907E+02
     -9.667  0.1221E+02  0.3980E+02
     -9.607  0.1329E+02  0.4060E+02
     -9.547  0.1557E+02  0.4153E+02
     -9.487  0.1695E+02  0.4254E+02
     -9.427  0.1568E+02  0.4348E+02
     -9.368  0.1284E+02  0.4425E+02
     -9.308  0.1128E+02  0.4492E+02
     -9.248  0.1332E+02  0.4572E+02
     -9.188  0.1698E+02  0.4673E+02
     -9.128  0.1885E+02  0.4786E+02
     -9.069  0.1749E+02  0.4891E+02
     -9.009  0.1501E+02  0.4981E+02
     -8.949  0.1402E+02  0.5064E+02
     -8.889  0.1275E+02  0.5141E+02
     -8.829  0.1278E+02  0.5217E+02
     -8.770  0.1671E+02  0.5317E+02
     -8.710  0.2122E+02  0.5444E+02
     -8.650  0.2316E+02  0.5582E+02
     -8.590  0.2266E+02  0.5718E+02
     -8.530  0.1923E+02  0.5833E+02
     -8.471  0.1441E+02  0.5919E+02
     -8.411  0.1183E+02  0.5990E+02
     -8.351  0.1179E+02  0.6060E+02
     -8.291  0.1235E+02  0.6134E+02
     -8.231  0.1225E+02  0.6207E+02
     -8.172  0.1160E+02  0.6277E+02
     -8.112  0.1189E+02  0.6348E+02
     -8.052  0.1415E+02  0.6432E+02
     -7.992  0.1766E+02  0.6538E+02
     -7.932  0.1884E+02  0.6651E+02
     -7.873  0.1578E+02  0.6745E+02
     -7.813  0.1255E+02  0.6820E+02
     -7.753  0.1222E+02  0.6893E+02
     -7.693  0.1181E+02  0.6964E+02
     -7.633  0.9823E+01  0.7023E+02
     -7.574  0.8941E+01  0.7076E+02
     -7.514  0.9914E+01  0.7135E+02
     -7.454  0.1205E+02  0.7207E+02
     -7.394  0.1453E+02  0.7294E+02
     -7.334  0.1461E+02  0.7382E+02
     -7.275  0.1227E+02  0.7455E+02
     -7.215  0.1205E+02  0.7527E+02
     -7.155  0.1434E+02  0.7613E+02
     -7.095  0.1461E+02  0.7700E+02
     -7.035  0.1236E+02  0.7774E+02
     -6.976  0.1014E+02  0.7835E+02
     -6.916  0.8885E+01  0.7888E+02
     -6.856  0.8781E+01  0.7940E+02
     -6.796  0.8800E+01  0.7993E+02
     -6.736  0.8608E+01  0.8044E+02
     -6.677  0.9250E+01  0.8100E+02
     -6.617  0.1023E+02  0.8161E+02
     -6.557  0.1046E+02  0.8223E+02
     -6.497  0.1028E+02  0.8285E+02
     -6.437  0.1163E+02  0.8354E+02
     -6.378  0.1474E+02  0.8443E+02
     -6.318  0.1610E+02  0.8539E+02
     -6.258  0.1530E+02  0.8630E+02
     -6.198  0.1492E+02  0.8720E+02
     -6.138  0.1454E+02  0.8807E+02
     -6.079  0.1483E+02  0.8895E+02
     -6.019  0.1639E+02  0.8993E+02
     -5.959  0.1628E+02  0.9091E+02
     -5.899  0.1422E+02  0.9176E+02
     -5.839  0.1208E+02  0.9248E+02
     -5.780  0.1118E+02  0.9315E+02
     -5.720  0.1313E+02  0.9393E+02
     -5.660  0.1713E+02  0.9496E+02
     -5.600  0.1961E+02  0.9613E+02
     -5.540  0.1918E+02  0.9728E+02
     -5.481  0.1805E+02  0.9836E+02
     -5.421  0.1818E+02  0.9944E+02
     -5.361  0.1859E+02  0.1006E+03
     -5.301  0.1812E+02  0.1016E+03
     -5.241  0.1691E+02  0.1027E+03
     -5.182  0.1484E+02  0.1035E+03
     -5.122  0.1241E+02  0.1043E+03
     -5.062  0.1244E+02  0.1050E+03
     -5.002  0.1636E+02  0.1060E+03
     -4.942  0.2134E+02  0.1073E+03
     -4.883  0.2424E+02  0.1087E+03
     -4.823  0.2303E+02  0.1101E+03
     -4.763  0.1709E+02  0.1111E+03
     -4.703  0.1018E+02  0.1117E+03
     -4.643  0.7814E+01  0.1122E+03
     -4.584  0.9268E+01  0.1128E+03
     -4.524  0.1037E+02  0.1134E+03
     -4.464  0.1226E+02  0.1141E+03
     -4.404  0.1673E+02  0.1151E+03
     -4.344  0.1949E+02  0.1163E+03
     -4.285  0.1889E+02  0.1174E+03
     -4.225  0.1814E+02  0.1185E+03
     -4.165  0.1681E+02  0.1195E+03
     -4.105  0.1393E+02  0.1203E+03
     -4.045  0.1078E+02  0.1210E+03
     -3.986  0.8765E+01  0.1215E+03
     -3.926  0.8959E+01  0.1220E+03
     -3.866  0.9939E+01  0.1226E+03
     -3.806  0.9141E+01  0.1232E+03
     -3.746  0.8263E+01  0.1237E+03
     -3.687  0.9862E+01  0.1243E+03
     -3.627  0.1117E+02  0.1249E+03
     -3.567  0.1019E+02  0.1255E+03
     -3.507  0.8961E+01  0.1261E+03
     -3.447  0.7918E+01  0.1265E+03
     -3.388  0.6605E+01  0.1269E+03
     -3.328  0.6087E+01  0.1273E+03
     -3.268  0.5738E+01  0.1276E+03
     -3.208  0.4849E+01  0.1279E+03
     -3.148  0.5845E+01  0.1283E+03
     -3.089  0.8405E+01  0.1288E+03
     -3.029  0.8817E+01  0.1293E+03
     -2.969  0.7156E+01  0.1297E+03
     -2.909  0.5555E+01  0.1301E+03
     -2.849  0.4581E+01  0.1304E+03
     -2.790  0.4865E+01  0.1306E+03
     -2.730  0.7004E+01  0.1311E+03
     -2.670  0.9193E+01  0.1316E+03
     -2.610  0.8505E+01  0.1321E+03
     -2.550  0.5762E+01  0.1325E+03
     -2.491  0.3887E+01  0.1327E+03
     -2.431  0.3398E+01  0.1329E+03
     -2.371  0.3853E+01  0.1331E+03
     -2.311  0.5224E+01  0.1334E+03
     -2.251  0.6789E+01  0.1338E+03
     -2.192  0.7469E+01  0.1343E+03
     -2.132  0.7532E+01  0.1347E+03
     -2.072  0.7772E+01  0.1352E+03
     -2.012  0.7953E+01  0.1357E+03
     -1.952  0.7535E+01  0.1361E+03
     -1.893  0.7069E+01  0.1366E+03
     -1.833  0.6692E+01  0.1370E+03
     -1.773  0.5711E+01  0.1373E+03
     -1.713  0.5079E+01  0.1376E+03
     -1.653  0.5254E+01  0.1379E+03
     -1.594  0.6431E+01  0.1383E+03
     -1.534  0.9045E+01  0.1388E+03
     -1.474  0.1260E+02  0.1396E+03
     -1.414  0.1827E+02  0.1407E+03
     -1.354  0.2691E+02  0.1423E+03
     -1.295  0.3449E+02  0.1444E+03
     -1.235  0.3347E+02  0.1464E+03
     -1.175  0.2230E+02  0.1477E+03
     -1.115  0.1173E+02  0.1484E+03
     -1.055  0.8247E+01  0.1489E+03
     -0.996  0.7272E+01  0.1493E+03
     -0.936  0.5365E+01  0.1496E+03
     -0.876  0.5322E+01  0.1500E+03
     -0.816  0.8767E+01  0.1505E+03
     -0.756  0.1255E+02  0.1512E+03
     -0.697  0.1469E+02  0.1521E+03
     -0.637  0.1635E+02  0.1531E+03
     -0.577  0.1826E+02  0.1542E+03
     -0.517  0.2162E+02  0.1555E+03
     -0.457  0.2505E+02  0.1570E+03
     -0.398  0.2486E+02  0.1585E+03
     -0.338  0.2375E+02  0.1599E+03
     -0.278  0.2425E+02  0.1613E+03
     -0.218  0.2351E+02  0.1627E+03
     -0.158  0.2212E+02  0.1641E+03
     -0.099  0.2157E+02  0.1654E+03
     -0.039  0.2118E+02  0.1666E+03
      0.021  0.2242E+02  0.1680E+03
      0.081  0.2529E+02  0.1695E+03
      0.141  0.2588E+02  0.1710E+03
      0.200  0.2441E+02  0.1725E+03
      0.260  0.2293E+02  0.1739E+03
      0.320  0.2055E+02  0.1751E+03
      0.380  0.1809E+02  0.1762E+03
      0.440  0.1772E+02  0.1772E+03
      0.499  0.1899E+02  0.1784E+03
      0.559  0.1837E+02  0.1795E+03
      0.619  0.1635E+02  0.1804E+03
      0.679  0.1698E+02  0.1815E+03
      0.739  0.1954E+02  0.1826E+03
      0.798  0.2137E+02  0.1839E+03
      0.858  0.2372E+02  0.1853E+03
      0.918  0.2687E+02  0.1869E+03
      0.978  0.2904E+02  0.1887E+03
      1.038  0.3021E+02  0.1905E+03
      1.097  0.2947E+02  0.1922E+03
      1.157  0.2635E+02  0.1938E+03
      1.217  0.2512E+02  0.1953E+03
      1.277  0.2824E+02  0.1970E+03
      1.337  0.3251E+02  0.1989E+03
      1.396  0.3663E+02  0.2011E+03
      1.456  0.4020E+02  0.2035E+03
      1.516  0.3902E+02  0.2059E+03
      1.576  0.3170E+02  0.2078E+03
      1.636  0.2134E+02  0.2090E+03
      1.695  0.1108E+02  0.2097E+03
      1.755  0.3975E+01  0.2099E+03
      1.815  0.8932E+00  0.2100E+03
      1.875  0.1159E+00  0.2100E+03
      1.935  0.8176E-02  0.2100E+03
      1.994  0.3020E-03  0.2100E+03
      2.054  0.5710E-05  0.2100E+03
      2.114  0.5455E-07  0.2100E+03
      2.174  0.2612E-09  0.2100E+03
      2.234  0.6232E-12  0.2100E+03
      2.293  0.5941E-15  0.2100E+03
      2.353  0.0000E+00  0.2100E+03
      2.413  0.0000E+00  0.2100E+03
      2.473  0.0000E+00  0.2100E+03
      2.533  0.0000E+00  0.2100E+03
      2.592  0.0000E+00  0.2100E+03
      2.652  0.0000E+00  0.2100E+03
