 running   42 mpi-ranks, on    1 nodes
 distrk:  each k-point on   42 cores,    1 groups
 distr:  one band on    1 cores,   42 groups
 vasp.6.5.0 16Dec24 (build Jan 08 2025 16:17:04) complex                        
  
 POSCAR found type information on POSCAR Be
 POSCAR found :  1 types and       3 ions
 Reading from existing POTCAR
 scaLAPACK will be used
 -----------------------------------------------------------------------------
|                                                                             |
|           W    W    AA    RRRRR   N    N  II  N    N   GGGG   !!!           |
|           W    W   A  A   R    R  NN   N  II  NN   N  G    G  !!!           |
|           W    W  A    A  R    R  N N  N  II  N N  N  G       !!!           |
|           W WW W  AAAAAA  RRRRR   N  N N  II  N  N N  G  GGG   !            |
|           WW  WW  A    A  R   R   N   NN  II  N   NN  G    G                |
|           W    W  A    A  R    R  N    N  II  N    N   GGGG   !!!           |
|                                                                             |
|     The value NCORE = 16 specified in the INCAR file was overwritten,       |
|     because it was not compatible with the 42 processes available:          |
|     NCORE = 1                                                               |
|     was used instead, please check that this makes sense for your           |
|     machine.                                                                |
|                                                                             |
 -----------------------------------------------------------------------------

 -----------------------------------------------------------------------------
|                                                                             |
|           W    W    AA    RRRRR   N    N  II  N    N   GGGG   !!!           |
|           W    W   A  A   R    R  NN   N  II  NN   N  G    G  !!!           |
|           W    W  A    A  R    R  N N  N  II  N N  N  G       !!!           |
|           W WW W  AAAAAA  RRRRR   N  N N  II  N  N N  G  GGG   !            |
|           WW  WW  A    A  R   R   N   NN  II  N   NN  G    G                |
|           W    W  A    A  R    R  N    N  II  N    N   GGGG   !!!           |
|                                                                             |
|     For optimal performance we recommend to set                             |
|       NCORE = 2 up to number-of-cores-per-socket                            |
|     NCORE specifies how many cores store one orbital (NPAR=cpu/NCORE).      |
|     This setting can greatly improve the performance of VASP for DFT.       |
|     The default, NCORE=1 might be grossly inefficient on modern             |
|     multi-core architectures or massively parallel machines. Do your        |
|     own testing! More info at https://www.vasp.at/wiki/index.php/NCORE      |
|     Unfortunately you need to use the default for GW and RPA                |
|     calculations (for HF NCORE is supported but not extensively tested      |
|     yet).                                                                   |
|                                                                             |
 -----------------------------------------------------------------------------

 Reading from existing POTCAR
 LDA part: xc-table for (Slater+PW92), standard interpolation
 -----------------------------------------------------------------------------
|                                                                             |
|           W    W    AA    RRRRR   N    N  II  N    N   GGGG   !!!           |
|           W    W   A  A   R    R  NN   N  II  NN   N  G    G  !!!           |
|           W    W  A    A  R    R  N N  N  II  N N  N  G       !!!           |
|           W WW W  AAAAAA  RRRRR   N  N N  II  N  N N  G  GGG   !            |
|           WW  WW  A    A  R   R   N   NN  II  N   NN  G    G                |
|           W    W  A    A  R    R  N    N  II  N    N   GGGG   !!!           |
|                                                                             |
|     The number of bands has been changed from the values supplied in        |
|     the INCAR file. This is a result of running the parallel version.       |
|     The orbitals not found in the WAVECAR file will be initialized with     |
|     random numbers, which is usually adequate. For correlated               |
|     calculations, however, you should redo the groundstate calculation.     |
|     I found NBANDS = 160. Now, NBANDS = 168.                                |
|                                                                             |
 -----------------------------------------------------------------------------

 found WAVECAR, reading the header
  number of bands has changed, file:    84 present:   168
  trying to continue reading WAVECAR, but it might fail
 POSCAR, INCAR and KPOINTS ok, starting setup
 FFT: planning ... GRIDC
 FFT: planning ... GRID_SOFT
 FFT: planning ... GRID
 reading WAVECAR
 random initialization beyond band           84
 the WAVECAR file was read successfully
 entering main loop
       N       E                     dE             d eps       ncg     rms          rms(c)
DAV:   1    -0.114900099766E+02   -0.11490E+02   -0.86494E+00 34608   0.492E-01    0.303E+00
DAV:   2    -0.102279772961E+02    0.12620E+01   -0.47556E+00 38052   0.366E-01    0.121E+00
DAV:   3    -0.100665681737E+02    0.16141E+00   -0.30340E-01 39018   0.101E-01    0.593E-01
DAV:   4    -0.100131663988E+02    0.53402E-01   -0.83978E-02 36246   0.575E-02    0.175E-01
DAV:   5    -0.100076327515E+02    0.55336E-02   -0.77041E-03 39102   0.194E-02    0.862E-02
DAV:   6    -0.100053009365E+02    0.23318E-02   -0.10802E-02 38934   0.176E-02    0.476E-02
DAV:   7    -0.100062353591E+02   -0.93442E-03   -0.56935E-04 37548   0.510E-03    0.250E-02
DAV:   8    -0.100068845845E+02   -0.64923E-03   -0.69618E-04 37884   0.535E-03    0.147E-02
DAV:   9    -0.100074238843E+02   -0.53930E-03   -0.87085E-05 35868   0.240E-03    0.484E-03
DAV:  10    -0.100075540844E+02   -0.13020E-03   -0.13921E-05 36162   0.713E-04    0.376E-03
DAV:  11    -0.100076920204E+02   -0.13794E-03   -0.19629E-05 35238   0.774E-04    0.124E-03
DAV:  12    -0.100077287968E+02   -0.36776E-04   -0.26967E-06 34650   0.183E-04    0.701E-04
DAV:  13    -0.100077457130E+02   -0.16916E-04   -0.11005E-06 36372   0.138E-04    0.319E-04
DAV:  14    -0.100077536289E+02   -0.79159E-05   -0.32386E-07 35616   0.536E-05    0.131E-04
DAV:  15    -0.100077552088E+02   -0.15799E-05   -0.85108E-09 37926   0.155E-05    0.648E-05
DAV:  16    -0.100077557878E+02   -0.57904E-06   -0.80722E-09 36456   0.932E-06
   1 F= -.10007756E+02 E0= -.10007703E+02  d E =-.105020E-03
 writing wavefunctions
 optical routines
 imaginary and real dielectric function
 recalculating local potential from charge density
 direction            1
 direction            2
 direction            3
