   1   1   0   0
  0.2512496E+03  0.2506240E-09  0.2506240E-09  0.4000000E-08  0.5000000E-15
  1.000000000000000E-004
  CAR 
 Convergence                             
     24.67810484    -10.97699020  301     -3.78544935      1.00000000
    -10.977  0.0000E+00  0.0000E+00
    -10.858  0.0000E+00  0.0000E+00
    -10.739  0.0000E+00  0.0000E+00
    -10.620  0.0000E+00  0.0000E+00
    -10.502  0.0000E+00  0.0000E+00
    -10.383  0.0000E+00  0.0000E+00
    -10.264  0.0000E+00  0.0000E+00
    -10.145  0.0000E+00  0.0000E+00
    -10.026  0.0000E+00  0.0000E+00
     -9.907  0.0000E+00  0.0000E+00
     -9.788  0.0000E+00  0.0000E+00
     -9.670  0.0000E+00  0.0000E+00
     -9.551  0.3429E-09  0.4075E-10
     -9.432  0.5688E-03  0.6760E-04
     -9.313  0.1249E+00  0.1491E-01
     -9.194  0.3280E+00  0.5389E-01
     -9.075  0.3350E+00  0.9371E-01
     -8.957  0.3231E+00  0.1321E+00
     -8.838  0.3176E+00  0.1699E+00
     -8.719  0.3671E+00  0.2135E+00
     -8.600  0.2817E+00  0.2470E+00
     -8.481  0.3760E+00  0.2917E+00
     -8.362  0.3101E+00  0.3285E+00
     -8.243  0.3507E+00  0.3702E+00
     -8.125  0.2862E+00  0.4042E+00
     -8.006  0.4153E+00  0.4536E+00
     -7.887  0.2420E+00  0.4823E+00
     -7.768  0.4267E+00  0.5330E+00
     -7.649  0.3033E+00  0.5691E+00
     -7.530  0.3180E+00  0.6069E+00
     -7.411  0.3744E+00  0.6514E+00
     -7.293  0.3323E+00  0.6909E+00
     -7.174  0.2493E+00  0.7205E+00
     -7.055  0.4995E+00  0.7799E+00
     -6.936  0.2515E+00  0.8098E+00
     -6.817  0.2954E+00  0.8449E+00
     -6.698  0.4723E+00  0.9010E+00
     -6.580  0.2783E+00  0.9341E+00
     -6.461  0.3032E+00  0.9701E+00
     -6.342  0.4290E+00  0.1021E+01
     -6.223  0.3822E+00  0.1067E+01
     -6.104  0.2694E+00  0.1099E+01
     -5.985  0.4056E+00  0.1147E+01
     -5.866  0.4205E+00  0.1197E+01
     -5.748  0.3004E+00  0.1232E+01
     -5.629  0.4259E+00  0.1283E+01
     -5.510  0.4347E+00  0.1335E+01
     -5.391  0.4385E+00  0.1387E+01
     -5.272  0.4797E+00  0.1444E+01
     -5.153  0.3991E+00  0.1491E+01
     -5.034  0.2657E+00  0.1523E+01
     -4.916  0.3528E+00  0.1565E+01
     -4.797  0.2890E+00  0.1599E+01
     -4.678  0.1560E+00  0.1618E+01
     -4.559  0.3633E+00  0.1661E+01
     -4.440  0.2594E+00  0.1692E+01
     -4.321  0.4764E+00  0.1748E+01
     -4.203  0.4809E+00  0.1805E+01
     -4.084  0.4894E+00  0.1864E+01
     -3.965  0.4145E+00  0.1913E+01
     -3.846  0.4280E+00  0.1964E+01
     -3.727  0.5596E+00  0.2030E+01
     -3.608  0.3715E+00  0.2074E+01
     -3.489  0.8496E+00  0.2175E+01
     -3.371  0.5242E+00  0.2238E+01
     -3.252  0.7411E+00  0.2326E+01
     -3.133  0.8105E+00  0.2422E+01
     -3.014  0.5215E+00  0.2484E+01
     -2.895  0.5768E+00  0.2553E+01
     -2.776  0.9258E+00  0.2663E+01
     -2.657  0.6938E+00  0.2745E+01
     -2.539  0.6392E+00  0.2821E+01
     -2.420  0.6566E+00  0.2899E+01
     -2.301  0.6798E+00  0.2980E+01
     -2.182  0.9589E+00  0.3094E+01
     -2.063  0.6832E+00  0.3175E+01
     -1.944  0.7439E+00  0.3263E+01
     -1.826  0.9469E+00  0.3376E+01
     -1.707  0.8253E+00  0.3474E+01
     -1.588  0.8346E+00  0.3573E+01
     -1.469  0.9323E+00  0.3684E+01
     -1.350  0.6063E+00  0.3756E+01
     -1.231  0.6828E+00  0.3837E+01
     -1.112  0.4628E+00  0.3892E+01
     -0.994  0.8241E+00  0.3990E+01
     -0.875  0.8398E+00  0.4090E+01
     -0.756  0.5083E+00  0.4150E+01
     -0.637  0.5994E+00  0.4222E+01
     -0.518  0.6078E+00  0.4294E+01
     -0.399  0.6707E+00  0.4374E+01
     -0.280  0.7201E+00  0.4459E+01
     -0.162  0.9629E+00  0.4574E+01
     -0.043  0.1113E+01  0.4706E+01
      0.076  0.9149E+00  0.4815E+01
      0.195  0.5813E+00  0.4884E+01
      0.314  0.9651E+00  0.4998E+01
      0.433  0.1156E+01  0.5136E+01
      0.551  0.1347E+01  0.5296E+01
      0.670  0.1570E+01  0.5482E+01
      0.789  0.1516E+01  0.5663E+01
      0.908  0.1717E+01  0.5867E+01
      1.027  0.2002E+01  0.6105E+01
      1.146  0.1715E+01  0.6308E+01
      1.265  0.1829E+01  0.6526E+01
      1.383  0.2024E+01  0.6766E+01
      1.502  0.1830E+01  0.6984E+01
      1.621  0.2086E+01  0.7232E+01
      1.740  0.2205E+01  0.7494E+01
      1.859  0.2097E+01  0.7743E+01
      1.978  0.2586E+01  0.8050E+01
      2.097  0.2776E+01  0.8380E+01
      2.215  0.2665E+01  0.8697E+01
      2.334  0.2594E+01  0.9005E+01
      2.453  0.2523E+01  0.9305E+01
      2.572  0.2434E+01  0.9594E+01
      2.691  0.2994E+01  0.9950E+01
      2.810  0.2839E+01  0.1029E+02
      2.928  0.2743E+01  0.1061E+02
      3.047  0.2970E+01  0.1097E+02
      3.166  0.3770E+01  0.1141E+02
      3.285  0.3515E+01  0.1183E+02
      3.404  0.3447E+01  0.1224E+02
      3.523  0.4280E+01  0.1275E+02
      3.642  0.3554E+01  0.1317E+02
      3.760  0.3454E+01  0.1358E+02
      3.879  0.3458E+01  0.1399E+02
      3.998  0.3916E+01  0.1446E+02
      4.117  0.3755E+01  0.1491E+02
      4.236  0.4026E+01  0.1538E+02
      4.355  0.3901E+01  0.1585E+02
      4.474  0.4219E+01  0.1635E+02
      4.592  0.3371E+01  0.1675E+02
      4.711  0.4328E+01  0.1726E+02
      4.830  0.3709E+01  0.1771E+02
      4.949  0.3963E+01  0.1818E+02
      5.068  0.4306E+01  0.1869E+02
      5.187  0.4207E+01  0.1919E+02
      5.306  0.3577E+01  0.1961E+02
      5.424  0.4913E+01  0.2020E+02
      5.543  0.4234E+01  0.2070E+02
      5.662  0.4548E+01  0.2124E+02
      5.781  0.4288E+01  0.2175E+02
      5.900  0.5213E+01  0.2237E+02
      6.019  0.4351E+01  0.2289E+02
      6.137  0.4421E+01  0.2341E+02
      6.256  0.4880E+01  0.2399E+02
      6.375  0.5396E+01  0.2463E+02
      6.494  0.4361E+01  0.2515E+02
      6.613  0.3961E+01  0.2562E+02
      6.732  0.4942E+01  0.2621E+02
      6.851  0.4824E+01  0.2678E+02
      6.969  0.4839E+01  0.2736E+02
      7.088  0.6071E+01  0.2808E+02
      7.207  0.4785E+01  0.2865E+02
      7.326  0.4742E+01  0.2921E+02
      7.445  0.5214E+01  0.2983E+02
      7.564  0.5596E+01  0.3050E+02
      7.683  0.5029E+01  0.3110E+02
      7.801  0.4853E+01  0.3167E+02
      7.920  0.5038E+01  0.3227E+02
      8.039  0.5015E+01  0.3287E+02
      8.158  0.4823E+01  0.3344E+02
      8.277  0.5582E+01  0.3410E+02
      8.396  0.5355E+01  0.3474E+02
      8.514  0.4694E+01  0.3530E+02
      8.633  0.5670E+01  0.3597E+02
      8.752  0.4906E+01  0.3656E+02
      8.871  0.5071E+01  0.3716E+02
      8.990  0.5421E+01  0.3780E+02
      9.109  0.6014E+01  0.3852E+02
      9.228  0.5859E+01  0.3921E+02
      9.346  0.5882E+01  0.3991E+02
      9.465  0.5212E+01  0.4053E+02
      9.584  0.5047E+01  0.4113E+02
      9.703  0.4568E+01  0.4167E+02
      9.822  0.6101E+01  0.4240E+02
      9.941  0.5660E+01  0.4307E+02
     10.060  0.5267E+01  0.4370E+02
     10.178  0.4904E+01  0.4428E+02
     10.297  0.4846E+01  0.4486E+02
     10.416  0.5554E+01  0.4552E+02
     10.535  0.4860E+01  0.4609E+02
     10.654  0.5988E+01  0.4681E+02
     10.773  0.6336E+01  0.4756E+02
     10.891  0.6266E+01  0.4830E+02
     11.010  0.6019E+01  0.4902E+02
     11.129  0.6130E+01  0.4975E+02
     11.248  0.5488E+01  0.5040E+02
     11.367  0.5739E+01  0.5108E+02
     11.486  0.5848E+01  0.5178E+02
     11.605  0.5069E+01  0.5238E+02
     11.723  0.5490E+01  0.5303E+02
     11.842  0.6408E+01  0.5379E+02
     11.961  0.6578E+01  0.5458E+02
     12.080  0.5147E+01  0.5519E+02
     12.199  0.5922E+01  0.5589E+02
     12.318  0.5491E+01  0.5654E+02
     12.437  0.6376E+01  0.5730E+02
     12.555  0.6021E+01  0.5802E+02
     12.674  0.7252E+01  0.5888E+02
     12.793  0.6379E+01  0.5964E+02
     12.912  0.6674E+01  0.6043E+02
     13.031  0.5429E+01  0.6108E+02
     13.150  0.5491E+01  0.6173E+02
     13.268  0.6392E+01  0.6249E+02
     13.387  0.6246E+01  0.6323E+02
     13.506  0.6699E+01  0.6403E+02
     13.625  0.6954E+01  0.6485E+02
     13.744  0.6389E+01  0.6561E+02
     13.863  0.6252E+01  0.6636E+02
     13.982  0.6556E+01  0.6713E+02
     14.100  0.6241E+01  0.6788E+02
     14.219  0.6774E+01  0.6868E+02
     14.338  0.6893E+01  0.6950E+02
     14.457  0.5865E+01  0.7020E+02
     14.576  0.6889E+01  0.7102E+02
     14.695  0.6579E+01  0.7180E+02
     14.814  0.5941E+01  0.7250E+02
     14.932  0.5680E+01  0.7318E+02
     15.051  0.5661E+01  0.7385E+02
     15.170  0.6103E+01  0.7458E+02
     15.289  0.4654E+01  0.7513E+02
     15.408  0.5695E+01  0.7581E+02
     15.527  0.5065E+01  0.7641E+02
     15.645  0.4557E+01  0.7695E+02
     15.764  0.3494E+01  0.7737E+02
     15.883  0.3652E+01  0.7780E+02
     16.002  0.3607E+01  0.7823E+02
     16.121  0.4168E+01  0.7872E+02
     16.240  0.2726E+01  0.7905E+02
     16.359  0.2824E+01  0.7938E+02
     16.477  0.1986E+01  0.7962E+02
     16.596  0.2508E+01  0.7992E+02
     16.715  0.2442E+01  0.8021E+02
     16.834  0.3138E+01  0.8058E+02
     16.953  0.1603E+01  0.8077E+02
     17.072  0.1570E+01  0.8096E+02
     17.191  0.1717E+01  0.8116E+02
     17.309  0.1283E+01  0.8132E+02
     17.428  0.8527E+00  0.8142E+02
     17.547  0.1519E+01  0.8160E+02
     17.666  0.8478E+00  0.8170E+02
     17.785  0.6594E+00  0.8178E+02
     17.904  0.7678E+00  0.8187E+02
     18.022  0.1459E+01  0.8204E+02
     18.141  0.1924E+01  0.8227E+02
     18.260  0.1092E+01  0.8240E+02
     18.379  0.1349E+01  0.8256E+02
     18.498  0.1314E+01  0.8272E+02
     18.617  0.9048E+00  0.8282E+02
     18.736  0.4127E+00  0.8287E+02
     18.854  0.5060E+00  0.8293E+02
     18.973  0.5260E+00  0.8299E+02
     19.092  0.5521E+00  0.8306E+02
     19.211  0.5723E+00  0.8313E+02
     19.330  0.4399E+00  0.8318E+02
     19.449  0.4314E+00  0.8323E+02
     19.568  0.5535E+00  0.8330E+02
     19.686  0.4059E+00  0.8335E+02
     19.805  0.7441E-01  0.8335E+02
     19.924  0.3188E+00  0.8339E+02
     20.043  0.3395E+00  0.8343E+02
     20.162  0.7706E+00  0.8352E+02
     20.281  0.2845E+00  0.8356E+02
     20.399  0.1419E+00  0.8358E+02
     20.518  0.4805E+00  0.8363E+02
     20.637  0.6250E+00  0.8371E+02
     20.756  0.6776E+00  0.8379E+02
     20.875  0.2632E+00  0.8382E+02
     20.994  0.6476E-01  0.8383E+02
     21.113  0.1134E+00  0.8384E+02
     21.231  0.4336E-01  0.8385E+02
     21.350  0.1309E+00  0.8386E+02
     21.469  0.3298E-01  0.8386E+02
     21.588  0.6116E-01  0.8387E+02
     21.707  0.3022E+00  0.8391E+02
     21.826  0.1835E+00  0.8393E+02
     21.945  0.1263E+00  0.8394E+02
     22.063  0.1527E+00  0.8396E+02
     22.182  0.5104E-01  0.8397E+02
     22.301  0.2439E-01  0.8397E+02
     22.420  0.3280E-01  0.8398E+02
     22.539  0.5072E-04  0.8398E+02
     22.658  0.2897E-08  0.8398E+02
     22.776  0.1617E-02  0.8398E+02
     22.895  0.9128E-01  0.8399E+02
     23.014  0.3072E-01  0.8399E+02
     23.133  0.8127E-01  0.8400E+02
     23.252  0.1175E-02  0.8400E+02
     23.371  0.1125E-08  0.8400E+02
     23.490  0.0000E+00  0.8400E+02
     23.608  0.0000E+00  0.8400E+02
     23.727  0.0000E+00  0.8400E+02
     23.846  0.0000E+00  0.8400E+02
     23.965  0.0000E+00  0.8400E+02
     24.084  0.0000E+00  0.8400E+02
     24.203  0.0000E+00  0.8400E+02
     24.322  0.0000E+00  0.8400E+02
     24.440  0.0000E+00  0.8400E+02
     24.559  0.0000E+00  0.8400E+02
     24.678  0.0000E+00  0.8400E+02
