       N       E                     dE             d eps       ncg     rms          rms(c)
DAV:   1     0.977166102403E+03    0.97717E+03   -0.41590E+04 21528   0.845E+02
DAV:   2    -0.210919422724E+03   -0.11881E+04   -0.11487E+04 33720   0.179E+02
DAV:   3    -0.359319272964E+03   -0.14840E+03   -0.14623E+03 27324   0.686E+01
DAV:   4    -0.363360471393E+03   -0.40412E+01   -0.40294E+01 27870   0.132E+01
DAV:   5    -0.363454008807E+03   -0.93537E-01   -0.93451E-01 30576   0.175E+00    0.210E+01
DAV:   6    -0.352227691052E+03    0.11226E+02   -0.43358E+00 24264   0.407E+00    0.121E+01
DAV:   7    -0.345045550129E+03    0.71821E+01   -0.99729E+00 23112   0.587E+00    0.144E+00
DAV:   8    -0.344620756429E+03    0.42479E+00   -0.10308E+00 26946   0.203E+00    0.851E-01
DAV:   9    -0.344543696204E+03    0.77060E-01   -0.13435E-01 28632   0.737E-01    0.613E-01
DAV:  10    -0.344507059264E+03    0.36637E-01   -0.52368E-02 24816   0.527E-01    0.229E-01
DAV:  11    -0.344504548230E+03    0.25110E-02   -0.22281E-02 25290   0.298E-01    0.234E-01
DAV:  12    -0.344515176665E+03   -0.10628E-01   -0.23882E-02 23856   0.262E-01    0.807E-02
DAV:  13    -0.344532159635E+03   -0.16983E-01   -0.74830E-03 25158   0.167E-01    0.119E-01
DAV:  14    -0.344546128820E+03   -0.13969E-01   -0.60456E-03 23298   0.162E-01    0.589E-02
DAV:  15    -0.344548468634E+03   -0.23398E-02   -0.56539E-04 27216   0.494E-02    0.489E-02
DAV:  16    -0.344551422935E+03   -0.29543E-02   -0.51077E-04 23130   0.496E-02    0.239E-02
DAV:  17    -0.344552250011E+03   -0.82708E-03   -0.12839E-04 25536   0.250E-02    0.529E-03
DAV:  18    -0.344552758579E+03   -0.50857E-03   -0.22574E-05 24096   0.808E-03    0.693E-03
DAV:  19    -0.344552884445E+03   -0.12587E-03   -0.29604E-06 27702   0.368E-03    0.122E-03
DAV:  20    -0.344552967810E+03   -0.83365E-04   -0.90996E-07 23562   0.179E-03    0.217E-03
DAV:  21    -0.344552999387E+03   -0.31577E-04   -0.89671E-08 23580   0.483E-04    0.162E-03
DAV:  22    -0.344553022615E+03   -0.23228E-04   -0.41631E-07 22620   0.138E-03    0.992E-04
DAV:  23    -0.344553028574E+03   -0.59588E-05   -0.66830E-08 24882   0.644E-04    0.811E-05
DAV:  24    -0.344553030826E+03   -0.22516E-05   -0.30881E-09 20478   0.183E-04    0.395E-05
DAV:  25    -0.344553031792E+03   -0.96650E-06    0.45286E-09 17400   0.910E-05    0.545E-05
DAV:  26    -0.344553032009E+03   -0.21709E-06    0.62815E-09 16632   0.501E-05    0.482E-05
DAV:  27    -0.344553032107E+03   -0.97511E-07    0.66172E-09 16590   0.344E-05    0.145E-05
DAV:  28    -0.344553032131E+03   -0.23722E-07    0.67776E-09 15708   0.227E-05    0.418E-06
DAV:  29    -0.344553032144E+03   -0.13726E-07    0.68507E-09 15600   0.132E-05    0.132E-06
DAV:  30    -0.344553032149E+03   -0.42742E-08    0.68710E-09 15456   0.949E-06
   1 F= -.35689503E+03 E0= -.35687996E+03  d E =-.301408E-01
