       N       E                     dE             d eps       ncg     rms          rms(c)
DAV:   1     0.841712846362E+03    0.84171E+03   -0.33975E+04  2730   0.834E+02
DAV:   2    -0.155455476016E+03   -0.99717E+03   -0.96328E+03  4214   0.176E+02
DAV:   3    -0.265099558557E+03   -0.10964E+03   -0.10785E+03  3430   0.646E+01
DAV:   4    -0.268496733406E+03   -0.33972E+01   -0.33816E+01  3584   0.129E+01
DAV:   5    -0.268576413545E+03   -0.79680E-01   -0.79561E-01  3864   0.177E+00    0.150E+01
DAV:   6    -0.258647839165E+03    0.99286E+01   -0.74742E+00  3045   0.541E+00    0.882E+00
DAV:   7    -0.253528542113E+03    0.51193E+01   -0.78368E+00  3024   0.578E+00    0.176E+00
DAV:   8    -0.253211839984E+03    0.31670E+00   -0.98925E-01  3682   0.201E+00    0.118E+00
DAV:   9    -0.253007274175E+03    0.20457E+00   -0.78656E-02  3332   0.767E-01    0.405E-01
DAV:  10    -0.252941008326E+03    0.66266E-01   -0.55658E-02  3325   0.498E-01    0.328E-01
DAV:  11    -0.252904819374E+03    0.36189E-01   -0.74685E-02  3255   0.486E-01    0.214E-01
DAV:  12    -0.252929546753E+03   -0.24727E-01   -0.28333E-02  3283   0.350E-01    0.184E-01
DAV:  13    -0.252933460961E+03   -0.39142E-02   -0.80400E-03  3157   0.217E-01    0.100E-01
DAV:  14    -0.252940966543E+03   -0.75056E-02   -0.15596E-03  3374   0.842E-02    0.335E-02
DAV:  15    -0.252950037838E+03   -0.90713E-02   -0.11304E-03  2919   0.539E-02    0.427E-02
DAV:  16    -0.252952388641E+03   -0.23508E-02   -0.17757E-04  3143   0.228E-02    0.125E-02
DAV:  17    -0.252953487869E+03   -0.10992E-02   -0.92488E-05  3227   0.198E-02    0.861E-03
DAV:  18    -0.252954320273E+03   -0.83240E-03   -0.65156E-05  2940   0.118E-02    0.323E-03
DAV:  19    -0.252954418410E+03   -0.98137E-04   -0.29269E-06  3080   0.292E-03    0.268E-03
DAV:  20    -0.252954583214E+03   -0.16480E-03   -0.40399E-06  2870   0.378E-03    0.186E-03
DAV:  21    -0.252954604096E+03   -0.20883E-04   -0.65057E-07  3150   0.195E-03    0.136E-03
DAV:  22    -0.252954631813E+03   -0.27717E-04   -0.33077E-07  2954   0.126E-03    0.716E-04
DAV:  23    -0.252954636780E+03   -0.49670E-05   -0.72930E-08  3066   0.724E-04    0.247E-04
DAV:  24    -0.252954641521E+03   -0.47411E-05   -0.30089E-08  2520   0.261E-04    0.766E-05
DAV:  25    -0.252954642710E+03   -0.11887E-05   -0.17843E-09  2184   0.122E-04    0.635E-05
DAV:  26    -0.252954643121E+03   -0.41108E-06   -0.93633E-11  2065   0.801E-05    0.689E-05
DAV:  27    -0.252954643265E+03   -0.14412E-06    0.11500E-09  2037   0.656E-05    0.906E-06
DAV:  28    -0.252954643306E+03   -0.40703E-07    0.15095E-09  2058   0.365E-05    0.145E-05
DAV:  29    -0.252954643327E+03   -0.21552E-07    0.17044E-09  2030   0.211E-05    0.866E-06
DAV:  30    -0.252954643334E+03   -0.65570E-08    0.17594E-09  2275   0.121E-05
   1 F= -.26430470E+03 E0= -.26427781E+03  d E =-.537762E-01
