 running   42 mpi-ranks, on    1 nodes
 distrk:  each k-point on   42 cores,    1 groups
 distr:  one band on    1 cores,   42 groups
 vasp.6.5.0 16Dec24 (build Jan 08 2025 16:17:04) complex                        
  
 POSCAR found type information on POSCAR Be
 POSCAR found :  1 types and       1 ions
 Reading from existing POTCAR
 scaLAPACK will be used
 -----------------------------------------------------------------------------
|                                                                             |
|           W    W    AA    RRRRR   N    N  II  N    N   GGGG   !!!           |
|           W    W   A  A   R    R  NN   N  II  NN   N  G    G  !!!           |
|           W    W  A    A  R    R  N N  N  II  N N  N  G       !!!           |
|           W WW W  AAAAAA  RRRRR   N  N N  II  N  N N  G  GGG   !            |
|           WW  WW  A    A  R   R   N   NN  II  N   NN  G    G                |
|           W    W  A    A  R    R  N    N  II  N    N   GGGG   !!!           |
|                                                                             |
|     For optimal performance we recommend to set                             |
|       NCORE = 2 up to number-of-cores-per-socket                            |
|     NCORE specifies how many cores store one orbital (NPAR=cpu/NCORE).      |
|     This setting can greatly improve the performance of VASP for DFT.       |
|     The default, NCORE=1 might be grossly inefficient on modern             |
|     multi-core architectures or massively parallel machines. Do your        |
|     own testing! More info at https://www.vasp.at/wiki/index.php/NCORE      |
|     Unfortunately you need to use the default for GW and RPA                |
|     calculations (for HF NCORE is supported but not extensively tested      |
|     yet).                                                                   |
|                                                                             |
 -----------------------------------------------------------------------------

 Reading from existing POTCAR
 LDA part: xc-table for (Slater+PW92), standard interpolation
 POSCAR, INCAR and KPOINTS ok, starting setup
 FFT: planning ... GRIDC
 FFT: planning ... GRID_SOFT
 FFT: planning ... GRID
 WAVECAR not read
 entering main loop
       N       E                     dE             d eps       ncg     rms          rms(c)
DAV:   1    -0.399920904489E+00   -0.39992E+00   -0.96693E+02 16464   0.368E+01
DAV:   2    -0.342650613677E+01   -0.30266E+01   -0.26096E+01 24654   0.504E+00
DAV:   3    -0.342913319180E+01   -0.26271E-02   -0.26253E-02 17136   0.170E-01
DAV:   4    -0.342913680499E+01   -0.36132E-05   -0.36127E-05 31752   0.619E-03
DAV:   5    -0.342913680445E+01    0.53615E-09   -0.13485E-10 17052   0.187E-05    0.234E+00
DAV:   6    -0.312737087115E+01    0.30177E+00   -0.15204E-01 24276   0.216E-01    0.126E+00
DAV:   7    -0.297530036533E+01    0.15207E+00   -0.23452E-01 21966   0.239E-01    0.194E-01
DAV:   8    -0.297521012166E+01    0.90244E-04   -0.85745E-04 26376   0.287E-02    0.101E-01
DAV:   9    -0.297109132494E+01    0.41188E-02   -0.40104E-03 26880   0.275E-02    0.422E-02
DAV:  10    -0.297163620086E+01   -0.54488E-03   -0.22202E-03 27342   0.199E-02    0.308E-02
DAV:  11    -0.297174449376E+01   -0.10829E-03   -0.12677E-04 26880   0.844E-03    0.153E-02
DAV:  12    -0.297223733576E+01   -0.49284E-03   -0.12153E-04 26082   0.490E-03    0.612E-03
DAV:  13    -0.297253093896E+01   -0.29360E-03   -0.61564E-05 24192   0.267E-03    0.241E-03
DAV:  14    -0.297262288871E+01   -0.91950E-04   -0.92701E-06 23394   0.832E-04    0.133E-03
DAV:  15    -0.297269284950E+01   -0.69961E-04   -0.13113E-05 23856   0.862E-04    0.589E-04
DAV:  16    -0.297270116857E+01   -0.83191E-05   -0.52662E-07 23604   0.306E-04    0.713E-04
DAV:  17    -0.297270646117E+01   -0.52926E-05   -0.45928E-07 24234   0.252E-04    0.173E-04
DAV:  18    -0.297270809710E+01   -0.16359E-05   -0.13433E-08 24402   0.448E-05    0.864E-05
DAV:  19    -0.297270840191E+01   -0.30482E-06   -0.13600E-08 23898   0.499E-05
   1 F= -.29727084E+01 E0= -.29724403E+01  d E =-.297271E+01
 curvature:   0.00 expect dE= 0.000E+00 dE for cont linesearch  0.000E+00
 trial: gam= 0.00000 g(F)=  0.126E-54 g(S)=  0.413E-04 ort = 0.000E+00 (trialstep = 0.100E+01)
 search vector abs. value=  0.413E-04
 bond charge predicted
       N       E                     dE             d eps       ncg     rms          rms(c)
DAV:   1    -0.297272914733E+01   -0.21050E-04   -0.14713E-04 27006   0.112E-02    0.477E-03
DAV:   2    -0.297272865110E+01    0.49623E-06   -0.60610E-07 23436   0.591E-04
   2 F= -.29727287E+01 E0= -.29724645E+01  d E =-.202492E-04
 trial-energy change:   -0.000020  1 .order   -0.000019   -0.000041    0.000003
 step:   0.9251(harm=  0.9251)  dis= 0.00000  next Energy=    -2.972728 (dE=-0.191E-04)
 bond charge predicted
       N       E                     dE             d eps       ncg     rms          rms(c)
DAV:   1    -0.297272879862E+01    0.34871E-06   -0.26530E-06 23688   0.807E-04    0.508E-04
DAV:   2    -0.297272877729E+01    0.21334E-07   -0.41283E-09 25788   0.672E-05
   3 F= -.29727288E+01 E0= -.29724663E+01  d E =-.203754E-04
 curvature:  -0.46 expect dE=-0.155E-06 dE for cont linesearch -0.740E-11
 trial: gam= 0.00748 g(F)=  0.733E-65 g(S)=  0.335E-06 ort = 0.257E-07 (trialstep = 0.985E+00)
 search vector abs. value=  0.337E-06
 bond charge predicted
       N       E                     dE             d eps       ncg     rms          rms(c)
DAV:   1    -0.297272895087E+01   -0.15225E-06   -0.11808E-06 24780   0.859E-04    0.175E-04
DAV:   2    -0.297272895381E+01   -0.29357E-08   -0.18247E-09 24066   0.416E-05
   4 F= -.29727290E+01 E0= -.29724663E+01  d E =-.176521E-06
 trial-energy change:   -0.000000  1 .order   -0.000000   -0.000000   -0.000000
 step:   1.3064(harm=  1.3064)  dis= 0.00000  next Energy=    -2.972729 (dE=-0.219E-06)
 reached required accuracy - stopping structural energy minimisation
