G-Beryllene trilayer ABA 0.100000       
   1.00000000000000     
    16.7219066619999985    0.0000000000000000    0.0000000000000000
    -8.3609552593000007   14.4815948556999992    0.0000000000000000
     0.0000000000000000    0.0000000000000000   40.0000000000000000
  Be            
   150
Direct
     0.0666666699999965    0.1333333400000001    0.1259193719999985
     0.0666666699999965    0.3333333429999996    0.1259193719999985
     0.0666666699999965    0.5333333609999968    0.1259193719999985
     0.0666666699999965    0.7333333489999987    0.1259193719999985
     0.0666666699999965    0.9333333370000005    0.1259193719999985
     0.2666666809999967    0.1333333400000001    0.1259193719999985
     0.2666666809999967    0.3333333429999996    0.1259193719999985
     0.2666666809999967    0.5333333609999968    0.1259193719999985
     0.2666666809999967    0.7333333489999987    0.1259193719999985
     0.2666666809999967    0.9333333370000005    0.1259193719999985
     0.4666666689999985    0.1333333400000001    0.1259193719999985
     0.4666666689999985    0.3333333429999996    0.1259193719999985
     0.4666666689999985    0.5333333609999968    0.1259193719999985
     0.4666666689999985    0.7333333489999987    0.1259193719999985
     0.4666666689999985    0.9333333370000005    0.1259193719999985
     0.6666666870000029    0.1333333400000001    0.1259193719999985
     0.6666666870000029    0.3333333429999996    0.1259193719999985
     0.6666666870000029    0.5333333609999968    0.1259193719999985
     0.6666666870000029    0.7333333489999987    0.1259193719999985
     0.6666666870000029    0.9333333370000005    0.1259193719999985
     0.8666666749999976    0.1333333400000001    0.1259193719999985
     0.8666666749999976    0.3333333429999996    0.1259193719999985
     0.8666666749999976    0.5333333609999968    0.1259193719999985
     0.8666666749999976    0.7333333489999987    0.1259193719999985
     0.8666666749999976    0.9333333370000005    0.1259193719999985
     0.1333333400000001    0.0666666699999965    0.1521695109999968
     0.1333333400000001    0.2666666809999967    0.1521695109999968
     0.1333333400000001    0.4666666689999985    0.1521695109999968
     0.1333333400000001    0.6666666870000029    0.1521695109999968
     0.1333333400000001    0.8666666749999976    0.1521695109999968
     0.3333333429999996    0.0666666699999965    0.1521695109999968
     0.3333333429999996    0.2666666809999967    0.1521695109999968
     0.3333333429999996    0.4666666689999985    0.1521695109999968
     0.3333333429999996    0.6666666870000029    0.1521695109999968
     0.3333333429999996    0.8666666749999976    0.1521695109999968
     0.5333333609999968    0.0666666699999965    0.1521695109999968
     0.5333333609999968    0.2666666809999967    0.1521695109999968
     0.5333333609999968    0.4666666689999985    0.1521695109999968
     0.5333333609999968    0.6666666870000029    0.1521695109999968
     0.5333333609999968    0.8666666749999976    0.1521695109999968
     0.7333333489999987    0.0666666699999965    0.1521695109999968
     0.7333333489999987    0.2666666809999967    0.1521695109999968
     0.7333333489999987    0.4666666689999985    0.1521695109999968
     0.7333333489999987    0.6666666870000029    0.1521695109999968
     0.7333333489999987    0.8666666749999976    0.1521695109999968
     0.9333333370000005    0.0666666699999965    0.1521695109999968
     0.9333333370000005    0.2666666809999967    0.1521695109999968
     0.9333333370000005    0.4666666689999985    0.1521695109999968
     0.9333333370000005    0.6666666870000029    0.1521695109999968
     0.9333333370000005    0.8666666749999976    0.1521695109999968
     0.0000000000000000    0.0000000000000000    0.1000000009999980
     0.0000000000000000    0.2000000029999995    0.1000000009999980
     0.0000000000000000    0.4000000059999991    0.1000000009999980
     0.0000000000000000    0.6000000240000034    0.1000000009999980
     0.0000000000000000    0.8000000119999982    0.1000000009999980
     0.2000000029999995    0.0000000000000000    0.1000000009999980
     0.2000000029999995    0.2000000029999995    0.1000000009999980
     0.2000000029999995    0.4000000059999991    0.1000000009999980
     0.2000000029999995    0.6000000240000034    0.1000000009999980
     0.2000000029999995    0.8000000119999982    0.1000000009999980
     0.4000000059999991    0.0000000000000000    0.1000000009999980
     0.4000000059999991    0.2000000029999995    0.1000000009999980
     0.4000000059999991    0.4000000059999991    0.1000000009999980
     0.4000000059999991    0.6000000240000034    0.1000000009999980
     0.4000000059999991    0.8000000119999982    0.1000000009999980
     0.6000000240000034    0.0000000000000000    0.1000000009999980
     0.6000000240000034    0.2000000029999995    0.1000000009999980
     0.6000000240000034    0.4000000059999991    0.1000000009999980
     0.6000000240000034    0.6000000240000034    0.1000000009999980
     0.6000000240000034    0.8000000119999982    0.1000000009999980
     0.8000000119999982    0.0000000000000000    0.1000000009999980
     0.8000000119999982    0.2000000029999995    0.1000000009999980
     0.8000000119999982    0.4000000059999991    0.1000000009999980
     0.8000000119999982    0.6000000240000034    0.1000000009999980
     0.8000000119999982    0.8000000119999982    0.1000000009999980
     0.1333333400000001    0.0666666699999965    0.0996250009999980
     0.1333333400000001    0.2666666809999967    0.1000000009999980
     0.1333333400000001    0.4666666689999985    0.1000000009999980
     0.1333333400000001    0.6666666870000029    0.1000000009999980
     0.1333333400000001    0.8666666749999976    0.1000000009999980
     0.3333333429999996    0.0666666699999965    0.1000000009999980
     0.3333333429999996    0.2666666809999967    0.1000000009999980
     0.3333333429999996    0.4666666689999985    0.1000000009999980
     0.3333333429999996    0.6666666870000029    0.1000000009999980
     0.3333333429999996    0.8666666749999976    0.1000000009999980
     0.5333333609999968    0.0666666699999965    0.1000000009999980
     0.5333333609999968    0.2666666809999967    0.1000000009999980
     0.5333333609999968    0.4666666689999985    0.1000000009999980
     0.5333333609999968    0.6666666870000029    0.1000000009999980
     0.5333333609999968    0.8666666749999976    0.1000000009999980
     0.7333333489999987    0.0666666699999965    0.1000000009999980
     0.7333333489999987    0.2666666809999967    0.1000000009999980
     0.7333333489999987    0.4666666689999985    0.1000000009999980
     0.7333333489999987    0.6666666870000029    0.1000000009999980
     0.7333333489999987    0.8666666749999976    0.1000000009999980
     0.9333333370000005    0.0666666699999965    0.1000000009999980
     0.9333333370000005    0.2666666809999967    0.1000000009999980
     0.9333333370000005    0.4666666689999985    0.1000000009999980
     0.9333333370000005    0.6666666870000029    0.1000000009999980
     0.9333333370000005    0.8666666749999976    0.1000000009999980
     0.0666666699999965    0.1333333400000001    0.0740806239999969
     0.0666666699999965    0.3333333429999996    0.0740806239999969
     0.0666666699999965    0.5333333609999968    0.0740806239999969
     0.0666666699999965    0.7333333489999987    0.0740806239999969
     0.0666666699999965    0.9333333370000005    0.0740806239999969
     0.2666666809999967    0.1333333400000001    0.0740806239999969
     0.2666666809999967    0.3333333429999996    0.0740806239999969
     0.2666666809999967    0.5333333609999968    0.0740806239999969
     0.2666666809999967    0.7333333489999987    0.0740806239999969
     0.2666666809999967    0.9333333370000005    0.0740806239999969
     0.4666666689999985    0.1333333400000001    0.0740806239999969
     0.4666666689999985    0.3333333429999996    0.0740806239999969
     0.4666666689999985    0.5333333609999968    0.0740806239999969
     0.4666666689999985    0.7333333489999987    0.0740806239999969
     0.4666666689999985    0.9333333370000005    0.0740806239999969
     0.6666666870000029    0.1333333400000001    0.0740806239999969
     0.6666666870000029    0.3333333429999996    0.0740806239999969
     0.6666666870000029    0.5333333609999968    0.0740806239999969
     0.6666666870000029    0.7333333489999987    0.0740806239999969
     0.6666666870000029    0.9333333370000005    0.0740806239999969
     0.8666666749999976    0.1333333400000001    0.0740806239999969
     0.8666666749999976    0.3333333429999996    0.0740806239999969
     0.8666666749999976    0.5333333609999968    0.0740806239999969
     0.8666666749999976    0.7333333489999987    0.0740806239999969
     0.8666666749999976    0.9333333370000005    0.0740806239999969
     0.1333333400000001    0.0666666699999965    0.0478304849999986
     0.1333333400000001    0.2666666809999967    0.0478304849999986
     0.1333333400000001    0.4666666689999985    0.0478304849999986
     0.1333333400000001    0.6666666870000029    0.0478304849999986
     0.1333333400000001    0.8666666749999976    0.0478304849999986
     0.3333333429999996    0.0666666699999965    0.0478304849999986
     0.3333333429999996    0.2666666809999967    0.0478304849999986
     0.3333333429999996    0.4666666689999985    0.0478304849999986
     0.3333333429999996    0.6666666870000029    0.0478304849999986
     0.3333333429999996    0.8666666749999976    0.0478304849999986
     0.5333333609999968    0.0666666699999965    0.0478304849999986
     0.5333333609999968    0.2666666809999967    0.0478304849999986
     0.5333333609999968    0.4666666689999985    0.0478304849999986
     0.5333333609999968    0.6666666870000029    0.0478304849999986
     0.5333333609999968    0.8666666749999976    0.0478304849999986
     0.7333333489999987    0.0666666699999965    0.0478304849999986
     0.7333333489999987    0.2666666809999967    0.0478304849999986
     0.7333333489999987    0.4666666689999985    0.0478304849999986
     0.7333333489999987    0.6666666870000029    0.0478304849999986
     0.7333333489999987    0.8666666749999976    0.0478304849999986
     0.9333333370000005    0.0666666699999965    0.0478304849999986
     0.9333333370000005    0.2666666809999967    0.0478304849999986
     0.9333333370000005    0.4666666689999985    0.0478304849999986
     0.9333333370000005    0.6666666870000029    0.0478304849999986
     0.9333333370000005    0.8666666749999976    0.0478304849999986
 
  0.00000000E+00  0.00000000E+00  0.00000000E+00
  0.00000000E+00  0.00000000E+00  0.00000000E+00
  0.00000000E+00  0.00000000E+00  0.00000000E+00
  0.00000000E+00  0.00000000E+00  0.00000000E+00
  0.00000000E+00  0.00000000E+00  0.00000000E+00
  0.00000000E+00  0.00000000E+00  0.00000000E+00
  0.00000000E+00  0.00000000E+00  0.00000000E+00
  0.00000000E+00  0.00000000E+00  0.00000000E+00
  0.00000000E+00  0.00000000E+00  0.00000000E+00
  0.00000000E+00  0.00000000E+00  0.00000000E+00
  0.00000000E+00  0.00000000E+00  0.00000000E+00
  0.00000000E+00  0.00000000E+00  0.00000000E+00
  0.00000000E+00  0.00000000E+00  0.00000000E+00
  0.00000000E+00  0.00000000E+00  0.00000000E+00
  0.00000000E+00  0.00000000E+00  0.00000000E+00
  0.00000000E+00  0.00000000E+00  0.00000000E+00
  0.00000000E+00  0.00000000E+00  0.00000000E+00
  0.00000000E+00  0.00000000E+00  0.00000000E+00
  0.00000000E+00  0.00000000E+00  0.00000000E+00
  0.00000000E+00  0.00000000E+00  0.00000000E+00
  0.00000000E+00  0.00000000E+00  0.00000000E+00
  0.00000000E+00  0.00000000E+00  0.00000000E+00
  0.00000000E+00  0.00000000E+00  0.00000000E+00
  0.00000000E+00  0.00000000E+00  0.00000000E+00
  0.00000000E+00  0.00000000E+00  0.00000000E+00
  0.00000000E+00  0.00000000E+00  0.00000000E+00
  0.00000000E+00  0.00000000E+00  0.00000000E+00
  0.00000000E+00  0.00000000E+00  0.00000000E+00
  0.00000000E+00  0.00000000E+00  0.00000000E+00
  0.00000000E+00  0.00000000E+00  0.00000000E+00
  0.00000000E+00  0.00000000E+00  0.00000000E+00
  0.00000000E+00  0.00000000E+00  0.00000000E+00
  0.00000000E+00  0.00000000E+00  0.00000000E+00
  0.00000000E+00  0.00000000E+00  0.00000000E+00
  0.00000000E+00  0.00000000E+00  0.00000000E+00
  0.00000000E+00  0.00000000E+00  0.00000000E+00
  0.00000000E+00  0.00000000E+00  0.00000000E+00
  0.00000000E+00  0.00000000E+00  0.00000000E+00
  0.00000000E+00  0.00000000E+00  0.00000000E+00
  0.00000000E+00  0.00000000E+00  0.00000000E+00
  0.00000000E+00  0.00000000E+00  0.00000000E+00
  0.00000000E+00  0.00000000E+00  0.00000000E+00
  0.00000000E+00  0.00000000E+00  0.00000000E+00
  0.00000000E+00  0.00000000E+00  0.00000000E+00
  0.00000000E+00  0.00000000E+00  0.00000000E+00
  0.00000000E+00  0.00000000E+00  0.00000000E+00
  0.00000000E+00  0.00000000E+00  0.00000000E+00
  0.00000000E+00  0.00000000E+00  0.00000000E+00
  0.00000000E+00  0.00000000E+00  0.00000000E+00
  0.00000000E+00  0.00000000E+00  0.00000000E+00
  0.00000000E+00  0.00000000E+00  0.00000000E+00
  0.00000000E+00  0.00000000E+00  0.00000000E+00
  0.00000000E+00  0.00000000E+00  0.00000000E+00
  0.00000000E+00  0.00000000E+00  0.00000000E+00
  0.00000000E+00  0.00000000E+00  0.00000000E+00
  0.00000000E+00  0.00000000E+00  0.00000000E+00
  0.00000000E+00  0.00000000E+00  0.00000000E+00
  0.00000000E+00  0.00000000E+00  0.00000000E+00
  0.00000000E+00  0.00000000E+00  0.00000000E+00
  0.00000000E+00  0.00000000E+00  0.00000000E+00
  0.00000000E+00  0.00000000E+00  0.00000000E+00
  0.00000000E+00  0.00000000E+00  0.00000000E+00
  0.00000000E+00  0.00000000E+00  0.00000000E+00
  0.00000000E+00  0.00000000E+00  0.00000000E+00
  0.00000000E+00  0.00000000E+00  0.00000000E+00
  0.00000000E+00  0.00000000E+00  0.00000000E+00
  0.00000000E+00  0.00000000E+00  0.00000000E+00
  0.00000000E+00  0.00000000E+00  0.00000000E+00
  0.00000000E+00  0.00000000E+00  0.00000000E+00
  0.00000000E+00  0.00000000E+00  0.00000000E+00
  0.00000000E+00  0.00000000E+00  0.00000000E+00
  0.00000000E+00  0.00000000E+00  0.00000000E+00
  0.00000000E+00  0.00000000E+00  0.00000000E+00
  0.00000000E+00  0.00000000E+00  0.00000000E+00
  0.00000000E+00  0.00000000E+00  0.00000000E+00
  0.00000000E+00  0.00000000E+00  0.00000000E+00
  0.00000000E+00  0.00000000E+00  0.00000000E+00
  0.00000000E+00  0.00000000E+00  0.00000000E+00
  0.00000000E+00  0.00000000E+00  0.00000000E+00
  0.00000000E+00  0.00000000E+00  0.00000000E+00
  0.00000000E+00  0.00000000E+00  0.00000000E+00
  0.00000000E+00  0.00000000E+00  0.00000000E+00
  0.00000000E+00  0.00000000E+00  0.00000000E+00
  0.00000000E+00  0.00000000E+00  0.00000000E+00
  0.00000000E+00  0.00000000E+00  0.00000000E+00
  0.00000000E+00  0.00000000E+00  0.00000000E+00
  0.00000000E+00  0.00000000E+00  0.00000000E+00
  0.00000000E+00  0.00000000E+00  0.00000000E+00
  0.00000000E+00  0.00000000E+00  0.00000000E+00
  0.00000000E+00  0.00000000E+00  0.00000000E+00
  0.00000000E+00  0.00000000E+00  0.00000000E+00
  0.00000000E+00  0.00000000E+00  0.00000000E+00
  0.00000000E+00  0.00000000E+00  0.00000000E+00
  0.00000000E+00  0.00000000E+00  0.00000000E+00
  0.00000000E+00  0.00000000E+00  0.00000000E+00
  0.00000000E+00  0.00000000E+00  0.00000000E+00
  0.00000000E+00  0.00000000E+00  0.00000000E+00
  0.00000000E+00  0.00000000E+00  0.00000000E+00
  0.00000000E+00  0.00000000E+00  0.00000000E+00
  0.00000000E+00  0.00000000E+00  0.00000000E+00
  0.00000000E+00  0.00000000E+00  0.00000000E+00
  0.00000000E+00  0.00000000E+00  0.00000000E+00
  0.00000000E+00  0.00000000E+00  0.00000000E+00
  0.00000000E+00  0.00000000E+00  0.00000000E+00
  0.00000000E+00  0.00000000E+00  0.00000000E+00
  0.00000000E+00  0.00000000E+00  0.00000000E+00
  0.00000000E+00  0.00000000E+00  0.00000000E+00
  0.00000000E+00  0.00000000E+00  0.00000000E+00
  0.00000000E+00  0.00000000E+00  0.00000000E+00
  0.00000000E+00  0.00000000E+00  0.00000000E+00
  0.00000000E+00  0.00000000E+00  0.00000000E+00
  0.00000000E+00  0.00000000E+00  0.00000000E+00
  0.00000000E+00  0.00000000E+00  0.00000000E+00
  0.00000000E+00  0.00000000E+00  0.00000000E+00
  0.00000000E+00  0.00000000E+00  0.00000000E+00
  0.00000000E+00  0.00000000E+00  0.00000000E+00
  0.00000000E+00  0.00000000E+00  0.00000000E+00
  0.00000000E+00  0.00000000E+00  0.00000000E+00
  0.00000000E+00  0.00000000E+00  0.00000000E+00
  0.00000000E+00  0.00000000E+00  0.00000000E+00
  0.00000000E+00  0.00000000E+00  0.00000000E+00
  0.00000000E+00  0.00000000E+00  0.00000000E+00
  0.00000000E+00  0.00000000E+00  0.00000000E+00
  0.00000000E+00  0.00000000E+00  0.00000000E+00
  0.00000000E+00  0.00000000E+00  0.00000000E+00
  0.00000000E+00  0.00000000E+00  0.00000000E+00
  0.00000000E+00  0.00000000E+00  0.00000000E+00
  0.00000000E+00  0.00000000E+00  0.00000000E+00
  0.00000000E+00  0.00000000E+00  0.00000000E+00
  0.00000000E+00  0.00000000E+00  0.00000000E+00
  0.00000000E+00  0.00000000E+00  0.00000000E+00
  0.00000000E+00  0.00000000E+00  0.00000000E+00
  0.00000000E+00  0.00000000E+00  0.00000000E+00
  0.00000000E+00  0.00000000E+00  0.00000000E+00
  0.00000000E+00  0.00000000E+00  0.00000000E+00
  0.00000000E+00  0.00000000E+00  0.00000000E+00
  0.00000000E+00  0.00000000E+00  0.00000000E+00
  0.00000000E+00  0.00000000E+00  0.00000000E+00
  0.00000000E+00  0.00000000E+00  0.00000000E+00
  0.00000000E+00  0.00000000E+00  0.00000000E+00
  0.00000000E+00  0.00000000E+00  0.00000000E+00
  0.00000000E+00  0.00000000E+00  0.00000000E+00
  0.00000000E+00  0.00000000E+00  0.00000000E+00
  0.00000000E+00  0.00000000E+00  0.00000000E+00
  0.00000000E+00  0.00000000E+00  0.00000000E+00
  0.00000000E+00  0.00000000E+00  0.00000000E+00
  0.00000000E+00  0.00000000E+00  0.00000000E+00
  0.00000000E+00  0.00000000E+00  0.00000000E+00
  0.00000000E+00  0.00000000E+00  0.00000000E+00
  0.00000000E+00  0.00000000E+00  0.00000000E+00
