 running   42 mpi-ranks, on    1 nodes
 distrk:  each k-point on   42 cores,    1 groups
 distr:  one band on    1 cores,   42 groups
 vasp.6.5.0 16Dec24 (build Jan 08 2025 16:17:04) complex                        
  
 POSCAR found type information on POSCAR Be
 POSCAR found :  1 types and       2 ions
 Reading from existing POTCAR
 scaLAPACK will be used
 -----------------------------------------------------------------------------
|                                                                             |
|           W    W    AA    RRRRR   N    N  II  N    N   GGGG   !!!           |
|           W    W   A  A   R    R  NN   N  II  NN   N  G    G  !!!           |
|           W    W  A    A  R    R  N N  N  II  N N  N  G       !!!           |
|           W WW W  AAAAAA  RRRRR   N  N N  II  N  N N  G  GGG   !            |
|           WW  WW  A    A  R   R   N   NN  II  N   NN  G    G                |
|           W    W  A    A  R    R  N    N  II  N    N   GGGG   !!!           |
|                                                                             |
|     For optimal performance we recommend to set                             |
|       NCORE = 2 up to number-of-cores-per-socket                            |
|     NCORE specifies how many cores store one orbital (NPAR=cpu/NCORE).      |
|     This setting can greatly improve the performance of VASP for DFT.       |
|     The default, NCORE=1 might be grossly inefficient on modern             |
|     multi-core architectures or massively parallel machines. Do your        |
|     own testing! More info at https://www.vasp.at/wiki/index.php/NCORE      |
|     Unfortunately you need to use the default for GW and RPA                |
|     calculations (for HF NCORE is supported but not extensively tested      |
|     yet).                                                                   |
|                                                                             |
 -----------------------------------------------------------------------------

 Reading from existing POTCAR
 LDA part: xc-table for (Slater+PW92), standard interpolation
 POSCAR, INCAR and KPOINTS ok, starting setup
 FFT: planning ... GRIDC
 FFT: planning ... GRID_SOFT
 FFT: planning ... GRID
 WAVECAR not read
 entering main loop
       N       E                     dE             d eps       ncg     rms          ort
DAV:   1     0.385285604637E+01    0.38529E+01   -0.16078E+03  3570   0.826E+01
DAV:   2    -0.339079555061E+01   -0.72437E+01   -0.69046E+01  3570   0.682E+00
DAV:   3    -0.345188487231E+01   -0.61089E-01   -0.60856E-01  3570   0.833E-01
DAV:   4    -0.345210334044E+01   -0.21847E-03   -0.21846E-03  3570   0.544E-02
DAV:   5    -0.345210337502E+01   -0.34576E-07   -0.34173E-07  3570   0.498E-04
 gam= 0.000 g(H,U,f)=  0.549E-01 0.502E-01 0.827E-01 ort(H,U,f) = 0.000E+00 0.000E+00 0.000E+00
SDA:   6    -0.312698751182E+01    0.32512E+00   -0.34173E-07  3570   0.188E+00 0.000E+00
 gam= 0.000 trial= 0.400  step= 0.871 mean= 0.400
 gam= 0.216 g(H,U,f)=  0.171E-01 0.109E-01 0.126E-01 ort(H,U,f) =-0.250E-01 0.255E-01 0.296E-01
CGA:   7    -0.321401622307E+01   -0.87029E-01   -0.81808E-01  3570   0.406E-01 0.301E-01
 gam= 0.216 trial= 0.424  step= 1.353 mean= 0.424
 gam= 0.405 g(H,U,f)=  0.149E-01 0.576E-03 0.964E-03 ort(H,U,f) =-0.911E-02-0.404E-02-0.663E-02
CGA:   8    -0.323804286422E+01   -0.24027E-01   -0.31904E-01  3570   0.165E-01-0.198E-01
 gam= 0.405 trial= 0.470  step= 0.443 mean= 0.470
 gam= 0.401 g(H,U,f)=  0.299E-02 0.137E-02 0.225E-02 ort(H,U,f) = 0.440E-02-0.172E-02-0.265E-02
CGA:   9    -0.323991355036E+01   -0.18707E-02   -0.18713E-02  3570   0.660E-02 0.372E-04
 gam= 0.401 trial= 0.469  step= 0.525 mean= 0.469
 gam= 0.544 g(H,U,f)=  0.123E-02 0.888E-03 0.147E-02 ort(H,U,f) =-0.149E-02 0.540E-03 0.960E-03
CGA:  10    -0.324164935634E+01   -0.17358E-02   -0.17358E-02  3570   0.359E-02 0.667E-05
 gam= 0.544 trial= 0.471  step= 0.665 mean= 0.471
 gam= 0.530 g(H,U,f)=  0.159E-02 0.124E-03 0.190E-03 ort(H,U,f) =-0.110E-02 0.429E-03 0.691E-03
CGA:  11    -0.324284820097E+01   -0.11988E-02   -0.11965E-02  3570   0.190E-02 0.216E-04
 gam= 0.530 trial= 0.481  step= 0.534 mean= 0.481
 gam= 0.355 g(H,U,f)=  0.673E-03 0.225E-05 0.389E-06 ort(H,U,f) = 0.528E-04-0.116E-04-0.231E-04
CGA:  12    -0.324336069199E+01   -0.51249E-03   -0.51153E-03  3570   0.676E-03 0.182E-04
 gam= 0.355 trial= 0.484  step= 0.621 mean= 0.484
 gam= 0.441 g(H,U,f)=  0.254E-03 0.176E-04 0.264E-04 ort(H,U,f) = 0.110E-03-0.425E-04-0.665E-04
CGA:  13    -0.324357276835E+01   -0.21208E-03   -0.21199E-03  3570   0.298E-03 0.105E-05
 gam= 0.441 trial= 0.491  step= 0.580 mean= 0.491
 gam= 0.327 g(H,U,f)=  0.639E-04 0.129E-04 0.206E-04 ort(H,U,f) = 0.773E-05-0.142E-05-0.257E-05
CGA:  14    -0.324365945657E+01   -0.86688E-04   -0.86527E-04  3570   0.974E-04 0.375E-05
 gam= 0.327 trial= 0.495  step= 0.569 mean= 0.495
 final diagonalization
   1 F= -.32436595E+01 E0= -.32423521E+01  d E =-.261480E-02
