   2   2   0   0
  0.2748765E+03  0.3983717E-09  0.3983717E-09  0.4000000E-08  0.5000000E-15
  1.000000000000000E-004
  CAR 
 Convergence                             
     13.73154457     -9.79297022  301     -3.80393941      1.00000000
     -9.793  0.0000E+00  0.0000E+00
     -9.715  0.0000E+00  0.0000E+00
     -9.636  0.0000E+00  0.0000E+00
     -9.558  0.0000E+00  0.0000E+00
     -9.479  0.0000E+00  0.0000E+00
     -9.401  0.0000E+00  0.0000E+00
     -9.322  0.0000E+00  0.0000E+00
     -9.244  0.0000E+00  0.0000E+00
     -9.166  0.0000E+00  0.0000E+00
     -9.087  0.0000E+00  0.0000E+00
     -9.009  0.6883E-16  0.5397E-17
     -8.930  0.4427E-09  0.3471E-10
     -8.852  0.2518E-04  0.1975E-05
     -8.774  0.1445E-01  0.1135E-02
     -8.695  0.2679E+00  0.2214E-01
     -8.617  0.8191E+00  0.8637E-01
     -8.538  0.4781E+00  0.1239E+00
     -8.460  0.1135E+01  0.2128E+00
     -8.381  0.6294E+00  0.2622E+00
     -8.303  0.1819E+00  0.2765E+00
     -8.225  0.1505E+01  0.3944E+00
     -8.146  0.6890E+00  0.4485E+00
     -8.068  0.7543E+00  0.5076E+00
     -7.989  0.1053E+00  0.5159E+00
     -7.911  0.7150E+00  0.5719E+00
     -7.833  0.1847E+01  0.7168E+00
     -7.754  0.5983E+00  0.7637E+00
     -7.676  0.3098E+00  0.7880E+00
     -7.597  0.7042E+00  0.8432E+00
     -7.519  0.1567E+00  0.8555E+00
     -7.441  0.1418E+01  0.9667E+00
     -7.362  0.1020E+01  0.1047E+01
     -7.284  0.1527E+01  0.1166E+01
     -7.205  0.1798E+00  0.1181E+01
     -7.127  0.1053E+00  0.1189E+01
     -7.048  0.7737E+00  0.1249E+01
     -6.970  0.5303E+00  0.1291E+01
     -6.892  0.1750E+01  0.1428E+01
     -6.813  0.1085E+01  0.1513E+01
     -6.735  0.9599E+00  0.1589E+01
     -6.656  0.1149E+01  0.1679E+01
     -6.578  0.3574E+00  0.1707E+01
     -6.500  0.1990E+00  0.1722E+01
     -6.421  0.4804E+00  0.1760E+01
     -6.343  0.2124E+01  0.1927E+01
     -6.264  0.5778E+00  0.1972E+01
     -6.186  0.4346E-02  0.1972E+01
     -6.107  0.2160E-01  0.1974E+01
     -6.029  0.3412E+00  0.2001E+01
     -5.951  0.2138E+00  0.2017E+01
     -5.872  0.9536E+00  0.2092E+01
     -5.794  0.1754E+01  0.2230E+01
     -5.715  0.1110E+01  0.2317E+01
     -5.637  0.5848E-01  0.2321E+01
     -5.559  0.1004E+01  0.2400E+01
     -5.480  0.1243E+01  0.2498E+01
     -5.402  0.8167E+00  0.2562E+01
     -5.323  0.9048E+00  0.2633E+01
     -5.245  0.1260E+01  0.2731E+01
     -5.166  0.5957E-01  0.2736E+01
     -5.088  0.3217E-02  0.2736E+01
     -5.010  0.5499E+00  0.2779E+01
     -4.931  0.2251E+01  0.2956E+01
     -4.853  0.5035E+00  0.2996E+01
     -4.774  0.2220E+00  0.3013E+01
     -4.696  0.1238E-01  0.3014E+01
     -4.618  0.4446E-01  0.3017E+01
     -4.539  0.1096E+01  0.3103E+01
     -4.461  0.3346E+01  0.3366E+01
     -4.382  0.8211E+00  0.3430E+01
     -4.304  0.5424E-02  0.3431E+01
     -4.226  0.1040E+00  0.3439E+01
     -4.147  0.8078E+00  0.3502E+01
     -4.069  0.1401E+01  0.3612E+01
     -3.990  0.1648E+01  0.3741E+01
     -3.912  0.5903E+00  0.3788E+01
     -3.833  0.1632E+01  0.3916E+01
     -3.755  0.3215E+01  0.4168E+01
     -3.677  0.1392E+01  0.4277E+01
     -3.598  0.7698E+00  0.4337E+01
     -3.520  0.3233E+01  0.4591E+01
     -3.441  0.1355E+01  0.4697E+01
     -3.363  0.7061E+00  0.4752E+01
     -3.285  0.7026E+00  0.4807E+01
     -3.206  0.1836E+01  0.4951E+01
     -3.128  0.3599E+01  0.5233E+01
     -3.049  0.4268E+01  0.5568E+01
     -2.971  0.1263E+01  0.5667E+01
     -2.892  0.1318E+01  0.5771E+01
     -2.814  0.2426E+01  0.5961E+01
     -2.736  0.1081E+01  0.6045E+01
     -2.657  0.1653E+01  0.6175E+01
     -2.579  0.1830E+01  0.6319E+01
     -2.500  0.2050E+01  0.6479E+01
     -2.422  0.3103E+01  0.6723E+01
     -2.344  0.1143E+01  0.6812E+01
     -2.265  0.6981E+00  0.6867E+01
     -2.187  0.4511E+00  0.6902E+01
     -2.108  0.6852E+00  0.6956E+01
     -2.030  0.3551E+01  0.7235E+01
     -1.951  0.2414E+01  0.7424E+01
     -1.873  0.2086E+01  0.7587E+01
     -1.795  0.3751E+00  0.7617E+01
     -1.716  0.8099E+00  0.7680E+01
     -1.638  0.1009E+01  0.7759E+01
     -1.559  0.6641E+00  0.7812E+01
     -1.481  0.1532E+01  0.7932E+01
     -1.403  0.5136E+00  0.7972E+01
     -1.324  0.3797E-02  0.7972E+01
     -1.246  0.3054E-06  0.7972E+01
     -1.167  0.1143E-09  0.7972E+01
     -1.089  0.1667E-04  0.7972E+01
     -1.010  0.2267E-01  0.7974E+01
     -0.932  0.4327E+00  0.8008E+01
     -0.854  0.2496E+00  0.8028E+01
     -0.775  0.3460E-02  0.8028E+01
     -0.697  0.5569E-06  0.8028E+01
     -0.618  0.8679E-07  0.8028E+01
     -0.540  0.2068E-02  0.8028E+01
     -0.462  0.5206E+00  0.8069E+01
     -0.383  0.2652E+01  0.8277E+01
     -0.305  0.6915E+00  0.8331E+01
     -0.226  0.1498E+01  0.8448E+01
     -0.148  0.5660E+00  0.8493E+01
     -0.070  0.4989E+00  0.8532E+01
      0.009  0.9131E+00  0.8604E+01
      0.087  0.2298E+01  0.8784E+01
      0.166  0.1881E+01  0.8931E+01
      0.244  0.1648E+01  0.9060E+01
      0.323  0.6622E+00  0.9112E+01
      0.401  0.1180E+01  0.9205E+01
      0.479  0.2667E+01  0.9414E+01
      0.558  0.3139E+01  0.9660E+01
      0.636  0.3127E+01  0.9905E+01
      0.715  0.2682E+01  0.1012E+02
      0.793  0.1451E+01  0.1023E+02
      0.871  0.3209E+01  0.1048E+02
      0.950  0.6066E+01  0.1096E+02
      1.028  0.4924E+01  0.1134E+02
      1.107  0.1920E+01  0.1149E+02
      1.185  0.2846E+01  0.1172E+02
      1.264  0.3604E+01  0.1200E+02
      1.342  0.4339E+01  0.1234E+02
      1.420  0.4435E+01  0.1269E+02
      1.499  0.5480E+01  0.1312E+02
      1.577  0.4349E+01  0.1346E+02
      1.656  0.3628E+01  0.1374E+02
      1.734  0.6785E+01  0.1427E+02
      1.812  0.5610E+01  0.1471E+02
      1.891  0.4788E+01  0.1509E+02
      1.969  0.3971E+01  0.1540E+02
      2.048  0.5675E+01  0.1585E+02
      2.126  0.8216E+01  0.1649E+02
      2.205  0.8150E+01  0.1713E+02
      2.283  0.7805E+01  0.1774E+02
      2.361  0.6387E+01  0.1824E+02
      2.440  0.6843E+01  0.1878E+02
      2.518  0.8403E+01  0.1944E+02
      2.597  0.7949E+01  0.2006E+02
      2.675  0.5905E+01  0.2052E+02
      2.753  0.5037E+01  0.2092E+02
      2.832  0.5508E+01  0.2135E+02
      2.910  0.9473E+01  0.2209E+02
      2.989  0.1073E+02  0.2294E+02
      3.067  0.1004E+02  0.2372E+02
      3.146  0.1051E+02  0.2455E+02
      3.224  0.4447E+01  0.2490E+02
      3.302  0.5014E+01  0.2529E+02
      3.381  0.7879E+01  0.2591E+02
      3.459  0.5785E+01  0.2636E+02
      3.538  0.4135E+01  0.2668E+02
      3.616  0.9111E+01  0.2740E+02
      3.694  0.8919E+01  0.2810E+02
      3.773  0.9484E+01  0.2884E+02
      3.851  0.1192E+02  0.2978E+02
      3.930  0.1200E+02  0.3072E+02
      4.008  0.6098E+01  0.3120E+02
      4.086  0.5859E+01  0.3166E+02
      4.165  0.9759E+01  0.3242E+02
      4.243  0.5499E+01  0.3285E+02
      4.322  0.6769E+01  0.3338E+02
      4.400  0.1119E+02  0.3426E+02
      4.479  0.1107E+02  0.3513E+02
      4.557  0.5852E+01  0.3559E+02
      4.635  0.1119E+02  0.3646E+02
      4.714  0.9407E+01  0.3720E+02
      4.792  0.8344E+01  0.3786E+02
      4.871  0.7980E+01  0.3848E+02
      4.949  0.1057E+02  0.3931E+02
      5.027  0.3392E+01  0.3958E+02
      5.106  0.6270E+01  0.4007E+02
      5.184  0.9636E+01  0.4082E+02
      5.263  0.6660E+01  0.4135E+02
      5.341  0.1222E+02  0.4230E+02
      5.420  0.1071E+02  0.4314E+02
      5.498  0.7648E+01  0.4374E+02
      5.576  0.9749E+01  0.4451E+02
      5.655  0.1033E+02  0.4532E+02
      5.733  0.1053E+02  0.4614E+02
      5.812  0.8616E+01  0.4682E+02
      5.890  0.1045E+02  0.4764E+02
      5.968  0.9148E+01  0.4836E+02
      6.047  0.9074E+01  0.4907E+02
      6.125  0.8511E+01  0.4974E+02
      6.204  0.1052E+02  0.5056E+02
      6.282  0.9535E+01  0.5131E+02
      6.361  0.8582E+01  0.5198E+02
      6.439  0.1003E+02  0.5277E+02
      6.517  0.1344E+02  0.5382E+02
      6.596  0.9628E+01  0.5458E+02
      6.674  0.7371E+01  0.5515E+02
      6.753  0.9973E+01  0.5594E+02
      6.831  0.9146E+01  0.5665E+02
      6.909  0.8716E+01  0.5734E+02
      6.988  0.1020E+02  0.5814E+02
      7.066  0.1255E+02  0.5912E+02
      7.145  0.1121E+02  0.6000E+02
      7.223  0.8755E+01  0.6069E+02
      7.302  0.1225E+02  0.6165E+02
      7.380  0.1147E+02  0.6255E+02
      7.458  0.1286E+02  0.6356E+02
      7.537  0.1162E+02  0.6447E+02
      7.615  0.1112E+02  0.6534E+02
      7.694  0.1029E+02  0.6615E+02
      7.772  0.1448E+02  0.6728E+02
      7.850  0.1449E+02  0.6842E+02
      7.929  0.7187E+01  0.6898E+02
      8.007  0.5552E+01  0.6942E+02
      8.086  0.1294E+02  0.7043E+02
      8.164  0.6078E+01  0.7091E+02
      8.242  0.5066E+01  0.7130E+02
      8.321  0.1227E+02  0.7227E+02
      8.399  0.1122E+02  0.7315E+02
      8.478  0.6517E+01  0.7366E+02
      8.556  0.8480E+01  0.7432E+02
      8.635  0.9834E+01  0.7509E+02
      8.713  0.9239E+01  0.7582E+02
      8.791  0.7643E+01  0.7642E+02
      8.870  0.5832E+01  0.7687E+02
      8.948  0.3971E+01  0.7719E+02
      9.027  0.4411E+01  0.7753E+02
      9.105  0.5526E+01  0.7797E+02
      9.183  0.8106E+01  0.7860E+02
      9.262  0.3642E+01  0.7889E+02
      9.340  0.4811E+01  0.7926E+02
      9.419  0.7554E+01  0.7986E+02
      9.497  0.6044E+01  0.8033E+02
      9.576  0.3086E+01  0.8057E+02
      9.654  0.2523E+01  0.8077E+02
      9.732  0.3012E+01  0.8101E+02
      9.811  0.1873E+01  0.8115E+02
      9.889  0.2512E+01  0.8135E+02
      9.968  0.2975E+01  0.8158E+02
     10.046  0.1359E+01  0.8169E+02
     10.124  0.3707E+01  0.8198E+02
     10.203  0.1480E+01  0.8210E+02
     10.281  0.4634E+00  0.8213E+02
     10.360  0.1730E+01  0.8227E+02
     10.438  0.3814E+01  0.8257E+02
     10.517  0.1460E+01  0.8268E+02
     10.595  0.6052E+00  0.8273E+02
     10.673  0.8162E+00  0.8279E+02
     10.752  0.1764E+01  0.8293E+02
     10.830  0.2842E+01  0.8315E+02
     10.909  0.9056E+00  0.8323E+02
     10.987  0.1307E+01  0.8333E+02
     11.065  0.7725E+00  0.8339E+02
     11.144  0.4666E+00  0.8343E+02
     11.222  0.1432E+01  0.8354E+02
     11.301  0.2278E+01  0.8372E+02
     11.379  0.2546E+00  0.8374E+02
     11.458  0.5558E-03  0.8374E+02
     11.536  0.3492E-01  0.8374E+02
     11.614  0.6530E+00  0.8379E+02
     11.693  0.4255E+00  0.8382E+02
     11.771  0.7193E+00  0.8388E+02
     11.850  0.2901E+00  0.8390E+02
     11.928  0.2656E-02  0.8390E+02
     12.006  0.3025E-01  0.8391E+02
     12.085  0.2538E+00  0.8393E+02
     12.163  0.6970E-01  0.8393E+02
     12.242  0.9054E-03  0.8393E+02
     12.320  0.7924E-01  0.8394E+02
     12.398  0.2491E+00  0.8396E+02
     12.477  0.5127E-01  0.8396E+02
     12.555  0.2089E+00  0.8398E+02
     12.634  0.1534E+00  0.8399E+02
     12.712  0.1291E+00  0.8400E+02
     12.791  0.1398E-01  0.8400E+02
     12.869  0.2517E-04  0.8400E+02
     12.947  0.4427E-09  0.8400E+02
     13.026  0.7866E-16  0.8400E+02
     13.104  0.0000E+00  0.8400E+02
     13.183  0.0000E+00  0.8400E+02
     13.261  0.0000E+00  0.8400E+02
     13.339  0.0000E+00  0.8400E+02
     13.418  0.0000E+00  0.8400E+02
     13.496  0.0000E+00  0.8400E+02
     13.575  0.0000E+00  0.8400E+02
     13.653  0.0000E+00  0.8400E+02
     13.732  0.0000E+00  0.8400E+02
