   2   2   0   0
  0.2748765E+03  0.3983717E-09  0.3983717E-09  0.4000000E-08  0.5000000E-15
  1.000000000000000E-004
  CAR 
 Convergence                             
     13.74142739     -9.77035892  301     -3.79665871      1.00000000
     -9.770  0.0000E+00  0.0000E+00
     -9.692  0.0000E+00  0.0000E+00
     -9.614  0.0000E+00  0.0000E+00
     -9.535  0.0000E+00  0.0000E+00
     -9.457  0.0000E+00  0.0000E+00
     -9.378  0.0000E+00  0.0000E+00
     -9.300  0.0000E+00  0.0000E+00
     -9.222  0.0000E+00  0.0000E+00
     -9.143  0.0000E+00  0.0000E+00
     -9.065  0.0000E+00  0.0000E+00
     -8.987  0.1329E-16  0.1042E-17
     -8.908  0.1388E-09  0.1087E-10
     -8.830  0.1174E-04  0.9202E-06
     -8.752  0.1201E-01  0.9423E-03
     -8.673  0.2986E+00  0.2434E-01
     -8.595  0.7052E+00  0.7961E-01
     -8.516  0.7462E+00  0.1381E+00
     -8.438  0.7476E+00  0.1967E+00
     -8.360  0.7488E+00  0.2554E+00
     -8.281  0.7501E+00  0.3141E+00
     -8.203  0.7514E+00  0.3730E+00
     -8.125  0.7543E+00  0.4322E+00
     -8.046  0.7605E+00  0.4918E+00
     -7.968  0.7626E+00  0.5515E+00
     -7.889  0.7511E+00  0.6104E+00
     -7.811  0.7543E+00  0.6695E+00
     -7.733  0.7849E+00  0.7310E+00
     -7.654  0.7611E+00  0.7907E+00
     -7.576  0.7514E+00  0.8496E+00
     -7.498  0.8085E+00  0.9129E+00
     -7.419  0.7462E+00  0.9714E+00
     -7.341  0.7962E+00  0.1034E+01
     -7.262  0.7953E+00  0.1096E+01
     -7.184  0.7626E+00  0.1156E+01
     -7.106  0.8447E+00  0.1222E+01
     -7.027  0.7505E+00  0.1281E+01
     -6.949  0.8817E+00  0.1350E+01
     -6.871  0.7653E+00  0.1410E+01
     -6.792  0.9241E+00  0.1482E+01
     -6.714  0.8149E+00  0.1546E+01
     -6.635  0.1035E+01  0.1627E+01
     -6.557  0.1049E+01  0.1710E+01
     -6.479  0.1067E+01  0.1793E+01
     -6.400  0.5975E+00  0.1840E+01
     -6.322  0.6338E+00  0.1890E+01
     -6.244  0.3824E+00  0.1920E+01
     -6.165  0.3678E+00  0.1949E+01
     -6.087  0.2717E+00  0.1970E+01
     -6.008  0.3639E+00  0.1998E+01
     -5.930  0.7255E+00  0.2055E+01
     -5.852  0.7701E+00  0.2116E+01
     -5.773  0.8720E+00  0.2184E+01
     -5.695  0.1136E+01  0.2273E+01
     -5.617  0.1086E+01  0.2358E+01
     -5.538  0.9293E+00  0.2431E+01
     -5.460  0.8484E+00  0.2497E+01
     -5.381  0.8025E+00  0.2560E+01
     -5.303  0.7626E+00  0.2620E+01
     -5.225  0.7361E+00  0.2678E+01
     -5.146  0.6890E+00  0.2732E+01
     -5.068  0.6703E+00  0.2784E+01
     -4.990  0.6700E+00  0.2837E+01
     -4.911  0.5812E+00  0.2882E+01
     -4.833  0.6515E+00  0.2933E+01
     -4.755  0.7442E+00  0.2992E+01
     -4.676  0.8414E+00  0.3058E+01
     -4.598  0.8338E+00  0.3123E+01
     -4.519  0.8477E+00  0.3190E+01
     -4.441  0.8360E+00  0.3255E+01
     -4.363  0.9166E+00  0.3327E+01
     -4.284  0.7848E+00  0.3388E+01
     -4.206  0.9684E+00  0.3464E+01
     -4.128  0.8181E+00  0.3528E+01
     -4.049  0.1130E+01  0.3617E+01
     -3.971  0.1394E+01  0.3726E+01
     -3.892  0.1684E+01  0.3858E+01
     -3.814  0.1478E+01  0.3974E+01
     -3.736  0.1705E+01  0.4108E+01
     -3.657  0.1601E+01  0.4233E+01
     -3.579  0.1628E+01  0.4361E+01
     -3.501  0.1786E+01  0.4501E+01
     -3.422  0.1624E+01  0.4628E+01
     -3.344  0.1893E+01  0.4776E+01
     -3.265  0.1755E+01  0.4914E+01
     -3.187  0.1955E+01  0.5067E+01
     -3.109  0.2051E+01  0.5228E+01
     -3.030  0.2225E+01  0.5402E+01
     -2.952  0.2641E+01  0.5609E+01
     -2.874  0.2251E+01  0.5786E+01
     -2.795  0.2004E+01  0.5943E+01
     -2.717  0.1872E+01  0.6089E+01
     -2.638  0.1729E+01  0.6225E+01
     -2.560  0.1745E+01  0.6362E+01
     -2.482  0.1546E+01  0.6483E+01
     -2.403  0.1698E+01  0.6616E+01
     -2.325  0.1436E+01  0.6728E+01
     -2.247  0.1657E+01  0.6858E+01
     -2.168  0.1424E+01  0.6970E+01
     -2.090  0.1611E+01  0.7096E+01
     -2.011  0.1449E+01  0.7210E+01
     -1.933  0.1810E+01  0.7351E+01
     -1.855  0.1725E+01  0.7487E+01
     -1.776  0.1723E+01  0.7622E+01
     -1.698  0.1152E+01  0.7712E+01
     -1.620  0.1200E+01  0.7806E+01
     -1.541  0.7247E+00  0.7863E+01
     -1.463  0.5072E+00  0.7903E+01
     -1.384  0.3136E+00  0.7927E+01
     -1.306  0.3189E+00  0.7952E+01
     -1.228  0.2111E+00  0.7969E+01
     -1.149  0.1909E+00  0.7984E+01
     -1.071  0.1122E+00  0.7992E+01
     -0.993  0.7070E-01  0.7998E+01
     -0.914  0.3222E-01  0.8001E+01
     -0.836  0.2806E-01  0.8003E+01
     -0.758  0.1105E+00  0.8011E+01
     -0.679  0.1338E+00  0.8022E+01
     -0.601  0.2608E+00  0.8042E+01
     -0.522  0.3030E+00  0.8066E+01
     -0.444  0.5471E+00  0.8109E+01
     -0.366  0.1254E+01  0.8207E+01
     -0.287  0.1469E+01  0.8322E+01
     -0.209  0.1082E+01  0.8407E+01
     -0.131  0.1007E+01  0.8486E+01
     -0.052  0.1302E+01  0.8588E+01
      0.026  0.1321E+01  0.8692E+01
      0.105  0.1263E+01  0.8791E+01
      0.183  0.1302E+01  0.8893E+01
      0.261  0.1174E+01  0.8985E+01
      0.340  0.1634E+01  0.9113E+01
      0.418  0.1894E+01  0.9261E+01
      0.496  0.2228E+01  0.9436E+01
      0.575  0.2355E+01  0.9620E+01
      0.653  0.2610E+01  0.9825E+01
      0.732  0.3046E+01  0.1006E+02
      0.810  0.3376E+01  0.1033E+02
      0.888  0.3350E+01  0.1059E+02
      0.967  0.3399E+01  0.1086E+02
      1.045  0.3300E+01  0.1112E+02
      1.123  0.3585E+01  0.1140E+02
      1.202  0.3890E+01  0.1170E+02
      1.280  0.4136E+01  0.1203E+02
      1.359  0.4709E+01  0.1239E+02
      1.437  0.4090E+01  0.1272E+02
      1.515  0.4080E+01  0.1304E+02
      1.594  0.4650E+01  0.1340E+02
      1.672  0.4353E+01  0.1374E+02
      1.750  0.4725E+01  0.1411E+02
      1.829  0.5601E+01  0.1455E+02
      1.907  0.5812E+01  0.1501E+02
      1.986  0.6148E+01  0.1549E+02
      2.064  0.6036E+01  0.1596E+02
      2.142  0.6943E+01  0.1650E+02
      2.221  0.6636E+01  0.1702E+02
      2.299  0.6800E+01  0.1756E+02
      2.377  0.6954E+01  0.1810E+02
      2.456  0.6789E+01  0.1863E+02
      2.534  0.7284E+01  0.1921E+02
      2.613  0.8612E+01  0.1988E+02
      2.691  0.8185E+01  0.2052E+02
      2.769  0.7298E+01  0.2109E+02
      2.848  0.7556E+01  0.2169E+02
      2.926  0.7216E+01  0.2225E+02
      3.004  0.7258E+01  0.2282E+02
      3.083  0.7486E+01  0.2341E+02
      3.161  0.7610E+01  0.2400E+02
      3.239  0.7670E+01  0.2460E+02
      3.318  0.7080E+01  0.2516E+02
      3.396  0.7943E+01  0.2578E+02
      3.475  0.7589E+01  0.2638E+02
      3.553  0.7290E+01  0.2695E+02
      3.631  0.8459E+01  0.2761E+02
      3.710  0.8160E+01  0.2825E+02
      3.788  0.7466E+01  0.2884E+02
      3.866  0.7872E+01  0.2945E+02
      3.945  0.8710E+01  0.3014E+02
      4.023  0.8669E+01  0.3081E+02
      4.102  0.9636E+01  0.3157E+02
      4.180  0.9095E+01  0.3228E+02
      4.258  0.8611E+01  0.3296E+02
      4.337  0.8847E+01  0.3365E+02
      4.415  0.9106E+01  0.3436E+02
      4.493  0.8411E+01  0.3502E+02
      4.572  0.7269E+01  0.3559E+02
      4.650  0.8124E+01  0.3623E+02
      4.729  0.8507E+01  0.3690E+02
      4.807  0.9390E+01  0.3763E+02
      4.885  0.8801E+01  0.3832E+02
      4.964  0.8269E+01  0.3897E+02
      5.042  0.7534E+01  0.3956E+02
      5.120  0.8318E+01  0.4021E+02
      5.199  0.7506E+01  0.4080E+02
      5.277  0.7783E+01  0.4141E+02
      5.356  0.8066E+01  0.4204E+02
      5.434  0.9158E+01  0.4276E+02
      5.512  0.1093E+02  0.4362E+02
      5.591  0.1078E+02  0.4446E+02
      5.669  0.9960E+01  0.4524E+02
      5.747  0.1001E+02  0.4603E+02
      5.826  0.1000E+02  0.4681E+02
      5.904  0.1001E+02  0.4760E+02
      5.983  0.8952E+01  0.4830E+02
      6.061  0.8627E+01  0.4897E+02
      6.139  0.8603E+01  0.4965E+02
      6.218  0.9235E+01  0.5037E+02
      6.296  0.9017E+01  0.5108E+02
      6.374  0.9915E+01  0.5186E+02
      6.453  0.1120E+02  0.5273E+02
      6.531  0.1020E+02  0.5353E+02
      6.610  0.8355E+01  0.5419E+02
      6.688  0.9101E+01  0.5490E+02
      6.766  0.1002E+02  0.5569E+02
      6.845  0.1110E+02  0.5656E+02
      6.923  0.1177E+02  0.5748E+02
      7.001  0.1093E+02  0.5833E+02
      7.080  0.9334E+01  0.5907E+02
      7.158  0.9787E+01  0.5983E+02
      7.236  0.1119E+02  0.6071E+02
      7.315  0.1062E+02  0.6154E+02
      7.393  0.1142E+02  0.6244E+02
      7.472  0.1154E+02  0.6334E+02
      7.550  0.1098E+02  0.6420E+02
      7.628  0.1041E+02  0.6502E+02
      7.707  0.1129E+02  0.6590E+02
      7.785  0.1199E+02  0.6684E+02
      7.863  0.1136E+02  0.6773E+02
      7.942  0.1120E+02  0.6861E+02
      8.020  0.9849E+01  0.6938E+02
      8.099  0.8306E+01  0.7003E+02
      8.177  0.8995E+01  0.7074E+02
      8.255  0.1010E+02  0.7153E+02
      8.334  0.9604E+01  0.7228E+02
      8.412  0.8522E+01  0.7295E+02
      8.490  0.7455E+01  0.7353E+02
      8.569  0.7254E+01  0.7410E+02
      8.647  0.8108E+01  0.7474E+02
      8.726  0.8124E+01  0.7537E+02
      8.804  0.7882E+01  0.7599E+02
      8.882  0.7146E+01  0.7655E+02
      8.961  0.6229E+01  0.7704E+02
      9.039  0.6146E+01  0.7752E+02
      9.117  0.6155E+01  0.7800E+02
      9.196  0.6108E+01  0.7848E+02
      9.274  0.5708E+01  0.7893E+02
      9.353  0.4130E+01  0.7925E+02
      9.431  0.4929E+01  0.7964E+02
      9.509  0.4286E+01  0.7998E+02
      9.588  0.4040E+01  0.8029E+02
      9.666  0.3646E+01  0.8058E+02
      9.744  0.3157E+01  0.8083E+02
      9.823  0.3193E+01  0.8108E+02
      9.901  0.3292E+01  0.8133E+02
      9.980  0.2955E+01  0.8157E+02
     10.058  0.2351E+01  0.8175E+02
     10.136  0.2013E+01  0.8191E+02
     10.215  0.1900E+01  0.8206E+02
     10.293  0.1682E+01  0.8219E+02
     10.371  0.1339E+01  0.8229E+02
     10.450  0.1561E+01  0.8242E+02
     10.528  0.1439E+01  0.8253E+02
     10.607  0.1796E+01  0.8267E+02
     10.685  0.1877E+01  0.8282E+02
     10.763  0.2004E+01  0.8297E+02
     10.842  0.1570E+01  0.8310E+02
     10.920  0.1653E+01  0.8323E+02
     10.998  0.1560E+01  0.8335E+02
     11.077  0.7511E+00  0.8341E+02
     11.155  0.7800E+00  0.8347E+02
     11.234  0.9413E+00  0.8354E+02
     11.312  0.3914E+00  0.8357E+02
     11.390  0.6023E+00  0.8362E+02
     11.469  0.9562E+00  0.8370E+02
     11.547  0.3931E+00  0.8373E+02
     11.625  0.4245E+00  0.8376E+02
     11.704  0.5074E+00  0.8380E+02
     11.782  0.3204E+00  0.8382E+02
     11.860  0.2719E+00  0.8385E+02
     11.939  0.4664E+00  0.8388E+02
     12.017  0.3715E+00  0.8391E+02
     12.096  0.1948E+00  0.8393E+02
     12.174  0.1352E+00  0.8394E+02
     12.252  0.2447E+00  0.8396E+02
     12.331  0.1231E+00  0.8397E+02
     12.409  0.1280E+00  0.8398E+02
     12.487  0.5929E-01  0.8398E+02
     12.566  0.1231E+00  0.8399E+02
     12.644  0.9002E-01  0.8400E+02
     12.723  0.3203E-01  0.8400E+02
     12.801  0.1226E-02  0.8400E+02
     12.879  0.1831E-05  0.8400E+02
     12.958  0.3213E-10  0.8400E+02
     13.036  0.5596E-17  0.8400E+02
     13.114  0.0000E+00  0.8400E+02
     13.193  0.0000E+00  0.8400E+02
     13.271  0.0000E+00  0.8400E+02
     13.350  0.0000E+00  0.8400E+02
     13.428  0.0000E+00  0.8400E+02
     13.506  0.0000E+00  0.8400E+02
     13.585  0.0000E+00  0.8400E+02
     13.663  0.0000E+00  0.8400E+02
     13.741  0.0000E+00  0.8400E+02
