       N       E                     dE             d eps       ncg     rms          rms(c)
DAV:   1     0.200422278411E+02    0.20042E+02   -0.22845E+03 91872   0.289E+02
DAV:   2    -0.102254872426E+02   -0.30268E+02   -0.27776E+02142416   0.605E+01
DAV:   3    -0.110944186438E+02   -0.86893E+00   -0.86353E+00135520   0.992E+00
DAV:   4    -0.111039182180E+02   -0.94996E-02   -0.94977E-02123960   0.128E+00
DAV:   5    -0.111041684027E+02   -0.25018E-03   -0.25018E-03135144   0.155E-01    0.420E+00
DAV:   6    -0.880586647452E+01    0.22983E+01   -0.50692E+00 99200   0.483E+00    0.194E+00
DAV:   7    -0.902725739097E+01   -0.22139E+00   -0.11022E+00128696   0.236E+00    0.117E+00
DAV:   8    -0.903616844358E+01   -0.89111E-02   -0.10216E-01128400   0.141E+00    0.776E-01
DAV:   9    -0.933099383662E+01   -0.29483E+00   -0.17109E-01125760   0.118E+00    0.513E-01
DAV:  10    -0.951234905575E+01   -0.18136E+00   -0.11975E-01115104   0.988E-01    0.426E-01
DAV:  11    -0.976157594203E+01   -0.24923E+00   -0.21758E-01115752   0.982E-01    0.283E-01
DAV:  12    -0.986853592513E+01   -0.10696E+00   -0.68241E-02104808   0.523E-01    0.221E-01
DAV:  13    -0.989684568157E+01   -0.28310E-01   -0.37449E-02102272   0.415E-01    0.137E-01
DAV:  14    -0.992940893353E+01   -0.32563E-01   -0.11140E-02109200   0.246E-01    0.845E-02
DAV:  15    -0.997075590196E+01   -0.41347E-01   -0.26407E-03110792   0.127E-01    0.572E-02
DAV:  16    -0.999207727540E+01   -0.21321E-01   -0.12180E-03110760   0.868E-02    0.365E-02
DAV:  17    -0.100002623521E+02   -0.81851E-02   -0.50007E-04114768   0.534E-02    0.233E-02
DAV:  18    -0.100035057634E+02   -0.32434E-02   -0.19622E-04118144   0.375E-02    0.149E-02
DAV:  19    -0.100058432864E+02   -0.23375E-02   -0.80597E-05124592   0.300E-02    0.913E-03
DAV:  20    -0.100078879334E+02   -0.20446E-02   -0.62722E-05109264   0.297E-02    0.513E-03
DAV:  21    -0.100089587572E+02   -0.10708E-02   -0.21357E-05113544   0.217E-02    0.311E-03
DAV:  22    -0.100093448253E+02   -0.38607E-03   -0.75392E-06101512   0.142E-02    0.190E-03
DAV:  23    -0.100095255869E+02   -0.18076E-03   -0.27972E-06 99856   0.856E-03    0.965E-04
DAV:  24    -0.100095709156E+02   -0.45329E-04   -0.68643E-07 99016   0.399E-03    0.595E-04
DAV:  25    -0.100095881314E+02   -0.17216E-04   -0.29230E-07 96328   0.230E-03    0.359E-04
DAV:  26    -0.100095970099E+02   -0.88785E-05   -0.22768E-07106440   0.217E-03    0.213E-04
DAV:  27    -0.100095985006E+02   -0.14907E-05   -0.99238E-08100816   0.117E-03    0.112E-04
DAV:  28    -0.100095998453E+02   -0.13448E-05   -0.14722E-08113856   0.360E-04    0.758E-05
DAV:  29    -0.100096005926E+02   -0.74730E-06   -0.90535E-09107288   0.232E-04    0.404E-05
DAV:  30    -0.100096008293E+02   -0.23660E-06   -0.17071E-09110824   0.131E-04    0.263E-05
DAV:  31    -0.100096009857E+02   -0.15647E-06   -0.12470E-09100312   0.108E-04    0.190E-05
DAV:  32    -0.100096010680E+02   -0.82267E-07   -0.15961E-09104688   0.809E-05
   1 F= -.10009601E+02 E0= -.10009588E+02  d E =-.257183E-04  mag=     0.0000
