beta-beryllene full top-hollow_2
1.0
        7.0592508316         0.0000000000         0.0000000000
       -3.5299655662         5.9995354388         0.0000000000
        0.0000000000         0.0000000000        40.0000000000
   Be    H
   18   18
Direct
     0.018229356         0.143270567         0.123153895
     0.018229356         0.476603895         0.123153895
     0.018229356         0.809937239         0.123153895
     0.351562679         0.143270567         0.123153895
     0.351562679         0.476603895         0.123153895
     0.351562679         0.809937239         0.123153895
     0.684896052         0.143270567         0.123153895
     0.684896052         0.476603895         0.123153895
     0.684896052         0.809937239         0.123153895
     0.155392468         0.084215485         0.076845683
     0.155392468         0.417548805         0.076845683
     0.155392468         0.750882149         0.076845683
     0.488725811         0.084215485         0.076845683
     0.488725811         0.417548805         0.076845683
     0.488725811         0.750882149         0.076845683
     0.822059155         0.084215485         0.076845683
     0.822059155         0.417548805         0.076845683
     0.822059155         0.750882149         0.076845683
     0.198983654         0.287525624         0.146207362
     0.198983654         0.620858967         0.146207362
     0.198983654         0.954192281         0.146207362
     0.532316983         0.287525624         0.146207362
     0.532316983         0.620858967         0.146207362
     0.532316983         0.954192281         0.146207362
     0.865650296         0.287525624         0.146207362
     0.865650296         0.620858967         0.146207362
     0.865650296         0.954192281         0.146207362
     0.191923976         0.273313165         0.053793062
     0.191923976         0.606646478         0.053793062
     0.191923976         0.939979851         0.053793062
     0.525257289         0.273313165         0.053793062
     0.525257289         0.606646478         0.053793062
     0.525257289         0.939979851         0.053793062
     0.858590662         0.273313165         0.053793062
     0.858590662         0.606646478         0.053793062
     0.858590662         0.939979851         0.053793062
