phonon_dispersion                       
           1
     7.059251    0.000000    0.000000
    -3.529966    5.999535    0.000000
     0.000000    0.000000   40.000000
   Be   H 
    18    18
Direct configuration=     1
   0.01822936  0.14327057  0.12315390
   0.01822936  0.47660389  0.12315390
   0.01822936  0.80993724  0.12315390
   0.35156268  0.14327057  0.12315390
   0.35156268  0.47660389  0.12315390
   0.35156268  0.80993724  0.12315390
   0.68489605  0.14327057  0.12315390
   0.68489605  0.47660389  0.12315390
   0.68489605  0.80993724  0.12315390
   0.15539247  0.08421549  0.07684568
   0.15539247  0.41754881  0.07684568
   0.15539247  0.75088215  0.07684568
   0.48872581  0.08421549  0.07684568
   0.48872581  0.41754881  0.07684568
   0.48872581  0.75088215  0.07684568
   0.82205915  0.08421549  0.07684568
   0.82205915  0.41754881  0.07684568
   0.82205915  0.75088215  0.07684568
   0.19898365  0.28752562  0.14620736
   0.19898365  0.62085897  0.14620736
   0.19898365  0.95419228  0.14620736
   0.53231698  0.28752562  0.14620736
   0.53231698  0.62085897  0.14620736
   0.53231698  0.95419228  0.14620736
   0.86565030  0.28752562  0.14620736
   0.86565030  0.62085897  0.14620736
   0.86565030  0.95419228  0.14620736
   0.19192398  0.27331316  0.05379306
   0.19192398  0.60664648  0.05379306
   0.19192398  0.93997985  0.05379306
   0.52525729  0.27331316  0.05379306
   0.52525729  0.60664648  0.05379306
   0.52525729  0.93997985  0.05379306
   0.85859066  0.27331316  0.05379306
   0.85859066  0.60664648  0.05379306
   0.85859066  0.93997985  0.05379306
Direct configuration=     2
   0.02035423  0.14327057  0.12315390
   0.01822936  0.47660389  0.12315390
   0.01822936  0.80993724  0.12315390
   0.35156268  0.14327057  0.12315390
   0.35156268  0.47660389  0.12315390
   0.35156268  0.80993724  0.12315390
   0.68489605  0.14327057  0.12315390
   0.68489605  0.47660389  0.12315390
   0.68489605  0.80993724  0.12315390
   0.15539247  0.08421549  0.07684568
   0.15539247  0.41754881  0.07684568
   0.15539247  0.75088215  0.07684568
   0.48872581  0.08421549  0.07684568
   0.48872581  0.41754881  0.07684568
   0.48872581  0.75088215  0.07684568
   0.82205915  0.08421549  0.07684568
   0.82205915  0.41754881  0.07684568
   0.82205915  0.75088215  0.07684568
   0.19898365  0.28752562  0.14620736
   0.19898365  0.62085897  0.14620736
   0.19898365  0.95419228  0.14620736
   0.53231698  0.28752562  0.14620736
   0.53231698  0.62085897  0.14620736
   0.53231698  0.95419228  0.14620736
   0.86565030  0.28752562  0.14620736
   0.86565030  0.62085897  0.14620736
   0.86565030  0.95419228  0.14620736
   0.19192398  0.27331316  0.05379306
   0.19192398  0.60664648  0.05379306
   0.19192398  0.93997985  0.05379306
   0.52525729  0.27331316  0.05379306
   0.52525729  0.60664648  0.05379306
   0.52525729  0.93997985  0.05379306
   0.85859066  0.27331316  0.05379306
   0.85859066  0.60664648  0.05379306
   0.85859066  0.93997985  0.05379306
Direct configuration=     3
   0.01610448  0.14327057  0.12315390
   0.01822936  0.47660389  0.12315390
   0.01822936  0.80993724  0.12315390
   0.35156268  0.14327057  0.12315390
   0.35156268  0.47660389  0.12315390
   0.35156268  0.80993724  0.12315390
   0.68489605  0.14327057  0.12315390
   0.68489605  0.47660389  0.12315390
   0.68489605  0.80993724  0.12315390
   0.15539247  0.08421549  0.07684568
   0.15539247  0.41754881  0.07684568
   0.15539247  0.75088215  0.07684568
   0.48872581  0.08421549  0.07684568
   0.48872581  0.41754881  0.07684568
   0.48872581  0.75088215  0.07684568
   0.82205915  0.08421549  0.07684568
   0.82205915  0.41754881  0.07684568
   0.82205915  0.75088215  0.07684568
   0.19898365  0.28752562  0.14620736
   0.19898365  0.62085897  0.14620736
   0.19898365  0.95419228  0.14620736
   0.53231698  0.28752562  0.14620736
   0.53231698  0.62085897  0.14620736
   0.53231698  0.95419228  0.14620736
   0.86565030  0.28752562  0.14620736
   0.86565030  0.62085897  0.14620736
   0.86565030  0.95419228  0.14620736
   0.19192398  0.27331316  0.05379306
   0.19192398  0.60664648  0.05379306
   0.19192398  0.93997985  0.05379306
   0.52525729  0.27331316  0.05379306
   0.52525729  0.60664648  0.05379306
   0.52525729  0.93997985  0.05379306
   0.85859066  0.27331316  0.05379306
   0.85859066  0.60664648  0.05379306
   0.85859066  0.93997985  0.05379306
Direct configuration=     4
   0.01947957  0.14577076  0.12315390
   0.01822936  0.47660389  0.12315390
   0.01822936  0.80993724  0.12315390
   0.35156268  0.14327057  0.12315390
   0.35156268  0.47660389  0.12315390
   0.35156268  0.80993724  0.12315390
   0.68489605  0.14327057  0.12315390
   0.68489605  0.47660389  0.12315390
   0.68489605  0.80993724  0.12315390
   0.15539247  0.08421549  0.07684568
   0.15539247  0.41754881  0.07684568
   0.15539247  0.75088215  0.07684568
   0.48872581  0.08421549  0.07684568
   0.48872581  0.41754881  0.07684568
   0.48872581  0.75088215  0.07684568
   0.82205915  0.08421549  0.07684568
   0.82205915  0.41754881  0.07684568
   0.82205915  0.75088215  0.07684568
   0.19898365  0.28752562  0.14620736
   0.19898365  0.62085897  0.14620736
   0.19898365  0.95419228  0.14620736
   0.53231698  0.28752562  0.14620736
   0.53231698  0.62085897  0.14620736
   0.53231698  0.95419228  0.14620736
   0.86565030  0.28752562  0.14620736
   0.86565030  0.62085897  0.14620736
   0.86565030  0.95419228  0.14620736
   0.19192398  0.27331316  0.05379306
   0.19192398  0.60664648  0.05379306
   0.19192398  0.93997985  0.05379306
   0.52525729  0.27331316  0.05379306
   0.52525729  0.60664648  0.05379306
   0.52525729  0.93997985  0.05379306
   0.85859066  0.27331316  0.05379306
   0.85859066  0.60664648  0.05379306
   0.85859066  0.93997985  0.05379306
Direct configuration=     5
   0.01697914  0.14077037  0.12315390
   0.01822936  0.47660389  0.12315390
   0.01822936  0.80993724  0.12315390
   0.35156268  0.14327057  0.12315390
   0.35156268  0.47660389  0.12315390
   0.35156268  0.80993724  0.12315390
   0.68489605  0.14327057  0.12315390
   0.68489605  0.47660389  0.12315390
   0.68489605  0.80993724  0.12315390
   0.15539247  0.08421549  0.07684568
   0.15539247  0.41754881  0.07684568
   0.15539247  0.75088215  0.07684568
   0.48872581  0.08421549  0.07684568
   0.48872581  0.41754881  0.07684568
   0.48872581  0.75088215  0.07684568
   0.82205915  0.08421549  0.07684568
   0.82205915  0.41754881  0.07684568
   0.82205915  0.75088215  0.07684568
   0.19898365  0.28752562  0.14620736
   0.19898365  0.62085897  0.14620736
   0.19898365  0.95419228  0.14620736
   0.53231698  0.28752562  0.14620736
   0.53231698  0.62085897  0.14620736
   0.53231698  0.95419228  0.14620736
   0.86565030  0.28752562  0.14620736
   0.86565030  0.62085897  0.14620736
   0.86565030  0.95419228  0.14620736
   0.19192398  0.27331316  0.05379306
   0.19192398  0.60664648  0.05379306
   0.19192398  0.93997985  0.05379306
   0.52525729  0.27331316  0.05379306
   0.52525729  0.60664648  0.05379306
   0.52525729  0.93997985  0.05379306
   0.85859066  0.27331316  0.05379306
   0.85859066  0.60664648  0.05379306
   0.85859066  0.93997985  0.05379306
Direct configuration=     6
   0.01822936  0.14327057  0.12352890
   0.01822936  0.47660389  0.12315390
   0.01822936  0.80993724  0.12315390
   0.35156268  0.14327057  0.12315390
   0.35156268  0.47660389  0.12315390
   0.35156268  0.80993724  0.12315390
   0.68489605  0.14327057  0.12315390
   0.68489605  0.47660389  0.12315390
   0.68489605  0.80993724  0.12315390
   0.15539247  0.08421549  0.07684568
   0.15539247  0.41754881  0.07684568
   0.15539247  0.75088215  0.07684568
   0.48872581  0.08421549  0.07684568
   0.48872581  0.41754881  0.07684568
   0.48872581  0.75088215  0.07684568
   0.82205915  0.08421549  0.07684568
   0.82205915  0.41754881  0.07684568
   0.82205915  0.75088215  0.07684568
   0.19898365  0.28752562  0.14620736
   0.19898365  0.62085897  0.14620736
   0.19898365  0.95419228  0.14620736
   0.53231698  0.28752562  0.14620736
   0.53231698  0.62085897  0.14620736
   0.53231698  0.95419228  0.14620736
   0.86565030  0.28752562  0.14620736
   0.86565030  0.62085897  0.14620736
   0.86565030  0.95419228  0.14620736
   0.19192398  0.27331316  0.05379306
   0.19192398  0.60664648  0.05379306
   0.19192398  0.93997985  0.05379306
   0.52525729  0.27331316  0.05379306
   0.52525729  0.60664648  0.05379306
   0.52525729  0.93997985  0.05379306
   0.85859066  0.27331316  0.05379306
   0.85859066  0.60664648  0.05379306
   0.85859066  0.93997985  0.05379306
Direct configuration=     7
   0.01822936  0.14327057  0.12277890
   0.01822936  0.47660389  0.12315390
   0.01822936  0.80993724  0.12315390
   0.35156268  0.14327057  0.12315390
   0.35156268  0.47660389  0.12315390
   0.35156268  0.80993724  0.12315390
   0.68489605  0.14327057  0.12315390
   0.68489605  0.47660389  0.12315390
   0.68489605  0.80993724  0.12315390
   0.15539247  0.08421549  0.07684568
   0.15539247  0.41754881  0.07684568
   0.15539247  0.75088215  0.07684568
   0.48872581  0.08421549  0.07684568
   0.48872581  0.41754881  0.07684568
   0.48872581  0.75088215  0.07684568
   0.82205915  0.08421549  0.07684568
   0.82205915  0.41754881  0.07684568
   0.82205915  0.75088215  0.07684568
   0.19898365  0.28752562  0.14620736
   0.19898365  0.62085897  0.14620736
   0.19898365  0.95419228  0.14620736
   0.53231698  0.28752562  0.14620736
   0.53231698  0.62085897  0.14620736
   0.53231698  0.95419228  0.14620736
   0.86565030  0.28752562  0.14620736
   0.86565030  0.62085897  0.14620736
   0.86565030  0.95419228  0.14620736
   0.19192398  0.27331316  0.05379306
   0.19192398  0.60664648  0.05379306
   0.19192398  0.93997985  0.05379306
   0.52525729  0.27331316  0.05379306
   0.52525729  0.60664648  0.05379306
   0.52525729  0.93997985  0.05379306
   0.85859066  0.27331316  0.05379306
   0.85859066  0.60664648  0.05379306
   0.85859066  0.93997985  0.05379306
Direct configuration=     8
   0.01822936  0.14327057  0.12315390
   0.01822936  0.47660389  0.12315390
   0.01822936  0.80993724  0.12315390
   0.35156268  0.14327057  0.12315390
   0.35156268  0.47660389  0.12315390
   0.35156268  0.80993724  0.12315390
   0.68489605  0.14327057  0.12315390
   0.68489605  0.47660389  0.12315390
   0.68489605  0.80993724  0.12315390
   0.15751734  0.08421549  0.07684568
   0.15539247  0.41754881  0.07684568
   0.15539247  0.75088215  0.07684568
   0.48872581  0.08421549  0.07684568
   0.48872581  0.41754881  0.07684568
   0.48872581  0.75088215  0.07684568
   0.82205915  0.08421549  0.07684568
   0.82205915  0.41754881  0.07684568
   0.82205915  0.75088215  0.07684568
   0.19898365  0.28752562  0.14620736
   0.19898365  0.62085897  0.14620736
   0.19898365  0.95419228  0.14620736
   0.53231698  0.28752562  0.14620736
   0.53231698  0.62085897  0.14620736
   0.53231698  0.95419228  0.14620736
   0.86565030  0.28752562  0.14620736
   0.86565030  0.62085897  0.14620736
   0.86565030  0.95419228  0.14620736
   0.19192398  0.27331316  0.05379306
   0.19192398  0.60664648  0.05379306
   0.19192398  0.93997985  0.05379306
   0.52525729  0.27331316  0.05379306
   0.52525729  0.60664648  0.05379306
   0.52525729  0.93997985  0.05379306
   0.85859066  0.27331316  0.05379306
   0.85859066  0.60664648  0.05379306
   0.85859066  0.93997985  0.05379306
Direct configuration=     9
   0.01822936  0.14327057  0.12315390
   0.01822936  0.47660389  0.12315390
   0.01822936  0.80993724  0.12315390
   0.35156268  0.14327057  0.12315390
   0.35156268  0.47660389  0.12315390
   0.35156268  0.80993724  0.12315390
   0.68489605  0.14327057  0.12315390
   0.68489605  0.47660389  0.12315390
   0.68489605  0.80993724  0.12315390
   0.15326760  0.08421549  0.07684568
   0.15539247  0.41754881  0.07684568
   0.15539247  0.75088215  0.07684568
   0.48872581  0.08421549  0.07684568
   0.48872581  0.41754881  0.07684568
   0.48872581  0.75088215  0.07684568
   0.82205915  0.08421549  0.07684568
   0.82205915  0.41754881  0.07684568
   0.82205915  0.75088215  0.07684568
   0.19898365  0.28752562  0.14620736
   0.19898365  0.62085897  0.14620736
   0.19898365  0.95419228  0.14620736
   0.53231698  0.28752562  0.14620736
   0.53231698  0.62085897  0.14620736
   0.53231698  0.95419228  0.14620736
   0.86565030  0.28752562  0.14620736
   0.86565030  0.62085897  0.14620736
   0.86565030  0.95419228  0.14620736
   0.19192398  0.27331316  0.05379306
   0.19192398  0.60664648  0.05379306
   0.19192398  0.93997985  0.05379306
   0.52525729  0.27331316  0.05379306
   0.52525729  0.60664648  0.05379306
   0.52525729  0.93997985  0.05379306
   0.85859066  0.27331316  0.05379306
   0.85859066  0.60664648  0.05379306
   0.85859066  0.93997985  0.05379306
Direct configuration=    10
   0.01822936  0.14327057  0.12315390
   0.01822936  0.47660389  0.12315390
   0.01822936  0.80993724  0.12315390
   0.35156268  0.14327057  0.12315390
   0.35156268  0.47660389  0.12315390
   0.35156268  0.80993724  0.12315390
   0.68489605  0.14327057  0.12315390
   0.68489605  0.47660389  0.12315390
   0.68489605  0.80993724  0.12315390
   0.15664269  0.08671568  0.07684568
   0.15539247  0.41754881  0.07684568
   0.15539247  0.75088215  0.07684568
   0.48872581  0.08421549  0.07684568
   0.48872581  0.41754881  0.07684568
   0.48872581  0.75088215  0.07684568
   0.82205915  0.08421549  0.07684568
   0.82205915  0.41754881  0.07684568
   0.82205915  0.75088215  0.07684568
   0.19898365  0.28752562  0.14620736
   0.19898365  0.62085897  0.14620736
   0.19898365  0.95419228  0.14620736
   0.53231698  0.28752562  0.14620736
   0.53231698  0.62085897  0.14620736
   0.53231698  0.95419228  0.14620736
   0.86565030  0.28752562  0.14620736
   0.86565030  0.62085897  0.14620736
   0.86565030  0.95419228  0.14620736
   0.19192398  0.27331316  0.05379306
   0.19192398  0.60664648  0.05379306
   0.19192398  0.93997985  0.05379306
   0.52525729  0.27331316  0.05379306
   0.52525729  0.60664648  0.05379306
   0.52525729  0.93997985  0.05379306
   0.85859066  0.27331316  0.05379306
   0.85859066  0.60664648  0.05379306
   0.85859066  0.93997985  0.05379306
Direct configuration=    11
   0.01822936  0.14327057  0.12315390
   0.01822936  0.47660389  0.12315390
   0.01822936  0.80993724  0.12315390
   0.35156268  0.14327057  0.12315390
   0.35156268  0.47660389  0.12315390
   0.35156268  0.80993724  0.12315390
   0.68489605  0.14327057  0.12315390
   0.68489605  0.47660389  0.12315390
   0.68489605  0.80993724  0.12315390
   0.15414225  0.08171529  0.07684568
   0.15539247  0.41754881  0.07684568
   0.15539247  0.75088215  0.07684568
   0.48872581  0.08421549  0.07684568
   0.48872581  0.41754881  0.07684568
   0.48872581  0.75088215  0.07684568
   0.82205915  0.08421549  0.07684568
   0.82205915  0.41754881  0.07684568
   0.82205915  0.75088215  0.07684568
   0.19898365  0.28752562  0.14620736
   0.19898365  0.62085897  0.14620736
   0.19898365  0.95419228  0.14620736
   0.53231698  0.28752562  0.14620736
   0.53231698  0.62085897  0.14620736
   0.53231698  0.95419228  0.14620736
   0.86565030  0.28752562  0.14620736
   0.86565030  0.62085897  0.14620736
   0.86565030  0.95419228  0.14620736
   0.19192398  0.27331316  0.05379306
   0.19192398  0.60664648  0.05379306
   0.19192398  0.93997985  0.05379306
   0.52525729  0.27331316  0.05379306
   0.52525729  0.60664648  0.05379306
   0.52525729  0.93997985  0.05379306
   0.85859066  0.27331316  0.05379306
   0.85859066  0.60664648  0.05379306
   0.85859066  0.93997985  0.05379306
Direct configuration=    12
   0.01822936  0.14327057  0.12315390
   0.01822936  0.47660389  0.12315390
   0.01822936  0.80993724  0.12315390
   0.35156268  0.14327057  0.12315390
   0.35156268  0.47660389  0.12315390
   0.35156268  0.80993724  0.12315390
   0.68489605  0.14327057  0.12315390
   0.68489605  0.47660389  0.12315390
   0.68489605  0.80993724  0.12315390
   0.15539247  0.08421549  0.07722068
   0.15539247  0.41754881  0.07684568
   0.15539247  0.75088215  0.07684568
   0.48872581  0.08421549  0.07684568
   0.48872581  0.41754881  0.07684568
   0.48872581  0.75088215  0.07684568
   0.82205915  0.08421549  0.07684568
   0.82205915  0.41754881  0.07684568
   0.82205915  0.75088215  0.07684568
   0.19898365  0.28752562  0.14620736
   0.19898365  0.62085897  0.14620736
   0.19898365  0.95419228  0.14620736
   0.53231698  0.28752562  0.14620736
   0.53231698  0.62085897  0.14620736
   0.53231698  0.95419228  0.14620736
   0.86565030  0.28752562  0.14620736
   0.86565030  0.62085897  0.14620736
   0.86565030  0.95419228  0.14620736
   0.19192398  0.27331316  0.05379306
   0.19192398  0.60664648  0.05379306
   0.19192398  0.93997985  0.05379306
   0.52525729  0.27331316  0.05379306
   0.52525729  0.60664648  0.05379306
   0.52525729  0.93997985  0.05379306
   0.85859066  0.27331316  0.05379306
   0.85859066  0.60664648  0.05379306
   0.85859066  0.93997985  0.05379306
Direct configuration=    13
   0.01822936  0.14327057  0.12315390
   0.01822936  0.47660389  0.12315390
   0.01822936  0.80993724  0.12315390
   0.35156268  0.14327057  0.12315390
   0.35156268  0.47660389  0.12315390
   0.35156268  0.80993724  0.12315390
   0.68489605  0.14327057  0.12315390
   0.68489605  0.47660389  0.12315390
   0.68489605  0.80993724  0.12315390
   0.15539247  0.08421549  0.07647068
   0.15539247  0.41754881  0.07684568
   0.15539247  0.75088215  0.07684568
   0.48872581  0.08421549  0.07684568
   0.48872581  0.41754881  0.07684568
   0.48872581  0.75088215  0.07684568
   0.82205915  0.08421549  0.07684568
   0.82205915  0.41754881  0.07684568
   0.82205915  0.75088215  0.07684568
   0.19898365  0.28752562  0.14620736
   0.19898365  0.62085897  0.14620736
   0.19898365  0.95419228  0.14620736
   0.53231698  0.28752562  0.14620736
   0.53231698  0.62085897  0.14620736
   0.53231698  0.95419228  0.14620736
   0.86565030  0.28752562  0.14620736
   0.86565030  0.62085897  0.14620736
   0.86565030  0.95419228  0.14620736
   0.19192398  0.27331316  0.05379306
   0.19192398  0.60664648  0.05379306
   0.19192398  0.93997985  0.05379306
   0.52525729  0.27331316  0.05379306
   0.52525729  0.60664648  0.05379306
   0.52525729  0.93997985  0.05379306
   0.85859066  0.27331316  0.05379306
   0.85859066  0.60664648  0.05379306
   0.85859066  0.93997985  0.05379306
Direct configuration=    14
   0.01822936  0.14327057  0.12315390
   0.01822936  0.47660389  0.12315390
   0.01822936  0.80993724  0.12315390
   0.35156268  0.14327057  0.12315390
   0.35156268  0.47660389  0.12315390
   0.35156268  0.80993724  0.12315390
   0.68489605  0.14327057  0.12315390
   0.68489605  0.47660389  0.12315390
   0.68489605  0.80993724  0.12315390
   0.15539247  0.08421549  0.07684568
   0.15539247  0.41754881  0.07684568
   0.15539247  0.75088215  0.07684568
   0.48872581  0.08421549  0.07684568
   0.48872581  0.41754881  0.07684568
   0.48872581  0.75088215  0.07684568
   0.82205915  0.08421549  0.07684568
   0.82205915  0.41754881  0.07684568
   0.82205915  0.75088215  0.07684568
   0.20110853  0.28752562  0.14620736
   0.19898365  0.62085897  0.14620736
   0.19898365  0.95419228  0.14620736
   0.53231698  0.28752562  0.14620736
   0.53231698  0.62085897  0.14620736
   0.53231698  0.95419228  0.14620736
   0.86565030  0.28752562  0.14620736
   0.86565030  0.62085897  0.14620736
   0.86565030  0.95419228  0.14620736
   0.19192398  0.27331316  0.05379306
   0.19192398  0.60664648  0.05379306
   0.19192398  0.93997985  0.05379306
   0.52525729  0.27331316  0.05379306
   0.52525729  0.60664648  0.05379306
   0.52525729  0.93997985  0.05379306
   0.85859066  0.27331316  0.05379306
   0.85859066  0.60664648  0.05379306
   0.85859066  0.93997985  0.05379306
Direct configuration=    15
   0.01822936  0.14327057  0.12315390
   0.01822936  0.47660389  0.12315390
   0.01822936  0.80993724  0.12315390
   0.35156268  0.14327057  0.12315390
   0.35156268  0.47660389  0.12315390
   0.35156268  0.80993724  0.12315390
   0.68489605  0.14327057  0.12315390
   0.68489605  0.47660389  0.12315390
   0.68489605  0.80993724  0.12315390
   0.15539247  0.08421549  0.07684568
   0.15539247  0.41754881  0.07684568
   0.15539247  0.75088215  0.07684568
   0.48872581  0.08421549  0.07684568
   0.48872581  0.41754881  0.07684568
   0.48872581  0.75088215  0.07684568
   0.82205915  0.08421549  0.07684568
   0.82205915  0.41754881  0.07684568
   0.82205915  0.75088215  0.07684568
   0.19685878  0.28752562  0.14620736
   0.19898365  0.62085897  0.14620736
   0.19898365  0.95419228  0.14620736
   0.53231698  0.28752562  0.14620736
   0.53231698  0.62085897  0.14620736
   0.53231698  0.95419228  0.14620736
   0.86565030  0.28752562  0.14620736
   0.86565030  0.62085897  0.14620736
   0.86565030  0.95419228  0.14620736
   0.19192398  0.27331316  0.05379306
   0.19192398  0.60664648  0.05379306
   0.19192398  0.93997985  0.05379306
   0.52525729  0.27331316  0.05379306
   0.52525729  0.60664648  0.05379306
   0.52525729  0.93997985  0.05379306
   0.85859066  0.27331316  0.05379306
   0.85859066  0.60664648  0.05379306
   0.85859066  0.93997985  0.05379306
Direct configuration=    16
   0.01822936  0.14327057  0.12315390
   0.01822936  0.47660389  0.12315390
   0.01822936  0.80993724  0.12315390
   0.35156268  0.14327057  0.12315390
   0.35156268  0.47660389  0.12315390
   0.35156268  0.80993724  0.12315390
   0.68489605  0.14327057  0.12315390
   0.68489605  0.47660389  0.12315390
   0.68489605  0.80993724  0.12315390
   0.15539247  0.08421549  0.07684568
   0.15539247  0.41754881  0.07684568
   0.15539247  0.75088215  0.07684568
   0.48872581  0.08421549  0.07684568
   0.48872581  0.41754881  0.07684568
   0.48872581  0.75088215  0.07684568
   0.82205915  0.08421549  0.07684568
   0.82205915  0.41754881  0.07684568
   0.82205915  0.75088215  0.07684568
   0.20023387  0.29002582  0.14620736
   0.19898365  0.62085897  0.14620736
   0.19898365  0.95419228  0.14620736
   0.53231698  0.28752562  0.14620736
   0.53231698  0.62085897  0.14620736
   0.53231698  0.95419228  0.14620736
   0.86565030  0.28752562  0.14620736
   0.86565030  0.62085897  0.14620736
   0.86565030  0.95419228  0.14620736
   0.19192398  0.27331316  0.05379306
   0.19192398  0.60664648  0.05379306
   0.19192398  0.93997985  0.05379306
   0.52525729  0.27331316  0.05379306
   0.52525729  0.60664648  0.05379306
   0.52525729  0.93997985  0.05379306
   0.85859066  0.27331316  0.05379306
   0.85859066  0.60664648  0.05379306
   0.85859066  0.93997985  0.05379306
Direct configuration=    17
   0.01822936  0.14327057  0.12315390
   0.01822936  0.47660389  0.12315390
   0.01822936  0.80993724  0.12315390
   0.35156268  0.14327057  0.12315390
   0.35156268  0.47660389  0.12315390
   0.35156268  0.80993724  0.12315390
   0.68489605  0.14327057  0.12315390
   0.68489605  0.47660389  0.12315390
   0.68489605  0.80993724  0.12315390
   0.15539247  0.08421549  0.07684568
   0.15539247  0.41754881  0.07684568
   0.15539247  0.75088215  0.07684568
   0.48872581  0.08421549  0.07684568
   0.48872581  0.41754881  0.07684568
   0.48872581  0.75088215  0.07684568
   0.82205915  0.08421549  0.07684568
   0.82205915  0.41754881  0.07684568
   0.82205915  0.75088215  0.07684568
   0.19773344  0.28502543  0.14620736
   0.19898365  0.62085897  0.14620736
   0.19898365  0.95419228  0.14620736
   0.53231698  0.28752562  0.14620736
   0.53231698  0.62085897  0.14620736
   0.53231698  0.95419228  0.14620736
   0.86565030  0.28752562  0.14620736
   0.86565030  0.62085897  0.14620736
   0.86565030  0.95419228  0.14620736
   0.19192398  0.27331316  0.05379306
   0.19192398  0.60664648  0.05379306
   0.19192398  0.93997985  0.05379306
   0.52525729  0.27331316  0.05379306
   0.52525729  0.60664648  0.05379306
   0.52525729  0.93997985  0.05379306
   0.85859066  0.27331316  0.05379306
   0.85859066  0.60664648  0.05379306
   0.85859066  0.93997985  0.05379306
Direct configuration=    18
   0.01822936  0.14327057  0.12315390
   0.01822936  0.47660389  0.12315390
   0.01822936  0.80993724  0.12315390
   0.35156268  0.14327057  0.12315390
   0.35156268  0.47660389  0.12315390
   0.35156268  0.80993724  0.12315390
   0.68489605  0.14327057  0.12315390
   0.68489605  0.47660389  0.12315390
   0.68489605  0.80993724  0.12315390
   0.15539247  0.08421549  0.07684568
   0.15539247  0.41754881  0.07684568
   0.15539247  0.75088215  0.07684568
   0.48872581  0.08421549  0.07684568
   0.48872581  0.41754881  0.07684568
   0.48872581  0.75088215  0.07684568
   0.82205915  0.08421549  0.07684568
   0.82205915  0.41754881  0.07684568
   0.82205915  0.75088215  0.07684568
   0.19898365  0.28752562  0.14658236
   0.19898365  0.62085897  0.14620736
   0.19898365  0.95419228  0.14620736
   0.53231698  0.28752562  0.14620736
   0.53231698  0.62085897  0.14620736
   0.53231698  0.95419228  0.14620736
   0.86565030  0.28752562  0.14620736
   0.86565030  0.62085897  0.14620736
   0.86565030  0.95419228  0.14620736
   0.19192398  0.27331316  0.05379306
   0.19192398  0.60664648  0.05379306
   0.19192398  0.93997985  0.05379306
   0.52525729  0.27331316  0.05379306
   0.52525729  0.60664648  0.05379306
   0.52525729  0.93997985  0.05379306
   0.85859066  0.27331316  0.05379306
   0.85859066  0.60664648  0.05379306
   0.85859066  0.93997985  0.05379306
Direct configuration=    19
   0.01822936  0.14327057  0.12315390
   0.01822936  0.47660389  0.12315390
   0.01822936  0.80993724  0.12315390
   0.35156268  0.14327057  0.12315390
   0.35156268  0.47660389  0.12315390
   0.35156268  0.80993724  0.12315390
   0.68489605  0.14327057  0.12315390
   0.68489605  0.47660389  0.12315390
   0.68489605  0.80993724  0.12315390
   0.15539247  0.08421549  0.07684568
   0.15539247  0.41754881  0.07684568
   0.15539247  0.75088215  0.07684568
   0.48872581  0.08421549  0.07684568
   0.48872581  0.41754881  0.07684568
   0.48872581  0.75088215  0.07684568
   0.82205915  0.08421549  0.07684568
   0.82205915  0.41754881  0.07684568
   0.82205915  0.75088215  0.07684568
   0.19898365  0.28752562  0.14583236
   0.19898365  0.62085897  0.14620736
   0.19898365  0.95419228  0.14620736
   0.53231698  0.28752562  0.14620736
   0.53231698  0.62085897  0.14620736
   0.53231698  0.95419228  0.14620736
   0.86565030  0.28752562  0.14620736
   0.86565030  0.62085897  0.14620736
   0.86565030  0.95419228  0.14620736
   0.19192398  0.27331316  0.05379306
   0.19192398  0.60664648  0.05379306
   0.19192398  0.93997985  0.05379306
   0.52525729  0.27331316  0.05379306
   0.52525729  0.60664648  0.05379306
   0.52525729  0.93997985  0.05379306
   0.85859066  0.27331316  0.05379306
   0.85859066  0.60664648  0.05379306
   0.85859066  0.93997985  0.05379306
Direct configuration=    20
   0.01822936  0.14327057  0.12315390
   0.01822936  0.47660389  0.12315390
   0.01822936  0.80993724  0.12315390
   0.35156268  0.14327057  0.12315390
   0.35156268  0.47660389  0.12315390
   0.35156268  0.80993724  0.12315390
   0.68489605  0.14327057  0.12315390
   0.68489605  0.47660389  0.12315390
   0.68489605  0.80993724  0.12315390
   0.15539247  0.08421549  0.07684568
   0.15539247  0.41754881  0.07684568
   0.15539247  0.75088215  0.07684568
   0.48872581  0.08421549  0.07684568
   0.48872581  0.41754881  0.07684568
   0.48872581  0.75088215  0.07684568
   0.82205915  0.08421549  0.07684568
   0.82205915  0.41754881  0.07684568
   0.82205915  0.75088215  0.07684568
   0.19898365  0.28752562  0.14620736
   0.19898365  0.62085897  0.14620736
   0.19898365  0.95419228  0.14620736
   0.53231698  0.28752562  0.14620736
   0.53231698  0.62085897  0.14620736
   0.53231698  0.95419228  0.14620736
   0.86565030  0.28752562  0.14620736
   0.86565030  0.62085897  0.14620736
   0.86565030  0.95419228  0.14620736
   0.19404885  0.27331316  0.05379306
   0.19192398  0.60664648  0.05379306
   0.19192398  0.93997985  0.05379306
   0.52525729  0.27331316  0.05379306
   0.52525729  0.60664648  0.05379306
   0.52525729  0.93997985  0.05379306
   0.85859066  0.27331316  0.05379306
   0.85859066  0.60664648  0.05379306
   0.85859066  0.93997985  0.05379306
Direct configuration=    21
   0.01822936  0.14327057  0.12315390
   0.01822936  0.47660389  0.12315390
   0.01822936  0.80993724  0.12315390
   0.35156268  0.14327057  0.12315390
   0.35156268  0.47660389  0.12315390
   0.35156268  0.80993724  0.12315390
   0.68489605  0.14327057  0.12315390
   0.68489605  0.47660389  0.12315390
   0.68489605  0.80993724  0.12315390
   0.15539247  0.08421549  0.07684568
   0.15539247  0.41754881  0.07684568
   0.15539247  0.75088215  0.07684568
   0.48872581  0.08421549  0.07684568
   0.48872581  0.41754881  0.07684568
   0.48872581  0.75088215  0.07684568
   0.82205915  0.08421549  0.07684568
   0.82205915  0.41754881  0.07684568
   0.82205915  0.75088215  0.07684568
   0.19898365  0.28752562  0.14620736
   0.19898365  0.62085897  0.14620736
   0.19898365  0.95419228  0.14620736
   0.53231698  0.28752562  0.14620736
   0.53231698  0.62085897  0.14620736
   0.53231698  0.95419228  0.14620736
   0.86565030  0.28752562  0.14620736
   0.86565030  0.62085897  0.14620736
   0.86565030  0.95419228  0.14620736
   0.18979910  0.27331316  0.05379306
   0.19192398  0.60664648  0.05379306
   0.19192398  0.93997985  0.05379306
   0.52525729  0.27331316  0.05379306
   0.52525729  0.60664648  0.05379306
   0.52525729  0.93997985  0.05379306
   0.85859066  0.27331316  0.05379306
   0.85859066  0.60664648  0.05379306
   0.85859066  0.93997985  0.05379306
Direct configuration=    22
   0.01822936  0.14327057  0.12315390
   0.01822936  0.47660389  0.12315390
   0.01822936  0.80993724  0.12315390
   0.35156268  0.14327057  0.12315390
   0.35156268  0.47660389  0.12315390
   0.35156268  0.80993724  0.12315390
   0.68489605  0.14327057  0.12315390
   0.68489605  0.47660389  0.12315390
   0.68489605  0.80993724  0.12315390
   0.15539247  0.08421549  0.07684568
   0.15539247  0.41754881  0.07684568
   0.15539247  0.75088215  0.07684568
   0.48872581  0.08421549  0.07684568
   0.48872581  0.41754881  0.07684568
   0.48872581  0.75088215  0.07684568
   0.82205915  0.08421549  0.07684568
   0.82205915  0.41754881  0.07684568
   0.82205915  0.75088215  0.07684568
   0.19898365  0.28752562  0.14620736
   0.19898365  0.62085897  0.14620736
   0.19898365  0.95419228  0.14620736
   0.53231698  0.28752562  0.14620736
   0.53231698  0.62085897  0.14620736
   0.53231698  0.95419228  0.14620736
   0.86565030  0.28752562  0.14620736
   0.86565030  0.62085897  0.14620736
   0.86565030  0.95419228  0.14620736
   0.19317419  0.27581336  0.05379306
   0.19192398  0.60664648  0.05379306
   0.19192398  0.93997985  0.05379306
   0.52525729  0.27331316  0.05379306
   0.52525729  0.60664648  0.05379306
   0.52525729  0.93997985  0.05379306
   0.85859066  0.27331316  0.05379306
   0.85859066  0.60664648  0.05379306
   0.85859066  0.93997985  0.05379306
Direct configuration=    23
   0.01822936  0.14327057  0.12315390
   0.01822936  0.47660389  0.12315390
   0.01822936  0.80993724  0.12315390
   0.35156268  0.14327057  0.12315390
   0.35156268  0.47660389  0.12315390
   0.35156268  0.80993724  0.12315390
   0.68489605  0.14327057  0.12315390
   0.68489605  0.47660389  0.12315390
   0.68489605  0.80993724  0.12315390
   0.15539247  0.08421549  0.07684568
   0.15539247  0.41754881  0.07684568
   0.15539247  0.75088215  0.07684568
   0.48872581  0.08421549  0.07684568
   0.48872581  0.41754881  0.07684568
   0.48872581  0.75088215  0.07684568
   0.82205915  0.08421549  0.07684568
   0.82205915  0.41754881  0.07684568
   0.82205915  0.75088215  0.07684568
   0.19898365  0.28752562  0.14620736
   0.19898365  0.62085897  0.14620736
   0.19898365  0.95419228  0.14620736
   0.53231698  0.28752562  0.14620736
   0.53231698  0.62085897  0.14620736
   0.53231698  0.95419228  0.14620736
   0.86565030  0.28752562  0.14620736
   0.86565030  0.62085897  0.14620736
   0.86565030  0.95419228  0.14620736
   0.19067376  0.27081297  0.05379306
   0.19192398  0.60664648  0.05379306
   0.19192398  0.93997985  0.05379306
   0.52525729  0.27331316  0.05379306
   0.52525729  0.60664648  0.05379306
   0.52525729  0.93997985  0.05379306
   0.85859066  0.27331316  0.05379306
   0.85859066  0.60664648  0.05379306
   0.85859066  0.93997985  0.05379306
Direct configuration=    24
   0.01822936  0.14327057  0.12315390
   0.01822936  0.47660389  0.12315390
   0.01822936  0.80993724  0.12315390
   0.35156268  0.14327057  0.12315390
   0.35156268  0.47660389  0.12315390
   0.35156268  0.80993724  0.12315390
   0.68489605  0.14327057  0.12315390
   0.68489605  0.47660389  0.12315390
   0.68489605  0.80993724  0.12315390
   0.15539247  0.08421549  0.07684568
   0.15539247  0.41754881  0.07684568
   0.15539247  0.75088215  0.07684568
   0.48872581  0.08421549  0.07684568
   0.48872581  0.41754881  0.07684568
   0.48872581  0.75088215  0.07684568
   0.82205915  0.08421549  0.07684568
   0.82205915  0.41754881  0.07684568
   0.82205915  0.75088215  0.07684568
   0.19898365  0.28752562  0.14620736
   0.19898365  0.62085897  0.14620736
   0.19898365  0.95419228  0.14620736
   0.53231698  0.28752562  0.14620736
   0.53231698  0.62085897  0.14620736
   0.53231698  0.95419228  0.14620736
   0.86565030  0.28752562  0.14620736
   0.86565030  0.62085897  0.14620736
   0.86565030  0.95419228  0.14620736
   0.19192398  0.27331316  0.05416806
   0.19192398  0.60664648  0.05379306
   0.19192398  0.93997985  0.05379306
   0.52525729  0.27331316  0.05379306
   0.52525729  0.60664648  0.05379306
   0.52525729  0.93997985  0.05379306
   0.85859066  0.27331316  0.05379306
   0.85859066  0.60664648  0.05379306
   0.85859066  0.93997985  0.05379306
Direct configuration=    25
   0.01822936  0.14327057  0.12315390
   0.01822936  0.47660389  0.12315390
   0.01822936  0.80993724  0.12315390
   0.35156268  0.14327057  0.12315390
   0.35156268  0.47660389  0.12315390
   0.35156268  0.80993724  0.12315390
   0.68489605  0.14327057  0.12315390
   0.68489605  0.47660389  0.12315390
   0.68489605  0.80993724  0.12315390
   0.15539247  0.08421549  0.07684568
   0.15539247  0.41754881  0.07684568
   0.15539247  0.75088215  0.07684568
   0.48872581  0.08421549  0.07684568
   0.48872581  0.41754881  0.07684568
   0.48872581  0.75088215  0.07684568
   0.82205915  0.08421549  0.07684568
   0.82205915  0.41754881  0.07684568
   0.82205915  0.75088215  0.07684568
   0.19898365  0.28752562  0.14620736
   0.19898365  0.62085897  0.14620736
   0.19898365  0.95419228  0.14620736
   0.53231698  0.28752562  0.14620736
   0.53231698  0.62085897  0.14620736
   0.53231698  0.95419228  0.14620736
   0.86565030  0.28752562  0.14620736
   0.86565030  0.62085897  0.14620736
   0.86565030  0.95419228  0.14620736
   0.19192398  0.27331316  0.05341806
   0.19192398  0.60664648  0.05379306
   0.19192398  0.93997985  0.05379306
   0.52525729  0.27331316  0.05379306
   0.52525729  0.60664648  0.05379306
   0.52525729  0.93997985  0.05379306
   0.85859066  0.27331316  0.05379306
   0.85859066  0.60664648  0.05379306
   0.85859066  0.93997985  0.05379306
