   1   1   0   0
  0.1572813E+03  0.2130000E-09  0.2131204E-09  0.4000000E-08  0.5000000E-15
  1.000000000000000E-004
  CAR 
 Convergence                             
     34.49523825    -12.77197748  301     -4.21316190      1.00000000
    -12.772  0.0000E+00  0.0000E+00
    -12.614  0.0000E+00  0.0000E+00
    -12.457  0.0000E+00  0.0000E+00
    -12.299  0.0000E+00  0.0000E+00
    -12.142  0.0000E+00  0.0000E+00
    -11.984  0.0000E+00  0.0000E+00
    -11.827  0.0000E+00  0.0000E+00
    -11.669  0.0000E+00  0.0000E+00
    -11.512  0.0000E+00  0.0000E+00
    -11.354  0.0000E+00  0.0000E+00
    -11.196  0.0000E+00  0.0000E+00
    -11.039  0.0000E+00  0.0000E+00
    -10.881  0.1369E-14  0.2157E-15
    -10.724  0.3588E-04  0.5653E-05
    -10.566  0.8791E-01  0.1386E-01
    -10.409  0.2325E+00  0.5049E-01
    -10.251  0.2350E+00  0.8752E-01
    -10.094  0.2340E+00  0.1244E+00
     -9.936  0.2350E+00  0.1614E+00
     -9.778  0.2691E+00  0.2038E+00
     -9.621  0.2452E+00  0.2424E+00
     -9.463  0.2063E+00  0.2749E+00
     -9.306  0.2939E+00  0.3213E+00
     -9.148  0.1856E+00  0.3505E+00
     -8.991  0.2948E+00  0.3970E+00
     -8.833  0.1789E+00  0.4251E+00
     -8.675  0.3106E+00  0.4741E+00
     -8.518  0.1727E+00  0.5013E+00
     -8.360  0.3390E+00  0.5547E+00
     -8.203  0.1814E+00  0.5833E+00
     -8.045  0.2974E+00  0.6302E+00
     -7.888  0.2381E+00  0.6677E+00
     -7.730  0.2252E+00  0.7032E+00
     -7.573  0.3295E+00  0.7551E+00
     -7.415  0.1720E+00  0.7822E+00
     -7.257  0.3268E+00  0.8337E+00
     -7.100  0.2790E+00  0.8776E+00
     -6.942  0.1522E+00  0.9016E+00
     -6.785  0.3840E+00  0.9621E+00
     -6.627  0.2633E+00  0.1004E+01
     -6.470  0.1549E+00  0.1028E+01
     -6.312  0.4146E+00  0.1093E+01
     -6.155  0.2772E+00  0.1137E+01
     -5.997  0.1659E+00  0.1163E+01
     -5.839  0.4213E+00  0.1230E+01
     -5.682  0.3326E+00  0.1282E+01
     -5.524  0.2209E+00  0.1317E+01
     -5.367  0.5607E+00  0.1405E+01
     -5.209  0.6587E+00  0.1509E+01
     -5.052  0.4533E+00  0.1580E+01
     -4.894  0.7774E+00  0.1703E+01
     -4.737  0.5666E+00  0.1792E+01
     -4.579  0.3144E+00  0.1842E+01
     -4.421  0.4445E+00  0.1912E+01
     -4.264  0.5335E+00  0.1996E+01
     -4.106  0.2780E+00  0.2039E+01
     -3.949  0.2893E+00  0.2085E+01
     -3.791  0.3365E+00  0.2138E+01
     -3.634  0.4114E+00  0.2203E+01
     -3.476  0.1565E+00  0.2228E+01
     -3.319  0.3426E+00  0.2282E+01
     -3.161  0.3352E+00  0.2334E+01
     -3.003  0.1234E+00  0.2354E+01
     -2.846  0.3458E+00  0.2408E+01
     -2.688  0.2231E+00  0.2443E+01
     -2.531  0.1948E+00  0.2474E+01
     -2.373  0.2910E+00  0.2520E+01
     -2.216  0.1537E+00  0.2544E+01
     -2.058  0.2033E+00  0.2576E+01
     -1.901  0.2105E+00  0.2609E+01
     -1.743  0.2418E+00  0.2647E+01
     -1.585  0.1108E+00  0.2665E+01
     -1.428  0.1209E+00  0.2684E+01
     -1.270  0.2901E+00  0.2730E+01
     -1.113  0.1642E+00  0.2756E+01
     -0.955  0.1192E+00  0.2774E+01
     -0.798  0.1995E+00  0.2806E+01
     -0.640  0.3250E+00  0.2857E+01
     -0.483  0.1273E+00  0.2877E+01
     -0.325  0.2377E+00  0.2915E+01
     -0.167  0.2950E+00  0.2961E+01
     -0.010  0.4580E+00  0.3033E+01
      0.148  0.4801E+00  0.3109E+01
      0.305  0.2645E+00  0.3150E+01
      0.463  0.6211E+00  0.3248E+01
      0.620  0.8334E+00  0.3380E+01
      0.778  0.7991E+00  0.3506E+01
      0.936  0.1092E+01  0.3678E+01
      1.093  0.1346E+01  0.3890E+01
      1.251  0.1313E+01  0.4096E+01
      1.408  0.1831E+01  0.4385E+01
      1.566  0.1724E+01  0.4657E+01
      1.723  0.1721E+01  0.4928E+01
      1.881  0.1585E+01  0.5178E+01
      2.038  0.1751E+01  0.5453E+01
      2.196  0.1819E+01  0.5740E+01
      2.354  0.2113E+01  0.6073E+01
      2.511  0.1807E+01  0.6358E+01
      2.669  0.1803E+01  0.6642E+01
      2.826  0.2004E+01  0.6957E+01
      2.984  0.1944E+01  0.7264E+01
      3.141  0.2252E+01  0.7618E+01
      3.299  0.2149E+01  0.7957E+01
      3.456  0.2300E+01  0.8319E+01
      3.614  0.2362E+01  0.8691E+01
      3.772  0.2351E+01  0.9062E+01
      3.929  0.2412E+01  0.9442E+01
      4.087  0.2672E+01  0.9863E+01
      4.244  0.2123E+01  0.1020E+02
      4.402  0.2725E+01  0.1063E+02
      4.559  0.2369E+01  0.1100E+02
      4.717  0.2220E+01  0.1135E+02
      4.874  0.2103E+01  0.1168E+02
      5.032  0.2270E+01  0.1204E+02
      5.190  0.2394E+01  0.1242E+02
      5.347  0.2148E+01  0.1275E+02
      5.505  0.1949E+01  0.1306E+02
      5.662  0.2898E+01  0.1352E+02
      5.820  0.2970E+01  0.1399E+02
      5.977  0.2578E+01  0.1439E+02
      6.135  0.2620E+01  0.1480E+02
      6.292  0.2839E+01  0.1525E+02
      6.450  0.2900E+01  0.1571E+02
      6.608  0.2616E+01  0.1612E+02
      6.765  0.3211E+01  0.1663E+02
      6.923  0.3046E+01  0.1711E+02
      7.080  0.3254E+01  0.1762E+02
      7.238  0.3138E+01  0.1811E+02
      7.395  0.2930E+01  0.1858E+02
      7.553  0.3016E+01  0.1905E+02
      7.710  0.3438E+01  0.1959E+02
      7.868  0.3684E+01  0.2017E+02
      8.026  0.2620E+01  0.2059E+02
      8.183  0.2735E+01  0.2102E+02
      8.341  0.3712E+01  0.2160E+02
      8.498  0.3425E+01  0.2214E+02
      8.656  0.3323E+01  0.2266E+02
      8.813  0.2716E+01  0.2309E+02
      8.971  0.3356E+01  0.2362E+02
      9.128  0.3644E+01  0.2420E+02
      9.286  0.3452E+01  0.2474E+02
      9.444  0.3415E+01  0.2528E+02
      9.601  0.4086E+01  0.2592E+02
      9.759  0.3523E+01  0.2648E+02
      9.916  0.3051E+01  0.2696E+02
     10.074  0.3742E+01  0.2755E+02
     10.231  0.3052E+01  0.2803E+02
     10.389  0.3545E+01  0.2859E+02
     10.547  0.4260E+01  0.2926E+02
     10.704  0.3725E+01  0.2984E+02
     10.862  0.3579E+01  0.3041E+02
     11.019  0.3490E+01  0.3096E+02
     11.177  0.3789E+01  0.3155E+02
     11.334  0.3849E+01  0.3216E+02
     11.492  0.3985E+01  0.3279E+02
     11.649  0.3739E+01  0.3338E+02
     11.807  0.4246E+01  0.3405E+02
     11.965  0.4219E+01  0.3471E+02
     12.122  0.4271E+01  0.3538E+02
     12.280  0.3970E+01  0.3601E+02
     12.437  0.4216E+01  0.3667E+02
     12.595  0.3103E+01  0.3716E+02
     12.752  0.3637E+01  0.3774E+02
     12.910  0.4153E+01  0.3839E+02
     13.067  0.5002E+01  0.3918E+02
     13.225  0.3971E+01  0.3980E+02
     13.383  0.3799E+01  0.4040E+02
     13.540  0.4670E+01  0.4114E+02
     13.698  0.4902E+01  0.4191E+02
     13.855  0.3473E+01  0.4246E+02
     14.013  0.3785E+01  0.4305E+02
     14.170  0.4268E+01  0.4373E+02
     14.328  0.3876E+01  0.4434E+02
     14.485  0.4700E+01  0.4508E+02
     14.643  0.3859E+01  0.4569E+02
     14.801  0.4410E+01  0.4638E+02
     14.958  0.4228E+01  0.4705E+02
     15.116  0.3327E+01  0.4757E+02
     15.273  0.4885E+01  0.4834E+02
     15.431  0.4442E+01  0.4904E+02
     15.588  0.4938E+01  0.4982E+02
     15.746  0.4496E+01  0.5053E+02
     15.903  0.4307E+01  0.5121E+02
     16.061  0.4495E+01  0.5191E+02
     16.219  0.4164E+01  0.5257E+02
     16.376  0.3767E+01  0.5316E+02
     16.534  0.4248E+01  0.5383E+02
     16.691  0.4991E+01  0.5462E+02
     16.849  0.4564E+01  0.5534E+02
     17.006  0.4805E+01  0.5610E+02
     17.164  0.4056E+01  0.5674E+02
     17.321  0.4434E+01  0.5743E+02
     17.479  0.3885E+01  0.5805E+02
     17.637  0.4939E+01  0.5882E+02
     17.794  0.5114E+01  0.5963E+02
     17.952  0.4681E+01  0.6037E+02
     18.109  0.4963E+01  0.6115E+02
     18.267  0.4480E+01  0.6186E+02
     18.424  0.4447E+01  0.6256E+02
     18.582  0.3909E+01  0.6317E+02
     18.739  0.4720E+01  0.6392E+02
     18.897  0.4286E+01  0.6459E+02
     19.055  0.4764E+01  0.6534E+02
     19.212  0.4929E+01  0.6612E+02
     19.370  0.4169E+01  0.6678E+02
     19.527  0.4918E+01  0.6755E+02
     19.685  0.4611E+01  0.6828E+02
     19.842  0.4230E+01  0.6894E+02
     20.000  0.3001E+01  0.6942E+02
     20.158  0.3805E+01  0.7002E+02
     20.315  0.3688E+01  0.7060E+02
     20.473  0.3973E+01  0.7122E+02
     20.630  0.3530E+01  0.7178E+02
     20.788  0.3343E+01  0.7231E+02
     20.945  0.3737E+01  0.7289E+02
     21.103  0.3090E+01  0.7338E+02
     21.260  0.3251E+01  0.7389E+02
     21.418  0.2265E+01  0.7425E+02
     21.576  0.2921E+01  0.7471E+02
     21.733  0.2311E+01  0.7507E+02
     21.891  0.2258E+01  0.7543E+02
     22.048  0.1834E+01  0.7572E+02
     22.206  0.1129E+01  0.7590E+02
     22.363  0.2307E+01  0.7626E+02
     22.521  0.1620E+01  0.7652E+02
     22.678  0.1469E+01  0.7675E+02
     22.836  0.2073E+01  0.7707E+02
     22.994  0.1539E+01  0.7732E+02
     23.151  0.1723E+01  0.7759E+02
     23.309  0.2078E+01  0.7792E+02
     23.466  0.1642E+01  0.7817E+02
     23.624  0.1402E+01  0.7839E+02
     23.781  0.1647E+01  0.7865E+02
     23.939  0.1563E+01  0.7890E+02
     24.096  0.1222E+01  0.7909E+02
     24.254  0.1358E+01  0.7931E+02
     24.412  0.1495E+01  0.7954E+02
     24.569  0.1148E+01  0.7972E+02
     24.727  0.9669E+00  0.7988E+02
     24.884  0.1206E+01  0.8007E+02
     25.042  0.1117E+01  0.8024E+02
     25.199  0.1201E+01  0.8043E+02
     25.357  0.2026E+01  0.8075E+02
     25.514  0.9001E+00  0.8089E+02
     25.672  0.8168E+00  0.8102E+02
     25.830  0.9605E+00  0.8117E+02
     25.987  0.8912E+00  0.8131E+02
     26.145  0.1007E+01  0.8147E+02
     26.302  0.9962E+00  0.8163E+02
     26.460  0.1034E+01  0.8179E+02
     26.617  0.9097E+00  0.8193E+02
     26.775  0.2458E+00  0.8197E+02
     26.932  0.5309E+00  0.8206E+02
     27.090  0.5290E+00  0.8214E+02
     27.248  0.5816E+00  0.8223E+02
     27.405  0.4422E+00  0.8230E+02
     27.563  0.7603E+00  0.8242E+02
     27.720  0.7928E+00  0.8255E+02
     27.878  0.5671E+00  0.8264E+02
     28.035  0.7042E+00  0.8275E+02
     28.193  0.4819E+00  0.8282E+02
     28.351  0.6117E+00  0.8292E+02
     28.508  0.3999E+00  0.8298E+02
     28.666  0.3186E+00  0.8303E+02
     28.823  0.1210E+00  0.8305E+02
     28.981  0.2560E+00  0.8309E+02
     29.138  0.2697E+00  0.8313E+02
     29.296  0.6858E+00  0.8324E+02
     29.453  0.1943E+00  0.8327E+02
     29.611  0.9384E-01  0.8329E+02
     29.769  0.2566E+00  0.8333E+02
     29.926  0.3852E+00  0.8339E+02
     30.084  0.3078E+00  0.8344E+02
     30.241  0.6465E+00  0.8354E+02
     30.399  0.4899E+00  0.8362E+02
     30.556  0.5690E+00  0.8371E+02
     30.714  0.4112E+00  0.8377E+02
     30.871  0.3222E+00  0.8382E+02
     31.029  0.1944E+00  0.8385E+02
     31.187  0.2315E+00  0.8389E+02
     31.344  0.3411E-02  0.8389E+02
     31.502  0.9690E-01  0.8390E+02
     31.659  0.1193E+00  0.8392E+02
     31.817  0.1636E+00  0.8395E+02
     31.974  0.1207E+00  0.8397E+02
     32.132  0.3146E-01  0.8397E+02
     32.289  0.9140E-01  0.8399E+02
     32.447  0.8329E-01  0.8400E+02
     32.605  0.5236E-04  0.8400E+02
     32.762  0.0000E+00  0.8400E+02
     32.920  0.0000E+00  0.8400E+02
     33.077  0.0000E+00  0.8400E+02
     33.235  0.0000E+00  0.8400E+02
     33.392  0.0000E+00  0.8400E+02
     33.550  0.0000E+00  0.8400E+02
     33.707  0.0000E+00  0.8400E+02
     33.865  0.0000E+00  0.8400E+02
     34.023  0.0000E+00  0.8400E+02
     34.180  0.0000E+00  0.8400E+02
     34.338  0.0000E+00  0.8400E+02
     34.495  0.0000E+00  0.8400E+02
