cubic-beryllene trilayer full top
   1.00000000000000     
     2.1978961699877888    0.0000000000000000    0.0000000000000000
     0.0000000000000000    2.1978961699877888    0.0000000000000000
     0.0000000000000000    0.0000000000000000   40.0000000000000000
   Be    H
   3     1
Direct
     0.0000000000000000    0.0000000000000000    0.1205589245028993
     0.5000000000000000    0.5000000000000000    0.0814105761101650
     0.0000000000000000    0.0000000000000000    0.0423279817609003
     0.0000000000000000    0.0000000000000000    0.1557025176260269
