G-Beryllene with a = 3.679286355186997  
   1.00000000000000     
    15.9317765582999993    9.1982154846000004    0.0000000000000000
   -15.9317765582999993    9.1982154846000004    0.0000000000000000
     0.0000000000000000    0.0000000000000000   40.0000000000000000
  Be            
    50
Direct
     0.0666666669999998    0.1333333330000031    0.1000000000000014
     0.0666666669999998    0.3333333329999988    0.1000000000000014
     0.0666666669999998    0.5333333330000016    0.1000000000000014
     0.0666666669999998    0.7333333329999974    0.1000000000000014
     0.0666666669999998    0.9333333330000002    0.1000000000000014
     0.2666666670000026    0.1333333330000031    0.1000000000000014
     0.2666666670000026    0.3333333329999988    0.1000000000000014
     0.2666666670000026    0.5333333330000016    0.1000000000000014
     0.2666666670000026    0.7333333329999974    0.1000000000000014
     0.2666666670000026    0.9333333330000002    0.1000000000000014
     0.4666666669999984    0.1333333330000031    0.1000000000000014
     0.4666666669999984    0.3333333329999988    0.1000000000000014
     0.4666666669999984    0.5333333330000016    0.1000000000000014
     0.4666666669999984    0.7333333329999974    0.1000000000000014
     0.4666666669999984    0.9333333330000002    0.1000000000000014
     0.6666666670000012    0.1333333330000031    0.1000000000000014
     0.6666666670000012    0.3333333329999988    0.1000000000000014
     0.6666666670000012    0.5333333330000016    0.1000000000000014
     0.6666666670000012    0.7333333329999974    0.1000000000000014
     0.6666666670000012    0.9333333330000002    0.1000000000000014
     0.8666666669999969    0.1333333330000031    0.1000000000000014
     0.8666666669999969    0.3333333329999988    0.1000000000000014
     0.8666666669999969    0.5333333330000016    0.1000000000000014
     0.8666666669999969    0.7333333329999974    0.1000000000000014
     0.8666666669999969    0.9333333330000002    0.1000000000000014
     0.1333333330000031    0.0666666669999998    0.1000000000000014
     0.1333333330000031    0.2666666670000026    0.1000000000000014
     0.1333333330000031    0.4666666669999984    0.1000000000000014
     0.1333333330000031    0.6666666670000012    0.1000000000000014
     0.1333333330000031    0.8666666669999969    0.1000000000000014
     0.3333333329999988    0.0666666669999998    0.1000000000000014
     0.3333333329999988    0.2666666670000026    0.1000000000000014
     0.3333333329999988    0.4666666669999984    0.1000000000000014
     0.3333333329999988    0.6666666670000012    0.1000000000000014
     0.3333333329999988    0.8666666669999969    0.1000000000000014
     0.5333333330000016    0.0666666669999998    0.1000000000000014
     0.5333333330000016    0.2666666670000026    0.1000000000000014
     0.5333333330000016    0.4666666669999984    0.1000000000000014
     0.5333333330000016    0.6666666670000012    0.1000000000000014
     0.5333333330000016    0.8666666669999969    0.1000000000000014
     0.7333333329999974    0.0666666669999998    0.1000000000000014
     0.7333333329999974    0.2666666670000026    0.1000000000000014
     0.7333333329999974    0.4666666669999984    0.1000000000000014
     0.7333333329999974    0.6666666670000012    0.1000000000000014
     0.7333333329999974    0.8666666669999969    0.1000000000000014
     0.9333333330000002    0.0666666669999998    0.1000000000000014
     0.9333333330000002    0.2666666670000026    0.1000000000000014
     0.9333333330000002    0.4666666669999984    0.1000000000000014
     0.9333333330000002    0.6666666670000012    0.1000000000000014
     0.9333333330000002    0.8666666669999969    0.1000000000000014
 
  0.00000000E+00  0.00000000E+00  0.00000000E+00
  0.00000000E+00  0.00000000E+00  0.00000000E+00
  0.00000000E+00  0.00000000E+00  0.00000000E+00
  0.00000000E+00  0.00000000E+00  0.00000000E+00
  0.00000000E+00  0.00000000E+00  0.00000000E+00
  0.00000000E+00  0.00000000E+00  0.00000000E+00
  0.00000000E+00  0.00000000E+00  0.00000000E+00
  0.00000000E+00  0.00000000E+00  0.00000000E+00
  0.00000000E+00  0.00000000E+00  0.00000000E+00
  0.00000000E+00  0.00000000E+00  0.00000000E+00
  0.00000000E+00  0.00000000E+00  0.00000000E+00
  0.00000000E+00  0.00000000E+00  0.00000000E+00
  0.00000000E+00  0.00000000E+00  0.00000000E+00
  0.00000000E+00  0.00000000E+00  0.00000000E+00
  0.00000000E+00  0.00000000E+00  0.00000000E+00
  0.00000000E+00  0.00000000E+00  0.00000000E+00
  0.00000000E+00  0.00000000E+00  0.00000000E+00
  0.00000000E+00  0.00000000E+00  0.00000000E+00
  0.00000000E+00  0.00000000E+00  0.00000000E+00
  0.00000000E+00  0.00000000E+00  0.00000000E+00
  0.00000000E+00  0.00000000E+00  0.00000000E+00
  0.00000000E+00  0.00000000E+00  0.00000000E+00
  0.00000000E+00  0.00000000E+00  0.00000000E+00
  0.00000000E+00  0.00000000E+00  0.00000000E+00
  0.00000000E+00  0.00000000E+00  0.00000000E+00
  0.00000000E+00  0.00000000E+00  0.00000000E+00
  0.00000000E+00  0.00000000E+00  0.00000000E+00
  0.00000000E+00  0.00000000E+00  0.00000000E+00
  0.00000000E+00  0.00000000E+00  0.00000000E+00
  0.00000000E+00  0.00000000E+00  0.00000000E+00
  0.00000000E+00  0.00000000E+00  0.00000000E+00
  0.00000000E+00  0.00000000E+00  0.00000000E+00
  0.00000000E+00  0.00000000E+00  0.00000000E+00
  0.00000000E+00  0.00000000E+00  0.00000000E+00
  0.00000000E+00  0.00000000E+00  0.00000000E+00
  0.00000000E+00  0.00000000E+00  0.00000000E+00
  0.00000000E+00  0.00000000E+00  0.00000000E+00
  0.00000000E+00  0.00000000E+00  0.00000000E+00
  0.00000000E+00  0.00000000E+00  0.00000000E+00
  0.00000000E+00  0.00000000E+00  0.00000000E+00
  0.00000000E+00  0.00000000E+00  0.00000000E+00
  0.00000000E+00  0.00000000E+00  0.00000000E+00
  0.00000000E+00  0.00000000E+00  0.00000000E+00
  0.00000000E+00  0.00000000E+00  0.00000000E+00
  0.00000000E+00  0.00000000E+00  0.00000000E+00
  0.00000000E+00  0.00000000E+00  0.00000000E+00
  0.00000000E+00  0.00000000E+00  0.00000000E+00
  0.00000000E+00  0.00000000E+00  0.00000000E+00
  0.00000000E+00  0.00000000E+00  0.00000000E+00
  0.00000000E+00  0.00000000E+00  0.00000000E+00
