Phonopy                                 
           1
    -5.003058   -5.003058    5.003058
    -5.003058    5.003058   -5.003058
     5.003058   -5.003058   -5.003058
   Be
    64
Direct configuration=     1
   0.00115399  0.00000000  0.00000000
   0.25000000  0.00000000  0.00000000
   0.50000000  0.00000000  0.00000000
   0.75000000  0.00000000  0.00000000
   0.00000000  0.25000000  0.00000000
   0.25000000  0.25000000  0.00000000
   0.50000000  0.25000000  0.00000000
   0.75000000  0.25000000  0.00000000
   0.00000000  0.50000000  0.00000000
   0.25000000  0.50000000  0.00000000
   0.50000000  0.50000000  0.00000000
   0.75000000  0.50000000  0.00000000
   0.00000000  0.75000000  0.00000000
   0.25000000  0.75000000  0.00000000
   0.50000000  0.75000000  0.00000000
   0.75000000  0.75000000  0.00000000
   0.00000000  0.00000000  0.25000000
   0.25000000  0.00000000  0.25000000
   0.50000000  0.00000000  0.25000000
   0.75000000  0.00000000  0.25000000
   0.00000000  0.25000000  0.25000000
   0.25000000  0.25000000  0.25000000
   0.50000000  0.25000000  0.25000000
   0.75000000  0.25000000  0.25000000
   0.00000000  0.50000000  0.25000000
   0.25000000  0.50000000  0.25000000
   0.50000000  0.50000000  0.25000000
   0.75000000  0.50000000  0.25000000
   0.00000000  0.75000000  0.25000000
   0.25000000  0.75000000  0.25000000
   0.50000000  0.75000000  0.25000000
   0.75000000  0.75000000  0.25000000
   0.00000000  0.00000000  0.50000000
   0.25000000  0.00000000  0.50000000
   0.50000000  0.00000000  0.50000000
   0.75000000  0.00000000  0.50000000
   0.00000000  0.25000000  0.50000000
   0.25000000  0.25000000  0.50000000
   0.50000000  0.25000000  0.50000000
   0.75000000  0.25000000  0.50000000
   0.00000000  0.50000000  0.50000000
   0.25000000  0.50000000  0.50000000
   0.50000000  0.50000000  0.50000000
   0.75000000  0.50000000  0.50000000
   0.00000000  0.75000000  0.50000000
   0.25000000  0.75000000  0.50000000
   0.50000000  0.75000000  0.50000000
   0.75000000  0.75000000  0.50000000
   0.00000000  0.00000000  0.75000000
   0.25000000  0.00000000  0.75000000
   0.50000000  0.00000000  0.75000000
   0.75000000  0.00000000  0.75000000
   0.00000000  0.25000000  0.75000000
   0.25000000  0.25000000  0.75000000
   0.50000000  0.25000000  0.75000000
   0.75000000  0.25000000  0.75000000
   0.00000000  0.50000000  0.75000000
   0.25000000  0.50000000  0.75000000
   0.50000000  0.50000000  0.75000000
   0.75000000  0.50000000  0.75000000
   0.00000000  0.75000000  0.75000000
   0.25000000  0.75000000  0.75000000
   0.50000000  0.75000000  0.75000000
   0.75000000  0.75000000  0.75000000
