       N       E                     dE             d eps       ncg     rms          rms(c)
DAV:   1     0.422670130438E+02    0.42267E+02   -0.28239E+03  1960   0.349E+02
DAV:   2     0.223975992412E+01   -0.40027E+02   -0.39741E+02  2940   0.614E+01
DAV:   3     0.160180351584E+01   -0.63796E+00   -0.63787E+00  3640   0.107E+01
DAV:   4     0.160170811399E+01   -0.95402E-04   -0.95402E-04  2632   0.134E-01
DAV:   5     0.160170799430E+01   -0.11969E-06   -0.11967E-06  3724   0.427E-03
DAV:   6     0.160170799419E+01   -0.10390E-09    0.10584E-09  2828   0.181E-05
   1 F= 0.16017080E+01 E0= 0.16018364E+01  d E =-.256727E-03  mag=     0.0000    -0.0000     0.0000
