       N       E                     dE             d eps       ncg     rms          rms(c)
DAV:   1     0.440008372845E+01    0.44001E+01   -0.13119E+02    96   0.190E+01
DAV:   2    -0.230783494074E+00   -0.46309E+01   -0.46309E+01   120   0.330E+00
DAV:   3    -0.110912054537E+01   -0.87834E+00   -0.87834E+00    96   0.225E+00
DAV:   4    -0.112319066543E+01   -0.14070E-01   -0.14070E-01   144   0.311E-01
DAV:   5    -0.112328381629E+01   -0.93151E-04   -0.93151E-04   144   0.290E-02    0.674E-01
DAV:   6     0.319718800472E-01    0.11553E+01   -0.98352E-04   168   0.248E-02    0.377E-01
DAV:   7    -0.670709171876E+00   -0.70268E+00   -0.43511E-04    96   0.186E-02    0.193E-01
DAV:   8    -0.106169061404E+01   -0.39098E+00   -0.12154E-03    96   0.187E-02    0.297E-02
DAV:   9    -0.106468857983E+01   -0.29980E-02   -0.16095E-04   144   0.878E-03    0.148E-02
DAV:  10    -0.109431684164E+01   -0.29628E-01   -0.13026E-05    96   0.306E-03    0.701E-03
DAV:  11    -0.111427481985E+01   -0.19958E-01   -0.58908E-05    96   0.126E-02    0.331E-03
DAV:  12    -0.111306076206E+01    0.12141E-02   -0.61118E-05    96   0.153E-02    0.233E-03
DAV:  13    -0.111554723847E+01   -0.24865E-02   -0.13795E-05    96   0.594E-03    0.113E-03
DAV:  14    -0.111587348145E+01   -0.32624E-03   -0.37964E-06   120   0.155E-03    0.768E-04
DAV:  15    -0.111671984230E+01   -0.84636E-03   -0.95620E-07    96   0.686E-04    0.556E-04
DAV:  16    -0.111710369939E+01   -0.38386E-03   -0.15708E-06    96   0.657E-04    0.341E-04
DAV:  17    -0.111726385776E+01   -0.16016E-03   -0.97831E-07    96   0.497E-04    0.161E-04
DAV:  18    -0.111728566285E+01   -0.21805E-04   -0.20155E-07   144   0.237E-04    0.143E-04
DAV:  19    -0.111735155106E+01   -0.65888E-04   -0.16676E-07   120   0.231E-04    0.807E-05
DAV:  20    -0.111738759775E+01   -0.36047E-04   -0.45809E-08   120   0.120E-04    0.395E-05
DAV:  21    -0.111740278150E+01   -0.15184E-04   -0.77714E-09   144   0.577E-05    0.356E-05
DAV:  22    -0.111742383902E+01   -0.21058E-04   -0.49412E-09   120   0.433E-05    0.254E-05
DAV:  23    -0.111742389685E+01   -0.57831E-07   -0.17845E-09   144   0.274E-05
   1 F= -.11174239E+01 E0= -.11174239E+01  d E =-.592301E-12  mag=     1.0000
