       N       E                     dE             d eps       ncg     rms          rms(c)
DAV:   1     0.841633445735E+03    0.84163E+03   -0.33975E+04  2730   0.834E+02
DAV:   2    -0.155466628953E+03   -0.99710E+03   -0.96321E+03  4214   0.176E+02
DAV:   3    -0.265060089299E+03   -0.10959E+03   -0.10780E+03  3416   0.646E+01
DAV:   4    -0.268489125328E+03   -0.34290E+01   -0.34134E+01  3584   0.130E+01
DAV:   5    -0.268569856731E+03   -0.80731E-01   -0.80608E-01  3850   0.179E+00    0.150E+01
DAV:   6    -0.258645434682E+03    0.99244E+01   -0.74773E+00  3045   0.541E+00    0.882E+00
DAV:   7    -0.253528575181E+03    0.51169E+01   -0.78304E+00  3024   0.577E+00    0.176E+00
DAV:   8    -0.253211882712E+03    0.31669E+00   -0.98866E-01  3696   0.201E+00    0.118E+00
DAV:   9    -0.253007336518E+03    0.20455E+00   -0.78815E-02  3332   0.768E-01    0.405E-01
DAV:  10    -0.252941271769E+03    0.66065E-01   -0.55538E-02  3339   0.498E-01    0.328E-01
DAV:  11    -0.252904982282E+03    0.36289E-01   -0.74802E-02  3276   0.486E-01    0.214E-01
DAV:  12    -0.252929679664E+03   -0.24697E-01   -0.28241E-02  3248   0.349E-01    0.184E-01
DAV:  13    -0.252933654328E+03   -0.39747E-02   -0.80358E-03  3185   0.217E-01    0.100E-01
DAV:  14    -0.252941106709E+03   -0.74524E-02   -0.15382E-03  3360   0.835E-02    0.334E-02
DAV:  15    -0.252950194766E+03   -0.90881E-02   -0.11304E-03  2863   0.541E-02    0.423E-02
DAV:  16    -0.252952608790E+03   -0.24140E-02   -0.18680E-04  3052   0.233E-02    0.122E-02
DAV:  17    -0.252953667787E+03   -0.10590E-02   -0.89622E-05  3192   0.197E-02    0.844E-03
DAV:  18    -0.252954496328E+03   -0.82854E-03   -0.63600E-05  2891   0.117E-02    0.303E-03
DAV:  19    -0.252954597439E+03   -0.10111E-03   -0.31448E-06  3171   0.292E-03    0.272E-03
DAV:  20    -0.252954761750E+03   -0.16431E-03   -0.39031E-06  2828   0.370E-03    0.182E-03
DAV:  21    -0.252954783172E+03   -0.21422E-04   -0.58950E-07  3150   0.185E-03    0.139E-03
DAV:  22    -0.252954811093E+03   -0.27921E-04   -0.32121E-07  2982   0.125E-03    0.687E-04
DAV:  23    -0.252954815716E+03   -0.46233E-05   -0.56589E-08  3087   0.636E-04    0.313E-04
DAV:  24    -0.252954821087E+03   -0.53709E-05   -0.35087E-08  2527   0.285E-04    0.734E-05
DAV:  25    -0.252954822167E+03   -0.10794E-05   -0.21167E-09  2212   0.147E-04    0.684E-05
DAV:  26    -0.252954822671E+03   -0.50414E-06   -0.72963E-10  1974   0.963E-05    0.764E-05
DAV:  27    -0.252954822806E+03   -0.13571E-06    0.11192E-09  2016   0.694E-05    0.131E-05
DAV:  28    -0.252954822854E+03   -0.47400E-07    0.15440E-09  2051   0.388E-05    0.160E-05
DAV:  29    -0.252954822875E+03   -0.21175E-07    0.17401E-09  2044   0.232E-05    0.884E-06
DAV:  30    -0.252954822881E+03   -0.65090E-08    0.17944E-09  2247   0.123E-05
   1 F= -.26430458E+03 E0= -.26427768E+03  d E =-.538065E-01
