<?xml version="1.0" encoding="ISO-8859-1"?>
<modeling>
 <generator>
  <i name="program" type="string">vasp </i>
  <i name="version" type="string">6.5.0  </i>
  <i name="subversion" type="string">16Dec24 (build Jan 08 2025 16:17:04) complex                          parallel </i>
  <i name="platform" type="string">LinuxIFC </i>
  <i name="date" type="string">2026 09 29 </i>
  <i name="time" type="string">12:21:32 </i>
 </generator>
 <incar>
  <i type="string" name="SYSTEM">HSE06 check</i>
  <i type="int" name="ISTART">     1</i>
  <i type="string" name="PREC">Accurate</i>
  <i type="string" name="ALGO">Damped</i>
  <i type="int" name="ISPIN">     1</i>
  <i type="int" name="ICHARG">     2</i>
  <i type="int" name="NELM">   200</i>
  <i type="int" name="IBRION">    -1</i>
  <i name="EDIFF">      0.00000100</i>
  <i name="EDIFFG">     -0.00100000</i>
  <i type="int" name="NSW">     0</i>
  <i type="int" name="ISIF">     2</i>
  <i name="ENCUT">    600.00000000</i>
  <i type="int" name="NBANDS">    16</i>
  <i name="POTIM">      0.50000000</i>
  <i name="TIME">      0.40000000</i>
  <i type="int" name="ISMEAR">     0</i>
  <i name="SIGMA">      0.05000000</i>
  <i type="logical" name="LWAVE"> T  </i>
  <i type="logical" name="LCHARG"> F  </i>
  <i name="HFSCREEN">      0.20000000</i>
  <i type="logical" name="LHFCALC"> T  </i>
  <i type="string" name="GGA">PE</i>
  <i name="AEXX">      0.25000000</i>
  <i type="string" name="PRECFOCK">Normal</i>
  <i type="logical" name="LDIPOL"> T  </i>
  <i type="int" name="IDIPOL">     3</i>
  <v name="DIPOL">      0.50000000      0.50000000      0.50000000</v>
 </incar>
 <primitive_cell>
  <structure name="primitive_cell" >
   <crystal>
    <varray name="basis" >
     <v>       1.84377978       1.06444526       0.00000000 </v>
     <v>      -1.84377978       1.06444526       0.00000000 </v>
     <v>       0.00000000       0.00000000      20.00000000 </v>
    </varray>
    <i name="volume">     78.50410598 </i>
    <varray name="rec_basis" >
     <v>       0.27118206       0.46972824       0.00000000 </v>
     <v>      -0.27118206       0.46972824       0.00000000 </v>
     <v>       0.00000000       0.00000000       0.05000000 </v>
    </varray>
   </crystal>
   <varray name="positions" >
    <v>       0.00000000       0.00000000       0.50000000 </v>
   </varray>
  </structure>
  <varray name="primitive_index" >
   <v type="int" >        1 </v>
  </varray>
 </primitive_cell>
 <kpoints>
  <generation param="Gamma">
   <v type="int" name="divisions">      12       12        1 </v>
   <v name="usershift">      0.00000000       0.00000000       0.00000000 </v>
   <v name="genvec1">      0.08333333       0.00000000       0.00000000 </v>
   <v name="genvec2">      0.00000000       0.08333333       0.00000000 </v>
   <v name="genvec3">      0.00000000       0.00000000       1.00000000 </v>
   <v name="shift">      0.00000000       0.00000000       0.00000000 </v>
  </generation>
  <varray name="kpointlist" >
   <v>       0.00000000       0.00000000       0.00000000 </v>
   <v>       0.08333333       0.00000000       0.00000000 </v>
   <v>       0.16666667       0.00000000       0.00000000 </v>
   <v>       0.25000000       0.00000000       0.00000000 </v>
   <v>       0.33333333       0.00000000       0.00000000 </v>
   <v>       0.41666667       0.00000000       0.00000000 </v>
   <v>       0.50000000       0.00000000       0.00000000 </v>
   <v>       0.08333333       0.08333333       0.00000000 </v>
   <v>       0.16666667       0.08333333       0.00000000 </v>
   <v>       0.25000000       0.08333333       0.00000000 </v>
   <v>       0.33333333       0.08333333       0.00000000 </v>
   <v>       0.41666667       0.08333333       0.00000000 </v>
   <v>       0.50000000       0.08333333       0.00000000 </v>
   <v>      -0.41666667       0.08333333       0.00000000 </v>
   <v>      -0.33333333       0.08333333       0.00000000 </v>
   <v>      -0.25000000       0.08333333       0.00000000 </v>
   <v>      -0.16666667       0.08333333       0.00000000 </v>
   <v>      -0.08333333       0.08333333       0.00000000 </v>
   <v>       0.16666667       0.16666667       0.00000000 </v>
   <v>       0.25000000       0.16666667       0.00000000 </v>
   <v>       0.33333333       0.16666667       0.00000000 </v>
   <v>       0.41666667       0.16666667       0.00000000 </v>
   <v>       0.50000000       0.16666667       0.00000000 </v>
   <v>      -0.41666667       0.16666667       0.00000000 </v>
   <v>      -0.33333333       0.16666667       0.00000000 </v>
   <v>      -0.25000000       0.16666667       0.00000000 </v>
   <v>      -0.16666667       0.16666667       0.00000000 </v>
   <v>       0.25000000       0.25000000       0.00000000 </v>
   <v>       0.33333333       0.25000000       0.00000000 </v>
   <v>       0.41666667       0.25000000       0.00000000 </v>
   <v>       0.50000000       0.25000000       0.00000000 </v>
   <v>      -0.41666667       0.25000000       0.00000000 </v>
   <v>      -0.33333333       0.25000000       0.00000000 </v>
   <v>      -0.25000000       0.25000000       0.00000000 </v>
   <v>       0.33333333       0.33333333       0.00000000 </v>
   <v>       0.41666667       0.33333333       0.00000000 </v>
   <v>       0.50000000       0.33333333       0.00000000 </v>
   <v>      -0.41666667       0.33333333       0.00000000 </v>
   <v>      -0.33333333       0.33333333       0.00000000 </v>
   <v>       0.41666667       0.41666667       0.00000000 </v>
   <v>       0.50000000       0.41666667       0.00000000 </v>
   <v>      -0.41666667       0.41666667       0.00000000 </v>
   <v>       0.50000000       0.50000000       0.00000000 </v>
  </varray>
  <varray name="weights" >
   <v>       0.00694444 </v>
   <v>       0.02777778 </v>
   <v>       0.02777778 </v>
   <v>       0.02777778 </v>
   <v>       0.02777778 </v>
   <v>       0.02777778 </v>
   <v>       0.01388889 </v>
   <v>       0.01388889 </v>
   <v>       0.02777778 </v>
   <v>       0.02777778 </v>
   <v>       0.02777778 </v>
   <v>       0.02777778 </v>
   <v>       0.02777778 </v>
   <v>       0.02777778 </v>
   <v>       0.02777778 </v>
   <v>       0.02777778 </v>
   <v>       0.02777778 </v>
   <v>       0.01388889 </v>
   <v>       0.01388889 </v>
   <v>       0.02777778 </v>
   <v>       0.02777778 </v>
   <v>       0.02777778 </v>
   <v>       0.02777778 </v>
   <v>       0.02777778 </v>
   <v>       0.02777778 </v>
   <v>       0.02777778 </v>
   <v>       0.01388889 </v>
   <v>       0.01388889 </v>
   <v>       0.02777778 </v>
   <v>       0.02777778 </v>
   <v>       0.02777778 </v>
   <v>       0.02777778 </v>
   <v>       0.02777778 </v>
   <v>       0.01388889 </v>
   <v>       0.01388889 </v>
   <v>       0.02777778 </v>
   <v>       0.02777778 </v>
   <v>       0.02777778 </v>
   <v>       0.01388889 </v>
   <v>       0.01388889 </v>
   <v>       0.02777778 </v>
   <v>       0.01388889 </v>
   <v>       0.00694444 </v>
  </varray>
 </kpoints>
 <parameters>
  <separator name="general" >
   <i type="string" name="SYSTEM">HSE06 check</i>
   <i type="logical" name="LCOMPAT"> F  </i>
  </separator>
  <separator name="electronic" >
   <i type="string" name="PREC">accura</i>
   <i name="ENMAX">    600.00000000</i>
   <i name="ENAUG">    318.78100000</i>
   <i name="EDIFF">      0.00000100</i>
   <i type="int" name="IALGO">    53</i>
   <i type="int" name="IWAVPR">    10</i>
   <i type="int" name="NBANDS">    16</i>
   <i type="int" name="NBANDSLOW">    -1</i>
   <i type="int" name="NBANDSHIGH">    -1</i>
   <i name="NELECT">      2.00000000</i>
   <i type="int" name="TURBO">     0</i>
   <i type="int" name="IRESTART">     0</i>
   <i type="int" name="NREBOOT">     0</i>
   <i type="int" name="NMIN">     0</i>
   <i name="EREF">      0.00000000</i>
   <separator name="electronic smearing" >
    <i type="int" name="ISMEAR">     0</i>
    <i name="SIGMA">      0.05000000</i>
    <i name="KSPACING">      0.50000000</i>
    <i type="logical" name="KGAMMA"> T  </i>
    <i type="logical" name="KBLOWUP"> T  </i>
   </separator>
   <separator name="electronic projectors" >
    <i type="logical" name="LREAL"> F  </i>
    <v name="ROPT">      0.00000000</v>
    <i type="int" name="LMAXPAW">  -100</i>
    <i type="int" name="LMAXMIX">     2</i>
    <i type="logical" name="NLSPLINE"> F  </i>
   </separator>
   <separator name="electronic startup" >
    <i type="int" name="ISTART">     1</i>
    <i type="int" name="ICHARG">     2</i>
    <i type="int" name="INIWAV">     1</i>
   </separator>
   <separator name="electronic spin" >
    <i type="int" name="ISPIN">     1</i>
    <i type="logical" name="LNONCOLLINEAR"> F  </i>
    <v name="MAGMOM">      1.00000000</v>
    <i name="NUPDOWN">     -1.00000000</i>
    <i type="logical" name="LSORBIT"> F  </i>
    <v name="SAXIS">      0.00000000      0.00000000      1.00000000</v>
    <i type="logical" name="LSPIRAL"> F  </i>
    <v name="QSPIRAL">      0.00000000      0.00000000      0.00000000</v>
    <i type="logical" name="LZEROZ"> F  </i>
   </separator>
   <separator name="electronic exchange-correlation" >
    <i type="logical" name="LASPH"> F  </i>
   </separator>
   <separator name="electronic convergence" >
    <i type="int" name="NELM">   200</i>
    <i type="int" name="NELMDL">     0</i>
    <i type="int" name="NELMIN">     2</i>
    <i name="ENINI">    600.00000000</i>
    <separator name="electronic convergence detail" >
     <i type="logical" name="LDIAG"> T  </i>
     <i type="logical" name="LSUBROT"> F  </i>
     <i name="WEIMIN">      0.00000000</i>
     <i name="EBREAK">      0.00000002</i>
     <i name="DEPER">      0.30000000</i>
     <i type="int" name="NRMM">     4</i>
     <i name="TIME">      0.40000000</i>
    </separator>
   </separator>
   <separator name="electronic mixer" >
    <i name="AMIX">      0.40000000</i>
    <i name="BMIX">      1.00000000</i>
    <i name="AMIN">      0.10000000</i>
    <i name="AMIX_MAG">      1.60000000</i>
    <i name="BMIX_MAG">      1.00000000</i>
    <separator name="electronic mixer details" >
     <i type="int" name="IMIX">     4</i>
     <i type="logical" name="MIXFIRST"> F  </i>
     <i type="int" name="MAXMIX">   -45</i>
     <i name="WC">    100.00000000</i>
     <i type="int" name="INIMIX">     1</i>
     <i type="int" name="MIXPRE">     1</i>
     <i type="int" name="MREMOVE">     5</i>
    </separator>
   </separator>
   <separator name="electronic dipolcorrection" >
    <i type="logical" name="LDIPOL"> T  </i>
    <i type="logical" name="LMONO"> F  </i>
    <i type="int" name="IDIPOL">     3</i>
    <i name="EPSILON">      1.00000000</i>
    <v name="DIPOL">      0.50000000      0.50000000      0.50000000</v>
    <i name="EFIELD">      0.00000000</i>
    <i type="logical" name="LVACPOTAV"> F  </i>
   </separator>
  </separator>
  <separator name="grids" >
   <i type="int" name="NGX">    18</i>
   <i type="int" name="NGY">    18</i>
   <i type="int" name="NGZ">   160</i>
   <i type="int" name="NGXF">    36</i>
   <i type="int" name="NGYF">    36</i>
   <i type="int" name="NGZF">   320</i>
   <i type="logical" name="ADDGRID"> F  </i>
  </separator>
  <separator name="ionic" >
   <i type="int" name="NSW">     0</i>
   <i type="int" name="IBRION">    -1</i>
   <i type="int" name="MDALGO">     0</i>
   <i type="int" name="ISIF">     2</i>
   <i name="PSTRESS">      0.00000000</i>
   <i name="EDIFFG">     -0.00100000</i>
   <i type="int" name="NFREE">     0</i>
   <i name="POTIM">      0.50000000</i>
   <i name="SMASS">     -3.00000000</i>
   <i name="SCALEE">      1.00000000</i>
  </separator>
  <separator name="ionic md" >
   <i name="TEBEG">      0.00010000</i>
   <i name="TEEND">      0.00010000</i>
   <i type="int" name="NBLOCK">     1</i>
   <i type="int" name="KBLOCK">     1</i>
   <i type="int" name="NPACO">   256</i>
   <i name="APACO">     10.00000000</i>
  </separator>
  <separator name="symmetry" >
   <i type="int" name="ISYM">     3</i>
   <i name="SYMPREC">      0.00001000</i>
  </separator>
  <separator name="dos" >
   <i type="int" name="LORBIT">     0</i>
   <v name="RWIGS">     -1.00000000</v>
   <i type="int" name="NEDOS">   301</i>
   <i name="EMIN">     10.00000000</i>
   <i name="EMAX">    -10.00000000</i>
   <i name="EFERMI">      0.00000000</i>
  </separator>
  <separator name="writing" >
   <i type="int" name="NWRITE">     2</i>
   <i type="logical" name="LWAVE"> T  </i>
   <i type="logical" name="LDOWNSAMPLE"> F  </i>
   <i type="logical" name="LCHARG"> F  </i>
   <i type="logical" name="LPARD"> F  </i>
   <i type="logical" name="LVTOT"> F  </i>
   <i type="logical" name="LVHAR"> F  </i>
   <i type="logical" name="LELF"> F  </i>
   <i type="logical" name="LOPTICS"> F  </i>
   <v name="STM">      0.00000000      0.00000000      0.00000000      0.00000000      0.00000000      0.00000000      0.00000000</v>
  </separator>
  <separator name="performance" >
   <i type="int" name="NPAR">     1</i>
   <i type="int" name="NSIM">     4</i>
   <i type="int" name="NBLK">    -1</i>
   <i type="logical" name="LPLANE"> T  </i>
   <i type="logical" name="LSCALAPACK"> T  </i>
   <i type="logical" name="LSCAAWARE"> F  </i>
   <i type="logical" name="LSCALU"> F  </i>
   <i type="logical" name="LASYNC"> F  </i>
   <i type="logical" name="LORBITALREAL"> F  </i>
  </separator>
  <separator name="miscellaneous" >
   <i type="int" name="IDIOT">     3</i>
   <i type="int" name="PHON_NSTRUCT">    -1</i>
   <i type="logical" name="LMUSIC"> F  </i>
   <v name="POMASS">      9.01300000</v>
   <v name="DARWINR">      0.00000000</v>
   <v name="DARWINV">      1.00000000</v>
   <i type="logical" name="LCORR"> T  </i>
  </separator>
  <i type="logical" name="GGA_COMPAT"> T  </i>
  <i type="logical" name="LBERRY"> F  </i>
  <i type="int" name="ICORELEVEL">     0</i>
  <i type="logical" name="LDAU"> F  </i>
  <i type="int" name="I_CONSTRAINED_M">     0</i>
  <separator name="electronic exchange-correlation" >
   <i type="string" name="GGA    ">PE</i>
   <i type="string" name="XC_C">1</i>
   <i type="int" name="VOSKOWN">     0</i>
   <i type="logical" name="LHFCALC"> T  </i>
   <i type="string" name="PRECFOCK">normal</i>
   <i type="logical" name="LSYMGRAD"> F  </i>
   <i type="logical" name="LHFONE"> F  </i>
   <i type="logical" name="LRHFCALC"> F  </i>
   <i type="logical" name="LTHOMAS"> F  </i>
   <i type="logical" name="LMODELHF"> F  </i>
   <i type="logical" name="LFOCKACE"> T  </i>
   <i name="ENCUT4O">     -1.00000000</i>
   <i type="int" name="EXXOEP">     0</i>
   <i type="int" name="FOURORBIT">     0</i>
   <i name="AEXX">      0.25000000</i>
   <i name="HFALPHA">     -1.00000000</i>
   <i name="MCALPHA">      0.00000000</i>
   <i name="ALDAX">      0.75000000</i>
   <i name="AGGAX">      0.75000000</i>
   <i name="AMGGAX">      0.75000000</i>
   <i name="ALDAC">      1.00000000</i>
   <i name="AGGAC">      1.00000000</i>
   <i name="AMGGAC">      1.00000000</i>
   <i type="int" name="NKREDX">     1</i>
   <i type="int" name="NKREDY">     1</i>
   <i type="int" name="NKREDZ">     1</i>
   <i type="logical" name="SHIFTRED"> F  </i>
   <i type="logical" name="ODDONLY"> F  </i>
   <i type="logical" name="EVENONLY"> F  </i>
   <i type="int" name="LMAXFOCK">     4</i>
   <i type="int" name="NMAXFOCKAE">     1</i>
   <i type="logical" name="LFOCKAEDFT"> F  </i>
   <i name="HFSCREEN">      0.20000000</i>
   <i name="HFSCREENC">      0.20000000</i>
   <i type="int" name="NBANDSGWLOW">     1</i>
  </separator>
  <separator name="vdW DFT" >
   <i type="logical" name="LUSE_VDW"> F  </i>
   <i type="int" name="IVDW_NL">    -1</i>
   <i type="logical" name="LSPIN_VDW"> F  </i>
   <i name="ZAB_VDW">     -0.84910000</i>
   <i name="GAMMA_VDW">      1.39626340</i>
   <i name="ALPHA_VDW">      0.00000000</i>
   <i name="PARAM1">      0.12340000</i>
   <i name="PARAM2">      1.00000000</i>
   <i name="BPARAM">      6.30000000</i>
   <i name="CPARAM">      0.00930000</i>
  </separator>
  <separator name="model GW" >
   <i type="int" name="MODEL_GW">     0</i>
   <i name="MODEL_EPS0">     47.10246359</i>
   <i name="MODEL_ALPHA">      1.00000000</i>
  </separator>
  <separator name="linear response parameters" >
   <i type="logical" name="LEPSILON"> F  </i>
   <i type="logical" name="LRPA"> F  </i>
   <i type="logical" name="LNABLA"> F  </i>
   <i type="logical" name="LVEL"> F  </i>
   <i name="CSHIFT">      0.10000000</i>
   <i name="OMEGAMAX">     -1.00000000</i>
   <i name="DEG_THRESHOLD">      0.00200000</i>
   <i name="RTIME">     -0.10000000</i>
   <i name="WPLASMAI">      0.00000000</i>
   <v name="DFIELD">      0.00000000      0.00000000      0.00000000</v>
   <v name="WPLASMA">      0.00000000      0.00000000      0.00000000      0.00000000      0.00000000      0.00000000      0.00000000      0.00000000      0.00000000</v>
  </separator>
  <separator name="orbital magnetization" >
   <i type="logical" name="NUCIND"> F  </i>
   <v name="MAGPOS">      0.00000000      0.00000000      0.00000000</v>
   <i type="logical" name="LNICSALL"> T  </i>
   <i type="logical" name="ORBITALMAG"> F  </i>
   <i type="logical" name="LMAGBLOCH"> F  </i>
   <i type="logical" name="LCHIMAG"> F  </i>
   <i type="logical" name="LGAUGE"> T  </i>
   <i type="int" name="MAGATOM">     0</i>
   <v name="MAGDIPOL">      0.00000000      0.00000000      0.00000000</v>
   <v name="AVECCONST">      0.00000000      0.00000000      0.00000000</v>
  </separator>
  <separator name="response functions" >
   <i type="logical" name="LALL_IN_ONE"> F  </i>
   <i type="int" name="IALL_IN_ONE">    -1</i>
   <i type="int" name="NBANDS_WAVE">    -1</i>
   <i type="logical" name="LFINITE_TEMPERATURE"> F  </i>
   <i type="logical" name="LADDER"> F  </i>
   <i type="logical" name="LRPAFORCE"> F  </i>
   <i type="logical" name="LFXC"> F  </i>
   <i type="logical" name="LHARTREE"> T  </i>
   <i type="int" name="IBSE">     2</i>
   <v type="int" name="KPOINT">    -1     0     0     0</v>
   <i type="logical" name="LTCTC"> F  </i>
   <i type="logical" name="LTCTE"> F  </i>
   <i type="logical" name="LTETE"> F  </i>
   <i type="logical" name="LTRIPLET"> F  </i>
   <i type="logical" name="LFXCEPS"> F  </i>
   <i type="logical" name="LFXHEG"> F  </i>
   <i type="int" name="NATURALO">     2</i>
   <i type="logical" name="LHOLEGF"> F  </i>
   <i type="logical" name="L2ORDER"> F  </i>
   <i type="logical" name="LDMP1"> F  </i>
   <i type="logical" name="LMP2LT"> F  </i>
   <i type="logical" name="LSMP2LT"> F  </i>
   <i type="logical" name="LGWLF"> F  </i>
   <i name="ENCUTGW">     -1.60000002</i>
   <i name="ENCUTGWSOFT">     -1.60000002</i>
   <i name="ENCUTLF">     -1.00000000</i>
   <i type="logical" name="ESF_SPLINES"> F  </i>
   <i name="ESF_CONV">      0.01000000</i>
   <i type="int" name="ESF_NINTER">    15</i>
   <i type="int" name="LMAXMP2">    -1</i>
   <i name="SCISSOR">      0.00000000</i>
   <i type="int" name="NOMEGA">     0</i>
   <i type="int" name="NOMEGAR">     0</i>
   <i type="int" name="NBANDSGW">    -1</i>
   <i type="int" name="NBANDSO">    -1</i>
   <i type="int" name="NBANDSV">    -1</i>
   <i type="int" name="NELMGW">     1</i>
   <i type="int" name="NELMHF">     1</i>
   <i type="int" name="DIM">     3</i>
   <i type="int" name="IESPILON">     4</i>
   <i type="int" name="ANTIRES">     0</i>
   <i name="OMEGAMAX">    -30.00000000</i>
   <i name="OMEGAMIN">    -30.00000000</i>
   <i name="OMEGATL">   -200.00000000</i>
   <i type="int" name="OMEGAGRID">     0</i>
   <i name="CSHIFT">     -0.10000000</i>
   <i type="logical" name="LSELFENERGY"> F  </i>
   <i type="logical" name="LSPECTRAL"> F  </i>
   <i type="logical" name="LSPECTRALGW"> F  </i>
   <i type="logical" name="LSINGLES"> F  </i>
   <i type="logical" name="LFERMIGW"> F  </i>
   <i type="logical" name="ODDONLYGW"> F  </i>
   <i type="logical" name="EVENONLYGW"> F  </i>
   <i type="int" name="NKREDLFX">     1</i>
   <i type="int" name="NKREDLFY">     1</i>
   <i type="int" name="NKREDLFZ">     1</i>
   <i type="int" name="MAXMEM">  2800</i>
   <i type="int" name="TELESCOPE">     0</i>
   <i type="int" name="NTAUPAR">    -1</i>
   <i type="int" name="NOMEGAPAR">    -1</i>
   <i name="DAMP_NEWTON">      0.80000001</i>
   <i name="LAMBDA">      1.00000000</i>
  </separator>
  <separator name="External order field" >
   <i name="OFIELD_KAPPA">      0.00000000</i>
   <v name="OFIELD_K">      0.00000000      0.00000000      0.00000000</v>
   <i name="OFIELD_Q6_NEAR">      0.00000000</i>
   <i name="OFIELD_Q6_FAR">      0.00000000</i>
   <i name="OFIELD_A">      0.00000000</i>
  </separator>
  <separator name="optional k-points parameters" >
   <i type="int" name="KPOINTS_OPT_MODE">     1</i>
   <i type="logical" name="LKPOINTS_OPT"> F  </i>
  </separator>
 </parameters>
 <atominfo>
  <atoms>       1 </atoms>
  <types>       1 </types>
  <array name="atoms" >
   <dimension dim="1">ion</dimension>
   <field type="string">element</field>
   <field type="int">atomtype</field>
   <set>
    <rc><c>Be</c><c>   1</c></rc>
   </set>
  </array>
  <array name="atomtypes" >
   <dimension dim="1">type</dimension>
   <field type="int">atomspertype</field>
   <field type="string">element</field>
   <field>mass</field>
   <field>valence</field>
   <field type="string">pseudopotential</field>
   <set>
    <rc><c>   1</c><c>Be</c><c>      9.01300000</c><c>      2.00000000</c><c>  PAW_PBE Be 06Sep2000                  </c></rc>
   </set>
  </array>
 </atominfo>
 <structure name="initialpos" >
  <crystal>
   <varray name="basis" >
    <v>       1.84377978       1.06444526       0.00000000 </v>
    <v>      -1.84377978       1.06444526       0.00000000 </v>
    <v>       0.00000000       0.00000000      20.00000000 </v>
   </varray>
   <i name="volume">     78.50410598 </i>
   <varray name="rec_basis" >
    <v>       0.27118206       0.46972824       0.00000000 </v>
    <v>      -0.27118206       0.46972824       0.00000000 </v>
    <v>       0.00000000       0.00000000       0.05000000 </v>
   </varray>
  </crystal>
  <varray name="positions" >
   <v>       0.00000000       0.00000000       0.50000000 </v>
  </varray>
 </structure>
 <calculation>
  <scstep>
   <time name="total">    5.68    5.71</time>
   <dipole>
    <v name="dipole">      0.00000000       0.00000000       0.00000000 </v>
    <i name="Tr[quadrupol]">      0.83420975 </i>
    <i name="Echarged">      0.00000000 </i>
    <i name="Edipol_quadrupol">      0.00000000 </i>
    <i name="Eion">      0.00000000 </i>
   </dipole>
   <energy>
    <i name="alphaZ">      0.22252472 </i>
    <i name="ewald">     96.67017510 </i>
    <i name="hartreedc">   -118.02881943 </i>
    <i name="XCdc">      2.55277808 </i>
    <i name="pawpsdc">     59.10295763 </i>
    <i name="pawaedc">    -58.58782477 </i>
    <i name="eentropy">     -0.00179175 </i>
    <i name="bandstr">    -14.54207996 </i>
    <i name="atom">     27.32959778 </i>
    <i name="e_fr_energy">     -2.95278087 </i>
    <i name="e_wo_entrp">     -2.95098912 </i>
    <i name="e_0_energy">     -2.95188500 </i>
   </energy>
  </scstep>
  <scstep>
   <time name="total">    5.66    5.70</time>
   <dipole>
    <v name="dipole">      0.00000000       0.00000000       0.00000000 </v>
    <i name="Tr[quadrupol]">      0.82975858 </i>
    <i name="Echarged">      0.00000000 </i>
    <i name="Edipol_quadrupol">      0.00000000 </i>
    <i name="Eion">      0.00000000 </i>
   </dipole>
   <energy>
    <i name="e_fr_energy">     -2.95629479 </i>
    <i name="e_wo_entrp">     -2.95410223 </i>
    <i name="e_0_energy">     -2.95519851 </i>
   </energy>
  </scstep>
  <scstep>
   <time name="total">    5.32    5.35</time>
   <dipole>
    <v name="dipole">      0.00000000       0.00000000       0.00000000 </v>
    <i name="Tr[quadrupol]">      0.82003811 </i>
    <i name="Echarged">      0.00000000 </i>
    <i name="Edipol_quadrupol">      0.00000000 </i>
    <i name="Eion">      0.00000000 </i>
   </dipole>
   <energy>
    <i name="e_fr_energy">     -2.95856729 </i>
    <i name="e_wo_entrp">     -2.95627504 </i>
    <i name="e_0_energy">     -2.95742116 </i>
   </energy>
  </scstep>
  <scstep>
   <time name="total">    5.28    5.31</time>
   <dipole>
    <v name="dipole">      0.00000000       0.00000000       0.00000000 </v>
    <i name="Tr[quadrupol]">      0.80875940 </i>
    <i name="Echarged">      0.00000000 </i>
    <i name="Edipol_quadrupol">      0.00000000 </i>
    <i name="Eion">      0.00000000 </i>
   </dipole>
   <energy>
    <i name="e_fr_energy">     -2.96012665 </i>
    <i name="e_wo_entrp">     -2.95800763 </i>
    <i name="e_0_energy">     -2.95906714 </i>
   </energy>
  </scstep>
  <scstep>
   <time name="total">    5.24    5.27</time>
   <dipole>
    <v name="dipole">      0.00000000       0.00000000      -0.00000000 </v>
    <i name="Tr[quadrupol]">      0.80015399 </i>
    <i name="Echarged">      0.00000000 </i>
    <i name="Edipol_quadrupol">      0.00000000 </i>
    <i name="Eion">      0.00000000 </i>
   </dipole>
   <energy>
    <i name="e_fr_energy">     -2.96128110 </i>
    <i name="e_wo_entrp">     -2.95943295 </i>
    <i name="e_0_energy">     -2.96035702 </i>
   </energy>
  </scstep>
  <scstep>
   <time name="total">    5.31    5.34</time>
   <dipole>
    <v name="dipole">      0.00000000       0.00000000      -0.00000000 </v>
    <i name="Tr[quadrupol]">      0.79533848 </i>
    <i name="Echarged">      0.00000000 </i>
    <i name="Edipol_quadrupol">      0.00000000 </i>
    <i name="Eion">      0.00000000 </i>
   </dipole>
   <energy>
    <i name="e_fr_energy">     -2.96202879 </i>
    <i name="e_wo_entrp">     -2.96043893 </i>
    <i name="e_0_energy">     -2.96123386 </i>
   </energy>
  </scstep>
  <scstep>
   <time name="total">    5.31    5.34</time>
   <dipole>
    <v name="dipole">      0.00000000       0.00000000       0.00000000 </v>
    <i name="Tr[quadrupol]">      0.79332395 </i>
    <i name="Echarged">      0.00000000 </i>
    <i name="Edipol_quadrupol">      0.00000000 </i>
    <i name="Eion">      0.00000000 </i>
   </dipole>
   <energy>
    <i name="e_fr_energy">     -2.96248739 </i>
    <i name="e_wo_entrp">     -2.96111031 </i>
    <i name="e_0_energy">     -2.96179885 </i>
   </energy>
  </scstep>
  <scstep>
   <time name="total">    5.25    5.28</time>
   <dipole>
    <v name="dipole">      0.00000000       0.00000000       0.00000000 </v>
    <i name="Tr[quadrupol]">      0.79281320 </i>
    <i name="Echarged">      0.00000000 </i>
    <i name="Edipol_quadrupol">      0.00000000 </i>
    <i name="Eion">      0.00000000 </i>
   </dipole>
   <energy>
    <i name="e_fr_energy">     -2.96277351 </i>
    <i name="e_wo_entrp">     -2.96156223 </i>
    <i name="e_0_energy">     -2.96216787 </i>
   </energy>
  </scstep>
  <scstep>
   <time name="total">    5.54    5.57</time>
   <dipole>
    <v name="dipole">      0.00000000       0.00000000       0.00000000 </v>
    <i name="Tr[quadrupol]">      0.79296285 </i>
    <i name="Echarged">      0.00000000 </i>
    <i name="Edipol_quadrupol">      0.00000000 </i>
    <i name="Eion">      0.00000000 </i>
   </dipole>
   <energy>
    <i name="e_fr_energy">     -2.96294419 </i>
    <i name="e_wo_entrp">     -2.96185764 </i>
    <i name="e_0_energy">     -2.96240092 </i>
   </energy>
  </scstep>
  <scstep>
   <time name="total">    5.71    5.74</time>
   <dipole>
    <v name="dipole">      0.00000000       0.00000000       0.00000000 </v>
    <i name="Tr[quadrupol]">      0.79334794 </i>
    <i name="Echarged">      0.00000000 </i>
    <i name="Edipol_quadrupol">      0.00000000 </i>
    <i name="Eion">      0.00000000 </i>
   </dipole>
   <energy>
    <i name="e_fr_energy">     -2.96303986 </i>
    <i name="e_wo_entrp">     -2.96204410 </i>
    <i name="e_0_energy">     -2.96254198 </i>
   </energy>
  </scstep>
  <scstep>
   <time name="total">    5.82    5.85</time>
   <dipole>
    <v name="dipole">      0.00000000       0.00000000       0.00000000 </v>
    <i name="Tr[quadrupol]">      0.79377335 </i>
    <i name="Echarged">      0.00000000 </i>
    <i name="Edipol_quadrupol">      0.00000000 </i>
    <i name="Eion">      0.00000000 </i>
   </dipole>
   <energy>
    <i name="e_fr_energy">     -2.96309118 </i>
    <i name="e_wo_entrp">     -2.96215959 </i>
    <i name="e_0_energy">     -2.96262538 </i>
   </energy>
  </scstep>
  <scstep>
   <time name="total">    5.88    5.91</time>
   <dipole>
    <v name="dipole">      0.00000000       0.00000000       0.00000000 </v>
    <i name="Tr[quadrupol]">      0.79415464 </i>
    <i name="Echarged">      0.00000000 </i>
    <i name="Edipol_quadrupol">      0.00000000 </i>
    <i name="Eion">      0.00000000 </i>
   </dipole>
   <energy>
    <i name="e_fr_energy">     -2.96311763 </i>
    <i name="e_wo_entrp">     -2.96223043 </i>
    <i name="e_0_energy">     -2.96267403 </i>
   </energy>
  </scstep>
  <scstep>
   <time name="total">    5.73    5.77</time>
   <dipole>
    <v name="dipole">      0.00000000       0.00000000      -0.00000000 </v>
    <i name="Tr[quadrupol]">      0.79445958 </i>
    <i name="Echarged">      0.00000000 </i>
    <i name="Edipol_quadrupol">      0.00000000 </i>
    <i name="Eion">      0.00000000 </i>
   </dipole>
   <energy>
    <i name="e_fr_energy">     -2.96313070 </i>
    <i name="e_wo_entrp">     -2.96227384 </i>
    <i name="e_0_energy">     -2.96270227 </i>
   </energy>
  </scstep>
  <scstep>
   <time name="total">    6.03    6.07</time>
   <dipole>
    <v name="dipole">      0.00000000       0.00000000      -0.00000000 </v>
    <i name="Tr[quadrupol]">      0.79468296 </i>
    <i name="Echarged">      0.00000000 </i>
    <i name="Edipol_quadrupol">      0.00000000 </i>
    <i name="Eion">      0.00000000 </i>
   </dipole>
   <energy>
    <i name="e_fr_energy">     -2.96313697 </i>
    <i name="e_wo_entrp">     -2.96230077 </i>
    <i name="e_0_energy">     -2.96271887 </i>
   </energy>
  </scstep>
  <scstep>
   <time name="total">    5.40    5.43</time>
   <dipole>
    <v name="dipole">      0.00000000       0.00000000       0.00000000 </v>
    <i name="Tr[quadrupol]">      0.79483441 </i>
    <i name="Echarged">      0.00000000 </i>
    <i name="Edipol_quadrupol">      0.00000000 </i>
    <i name="Eion">      0.00000000 </i>
   </dipole>
   <energy>
    <i name="e_fr_energy">     -2.96313993 </i>
    <i name="e_wo_entrp">     -2.96231781 </i>
    <i name="e_0_energy">     -2.96272887 </i>
   </energy>
  </scstep>
  <scstep>
   <time name="total">    5.20    5.23</time>
   <dipole>
    <v name="dipole">      0.00000000       0.00000000      -0.00000000 </v>
    <i name="Tr[quadrupol]">      0.79493026 </i>
    <i name="Echarged">      0.00000000 </i>
    <i name="Edipol_quadrupol">      0.00000000 </i>
    <i name="Eion">      0.00000000 </i>
   </dipole>
   <energy>
    <i name="e_fr_energy">     -2.96314131 </i>
    <i name="e_wo_entrp">     -2.96232882 </i>
    <i name="e_0_energy">     -2.96273506 </i>
   </energy>
  </scstep>
  <scstep>
   <time name="total">   10.51   10.57</time>
   <dipole>
    <v name="dipole">      0.00000000       0.00000000       0.00000000 </v>
    <i name="Tr[quadrupol]">      0.79498724 </i>
    <i name="Echarged">      0.00000000 </i>
    <i name="Edipol_quadrupol">      0.00000000 </i>
    <i name="Eion">      0.00000000 </i>
   </dipole>
   <energy>
    <i name="alphaZ">      0.22252472 </i>
    <i name="ewald">     96.67017510 </i>
    <i name="hartreedc">   -118.68621852 </i>
    <i name="XCdc">      2.57715654 </i>
    <i name="pawpsdc">     64.34349604 </i>
    <i name="pawaedc">    -63.82339762 </i>
    <i name="eentropy">     -0.00080590 </i>
    <i name="bandstr">    -13.97421833 </i>
    <i name="atom">     27.32959778 </i>
    <i name="e_fr_energy">     -2.96314194 </i>
    <i name="e_wo_entrp">     -2.96233605 </i>
    <i name="e_0_energy">     -2.96273900 </i>
   </energy>
  </scstep>
  <structure>
   <crystal>
    <varray name="basis" >
     <v>       1.84377978       1.06444526       0.00000000 </v>
     <v>      -1.84377978       1.06444526       0.00000000 </v>
     <v>       0.00000000       0.00000000      20.00000000 </v>
    </varray>
    <i name="volume">     78.50410598 </i>
    <varray name="rec_basis" >
     <v>       0.27118206       0.46972824       0.00000000 </v>
     <v>      -0.27118206       0.46972824       0.00000000 </v>
     <v>       0.00000000       0.00000000       0.05000000 </v>
    </varray>
   </crystal>
   <varray name="positions" >
    <v>       0.00000000       0.00000000       0.50000000 </v>
   </varray>
  </structure>
  <varray name="forces" >
   <v>       0.00000000       0.00000000       0.00000000 </v>
  </varray>
  <varray name="stress" >
   <v>       1.73317388       0.00000000       0.00000000 </v>
   <v>      -0.00000000       1.75894633       0.00000000 </v>
   <v>       0.00000000       0.00000000       0.02024332 </v>
  </varray>
  <energy>
   <i name="e_fr_energy">     -2.96314194 </i>
   <i name="e_wo_entrp">     -2.96233605 </i>
   <i name="e_0_energy">     -2.96273900 </i>
  </energy>
  <time name="totalsc">  100.84  101.44</time>
  <eigenvalues>
   <array>
    <dimension dim="1">band</dimension>
    <dimension dim="2">kpoint</dimension>
    <dimension dim="3">spin</dimension>
    <field>eigene</field>
    <field>occ</field>
    <set>
     <set comment="spin 1">
      <set comment="kpoint 1">
       <r>  -11.3017    1.0000 </r>
       <r>   -5.0925    1.0000 </r>
       <r>    0.4269    0.0000 </r>
       <r>    1.0600    0.0000 </r>
       <r>    1.3858    0.0000 </r>
       <r>    2.5136    0.0000 </r>
       <r>    2.8576    0.0000 </r>
       <r>    4.8337    0.0000 </r>
       <r>    5.2600    0.0000 </r>
       <r>    7.9832    0.0000 </r>
       <r>    8.5052    0.0000 </r>
       <r>   11.9362    0.0000 </r>
       <r>   12.5348    0.0000 </r>
       <r>   16.6664    0.0000 </r>
       <r>   17.3129    0.0000 </r>
       <r>   20.3717    0.0000 </r>
      </set>
      <set comment="kpoint 2">
       <r>  -11.0578    1.0000 </r>
       <r>   -4.7176    1.0000 </r>
       <r>    0.7273    0.0000 </r>
       <r>    1.3678    0.0000 </r>
       <r>    1.6909    0.0000 </r>
       <r>    2.8210    0.0000 </r>
       <r>    3.1568    0.0000 </r>
       <r>    5.1404    0.0000 </r>
       <r>    5.5532    0.0000 </r>
       <r>    8.2885    0.0000 </r>
       <r>    8.7896    0.0000 </r>
       <r>   12.2391    0.0000 </r>
       <r>   12.7989    0.0000 </r>
       <r>   16.9644    0.0000 </r>
       <r>   17.4454    0.0000 </r>
       <r>   19.5687    0.0000 </r>
      </set>
      <set comment="kpoint 3">
       <r>  -10.3321    1.0000 </r>
       <r>   -3.6333    0.1726 </r>
       <r>    1.6240    0.0000 </r>
       <r>    2.2906    0.0000 </r>
       <r>    2.6050    0.0000 </r>
       <r>    3.7427    0.0000 </r>
       <r>    4.0507    0.0000 </r>
       <r>    6.0593    0.0000 </r>
       <r>    6.4251    0.0000 </r>
       <r>    9.2025    0.0000 </r>
       <r>    9.6205    0.0000 </r>
       <r>   13.1441    0.0000 </r>
       <r>   13.4518    0.0000 </r>
       <r>   15.9154    0.0000 </r>
       <r>   17.8464    0.0000 </r>
       <r>   17.9105    0.0000 </r>
      </set>
      <set comment="kpoint 4">
       <r>   -9.1458    1.0000 </r>
       <r>   -1.9350    0.0000 </r>
       <r>    3.0944    0.0000 </r>
       <r>    3.8260    0.0000 </r>
       <r>    4.1226    0.0000 </r>
       <r>    5.2760    0.0000 </r>
       <r>    5.5131    0.0000 </r>
       <r>    7.5863    0.0000 </r>
       <r>    7.7969    0.0000 </r>
       <r>   10.5176    0.0000 </r>
       <r>   10.7163    0.0000 </r>
       <r>   12.2429    0.0000 </r>
       <r>   14.6243    0.0000 </r>
       <r>   15.4715    0.0000 </r>
       <r>   16.2633    0.0000 </r>
       <r>   19.0953    0.0000 </r>
      </set>
      <set comment="kpoint 5">
       <r>   -7.5613    1.0000 </r>
       <r>    0.3027    0.0000 </r>
       <r>    4.8881    0.0000 </r>
       <r>    5.9690    0.0000 </r>
       <r>    6.1521    0.0000 </r>
       <r>    6.9567    0.0000 </r>
       <r>    7.4137    0.0000 </r>
       <r>    8.2487    0.0000 </r>
       <r>    9.7013    0.0000 </r>
       <r>   10.3730    0.0000 </r>
       <r>   12.7486    0.0000 </r>
       <r>   13.4697    0.0000 </r>
       <r>   14.9759    0.0000 </r>
       <r>   15.4027    0.0000 </r>
       <r>   17.1245    0.0000 </r>
       <r>   17.3791    0.0000 </r>
      </set>
      <set comment="kpoint 6">
       <r>   -5.8237    1.0000 </r>
       <r>    3.0125    0.0000 </r>
       <r>    3.6835    0.0000 </r>
       <r>    8.1943    0.0000 </r>
       <r>    8.6679    0.0000 </r>
       <r>    9.0824    0.0000 </r>
       <r>    9.9946    0.0000 </r>
       <r>   10.5458    0.0000 </r>
       <r>   11.0278    0.0000 </r>
       <r>   12.6755    0.0000 </r>
       <r>   12.8916    0.0000 </r>
       <r>   14.1736    0.0000 </r>
       <r>   15.3411    0.0000 </r>
       <r>   15.6140    0.0000 </r>
       <r>   16.1000    0.0000 </r>
       <r>   16.2166    0.0000 </r>
      </set>
      <set comment="kpoint 7">
       <r>   -4.8730    1.0000 </r>
       <r>    2.3916    0.0000 </r>
       <r>    5.2522    0.0000 </r>
       <r>    8.0196    0.0000 </r>
       <r>   11.2140    0.0000 </r>
       <r>   11.6218    0.0000 </r>
       <r>   12.0114    0.0000 </r>
       <r>   12.2689    0.0000 </r>
       <r>   12.3881    0.0000 </r>
       <r>   12.4820    0.0000 </r>
       <r>   13.4503    0.0000 </r>
       <r>   13.7263    0.0000 </r>
       <r>   13.7531    0.0000 </r>
       <r>   13.9023    0.0000 </r>
       <r>   13.9926    0.0000 </r>
       <r>   15.6831    0.0000 </r>
      </set>
      <set comment="kpoint 8">
       <r>  -10.5725    1.0000 </r>
       <r>   -3.9885    1.0000 </r>
       <r>    1.3262    0.0000 </r>
       <r>    1.9831    0.0000 </r>
       <r>    2.3006    0.0000 </r>
       <r>    3.4356    0.0000 </r>
       <r>    3.7538    0.0000 </r>
       <r>    5.7533    0.0000 </r>
       <r>    6.1368    0.0000 </r>
       <r>    8.8982    0.0000 </r>
       <r>    9.3513    0.0000 </r>
       <r>   12.8433    0.0000 </r>
       <r>   13.2946    0.0000 </r>
       <r>   17.1744    0.0000 </r>
       <r>   17.3453    0.0000 </r>
       <r>   17.5555    0.0000 </r>
      </set>
      <set comment="kpoint 9">
       <r>   -9.6120    1.0000 </r>
       <r>   -2.6013    0.0000 </r>
       <r>    2.5141    0.0000 </r>
       <r>    3.2123    0.0000 </r>
       <r>    3.5178    0.0000 </r>
       <r>    4.6632    0.0000 </r>
       <r>    4.9387    0.0000 </r>
       <r>    6.9765    0.0000 </r>
       <r>    7.2831    0.0000 </r>
       <r>   10.1131    0.0000 </r>
       <r>   10.3985    0.0000 </r>
       <r>   13.3247    0.0000 </r>
       <r>   14.0405    0.0000 </r>
       <r>   14.5622    0.0000 </r>
       <r>   16.3080    0.0000 </r>
       <r>   18.6911    0.0000 </r>
      </set>
      <set comment="kpoint 10">
       <r>   -8.2053    1.0000 </r>
       <r>   -0.6411    0.0000 </r>
       <r>    4.2366    0.0000 </r>
       <r>    5.0521    0.0000 </r>
       <r>    5.3275    0.0000 </r>
       <r>    6.4999    0.0000 </r>
       <r>    6.6240    0.0000 </r>
       <r>    8.5429    0.0000 </r>
       <r>    8.8016    0.0000 </r>
       <r>    9.9269    0.0000 </r>
       <r>   11.9106    0.0000 </r>
       <r>   12.3798    0.0000 </r>
       <r>   14.4623    0.0000 </r>
       <r>   15.7161    0.0000 </r>
       <r>   16.8470    0.0000 </r>
       <r>   18.3037    0.0000 </r>
      </set>
      <set comment="kpoint 11">
       <r>   -6.4626    1.0000 </r>
       <r>    1.8382    0.0000 </r>
       <r>    4.8788    0.0000 </r>
       <r>    7.0958    0.0000 </r>
       <r>    7.4908    0.0000 </r>
       <r>    7.8767    0.0000 </r>
       <r>    8.9248    0.0000 </r>
       <r>    9.3178    0.0000 </r>
       <r>   11.1387    0.0000 </r>
       <r>   11.5215    0.0000 </r>
       <r>   13.2104    0.0000 </r>
       <r>   13.2876    0.0000 </r>
       <r>   14.7185    0.0000 </r>
       <r>   15.1584    0.0000 </r>
       <r>   17.8198    0.0000 </r>
       <r>   18.2341    0.0000 </r>
      </set>
      <set comment="kpoint 12">
       <r>   -4.8788    1.0000 </r>
       <r>    2.7261    0.0000 </r>
       <r>    4.6386    0.0000 </r>
       <r>    9.1122    0.0000 </r>
       <r>    9.8473    0.0000 </r>
       <r>   10.6889    0.0000 </r>
       <r>   10.8673    0.0000 </r>
       <r>   12.0203    0.0000 </r>
       <r>   12.0902    0.0000 </r>
       <r>   12.6832    0.0000 </r>
       <r>   13.7224    0.0000 </r>
       <r>   14.1500    0.0000 </r>
       <r>   14.5120    0.0000 </r>
       <r>   14.5368    0.0000 </r>
       <r>   14.9354    0.0000 </r>
       <r>   15.7495    0.0000 </r>
      </set>
      <set comment="kpoint 13">
       <r>   -4.8788    1.0000 </r>
       <r>    2.7261    0.0000 </r>
       <r>    4.6383    0.0000 </r>
       <r>    9.1124    0.0000 </r>
       <r>    9.8471    0.0000 </r>
       <r>   10.6887    0.0000 </r>
       <r>   10.8670    0.0000 </r>
       <r>   12.0201    0.0000 </r>
       <r>   12.0899    0.0000 </r>
       <r>   12.6830    0.0000 </r>
       <r>   13.7226    0.0000 </r>
       <r>   14.1501    0.0000 </r>
       <r>   14.5120    0.0000 </r>
       <r>   14.5370    0.0000 </r>
       <r>   14.9353    0.0000 </r>
       <r>   15.7498    0.0000 </r>
      </set>
      <set comment="kpoint 14">
       <r>   -6.4627    1.0000 </r>
       <r>    1.8380    0.0000 </r>
       <r>    4.8788    0.0000 </r>
       <r>    7.0956    0.0000 </r>
       <r>    7.4906    0.0000 </r>
       <r>    7.8765    0.0000 </r>
       <r>    8.9245    0.0000 </r>
       <r>    9.3175    0.0000 </r>
       <r>   11.1385    0.0000 </r>
       <r>   11.5212    0.0000 </r>
       <r>   13.2106    0.0000 </r>
       <r>   13.2873    0.0000 </r>
       <r>   14.7184    0.0000 </r>
       <r>   15.1582    0.0000 </r>
       <r>   17.8202    0.0000 </r>
       <r>   18.2341    0.0000 </r>
      </set>
      <set comment="kpoint 15">
       <r>   -8.2054    1.0000 </r>
       <r>   -0.6413    0.0000 </r>
       <r>    4.2365    0.0000 </r>
       <r>    5.0519    0.0000 </r>
       <r>    5.3273    0.0000 </r>
       <r>    6.4997    0.0000 </r>
       <r>    6.6239    0.0000 </r>
       <r>    8.5429    0.0000 </r>
       <r>    8.8014    0.0000 </r>
       <r>    9.9268    0.0000 </r>
       <r>   11.9105    0.0000 </r>
       <r>   12.3795    0.0000 </r>
       <r>   14.4618    0.0000 </r>
       <r>   15.7160    0.0000 </r>
       <r>   16.8469    0.0000 </r>
       <r>   18.3040    0.0000 </r>
      </set>
      <set comment="kpoint 16">
       <r>   -9.6121    1.0000 </r>
       <r>   -2.6015    0.0000 </r>
       <r>    2.5139    0.0000 </r>
       <r>    3.2122    0.0000 </r>
       <r>    3.5177    0.0000 </r>
       <r>    4.6631    0.0000 </r>
       <r>    4.9386    0.0000 </r>
       <r>    6.9764    0.0000 </r>
       <r>    7.2830    0.0000 </r>
       <r>   10.1130    0.0000 </r>
       <r>   10.3984    0.0000 </r>
       <r>   13.3248    0.0000 </r>
       <r>   14.0404    0.0000 </r>
       <r>   14.5616    0.0000 </r>
       <r>   16.3075    0.0000 </r>
       <r>   18.6910    0.0000 </r>
      </set>
      <set comment="kpoint 17">
       <r>  -10.5725    1.0000 </r>
       <r>   -3.9886    1.0000 </r>
       <r>    1.3261    0.0000 </r>
       <r>    1.9830    0.0000 </r>
       <r>    2.3005    0.0000 </r>
       <r>    3.4355    0.0000 </r>
       <r>    3.7537    0.0000 </r>
       <r>    5.7532    0.0000 </r>
       <r>    6.1367    0.0000 </r>
       <r>    8.8981    0.0000 </r>
       <r>    9.3512    0.0000 </r>
       <r>   12.8432    0.0000 </r>
       <r>   13.2945    0.0000 </r>
       <r>   17.1741    0.0000 </r>
       <r>   17.3449    0.0000 </r>
       <r>   17.5554    0.0000 </r>
      </set>
      <set comment="kpoint 18">
       <r>  -11.0578    1.0000 </r>
       <r>   -4.7176    1.0000 </r>
       <r>    0.7273    0.0000 </r>
       <r>    1.3678    0.0000 </r>
       <r>    1.6909    0.0000 </r>
       <r>    2.8210    0.0000 </r>
       <r>    3.1568    0.0000 </r>
       <r>    5.1403    0.0000 </r>
       <r>    5.5532    0.0000 </r>
       <r>    8.2884    0.0000 </r>
       <r>    8.7896    0.0000 </r>
       <r>   12.2391    0.0000 </r>
       <r>   12.7989    0.0000 </r>
       <r>   16.9644    0.0000 </r>
       <r>   17.4453    0.0000 </r>
       <r>   19.5700    0.0000 </r>
      </set>
      <set comment="kpoint 19">
       <r>   -8.4172    1.0000 </r>
       <r>   -0.9603    0.0000 </r>
       <r>    3.9796    0.0000 </r>
       <r>    4.7461    0.0000 </r>
       <r>    5.0353    0.0000 </r>
       <r>    6.1946    0.0000 </r>
       <r>    6.4012    0.0000 </r>
       <r>    8.4995    0.0000 </r>
       <r>    8.6659    0.0000 </r>
       <r>   10.5495    0.0000 </r>
       <r>   11.4996    0.0000 </r>
       <r>   11.6181    0.0000 </r>
       <r>   13.8455    0.0000 </r>
       <r>   15.4900    0.0000 </r>
       <r>   16.7454    0.0000 </r>
       <r>   19.6164    0.0000 </r>
      </set>
      <set comment="kpoint 20">
       <r>   -6.7778    1.0000 </r>
       <r>    1.2350    0.0000 </r>
       <r>    5.8039    0.0000 </r>
       <r>    6.8862    0.0000 </r>
       <r>    6.9184    0.0000 </r>
       <r>    7.2845    0.0000 </r>
       <r>    8.3282    0.0000 </r>
       <r>    8.4793    0.0000 </r>
       <r>   10.3780    0.0000 </r>
       <r>   10.6037    0.0000 </r>
       <r>   12.2548    0.0000 </r>
       <r>   13.6096    0.0000 </r>
       <r>   14.7887    0.0000 </r>
       <r>   16.1353    0.0000 </r>
       <r>   18.0424    0.0000 </r>
       <r>   18.5442    0.0000 </r>
      </set>
      <set comment="kpoint 21">
       <r>   -4.8879    1.0000 </r>
       <r>    3.5958    0.0000 </r>
       <r>    3.9051    0.0000 </r>
       <r>    8.5232    0.0000 </r>
       <r>    9.5710    0.0000 </r>
       <r>    9.8007    0.0000 </r>
       <r>   10.5081    0.0000 </r>
       <r>   10.8768    0.0000 </r>
       <r>   11.8651    0.0000 </r>
       <r>   11.9105    0.0000 </r>
       <r>   13.5969    0.0000 </r>
       <r>   14.0279    0.0000 </r>
       <r>   16.3031    0.0000 </r>
       <r>   16.4505    0.0000 </r>
       <r>   17.1340    0.0000 </r>
       <r>   17.1658    0.0000 </r>
      </set>
      <set comment="kpoint 22">
       <r>   -3.7577    0.9936 </r>
       <r>    2.0573    0.0000 </r>
       <r>    6.0723    0.0000 </r>
       <r>    8.9652    0.0000 </r>
       <r>    9.6605    0.0000 </r>
       <r>   12.1361    0.0000 </r>
       <r>   12.7899    0.0000 </r>
       <r>   12.9082    0.0000 </r>
       <r>   13.1920    0.0000 </r>
       <r>   13.3099    0.0000 </r>
       <r>   13.5096    0.0000 </r>
       <r>   14.3378    0.0000 </r>
       <r>   14.6475    0.0000 </r>
       <r>   14.6763    0.0000 </r>
       <r>   15.1338    0.0000 </r>
       <r>   16.4968    0.0000 </r>
      </set>
      <set comment="kpoint 23">
       <r>   -4.8881    1.0000 </r>
       <r>    3.5959    0.0000 </r>
       <r>    3.9046    0.0000 </r>
       <r>    8.5228    0.0000 </r>
       <r>    9.5706    0.0000 </r>
       <r>    9.8002    0.0000 </r>
       <r>   10.5076    0.0000 </r>
       <r>   10.8765    0.0000 </r>
       <r>   11.8646    0.0000 </r>
       <r>   11.9108    0.0000 </r>
       <r>   13.5965    0.0000 </r>
       <r>   14.0274    0.0000 </r>
       <r>   16.3037    0.0000 </r>
       <r>   16.4502    0.0000 </r>
       <r>   17.1345    0.0000 </r>
       <r>   17.1659    0.0000 </r>
      </set>
      <set comment="kpoint 24">
       <r>   -6.7780    1.0000 </r>
       <r>    1.2345    0.0000 </r>
       <r>    5.8037    0.0000 </r>
       <r>    6.8857    0.0000 </r>
       <r>    6.9182    0.0000 </r>
       <r>    7.2841    0.0000 </r>
       <r>    8.3277    0.0000 </r>
       <r>    8.4788    0.0000 </r>
       <r>   10.3776    0.0000 </r>
       <r>   10.6033    0.0000 </r>
       <r>   12.2545    0.0000 </r>
       <r>   13.6092    0.0000 </r>
       <r>   14.7883    0.0000 </r>
       <r>   16.1357    0.0000 </r>
       <r>   18.0423    0.0000 </r>
       <r>   18.5438    0.0000 </r>
      </set>
      <set comment="kpoint 25">
       <r>   -8.4174    1.0000 </r>
       <r>   -0.9607    0.0000 </r>
       <r>    3.9793    0.0000 </r>
       <r>    4.7457    0.0000 </r>
       <r>    5.0350    0.0000 </r>
       <r>    6.1943    0.0000 </r>
       <r>    6.4009    0.0000 </r>
       <r>    8.4992    0.0000 </r>
       <r>    8.6657    0.0000 </r>
       <r>   10.5489    0.0000 </r>
       <r>   11.4994    0.0000 </r>
       <r>   11.6178    0.0000 </r>
       <r>   13.8454    0.0000 </r>
       <r>   15.4896    0.0000 </r>
       <r>   16.7451    0.0000 </r>
       <r>   19.6162    0.0000 </r>
      </set>
      <set comment="kpoint 26">
       <r>   -9.6122    1.0000 </r>
       <r>   -2.6016    0.0000 </r>
       <r>    2.5139    0.0000 </r>
       <r>    3.2121    0.0000 </r>
       <r>    3.5176    0.0000 </r>
       <r>    4.6630    0.0000 </r>
       <r>    4.9385    0.0000 </r>
       <r>    6.9763    0.0000 </r>
       <r>    7.2829    0.0000 </r>
       <r>   10.1129    0.0000 </r>
       <r>   10.3983    0.0000 </r>
       <r>   13.3234    0.0000 </r>
       <r>   14.0403    0.0000 </r>
       <r>   14.5622    0.0000 </r>
       <r>   16.3085    0.0000 </r>
       <r>   18.6909    0.0000 </r>
      </set>
      <set comment="kpoint 27">
       <r>  -10.3322    1.0000 </r>
       <r>   -3.6335    0.1737 </r>
       <r>    1.6239    0.0000 </r>
       <r>    2.2905    0.0000 </r>
       <r>    2.6049    0.0000 </r>
       <r>    3.7426    0.0000 </r>
       <r>    4.0506    0.0000 </r>
       <r>    6.0592    0.0000 </r>
       <r>    6.4249    0.0000 </r>
       <r>    9.2024    0.0000 </r>
       <r>    9.6204    0.0000 </r>
       <r>   13.1440    0.0000 </r>
       <r>   13.4515    0.0000 </r>
       <r>   15.9137    0.0000 </r>
       <r>   17.8463    0.0000 </r>
       <r>   17.9122    0.0000 </r>
      </set>
      <set comment="kpoint 28">
       <r>   -4.8915    1.0000 </r>
       <r>    3.6359    0.0000 </r>
       <r>    4.2562    0.0000 </r>
       <r>    7.6730    0.0000 </r>
       <r>    9.3066    0.0000 </r>
       <r>    9.3831    0.0000 </r>
       <r>   10.0425    0.0000 </r>
       <r>   10.7194    0.0000 </r>
       <r>   11.5571    0.0000 </r>
       <r>   12.7634    0.0000 </r>
       <r>   13.8080    0.0000 </r>
       <r>   14.3596    0.0000 </r>
       <r>   16.4584    0.0000 </r>
       <r>   16.5816    0.0000 </r>
       <r>   16.8979    0.0000 </r>
       <r>   19.4846    0.0000 </r>
      </set>
      <set comment="kpoint 29">
       <r>   -2.8754    0.0000 </r>
       <r>    1.6880    0.0000 </r>
       <r>    6.2860    0.0000 </r>
       <r>    8.1806    0.0000 </r>
       <r>   10.8088    0.0000 </r>
       <r>   11.9457    0.0000 </r>
       <r>   12.5335    0.0000 </r>
       <r>   12.7832    0.0000 </r>
       <r>   13.8689    0.0000 </r>
       <r>   14.2231    0.0000 </r>
       <r>   14.9020    0.0000 </r>
       <r>   15.4611    0.0000 </r>
       <r>   16.2176    0.0000 </r>
       <r>   16.3792    0.0000 </r>
       <r>   16.3966    0.0000 </r>
       <r>   16.7052    0.0000 </r>
      </set>
      <set comment="kpoint 30">
       <r>   -2.8757    0.0000 </r>
       <r>    1.6881    0.0000 </r>
       <r>    6.2854    0.0000 </r>
       <r>    8.1806    0.0000 </r>
       <r>   10.8093    0.0000 </r>
       <r>   11.9449    0.0000 </r>
       <r>   12.5327    0.0000 </r>
       <r>   12.7823    0.0000 </r>
       <r>   13.8682    0.0000 </r>
       <r>   14.2223    0.0000 </r>
       <r>   14.9018    0.0000 </r>
       <r>   15.4619    0.0000 </r>
       <r>   16.2184    0.0000 </r>
       <r>   16.3800    0.0000 </r>
       <r>   16.3960    0.0000 </r>
       <r>   16.7048    0.0000 </r>
      </set>
      <set comment="kpoint 31">
       <r>   -4.8919    1.0000 </r>
       <r>    3.6352    0.0000 </r>
       <r>    4.2560    0.0000 </r>
       <r>    7.6728    0.0000 </r>
       <r>    9.3059    0.0000 </r>
       <r>    9.3825    0.0000 </r>
       <r>   10.0420    0.0000 </r>
       <r>   10.7187    0.0000 </r>
       <r>   11.5566    0.0000 </r>
       <r>   12.7629    0.0000 </r>
       <r>   13.8074    0.0000 </r>
       <r>   14.3595    0.0000 </r>
       <r>   16.4585    0.0000 </r>
       <r>   16.5810    0.0000 </r>
       <r>   16.8972    0.0000 </r>
       <r>   19.4849    0.0000 </r>
      </set>
      <set comment="kpoint 32">
       <r>   -6.7781    1.0000 </r>
       <r>    1.2344    0.0000 </r>
       <r>    5.8033    0.0000 </r>
       <r>    6.8856    0.0000 </r>
       <r>    6.9177    0.0000 </r>
       <r>    7.2839    0.0000 </r>
       <r>    8.3276    0.0000 </r>
       <r>    8.4789    0.0000 </r>
       <r>   10.3779    0.0000 </r>
       <r>   10.6032    0.0000 </r>
       <r>   12.2548    0.0000 </r>
       <r>   13.6090    0.0000 </r>
       <r>   14.7883    0.0000 </r>
       <r>   16.1345    0.0000 </r>
       <r>   18.0418    0.0000 </r>
       <r>   18.5436    0.0000 </r>
      </set>
      <set comment="kpoint 33">
       <r>   -8.2055    1.0000 </r>
       <r>   -0.6416    0.0000 </r>
       <r>    4.2362    0.0000 </r>
       <r>    5.0517    0.0000 </r>
       <r>    5.3271    0.0000 </r>
       <r>    6.4995    0.0000 </r>
       <r>    6.6236    0.0000 </r>
       <r>    8.5421    0.0000 </r>
       <r>    8.8012    0.0000 </r>
       <r>    9.9260    0.0000 </r>
       <r>   11.9102    0.0000 </r>
       <r>   12.3796    0.0000 </r>
       <r>   14.4633    0.0000 </r>
       <r>   15.7157    0.0000 </r>
       <r>   16.8468    0.0000 </r>
       <r>   18.3024    0.0000 </r>
      </set>
      <set comment="kpoint 34">
       <r>   -9.1460    1.0000 </r>
       <r>   -1.9353    0.0000 </r>
       <r>    3.0942    0.0000 </r>
       <r>    3.8258    0.0000 </r>
       <r>    4.1224    0.0000 </r>
       <r>    5.2758    0.0000 </r>
       <r>    5.5128    0.0000 </r>
       <r>    7.5860    0.0000 </r>
       <r>    7.7966    0.0000 </r>
       <r>   10.5168    0.0000 </r>
       <r>   10.7161    0.0000 </r>
       <r>   12.2418    0.0000 </r>
       <r>   14.6240    0.0000 </r>
       <r>   15.4712    0.0000 </r>
       <r>   16.2653    0.0000 </r>
       <r>   19.0949    0.0000 </r>
      </set>
      <set comment="kpoint 35">
       <r>   -0.5893    0.0000 </r>
       <r>   -0.5890    0.0000 </r>
       <r>    7.7193    0.0000 </r>
       <r>    7.7830    0.0000 </r>
       <r>   11.7872    0.0000 </r>
       <r>   11.7879    0.0000 </r>
       <r>   14.8979    0.0000 </r>
       <r>   14.8987    0.0000 </r>
       <r>   15.5026    0.0000 </r>
       <r>   15.6261    0.0000 </r>
       <r>   15.9601    0.0000 </r>
       <r>   15.9609    0.0000 </r>
       <r>   16.0737    0.0000 </r>
       <r>   16.0747    0.0000 </r>
       <r>   16.2586    0.0000 </r>
       <r>   17.0706    0.0000 </r>
      </set>
      <set comment="kpoint 36">
       <r>   -2.8759    0.0000 </r>
       <r>    1.6878    0.0000 </r>
       <r>    6.2851    0.0000 </r>
       <r>    8.1810    0.0000 </r>
       <r>   10.8083    0.0000 </r>
       <r>   11.9448    0.0000 </r>
       <r>   12.5325    0.0000 </r>
       <r>   12.7821    0.0000 </r>
       <r>   13.8681    0.0000 </r>
       <r>   14.2221    0.0000 </r>
       <r>   14.9027    0.0000 </r>
       <r>   15.4606    0.0000 </r>
       <r>   16.2174    0.0000 </r>
       <r>   16.3786    0.0000 </r>
       <r>   16.3957    0.0000 </r>
       <r>   16.7044    0.0000 </r>
      </set>
      <set comment="kpoint 37">
       <r>   -4.8884    1.0000 </r>
       <r>    3.5950    0.0000 </r>
       <r>    3.9043    0.0000 </r>
       <r>    8.5230    0.0000 </r>
       <r>    9.5702    0.0000 </r>
       <r>    9.8001    0.0000 </r>
       <r>   10.5079    0.0000 </r>
       <r>   10.8760    0.0000 </r>
       <r>   11.8646    0.0000 </r>
       <r>   11.9098    0.0000 </r>
       <r>   13.5961    0.0000 </r>
       <r>   14.0271    0.0000 </r>
       <r>   16.3023    0.0000 </r>
       <r>   16.4497    0.0000 </r>
       <r>   17.1331    0.0000 </r>
       <r>   17.1651    0.0000 </r>
      </set>
      <set comment="kpoint 38">
       <r>   -6.4630    1.0000 </r>
       <r>    1.8375    0.0000 </r>
       <r>    4.8777    0.0000 </r>
       <r>    7.0951    0.0000 </r>
       <r>    7.4902    0.0000 </r>
       <r>    7.8761    0.0000 </r>
       <r>    8.9241    0.0000 </r>
       <r>    9.3172    0.0000 </r>
       <r>   11.1381    0.0000 </r>
       <r>   11.5211    0.0000 </r>
       <r>   13.2094    0.0000 </r>
       <r>   13.2887    0.0000 </r>
       <r>   14.7178    0.0000 </r>
       <r>   15.1580    0.0000 </r>
       <r>   17.8186    0.0000 </r>
       <r>   18.2333    0.0000 </r>
      </set>
      <set comment="kpoint 39">
       <r>   -7.5616    1.0000 </r>
       <r>    0.3022    0.0000 </r>
       <r>    4.8875    0.0000 </r>
       <r>    5.9686    0.0000 </r>
       <r>    6.1516    0.0000 </r>
       <r>    6.9559    0.0000 </r>
       <r>    7.4133    0.0000 </r>
       <r>    8.2480    0.0000 </r>
       <r>    9.7008    0.0000 </r>
       <r>   10.3725    0.0000 </r>
       <r>   12.7481    0.0000 </r>
       <r>   13.4692    0.0000 </r>
       <r>   14.9781    0.0000 </r>
       <r>   15.4015    0.0000 </r>
       <r>   17.1239    0.0000 </r>
       <r>   17.3788    0.0000 </r>
      </set>
      <set comment="kpoint 40">
       <r>   -3.7582    0.9939 </r>
       <r>    2.0566    0.0000 </r>
       <r>    6.0714    0.0000 </r>
       <r>    8.9644    0.0000 </r>
       <r>    9.6615    0.0000 </r>
       <r>   12.1352    0.0000 </r>
       <r>   12.7892    0.0000 </r>
       <r>   12.9073    0.0000 </r>
       <r>   13.1912    0.0000 </r>
       <r>   13.3088    0.0000 </r>
       <r>   13.5090    0.0000 </r>
       <r>   14.3370    0.0000 </r>
       <r>   14.6466    0.0000 </r>
       <r>   14.6755    0.0000 </r>
       <r>   15.1331    0.0000 </r>
       <r>   16.4961    0.0000 </r>
      </set>
      <set comment="kpoint 41">
       <r>   -4.8793    1.0000 </r>
       <r>    2.7251    0.0000 </r>
       <r>    4.6376    0.0000 </r>
       <r>    9.1113    0.0000 </r>
       <r>    9.8465    0.0000 </r>
       <r>   10.6880    0.0000 </r>
       <r>   10.8664    0.0000 </r>
       <r>   12.0204    0.0000 </r>
       <r>   12.0893    0.0000 </r>
       <r>   12.6833    0.0000 </r>
       <r>   13.7218    0.0000 </r>
       <r>   14.1491    0.0000 </r>
       <r>   14.5111    0.0000 </r>
       <r>   14.5358    0.0000 </r>
       <r>   14.9348    0.0000 </r>
       <r>   15.7486    0.0000 </r>
      </set>
      <set comment="kpoint 42">
       <r>   -5.8242    1.0000 </r>
       <r>    3.0118    0.0000 </r>
       <r>    3.6824    0.0000 </r>
       <r>    8.1936    0.0000 </r>
       <r>    8.6672    0.0000 </r>
       <r>    9.0817    0.0000 </r>
       <r>    9.9938    0.0000 </r>
       <r>   10.5452    0.0000 </r>
       <r>   11.0268    0.0000 </r>
       <r>   12.6748    0.0000 </r>
       <r>   12.8909    0.0000 </r>
       <r>   14.1759    0.0000 </r>
       <r>   15.3399    0.0000 </r>
       <r>   15.6132    0.0000 </r>
       <r>   16.0994    0.0000 </r>
       <r>   16.2154    0.0000 </r>
      </set>
      <set comment="kpoint 43">
       <r>   -4.8736    1.0000 </r>
       <r>    2.3906    0.0000 </r>
       <r>    5.2512    0.0000 </r>
       <r>    8.0187    0.0000 </r>
       <r>   11.2131    0.0000 </r>
       <r>   11.6209    0.0000 </r>
       <r>   12.0104    0.0000 </r>
       <r>   12.2680    0.0000 </r>
       <r>   12.3870    0.0000 </r>
       <r>   12.4812    0.0000 </r>
       <r>   13.4494    0.0000 </r>
       <r>   13.7252    0.0000 </r>
       <r>   13.7522    0.0000 </r>
       <r>   13.9046    0.0000 </r>
       <r>   13.9917    0.0000 </r>
       <r>   15.6822    0.0000 </r>
      </set>
     </set>
    </set>
   </array>
  </eigenvalues>
  <separator name="orbital magnetization" >
   <v name="MAGDIPOLOUT">      0.00000000      0.00000000      0.00000000</v>
  </separator>
  <dos>
   <i name="efermi">     -3.66688498 </i>
   <total>
    <array>
     <dimension dim="1">gridpoints</dimension>
     <dimension dim="2">spin</dimension>
     <field>energy</field>
     <field>total</field>
     <field>integrated</field>
     <set>
      <set comment="spin 1">
       <r>   -12.8854     0.0000     0.0000 </r>
       <r>   -12.7693     0.0000     0.0000 </r>
       <r>   -12.6531     0.0000     0.0000 </r>
       <r>   -12.5370     0.0000     0.0000 </r>
       <r>   -12.4209     0.0000     0.0000 </r>
       <r>   -12.3047     0.0000     0.0000 </r>
       <r>   -12.1886     0.0000     0.0000 </r>
       <r>   -12.0725     0.0000     0.0000 </r>
       <r>   -11.9563     0.0000     0.0000 </r>
       <r>   -11.8402     0.0000     0.0000 </r>
       <r>   -11.7241     0.0000     0.0000 </r>
       <r>   -11.6079     0.0000     0.0000 </r>
       <r>   -11.4918     0.0000     0.0000 </r>
       <r>   -11.3756     0.0022     0.0003 </r>
       <r>   -11.2595     0.1035     0.0123 </r>
       <r>   -11.1434     0.0195     0.0145 </r>
       <r>   -11.0272     0.5730     0.0811 </r>
       <r>   -10.9111     0.1390     0.0972 </r>
       <r>   -10.7950     0.0000     0.0972 </r>
       <r>   -10.6788     0.0009     0.0973 </r>
       <r>   -10.5627     0.4364     0.1480 </r>
       <r>   -10.4466     0.2805     0.1806 </r>
       <r>   -10.3304     0.3721     0.2238 </r>
       <r>   -10.2143     0.3449     0.2639 </r>
       <r>   -10.0981     0.0003     0.2639 </r>
       <r>    -9.9820     0.0000     0.2639 </r>
       <r>    -9.8659     0.0000     0.2639 </r>
       <r>    -9.7497     0.0001     0.2639 </r>
       <r>    -9.6336     0.3897     0.3092 </r>
       <r>    -9.5175     1.0400     0.4299 </r>
       <r>    -9.4013     0.0053     0.4306 </r>
       <r>    -9.2852     0.0000     0.4306 </r>
       <r>    -9.1691     0.1836     0.4519 </r>
       <r>    -9.0529     0.5308     0.5135 </r>
       <r>    -8.9368     0.0031     0.5139 </r>
       <r>    -8.8207     0.0000     0.5139 </r>
       <r>    -8.7045     0.0000     0.5139 </r>
       <r>    -8.5884     0.0000     0.5139 </r>
       <r>    -8.4722     0.0431     0.5189 </r>
       <r>    -8.3561     0.6445     0.5937 </r>
       <r>    -8.2400     0.2653     0.6246 </r>
       <r>    -8.1238     1.1846     0.7621 </r>
       <r>    -8.0077     0.0151     0.7639 </r>
       <r>    -7.8916     0.0000     0.7639 </r>
       <r>    -7.7754     0.0000     0.7639 </r>
       <r>    -7.6593     0.0020     0.7641 </r>
       <r>    -7.5432     0.4981     0.8220 </r>
       <r>    -7.4270     0.2173     0.8472 </r>
       <r>    -7.3109     0.0001     0.8472 </r>
       <r>    -7.1947     0.0000     0.8472 </r>
       <r>    -7.0786     0.0000     0.8472 </r>
       <r>    -6.9625     0.0000     0.8472 </r>
       <r>    -6.8463     0.0381     0.8516 </r>
       <r>    -6.7302     1.2701     0.9991 </r>
       <r>    -6.6141     0.1270     1.0139 </r>
       <r>    -6.4979     0.2298     1.0406 </r>
       <r>    -6.3818     1.1895     1.1787 </r>
       <r>    -6.2657     0.0158     1.1806 </r>
       <r>    -6.1495     0.0000     1.1806 </r>
       <r>    -6.0334     0.0000     1.1806 </r>
       <r>    -5.9173     0.0030     1.1809 </r>
       <r>    -5.8011     0.5278     1.2422 </r>
       <r>    -5.6850     0.1867     1.2639 </r>
       <r>    -5.5688     0.0000     1.2639 </r>
       <r>    -5.4527     0.0000     1.2639 </r>
       <r>    -5.3366     0.0000     1.2639 </r>
       <r>    -5.2204     0.0000     1.2639 </r>
       <r>    -5.1043     0.0441     1.2690 </r>
       <r>    -4.9882     0.0825     1.2786 </r>
       <r>    -4.8720     2.4870     1.5674 </r>
       <r>    -4.7559     1.5516     1.7476 </r>
       <r>    -4.6398     0.6084     1.8183 </r>
       <r>    -4.5236     0.0100     1.8194 </r>
       <r>    -4.4075     0.0000     1.8194 </r>
       <r>    -4.2913     0.0000     1.8194 </r>
       <r>    -4.1752     0.0000     1.8194 </r>
       <r>    -4.0591     0.0165     1.8214 </r>
       <r>    -3.9429     0.6303     1.8946 </r>
       <r>    -3.8268     0.0891     1.9049 </r>
       <r>    -3.7107     0.6443     1.9797 </r>
       <r>    -3.5945     0.6748     2.0581 </r>
       <r>    -3.4784     0.0975     2.0694 </r>
       <r>    -3.3623     0.0000     2.0694 </r>
       <r>    -3.2461     0.0000     2.0694 </r>
       <r>    -3.1300     0.0000     2.0694 </r>
       <r>    -3.0138     0.0001     2.0695 </r>
       <r>    -2.8977     0.3822     2.1138 </r>
       <r>    -2.7816     1.0472     2.2355 </r>
       <r>    -2.6654     0.0560     2.2420 </r>
       <r>    -2.5493     1.2840     2.3911 </r>
       <r>    -2.4332     0.1007     2.4028 </r>
       <r>    -2.3170     0.0000     2.4028 </r>
       <r>    -2.2009     0.0000     2.4028 </r>
       <r>    -2.0848     0.0000     2.4028 </r>
       <r>    -1.9686     0.1231     2.4171 </r>
       <r>    -1.8525     0.5875     2.4853 </r>
       <r>    -1.7364     0.0070     2.4861 </r>
       <r>    -1.6202     0.0000     2.4861 </r>
       <r>    -1.5041     0.0000     2.4861 </r>
       <r>    -1.3879     0.0000     2.4861 </r>
       <r>    -1.2718     0.0000     2.4861 </r>
       <r>    -1.1557     0.0000     2.4861 </r>
       <r>    -1.0395     0.0092     2.4872 </r>
       <r>    -0.9234     0.6032     2.5572 </r>
       <r>    -0.8073     0.1052     2.5694 </r>
       <r>    -0.6911     0.1151     2.5828 </r>
       <r>    -0.5750     1.5900     2.7675 </r>
       <r>    -0.4589     0.2083     2.7917 </r>
       <r>    -0.3427     0.0001     2.7917 </r>
       <r>    -0.2266     0.0000     2.7917 </r>
       <r>    -0.1104     0.0000     2.7917 </r>
       <r>     0.0057     0.0000     2.7917 </r>
       <r>     0.1218     0.0000     2.7917 </r>
       <r>     0.2380     0.0243     2.7945 </r>
       <r>     0.3541     0.6437     2.8692 </r>
       <r>     0.4702     0.1560     2.8874 </r>
       <r>     0.5864     0.0132     2.8889 </r>
       <r>     0.7025     0.1735     2.9090 </r>
       <r>     0.8186     0.5405     2.9718 </r>
       <r>     0.9348     0.0035     2.9722 </r>
       <r>     1.0509     0.0477     2.9778 </r>
       <r>     1.1670     0.1119     2.9908 </r>
       <r>     1.2832     1.3602     3.1487 </r>
       <r>     1.3993     1.4001     3.3113 </r>
       <r>     1.5155     0.1902     3.3334 </r>
       <r>     1.6316     0.5320     3.3952 </r>
       <r>     1.7477     2.2410     3.6555 </r>
       <r>     1.8639     1.1999     3.7948 </r>
       <r>     1.9800     0.6761     3.8733 </r>
       <r>     2.0961     0.9936     3.9887 </r>
       <r>     2.2123     0.1113     4.0016 </r>
       <r>     2.3284     1.1781     4.1385 </r>
       <r>     2.4445     0.6166     4.2101 </r>
       <r>     2.5607     1.4704     4.3808 </r>
       <r>     2.6768     0.8910     4.4843 </r>
       <r>     2.7930     1.4470     4.6524 </r>
       <r>     2.9091     0.7091     4.7347 </r>
       <r>     3.0252     0.4914     4.7918 </r>
       <r>     3.1414     1.1596     4.9265 </r>
       <r>     3.2575     1.8039     5.1359 </r>
       <r>     3.3736     0.1736     5.1561 </r>
       <r>     3.4898     0.9544     5.2669 </r>
       <r>     3.6059     2.1983     5.5222 </r>
       <r>     3.7220     2.0737     5.7631 </r>
       <r>     3.8382     1.6934     5.9597 </r>
       <r>     3.9543     1.7206     6.1596 </r>
       <r>     4.0705     1.2169     6.3009 </r>
       <r>     4.1866     0.9835     6.4151 </r>
       <r>     4.3027     1.9355     6.6399 </r>
       <r>     4.4189     0.1108     6.6528 </r>
       <r>     4.5350     0.0027     6.6531 </r>
       <r>     4.6511     1.4503     6.8215 </r>
       <r>     4.7673     1.9419     7.0470 </r>
       <r>     4.8834     1.5080     7.2222 </r>
       <r>     4.9995     2.5426     7.5175 </r>
       <r>     5.1157     2.1170     7.7633 </r>
       <r>     5.2318     0.8081     7.8572 </r>
       <r>     5.3479     2.0076     8.0903 </r>
       <r>     5.4641     0.4821     8.1463 </r>
       <r>     5.5802     1.1912     8.2847 </r>
       <r>     5.6964     0.2204     8.3103 </r>
       <r>     5.8125     1.5035     8.4849 </r>
       <r>     5.9286     0.6999     8.5661 </r>
       <r>     6.0448     1.0218     8.6848 </r>
       <r>     6.1609     2.1279     8.9319 </r>
       <r>     6.2770     1.6389     9.1223 </r>
       <r>     6.3932     1.2884     9.2719 </r>
       <r>     6.5093     1.8731     9.4894 </r>
       <r>     6.6254     1.3132     9.6419 </r>
       <r>     6.7416     0.6907     9.7222 </r>
       <r>     6.8577     0.3721     9.7654 </r>
       <r>     6.9739     3.5782    10.1809 </r>
       <r>     7.0900     1.7005    10.3784 </r>
       <r>     7.2061     0.8474    10.4768 </r>
       <r>     7.3223     2.4411    10.7603 </r>
       <r>     7.4384     1.0346    10.8805 </r>
       <r>     7.5545     1.5905    11.0652 </r>
       <r>     7.6707     0.9901    11.1802 </r>
       <r>     7.7868     1.0108    11.2976 </r>
       <r>     7.9029     1.6572    11.4900 </r>
       <r>     8.0191     0.6047    11.5602 </r>
       <r>     8.1352     0.3754    11.6038 </r>
       <r>     8.2513     2.4146    11.8843 </r>
       <r>     8.3675     2.2354    12.1439 </r>
       <r>     8.4836     1.5147    12.3198 </r>
       <r>     8.5998     3.7657    12.7571 </r>
       <r>     8.7159     1.4000    12.9197 </r>
       <r>     8.8320     1.9146    13.1421 </r>
       <r>     8.9482     2.2950    13.4086 </r>
       <r>     9.0643     1.2526    13.5541 </r>
       <r>     9.1804     1.9584    13.7815 </r>
       <r>     9.2966     1.2923    13.9316 </r>
       <r>     9.4127     2.6838    14.2433 </r>
       <r>     9.5288     0.3515    14.2841 </r>
       <r>     9.6450     2.0533    14.5226 </r>
       <r>     9.7611     1.5297    14.7002 </r>
       <r>     9.8773     2.5163    14.9924 </r>
       <r>     9.9934     1.9895    15.2235 </r>
       <r>    10.1095     1.7055    15.4216 </r>
       <r>    10.2257     0.7940    15.5138 </r>
       <r>    10.3418     0.4370    15.5645 </r>
       <r>    10.4579     3.2180    15.9383 </r>
       <r>    10.5741     3.4080    16.3340 </r>
       <r>    10.6902     2.5985    16.6358 </r>
       <r>    10.8063     2.5849    16.9360 </r>
       <r>    10.9225     3.3190    17.3215 </r>
       <r>    11.0386     0.6726    17.3996 </r>
       <r>    11.1547     1.2564    17.5455 </r>
       <r>    11.2709     0.7851    17.6367 </r>
       <r>    11.3870     0.0197    17.6390 </r>
       <r>    11.5032     0.8714    17.7402 </r>
       <r>    11.6193     2.5069    18.0313 </r>
       <r>    11.7354     0.6008    18.1011 </r>
       <r>    11.8516     1.0818    18.2267 </r>
       <r>    11.9677     4.8100    18.7853 </r>
       <r>    12.0838     2.8204    19.1129 </r>
       <r>    12.2000     1.7882    19.3205 </r>
       <r>    12.3161     2.9246    19.6602 </r>
       <r>    12.4322     1.7464    19.8630 </r>
       <r>    12.5484     1.4899    20.0360 </r>
       <r>    12.6645     1.2382    20.1798 </r>
       <r>    12.7807     3.7381    20.6140 </r>
       <r>    12.8968     3.3482    21.0028 </r>
       <r>    13.0129     0.8116    21.0971 </r>
       <r>    13.1291     0.2853    21.1302 </r>
       <r>    13.2452     2.5711    21.4288 </r>
       <r>    13.3613     4.0157    21.8952 </r>
       <r>    13.4775     1.6897    22.0914 </r>
       <r>    13.5936     2.2632    22.3542 </r>
       <r>    13.7097     2.4069    22.6338 </r>
       <r>    13.8259     2.3469    22.9063 </r>
       <r>    13.9420     2.3264    23.1765 </r>
       <r>    14.0582     2.5413    23.4717 </r>
       <r>    14.1743     2.2903    23.7376 </r>
       <r>    14.2904     2.0640    23.9773 </r>
       <r>    14.4066     1.3910    24.1389 </r>
       <r>    14.5227     2.9569    24.4823 </r>
       <r>    14.6388     3.6473    24.9059 </r>
       <r>    14.7550     2.7463    25.2248 </r>
       <r>    14.8711     1.8283    25.4371 </r>
       <r>    14.9872     3.2607    25.8158 </r>
       <r>    15.1034     0.6178    25.8876 </r>
       <r>    15.2195     1.8600    26.1036 </r>
       <r>    15.3356     0.4043    26.1506 </r>
       <r>    15.4518     1.9312    26.3748 </r>
       <r>    15.5679     2.3343    26.6459 </r>
       <r>    15.6841     1.3619    26.8041 </r>
       <r>    15.8002     2.6434    27.1111 </r>
       <r>    15.9163     0.5413    27.1740 </r>
       <r>    16.0325     0.8439    27.2720 </r>
       <r>    16.1486     2.0445    27.5094 </r>
       <r>    16.2647     3.3371    27.8970 </r>
       <r>    16.3809     4.3796    28.4056 </r>
       <r>    16.4970     3.9358    28.8627 </r>
       <r>    16.6131     1.1851    29.0003 </r>
       <r>    16.7293     1.5512    29.1805 </r>
       <r>    16.8454     1.5803    29.3640 </r>
       <r>    16.9616     1.7201    29.5638 </r>
       <r>    17.0777     0.7048    29.6456 </r>
       <r>    17.1938     3.6525    30.0698 </r>
       <r>    17.3100     0.7840    30.1609 </r>
       <r>    17.4261     1.5020    30.3353 </r>
       <r>    17.5422     0.8328    30.4320 </r>
       <r>    17.6584     0.4644    30.4860 </r>
       <r>    17.7745     0.1621    30.5048 </r>
       <r>    17.8906     2.0867    30.7471 </r>
       <r>    18.0068     0.8476    30.8456 </r>
       <r>    18.1229     1.1953    30.9844 </r>
       <r>    18.2390     0.8662    31.0850 </r>
       <r>    18.3552     1.9158    31.3075 </r>
       <r>    18.4713     0.1319    31.3228 </r>
       <r>    18.5875     1.2526    31.4683 </r>
       <r>    18.7036     1.0711    31.5927 </r>
       <r>    18.8197     0.5174    31.6528 </r>
       <r>    18.9359     0.0002    31.6528 </r>
       <r>    19.0520     0.0796    31.6620 </r>
       <r>    19.1681     0.6239    31.7345 </r>
       <r>    19.2843     0.0140    31.7361 </r>
       <r>    19.4004     0.0061    31.7368 </r>
       <r>    19.5165     0.6300    31.8100 </r>
       <r>    19.6327     1.2602    31.9563 </r>
       <r>    19.7488     0.2563    31.9861 </r>
       <r>    19.8650     0.0001    31.9861 </r>
       <r>    19.9811     0.0000    31.9861 </r>
       <r>    20.0972     0.0000    31.9861 </r>
       <r>    20.2134     0.0000    31.9861 </r>
       <r>    20.3295     0.0139    31.9877 </r>
       <r>    20.4456     0.1035    31.9997 </r>
       <r>    20.5618     0.0022    32.0000 </r>
       <r>    20.6779     0.0000    32.0000 </r>
       <r>    20.7940     0.0000    32.0000 </r>
       <r>    20.9102     0.0000    32.0000 </r>
       <r>    21.0263     0.0000    32.0000 </r>
       <r>    21.1424     0.0000    32.0000 </r>
       <r>    21.2586     0.0000    32.0000 </r>
       <r>    21.3747     0.0000    32.0000 </r>
       <r>    21.4909     0.0000    32.0000 </r>
       <r>    21.6070     0.0000    32.0000 </r>
       <r>    21.7231     0.0000    32.0000 </r>
       <r>    21.8393     0.0000    32.0000 </r>
       <r>    21.9554     0.0000    32.0000 </r>
      </set>
     </set>
    </array>
   </total>
  </dos>
 </calculation>
 <structure name="finalpos" >
  <crystal>
   <varray name="basis" >
    <v>       1.84377978       1.06444526       0.00000000 </v>
    <v>      -1.84377978       1.06444526       0.00000000 </v>
    <v>       0.00000000       0.00000000      20.00000000 </v>
   </varray>
   <i name="volume">     78.50410598 </i>
   <varray name="rec_basis" >
    <v>       0.27118206       0.46972824       0.00000000 </v>
    <v>      -0.27118206       0.46972824       0.00000000 </v>
    <v>       0.00000000       0.00000000       0.05000000 </v>
   </varray>
  </crystal>
  <varray name="positions" >
   <v>       0.00000000       0.00000000       0.50000000 </v>
  </varray>
 </structure>
</modeling>
