   3   3   0   0
  0.8374985E+02  0.2506240E-09  0.2506240E-09  0.4000000E-08  0.5000000E-15
  1.000000000000000E-004
  CAR 
 Convergence                             
     21.11369532    -14.10005857  301     -2.23747562      1.00000000
    -14.100  0.0000E+00  0.0000E+00
    -13.983  0.0000E+00  0.0000E+00
    -13.865  0.0000E+00  0.0000E+00
    -13.748  0.0000E+00  0.0000E+00
    -13.631  0.0000E+00  0.0000E+00
    -13.513  0.0000E+00  0.0000E+00
    -13.396  0.0000E+00  0.0000E+00
    -13.278  0.0000E+00  0.0000E+00
    -13.161  0.0000E+00  0.0000E+00
    -13.044  0.0000E+00  0.0000E+00
    -12.926  0.0000E+00  0.0000E+00
    -12.809  0.0000E+00  0.0000E+00
    -12.692  0.8396E-09  0.9855E-10
    -12.574  0.6948E-03  0.8155E-04
    -12.457  0.1386E+00  0.1635E-01
    -12.339  0.3698E+00  0.5975E-01
    -12.222  0.3293E+00  0.9841E-01
    -12.105  0.3731E+00  0.1422E+00
    -11.987  0.3373E+00  0.1818E+00
    -11.870  0.4271E+00  0.2319E+00
    -11.752  0.2182E+00  0.2575E+00
    -11.635  0.5083E+00  0.3172E+00
    -11.518  0.2534E+00  0.3469E+00
    -11.400  0.3844E+00  0.3921E+00
    -11.283  0.4042E+00  0.4395E+00
    -11.166  0.3457E+00  0.4801E+00
    -11.048  0.2245E+00  0.5064E+00
    -10.931  0.5310E+00  0.5688E+00
    -10.813  0.3897E+00  0.6145E+00
    -10.696  0.2245E+00  0.6409E+00
    -10.579  0.3062E+00  0.6768E+00
    -10.461  0.5732E+00  0.7441E+00
    -10.344  0.2283E+00  0.7709E+00
    -10.227  0.4877E+00  0.8281E+00
    -10.109  0.1112E+00  0.8412E+00
     -9.992  0.4970E+00  0.8995E+00
     -9.874  0.4890E+00  0.9569E+00
     -9.757  0.4046E+00  0.1004E+01
     -9.640  0.1130E+00  0.1018E+01
     -9.522  0.2982E+00  0.1053E+01
     -9.405  0.6402E+00  0.1128E+01
     -9.288  0.3588E+00  0.1170E+01
     -9.170  0.3248E+00  0.1208E+01
     -9.053  0.2238E+00  0.1234E+01
     -8.935  0.4662E+00  0.1289E+01
     -8.818  0.4552E+00  0.1342E+01
     -8.701  0.7301E+00  0.1428E+01
     -8.583  0.7843E+00  0.1520E+01
     -8.466  0.7252E+00  0.1605E+01
     -8.348  0.8689E+00  0.1707E+01
     -8.231  0.5487E+00  0.1772E+01
     -8.114  0.6443E+00  0.1847E+01
     -7.996  0.8850E+00  0.1951E+01
     -7.879  0.4156E+00  0.2000E+01
     -7.762  0.5270E+00  0.2062E+01
     -7.644  0.7633E+00  0.2152E+01
     -7.527  0.8235E+00  0.2248E+01
     -7.409  0.5706E+00  0.2315E+01
     -7.292  0.5913E+00  0.2385E+01
     -7.175  0.9727E+00  0.2499E+01
     -7.057  0.7162E+00  0.2583E+01
     -6.940  0.9435E+00  0.2694E+01
     -6.823  0.6856E+00  0.2774E+01
     -6.705  0.5554E+00  0.2839E+01
     -6.588  0.6012E+00  0.2910E+01
     -6.470  0.1137E+01  0.3043E+01
     -6.353  0.9468E+00  0.3154E+01
     -6.236  0.5033E+00  0.3213E+01
     -6.118  0.1069E+01  0.3339E+01
     -6.001  0.8531E+00  0.3439E+01
     -5.884  0.6872E+00  0.3520E+01
     -5.766  0.6890E+00  0.3601E+01
     -5.649  0.1423E+01  0.3768E+01
     -5.531  0.1152E+01  0.3903E+01
     -5.414  0.9375E+00  0.4013E+01
     -5.297  0.8720E+00  0.4115E+01
     -5.179  0.1224E+01  0.4259E+01
     -5.062  0.6956E+00  0.4341E+01
     -4.944  0.1093E+01  0.4469E+01
     -4.827  0.1201E+01  0.4610E+01
     -4.710  0.1218E+01  0.4753E+01
     -4.592  0.8519E+00  0.4853E+01
     -4.475  0.7871E+00  0.4945E+01
     -4.358  0.1329E+01  0.5101E+01
     -4.240  0.1258E+01  0.5249E+01
     -4.123  0.8575E+00  0.5349E+01
     -4.005  0.6645E+00  0.5427E+01
     -3.888  0.7734E+00  0.5518E+01
     -3.771  0.9282E+00  0.5627E+01
     -3.653  0.3238E+00  0.5665E+01
     -3.536  0.2278E+00  0.5692E+01
     -3.419  0.2377E+00  0.5720E+01
     -3.301  0.5412E+00  0.5783E+01
     -3.184  0.4920E+00  0.5841E+01
     -3.066  0.1385E+00  0.5857E+01
     -2.949  0.4078E-01  0.5862E+01
     -2.832  0.8877E-01  0.5873E+01
     -2.714  0.2552E+00  0.5903E+01
     -2.597  0.9168E-01  0.5913E+01
     -2.480  0.1635E+00  0.5933E+01
     -2.362  0.2003E+00  0.5956E+01
     -2.245  0.3295E+00  0.5995E+01
     -2.127  0.1345E+01  0.6153E+01
     -2.010  0.1844E+01  0.6369E+01
     -1.893  0.1122E+01  0.6501E+01
     -1.775  0.1550E+01  0.6683E+01
     -1.658  0.1700E+01  0.6882E+01
     -1.540  0.1845E+01  0.7099E+01
     -1.423  0.1204E+01  0.7240E+01
     -1.306  0.1114E+01  0.7371E+01
     -1.188  0.1639E+01  0.7563E+01
     -1.071  0.1905E+01  0.7787E+01
     -0.954  0.1609E+01  0.7976E+01
     -0.836  0.1829E+01  0.8190E+01
     -0.719  0.2556E+01  0.8490E+01
     -0.601  0.1756E+01  0.8697E+01
     -0.484  0.1968E+01  0.8928E+01
     -0.367  0.1216E+01  0.9070E+01
     -0.249  0.8540E+00  0.9171E+01
     -0.132  0.1254E+01  0.9318E+01
     -0.015  0.8415E+00  0.9417E+01
      0.103  0.7847E+00  0.9509E+01
      0.220  0.9490E+00  0.9620E+01
      0.338  0.6139E+00  0.9692E+01
      0.455  0.5305E+00  0.9754E+01
      0.572  0.2570E+00  0.9785E+01
      0.690  0.3330E-01  0.9789E+01
      0.807  0.2694E+00  0.9820E+01
      0.924  0.5942E+00  0.9890E+01
      1.042  0.7540E+00  0.9978E+01
      1.159  0.8113E+00  0.1007E+02
      1.277  0.6959E+00  0.1016E+02
      1.394  0.8786E+00  0.1026E+02
      1.511  0.1796E+01  0.1047E+02
      1.629  0.2333E+01  0.1074E+02
      1.746  0.2599E+01  0.1105E+02
      1.864  0.3459E+01  0.1145E+02
      1.981  0.3340E+01  0.1185E+02
      2.098  0.2635E+01  0.1216E+02
      2.216  0.3064E+01  0.1252E+02
      2.333  0.2497E+01  0.1281E+02
      2.450  0.3716E+01  0.1324E+02
      2.568  0.3377E+01  0.1364E+02
      2.685  0.3489E+01  0.1405E+02
      2.803  0.4192E+01  0.1454E+02
      2.920  0.3169E+01  0.1491E+02
      3.037  0.3427E+01  0.1532E+02
      3.155  0.3961E+01  0.1578E+02
      3.272  0.4586E+01  0.1632E+02
      3.389  0.2732E+01  0.1664E+02
      3.507  0.3748E+01  0.1708E+02
      3.624  0.4324E+01  0.1759E+02
      3.742  0.4282E+01  0.1809E+02
      3.859  0.3605E+01  0.1851E+02
      3.976  0.3208E+01  0.1889E+02
      4.094  0.3964E+01  0.1936E+02
      4.211  0.4089E+01  0.1984E+02
      4.328  0.3423E+01  0.2024E+02
      4.446  0.4142E+01  0.2072E+02
      4.563  0.4105E+01  0.2121E+02
      4.681  0.3643E+01  0.2163E+02
      4.798  0.3710E+01  0.2207E+02
      4.915  0.4258E+01  0.2257E+02
      5.033  0.4689E+01  0.2312E+02
      5.150  0.3947E+01  0.2358E+02
      5.268  0.4014E+01  0.2405E+02
      5.385  0.4394E+01  0.2457E+02
      5.502  0.5166E+01  0.2518E+02
      5.620  0.4472E+01  0.2570E+02
      5.737  0.4634E+01  0.2624E+02
      5.854  0.4448E+01  0.2677E+02
      5.972  0.4223E+01  0.2726E+02
      6.089  0.4268E+01  0.2776E+02
      6.207  0.4550E+01  0.2830E+02
      6.324  0.4413E+01  0.2881E+02
      6.441  0.4737E+01  0.2937E+02
      6.559  0.4583E+01  0.2991E+02
      6.676  0.4297E+01  0.3041E+02
      6.793  0.5016E+01  0.3100E+02
      6.911  0.4043E+01  0.3148E+02
      7.028  0.5917E+01  0.3217E+02
      7.146  0.6322E+01  0.3291E+02
      7.263  0.5279E+01  0.3353E+02
      7.380  0.4875E+01  0.3411E+02
      7.498  0.4480E+01  0.3463E+02
      7.615  0.5751E+01  0.3531E+02
      7.732  0.5641E+01  0.3597E+02
      7.850  0.5431E+01  0.3661E+02
      7.967  0.5874E+01  0.3730E+02
      8.085  0.5051E+01  0.3789E+02
      8.202  0.6635E+01  0.3867E+02
      8.319  0.5420E+01  0.3930E+02
      8.437  0.5069E+01  0.3990E+02
      8.554  0.5564E+01  0.4055E+02
      8.672  0.5610E+01  0.4121E+02
      8.789  0.6281E+01  0.4195E+02
      8.906  0.5586E+01  0.4260E+02
      9.024  0.5861E+01  0.4329E+02
      9.141  0.6645E+01  0.4407E+02
      9.258  0.5745E+01  0.4474E+02
      9.376  0.5003E+01  0.4533E+02
      9.493  0.4936E+01  0.4591E+02
      9.611  0.6012E+01  0.4662E+02
      9.728  0.6807E+01  0.4742E+02
      9.845  0.5723E+01  0.4809E+02
      9.963  0.5087E+01  0.4869E+02
     10.080  0.5063E+01  0.4928E+02
     10.197  0.6575E+01  0.5005E+02
     10.315  0.5733E+01  0.5072E+02
     10.432  0.6238E+01  0.5146E+02
     10.550  0.5855E+01  0.5214E+02
     10.667  0.5364E+01  0.5277E+02
     10.784  0.6096E+01  0.5349E+02
     10.902  0.5544E+01  0.5414E+02
     11.019  0.5462E+01  0.5478E+02
     11.136  0.5999E+01  0.5548E+02
     11.254  0.7104E+01  0.5632E+02
     11.371  0.5688E+01  0.5699E+02
     11.489  0.6359E+01  0.5773E+02
     11.606  0.5869E+01  0.5842E+02
     11.723  0.5893E+01  0.5911E+02
     11.841  0.5617E+01  0.5977E+02
     11.958  0.5345E+01  0.6040E+02
     12.075  0.5456E+01  0.6104E+02
     12.193  0.6703E+01  0.6183E+02
     12.310  0.6714E+01  0.6262E+02
     12.428  0.6431E+01  0.6337E+02
     12.545  0.6951E+01  0.6419E+02
     12.662  0.6117E+01  0.6490E+02
     12.780  0.6169E+01  0.6563E+02
     12.897  0.6468E+01  0.6639E+02
     13.015  0.5283E+01  0.6701E+02
     13.132  0.7644E+01  0.6790E+02
     13.249  0.7737E+01  0.6881E+02
     13.367  0.5892E+01  0.6950E+02
     13.484  0.7599E+01  0.7040E+02
     13.601  0.6333E+01  0.7114E+02
     13.719  0.4714E+01  0.7169E+02
     13.836  0.5975E+01  0.7239E+02
     13.954  0.6218E+01  0.7312E+02
     14.071  0.6376E+01  0.7387E+02
     14.188  0.6890E+01  0.7468E+02
     14.306  0.6077E+01  0.7540E+02
     14.423  0.4947E+01  0.7598E+02
     14.540  0.3907E+01  0.7643E+02
     14.658  0.6397E+01  0.7719E+02
     14.775  0.4982E+01  0.7777E+02
     14.893  0.3513E+01  0.7818E+02
     15.010  0.3979E+01  0.7865E+02
     15.127  0.3358E+01  0.7904E+02
     15.245  0.3162E+01  0.7942E+02
     15.362  0.3826E+01  0.7986E+02
     15.479  0.2533E+01  0.8016E+02
     15.597  0.1952E+01  0.8039E+02
     15.714  0.1701E+01  0.8059E+02
     15.832  0.2349E+01  0.8087E+02
     15.949  0.2928E+01  0.8121E+02
     16.066  0.2201E+01  0.8147E+02
     16.184  0.1635E+01  0.8166E+02
     16.301  0.1467E+01  0.8183E+02
     16.419  0.1579E+01  0.8202E+02
     16.536  0.1866E+01  0.8224E+02
     16.653  0.2953E+01  0.8258E+02
     16.771  0.8020E+00  0.8268E+02
     16.888  0.1108E+01  0.8281E+02
     17.005  0.6301E+00  0.8288E+02
     17.123  0.8383E+00  0.8298E+02
     17.240  0.8574E+00  0.8308E+02
     17.358  0.2817E+00  0.8311E+02
     17.475  0.8876E+00  0.8322E+02
     17.592  0.6740E+00  0.8330E+02
     17.710  0.5640E+00  0.8336E+02
     17.827  0.9976E+00  0.8348E+02
     17.944  0.4839E+00  0.8354E+02
     18.062  0.4237E+00  0.8359E+02
     18.179  0.7232E+00  0.8367E+02
     18.297  0.4444E+00  0.8372E+02
     18.414  0.7543E+00  0.8381E+02
     18.531  0.2150E+00  0.8384E+02
     18.649  0.2547E-01  0.8384E+02
     18.766  0.6626E-02  0.8384E+02
     18.883  0.2344E+00  0.8387E+02
     19.001  0.3138E+00  0.8391E+02
     19.118  0.6646E-01  0.8391E+02
     19.236  0.4708E-01  0.8392E+02
     19.353  0.9439E-01  0.8393E+02
     19.470  0.2371E+00  0.8396E+02
     19.588  0.3580E+00  0.8400E+02
     19.705  0.2986E-02  0.8400E+02
     19.823  0.3518E-08  0.8400E+02
     19.940  0.0000E+00  0.8400E+02
     20.057  0.0000E+00  0.8400E+02
     20.175  0.0000E+00  0.8400E+02
     20.292  0.0000E+00  0.8400E+02
     20.409  0.0000E+00  0.8400E+02
     20.527  0.0000E+00  0.8400E+02
     20.644  0.0000E+00  0.8400E+02
     20.762  0.0000E+00  0.8400E+02
     20.879  0.0000E+00  0.8400E+02
     20.996  0.0000E+00  0.8400E+02
     21.114  0.0000E+00  0.8400E+02
