       N       E                     dE             d eps       ncg     rms          rms(c)
DAV:   1    -0.477507807330E+01   -0.47751E+01   -0.15811E+03  1512   0.223E+02
DAV:   2    -0.158069869285E+02   -0.11032E+02   -0.10266E+02  1904   0.297E+01
DAV:   3    -0.160613529399E+02   -0.25437E+00   -0.25118E+00  2296   0.591E+00
DAV:   4    -0.160619583156E+02   -0.60538E-03   -0.60537E-03  2268   0.278E-01
DAV:   5    -0.160619587862E+02   -0.47061E-06   -0.46963E-06  2296   0.769E-03
DAV:   6    -0.160619587874E+02   -0.12008E-08   -0.17756E-08  2240   0.406E-04
   1 F= -.16061959E+02 E0= -.16061854E+02  d E =-.208946E-03  mag=     0.0000    -0.0000     0.0000
