Geometry                                
           1
     3.226143    1.862614    0.000000
    -3.226143    1.862614    0.000000
     0.000000    0.000000   40.000000
   Be   H 
     6     2
Direct configuration=     1
   0.00000000  0.00000000  0.12500000
   0.66666667  0.33333333  0.12500000
   0.33333333  0.66666667  0.12500000
   0.33333333  0.33333333  0.07500000
   0.66666667  0.00000000  0.07500000
   0.00000000  0.66666667  0.07500000
   0.00000000  0.00000000  0.17500000
   0.33333333  0.33333333  0.02500000
Geometry                                
           1
     3.262602    1.887123    0.000000
    -3.262602    1.887123    0.000000
     0.000000    0.000000   40.000000
   Be   H 
     6     2
Direct configuration=     2
   0.99957054  0.99957054  0.12659040
   0.66696797  0.33369410  0.12471460
   0.33369410  0.66696797  0.12471460
   0.33376280  0.33376280  0.07340960
   0.66636537  0.99963923  0.07528540
   0.99963923  0.66636537  0.07528540
   0.00198680  0.00198680  0.17287647
   0.33134653  0.33134653  0.02712353
Geometry                                
           1
     3.371982    1.960649    0.000000
    -3.371982    1.960649    0.000000
     0.000000    0.000000   40.000000
   Be   H 
     6     2
Direct configuration=     3
   0.99829887  0.99829887  0.13136158
   0.66785996  0.33476250  0.12385840
   0.33476250  0.66785996  0.12385840
   0.33503446  0.33503446  0.06863842
   0.66547337  0.99857083  0.07614160
   0.99857083  0.66547337  0.07614160
   0.00786980  0.00786980  0.16650588
   0.32546354  0.32546354  0.03349412
Geometry                                
           1
     3.348891    1.945127    0.000000
    -3.348891    1.945127    0.000000
     0.000000    0.000000   40.000000
   Be   H 
     6     2
Direct configuration=     4
   0.99855727  0.99855727  0.13035435
   0.66767881  0.33454532  0.12403915
   0.33454532  0.66767881  0.12403915
   0.33477607  0.33477607  0.06964565
   0.66565452  0.99878801  0.07596085
   0.99878801  0.66565452  0.07596085
   0.00667442  0.00667442  0.16785076
   0.32665891  0.32665891  0.03214924
Geometry                                
           1
     3.359636    1.952350    0.000000
    -3.359636    1.952350    0.000000
     0.000000    0.000000   40.000000
   Be   H 
     6     2
Direct configuration=     5
   0.99843607  0.99843607  0.13082304
   0.66776379  0.33464718  0.12395504
   0.33464718  0.66776379  0.12395504
   0.33489726  0.33489726  0.06917696
   0.66556954  0.99868616  0.07604496
   0.99868616  0.66556954  0.07604496
   0.00723510  0.00723510  0.16722495
   0.32609823  0.32609823  0.03277505
Geometry                                
           1
     3.295051    1.906227    0.000000
    -3.295051    1.906227    0.000000
     0.000000    0.000000   40.000000
   Be   H 
     6     2
Direct configuration=     6
   0.99408870  0.99408870  0.13116853
   0.66631211  0.33512241  0.12309698
   0.33512241  0.66631211  0.12309698
   0.33924464  0.33924464  0.06883147
   0.66702122  0.99821092  0.07690302
   0.99821092  0.66702122  0.07690302
   0.01221667  0.01221667  0.16516703
   0.32111667  0.32111667  0.03483297
Geometry                                
           1
     3.296220    1.907062    0.000000
    -3.296220    1.907062    0.000000
     0.000000    0.000000   40.000000
   Be   H 
     6     2
Direct configuration=     7
   0.99416927  0.99416927  0.13116228
   0.66633894  0.33511369  0.12311251
   0.33511369  0.66633894  0.12311251
   0.33916407  0.33916407  0.06883772
   0.66699440  0.99821965  0.07688749
   0.99821965  0.66699440  0.07688749
   0.01212434  0.01212434  0.16520427
   0.32120899  0.32120899  0.03479573
Geometry                                
           1
     3.244126    1.868748    0.000000
    -3.244126    1.868748    0.000000
     0.000000    0.000000   40.000000
   Be   H 
     6     2
Direct configuration=     8
   0.98762105  0.98762105  0.12933979
   0.66210962  0.33367177  0.12210586
   0.33367177  0.66210962  0.12210586
   0.34571229  0.34571229  0.07066021
   0.67122372  0.99966157  0.07789414
   0.99966157  0.67122372  0.07789414
   0.02032652  0.02032652  0.16471175
   0.31300681  0.31300681  0.03528825
Geometry                                
           1
     3.234424    1.861613    0.000000
    -3.234424    1.861613    0.000000
     0.000000    0.000000   40.000000
   Be   H 
     6     2
Direct configuration=     9
   0.98637654  0.98637654  0.12900039
   0.66130698  0.33339657  0.12191838
   0.33339657  0.66130698  0.12191838
   0.34695679  0.34695679  0.07099961
   0.67202635  0.99993676  0.07808162
   0.99993676  0.67202635  0.07808162
   0.02188536  0.02188536  0.16462003
   0.31144797  0.31144797  0.03537997
Geometry                                
           1
     3.273100    1.877389    0.000000
    -3.273100    1.877389    0.000000
     0.000000    0.000000   40.000000
   Be   H 
     6     2
Direct configuration=    10
   0.98387814  0.98387814  0.12742791
   0.65362378  0.32699235  0.12124665
   0.32699235  0.65362378  0.12124665
   0.34945520  0.34945520  0.07257209
   0.67970955  0.00634098  0.07875335
   0.00634098  0.67970955  0.07875335
   0.03353313  0.03353313  0.16350962
   0.29980020  0.29980020  0.03649038
Geometry                                
           1
     3.318090    1.895740    0.000000
    -3.318090    1.895740    0.000000
     0.000000    0.000000   40.000000
   Be   H 
     6     2
Direct configuration=    11
   0.98099632  0.98099632  0.12559876
   0.64476406  0.31960279  0.12046527
   0.31960279  0.64476406  0.12046527
   0.35233701  0.35233701  0.07440124
   0.68856928  0.01373054  0.07953473
   0.01373054  0.68856928  0.07953473
   0.04696837  0.04696837  0.16221795
   0.28636496  0.28636496  0.03778205
Geometry                                
           1
     3.360744    1.903913    0.000000
    -3.360744    1.903913    0.000000
     0.000000    0.000000   40.000000
   Be   H 
     6     2
Direct configuration=    12
   0.98051382  0.98051382  0.12518829
   0.64145204  0.31614431  0.12041423
   0.31614431  0.64145204  0.12041423
   0.35281952  0.35281952  0.07481171
   0.69188129  0.01718902  0.07958577
   0.01718902  0.69188129  0.07958577
   0.05875821  0.05875821  0.16065393
   0.27457512  0.27457512  0.03934607
Geometry                                
           1
     3.488708    1.928431    0.000000
    -3.488708    1.928431    0.000000
     0.000000    0.000000   40.000000
   Be   H 
     6     2
Direct configuration=    13
   0.97907252  0.97907252  0.12395690
   0.63155681  0.30581527  0.12026109
   0.30581527  0.63155681  0.12026109
   0.35426081  0.35426081  0.07604310
   0.70177653  0.02751807  0.07973891
   0.02751807  0.70177653  0.07973891
   0.09397591  0.09397591  0.15596189
   0.23935742  0.23935742  0.04403811
Geometry                                
           1
     3.744636    1.977467    0.000000
    -3.744636    1.977467    0.000000
     0.000000    0.000000   40.000000
   Be   H 
     6     2
Direct configuration=    14
   0.97622657  0.97622657  0.12149411
   0.61200756  0.28543022  0.11995483
   0.28543022  0.61200756  0.11995483
   0.35710676  0.35710676  0.07850589
   0.72132578  0.04790312  0.08004517
   0.04790312  0.72132578  0.08004517
   0.16351580  0.16351580  0.14657780
   0.16981753  0.16981753  0.05342220
Geometry                                
           1
     3.552160    1.940588    0.000000
    -3.552160    1.940588    0.000000
     0.000000    0.000000   40.000000
   Be   H 
     6     2
Direct configuration=    15
   0.97831386  0.97831386  0.12334631
   0.62635912  0.30036740  0.12018516
   0.30036740  0.62635912  0.12018516
   0.35501948  0.35501948  0.07665369
   0.70697421  0.03296593  0.07981484
   0.03296593  0.70697421  0.07981484
   0.11251362  0.11251362  0.15363532
   0.22081971  0.22081971  0.04636468
Geometry                                
           1
     3.564352    1.940167    0.000000
    -3.564352    1.940167    0.000000
     0.000000    0.000000   40.000000
   Be   H 
     6     2
Direct configuration=    16
   0.97722453  0.97722453  0.12300938
   0.62489404  0.29909136  0.12021064
   0.29909136  0.62489404  0.12021064
   0.35610880  0.35610880  0.07699062
   0.70843929  0.03424198  0.07978936
   0.03424198  0.70843929  0.07978936
   0.12038634  0.12038634  0.15293385
   0.21294699  0.21294699  0.04706615
Geometry                                
           1
     3.600930    1.938905    0.000000
    -3.600930    1.938905    0.000000
     0.000000    0.000000   40.000000
   Be   H 
     6     2
Direct configuration=    17
   0.97395584  0.97395584  0.12199859
   0.62049889  0.29526137  0.12028705
   0.29526137  0.62049889  0.12028705
   0.35937749  0.35937749  0.07800141
   0.71283444  0.03807197  0.07971295
   0.03807197  0.71283444  0.07971295
   0.14400963  0.14400963  0.15082945
   0.18932370  0.18932370  0.04917055
Geometry                                
           1
     3.674087    1.936379    0.000000
    -3.674087    1.936379    0.000000
     0.000000    0.000000   40.000000
   Be   H 
     6     2
Direct configuration=    18
   0.96741421  0.96741421  0.11997702
   0.61170897  0.28759029  0.12043988
   0.28759029  0.61170897  0.12043988
   0.36591913  0.36591913  0.08002298
   0.72162436  0.04574305  0.07956012
   0.04574305  0.72162436  0.07956012
   0.19128697  0.19128697  0.14662066
   0.14204637  0.14204637  0.05337934
Geometry                                
           1
     3.645573    1.914314    0.000000
    -3.645573    1.914314    0.000000
     0.000000    0.000000   40.000000
   Be   H 
     6     2
Direct configuration=    19
   0.96535368  0.96535368  0.11978019
   0.60919888  0.28570635  0.12074067
   0.28570635  0.60919888  0.12074067
   0.36797965  0.36797965  0.08021981
   0.72413446  0.04762699  0.07925933
   0.04762699  0.72413446  0.07925933
   0.20947141  0.20947141  0.14555356
   0.12386192  0.12386192  0.05444644
Geometry                                
           1
     3.564709    1.851738    0.000000
    -3.564709    1.851738    0.000000
     0.000000    0.000000   40.000000
   Be   H 
     6     2
Direct configuration=    20
   0.95944265  0.95944265  0.11922198
   0.60200145  0.28029859  0.12159372
   0.28029859  0.60200145  0.12159372
   0.37389069  0.37389069  0.08077802
   0.73133188  0.05303474  0.07840628
   0.05303474  0.73133188  0.07840628
   0.26163716  0.26163716  0.14252725
   0.07169618  0.07169618  0.05747275
Geometry                                
           1
     3.514844    1.837723    0.000000
    -3.514844    1.837723    0.000000
     0.000000    0.000000   40.000000
   Be   H 
     6     2
Direct configuration=    21
   0.96056459  0.96056459  0.12034592
   0.60456301  0.28009333  0.12189857
   0.28009333  0.60456301  0.12189857
   0.37276874  0.37276874  0.07965408
   0.72877033  0.05324000  0.07810143
   0.05324000  0.72877033  0.07810143
   0.26505334  0.26505334  0.14271020
   0.06828000  0.06828000  0.05728980
Geometry                                
           1
     3.402846    1.806245    0.000000
    -3.402846    1.806245    0.000000
     0.000000    0.000000   40.000000
   Be   H 
     6     2
Direct configuration=    22
   0.96310375  0.96310375  0.12287035
   0.61038063  0.27960842  0.12258329
   0.27960842  0.61038063  0.12258329
   0.37022958  0.37022958  0.07712965
   0.72295270  0.05372492  0.07741671
   0.05372492  0.72295270  0.07741671
   0.27278473  0.27278473  0.14312112
   0.06054860  0.06054860  0.05687888
Geometry                                
           1
     3.363098    1.830465    0.000000
    -3.363098    1.830465    0.000000
     0.000000    0.000000   40.000000
   Be   H 
     6     2
Direct configuration=    23
   0.95951672  0.95951672  0.12330709
   0.61428222  0.28213568  0.12270042
   0.28213568  0.61428222  0.12270042
   0.37381661  0.37381661  0.07669291
   0.71905111  0.05119765  0.07729958
   0.05119765  0.71905111  0.07729958
   0.27741335  0.27741335  0.14396508
   0.05591998  0.05591998  0.05603492
Geometry                                
           1
     3.316891    1.858621    0.000000
    -3.316891    1.858621    0.000000
     0.000000    0.000000   40.000000
   Be   H 
     6     2
Direct configuration=    24
   0.95540186  0.95540186  0.12381482
   0.61877795  0.28501483  0.12283659
   0.28501483  0.61877795  0.12283659
   0.37793148  0.37793148  0.07618518
   0.71455539  0.04831850  0.07716341
   0.04831850  0.71455539  0.07716341
   0.28272309  0.28272309  0.14494622
   0.05061024  0.05061024  0.05505378
Geometry                                
           1
     3.307004    1.867052    0.000000
    -3.307004    1.867052    0.000000
     0.000000    0.000000   40.000000
   Be   H 
     6     2
Direct configuration=    25
   0.96099031  0.96099031  0.12419990
   0.62045082  0.28868216  0.12295543
   0.28868216  0.62045082  0.12295543
   0.37234302  0.37234302  0.07580010
   0.71288252  0.04465117  0.07704457
   0.04465117  0.71288252  0.07704457
   0.28275056  0.28275056  0.14546216
   0.05058278  0.05058278  0.05453784
Geometry                                
           1
     3.291445    1.880320    0.000000
    -3.291445    1.880320    0.000000
     0.000000    0.000000   40.000000
   Be   H 
     6     2
Direct configuration=    26
   0.96974555  0.96974555  0.12480594
   0.62305987  0.29443942  0.12314245
   0.29443942  0.62305987  0.12314245
   0.36358778  0.36358778  0.07519406
   0.71027347  0.03889391  0.07685755
   0.03889391  0.71027347  0.07685755
   0.28279359  0.28279359  0.14627413
   0.05053974  0.05053974  0.05372587
Geometry                                
           1
     3.289576    1.881914    0.000000
    -3.289576    1.881914    0.000000
     0.000000    0.000000   40.000000
   Be   H 
     6     2
Direct configuration=    27
   0.97078983  0.97078983  0.12487874
   0.62336883  0.29512834  0.12316492
   0.29512834  0.62336883  0.12316492
   0.36254350  0.36254350  0.07512126
   0.70996450  0.03820499  0.07683508
   0.03820499  0.70996450  0.07683508
   0.28279872  0.28279872  0.14637167
   0.05053461  0.05053461  0.05362833
Geometry                                
           1
     3.297654    1.876251    0.000000
    -3.297654    1.876251    0.000000
     0.000000    0.000000   40.000000
   Be   H 
     6     2
Direct configuration=    28
   0.97365189  0.97365189  0.12473993
   0.62768356  0.30005593  0.12312480
   0.30005593  0.62768356  0.12312480
   0.35968145  0.35968145  0.07526007
   0.70564977  0.03327741  0.07687520
   0.03327741  0.70564977  0.07687520
   0.28422130  0.28422130  0.14670097
   0.04911203  0.04911203  0.05329903
Geometry                                
           1
     3.312669    1.865725    0.000000
    -3.312669    1.865725    0.000000
     0.000000    0.000000   40.000000
   Be   H 
     6     2
Direct configuration=    29
   0.97898789  0.97898789  0.12448192
   0.63573103  0.30923978  0.12305024
   0.30923978  0.63573103  0.12305024
   0.35434544  0.35434544  0.07551808
   0.69760230  0.02409356  0.07694976
   0.02409356  0.69760230  0.07694976
   0.28687355  0.28687355  0.14731308
   0.04645979  0.04645979  0.05268692
Geometry                                
           1
     3.301760    1.872263    0.000000
    -3.301760    1.872263    0.000000
     0.000000    0.000000   40.000000
   Be   H 
     6     2
Direct configuration=    30
   0.98542377  0.98542377  0.12406660
   0.64096204  0.31416734  0.12294433
   0.31416734  0.64096204  0.12294433
   0.34790956  0.34790956  0.07593340
   0.69237129  0.01916599  0.07705567
   0.01916599  0.69237129  0.07705567
   0.29067917  0.29067917  0.14724643
   0.04265416  0.04265416  0.05275357
Geometry                                
           1
     3.288962    1.879933    0.000000
    -3.288962    1.879933    0.000000
     0.000000    0.000000   40.000000
   Be   H 
     6     2
Direct configuration=    31
   0.99294776  0.99294776  0.12357937
   0.64707865  0.31992679  0.12282007
   0.31992679  0.64707865  0.12282007
   0.34038558  0.34038558  0.07642063
   0.68625468  0.01340654  0.07717993
   0.01340654  0.68625468  0.07717993
   0.29512821  0.29512821  0.14716823
   0.03820513  0.03820513  0.05283177
Geometry                                
           1
     3.283533    1.885048    0.000000
    -3.283533    1.885048    0.000000
     0.000000    0.000000   40.000000
   Be   H 
     6     2
Direct configuration=    32
   0.99460293  0.99460293  0.12375146
   0.64889470  0.32107614  0.12281961
   0.32107614  0.64889470  0.12281961
   0.33873040  0.33873040  0.07624854
   0.68443863  0.01225720  0.07718039
   0.01225720  0.68443863  0.07718039
   0.29862936  0.29862936  0.14653762
   0.03470398  0.03470398  0.05346238
Geometry                                
           1
     3.279869    1.888500    0.000000
    -3.279869    1.888500    0.000000
     0.000000    0.000000   40.000000
   Be   H 
     6     2
Direct configuration=    33
   0.99571722  0.99571722  0.12386763
   0.65011827  0.32184891  0.12281931
   0.32184891  0.65011827  0.12281931
   0.33761611  0.33761611  0.07613237
   0.68321506  0.01148442  0.07718069
   0.01148442  0.68321506  0.07718069
   0.30098639  0.30098639  0.14611193
   0.03234695  0.03234695  0.05388807
Geometry                                
           1
     3.282335    1.889086    0.000000
    -3.282335    1.889086    0.000000
     0.000000    0.000000   40.000000
   Be   H 
     6     2
Direct configuration=    34
   0.99273863  0.99273863  0.12381408
   0.65193541  0.32291856  0.12269373
   0.32291856  0.65193541  0.12269373
   0.34059471  0.34059471  0.07618592
   0.68139792  0.01041478  0.07730627
   0.01041478  0.68139792  0.07730627
   0.30741493  0.30741493  0.14576421
   0.02591840  0.02591840  0.05423579
Geometry                                
           1
     3.281652    1.888924    0.000000
    -3.281652    1.888924    0.000000
     0.000000    0.000000   40.000000
   Be   H 
     6     2
Direct configuration=    35
   0.99356359  0.99356359  0.12382892
   0.65143217  0.32262226  0.12272852
   0.32262226  0.65143217  0.12272852
   0.33976974  0.33976974  0.07617108
   0.68190116  0.01071108  0.07727148
   0.01071108  0.68190116  0.07727148
   0.30563445  0.30563445  0.14586055
   0.02769888  0.02769888  0.05413945
Geometry                                
           1
     3.285231    1.883486    0.000000
    -3.285231    1.883486    0.000000
     0.000000    0.000000   40.000000
   Be   H 
     6     2
Direct configuration=    36
   0.99460081  0.99460081  0.12386566
   0.65123870  0.32230723  0.12262895
   0.32230723  0.65123870  0.12262895
   0.33873252  0.33873252  0.07613434
   0.68209463  0.01102611  0.07737105
   0.01102611  0.68209463  0.07737105
   0.30807973  0.30807973  0.14582290
   0.02525360  0.02525360  0.05417710
Geometry                                
           1
     3.285279    1.883412    0.000000
    -3.285279    1.883412    0.000000
     0.000000    0.000000   40.000000
   Be   H 
     6     2
Direct configuration=    37
   0.99461501  0.99461501  0.12386616
   0.65123605  0.32230292  0.12262759
   0.32230292  0.65123605  0.12262759
   0.33871832  0.33871832  0.07613384
   0.68209728  0.01103042  0.07737241
   0.01103042  0.68209728  0.07737241
   0.30811319  0.30811319  0.14582239
   0.02522014  0.02522014  0.05417761
Geometry                                
           1
     3.285555    1.886118    0.000000
    -3.285555    1.886118    0.000000
     0.000000    0.000000   40.000000
   Be   H 
     6     2
Direct configuration=    38
   0.99524458  0.99524458  0.12389935
   0.65097658  0.32234533  0.12257929
   0.32234533  0.65097658  0.12257929
   0.33808875  0.33808875  0.07610065
   0.68235675  0.01098801  0.07742071
   0.01098801  0.68235675  0.07742071
   0.30914079  0.30914079  0.14585966
   0.02419254  0.02419254  0.05414034
Geometry                                
           1
     3.285557    1.886138    0.000000
    -3.285557    1.886138    0.000000
     0.000000    0.000000   40.000000
   Be   H 
     6     2
Direct configuration=    39
   0.99524925  0.99524925  0.12389960
   0.65097466  0.32234564  0.12257893
   0.32234564  0.65097466  0.12257893
   0.33808408  0.33808408  0.07610040
   0.68235867  0.01098769  0.07742107
   0.01098769  0.68235867  0.07742107
   0.30914841  0.30914841  0.14585994
   0.02418492  0.02418492  0.05414006
Geometry                                
           1
     3.284473    1.886279    0.000000
    -3.284473    1.886279    0.000000
     0.000000    0.000000   40.000000
   Be   H 
     6     2
Direct configuration=    40
   0.99533933  0.99533933  0.12393270
   0.65129737  0.32271681  0.12256604
   0.32271681  0.65129737  0.12256604
   0.33799400  0.33799400  0.07606730
   0.68203596  0.01061652  0.07743396
   0.01061652  0.68203596  0.07743396
   0.30932158  0.30932158  0.14587758
   0.02401175  0.02401175  0.05412242
Geometry                                
           1
     3.284181    1.886318    0.000000
    -3.284181    1.886318    0.000000
     0.000000    0.000000   40.000000
   Be   H 
     6     2
Direct configuration=    41
   0.99536359  0.99536359  0.12394161
   0.65138427  0.32281676  0.12256257
   0.32281676  0.65138427  0.12256257
   0.33796974  0.33796974  0.07605839
   0.68194907  0.01051657  0.07743743
   0.01051657  0.68194907  0.07743743
   0.30936821  0.30936821  0.14588233
   0.02396512  0.02396512  0.05411767
Geometry                                
           1
     3.283988    1.886260    0.000000
    -3.283988    1.886260    0.000000
     0.000000    0.000000   40.000000
   Be   H 
     6     2
Direct configuration=    42
   0.99553146  0.99553146  0.12393853
   0.65153160  0.32296300  0.12257206
   0.32296300  0.65153160  0.12257206
   0.33780187  0.33780187  0.07606147
   0.68180174  0.01037033  0.07742794
   0.01037033  0.68180174  0.07742794
   0.30952452  0.30952452  0.14588192
   0.02380881  0.02380881  0.05411808
Geometry                                
           1
     3.283736    1.886184    0.000000
    -3.283736    1.886184    0.000000
     0.000000    0.000000   40.000000
   Be   H 
     6     2
Direct configuration=    43
   0.99575027  0.99575027  0.12393452
   0.65172362  0.32315361  0.12258443
   0.32315361  0.65172362  0.12258443
   0.33758307  0.33758307  0.07606548
   0.68160971  0.01017972  0.07741557
   0.01017972  0.68160971  0.07741557
   0.30972825  0.30972825  0.14588138
   0.02360508  0.02360508  0.05411862
Geometry                                
           1
     3.283545    1.886718    0.000000
    -3.283545    1.886718    0.000000
     0.000000    0.000000   40.000000
   Be   H 
     6     2
Direct configuration=    44
   0.99577741  0.99577741  0.12391918
   0.65191358  0.32324709  0.12258692
   0.32324709  0.65191358  0.12258692
   0.33755592  0.33755592  0.07608082
   0.68141975  0.01008624  0.07741308
   0.01008624  0.68141975  0.07741308
   0.30998643  0.30998643  0.14588410
   0.02334690  0.02334690  0.05411590
Geometry                                
           1
     3.283649    1.886428    0.000000
    -3.283649    1.886428    0.000000
     0.000000    0.000000   40.000000
   Be   H 
     6     2
Direct configuration=    45
   0.99576269  0.99576269  0.12392750
   0.65181053  0.32319639  0.12258557
   0.32319639  0.65181053  0.12258557
   0.33757065  0.33757065  0.07607250
   0.68152281  0.01013694  0.07741443
   0.01013694  0.68152281  0.07741443
   0.30984638  0.30984638  0.14588263
   0.02348695  0.02348695  0.05411737
Geometry                                
           1
     3.283656    1.886408    0.000000
    -3.283656    1.886408    0.000000
     0.000000    0.000000   40.000000
   Be   H 
     6     2
Direct configuration=    46
   0.99576166  0.99576166  0.12392808
   0.65180335  0.32319286  0.12258547
   0.32319286  0.65180335  0.12258547
   0.33757167  0.33757167  0.07607192
   0.68152999  0.01014048  0.07741453
   0.01014048  0.68152999  0.07741453
   0.30983662  0.30983662  0.14588252
   0.02349671  0.02349671  0.05411748
Geometry                                
           1
     3.283653    1.886417    0.000000
    -3.283653    1.886417    0.000000
     0.000000    0.000000   40.000000
   Be   H 
     6     2
Direct configuration=    47
   0.99576214  0.99576214  0.12392781
   0.65180672  0.32319452  0.12258552
   0.32319452  0.65180672  0.12258552
   0.33757119  0.33757119  0.07607219
   0.68152661  0.01013882  0.07741448
   0.01013882  0.68152661  0.07741448
   0.30984120  0.30984120  0.14588257
   0.02349213  0.02349213  0.05411743
Geometry                                
           1
     3.283650    1.886425    0.000000
    -3.283650    1.886425    0.000000
     0.000000    0.000000   40.000000
   Be   H 
     6     2
Direct configuration=    48
   0.99576253  0.99576253  0.12392759
   0.65180945  0.32319586  0.12258555
   0.32319586  0.65180945  0.12258555
   0.33757080  0.33757080  0.07607241
   0.68152388  0.01013747  0.07741445
   0.01013747  0.68152388  0.07741445
   0.30984492  0.30984492  0.14588261
   0.02348842  0.02348842  0.05411739
Geometry                                
           1
     3.283604    1.886448    0.000000
    -3.283604    1.886448    0.000000
     0.000000    0.000000   40.000000
   Be   H 
     6     2
Direct configuration=    49
   0.99580226  0.99580226  0.12392851
   0.65183184  0.32318862  0.12258209
   0.32318862  0.65183184  0.12258209
   0.33753107  0.33753107  0.07607149
   0.68150149  0.01014472  0.07741791
   0.01014472  0.68150149  0.07741791
   0.30989085  0.30989085  0.14587908
   0.02344249  0.02344249  0.05412092
Geometry                                
           1
     3.283590    1.886455    0.000000
    -3.283590    1.886455    0.000000
     0.000000    0.000000   40.000000
   Be   H 
     6     2
Direct configuration=    50
   0.99581497  0.99581497  0.12392881
   0.65183900  0.32318630  0.12258098
   0.32318630  0.65183900  0.12258098
   0.33751836  0.33751836  0.07607119
   0.68149433  0.01014703  0.07741902
   0.01014703  0.68149433  0.07741902
   0.30990554  0.30990554  0.14587795
   0.02342779  0.02342779  0.05412205
Geometry                                
           1
     3.283614    1.886479    0.000000
    -3.283614    1.886479    0.000000
     0.000000    0.000000   40.000000
   Be   H 
     6     2
Direct configuration=    51
   0.99582099  0.99582099  0.12392930
   0.65184549  0.32320861  0.12257811
   0.32320861  0.65184549  0.12257811
   0.33751235  0.33751235  0.07607070
   0.68148784  0.01012472  0.07742189
   0.01012472  0.68148784  0.07742189
   0.30995727  0.30995727  0.14587421
   0.02337606  0.02337606  0.05412579
