alpha-beryllene 5 by 5
1.0
       10.6444520950         0.0000000000         0.0000000000
        5.3222260551         9.2188989002         0.0000000000
        0.0000000000         0.0000000000        40.0000000000
   Be
   25
Direct
     0.000000000         0.000000000         0.100000000
     0.000000000         0.200000000         0.100000000
     0.000000000         0.400000000         0.100000000
     0.000000000         0.600000000         0.100000000
     0.000000000         0.800000000         0.100000000
     0.200000000         0.000000000         0.100000000
     0.200000000         0.200000000         0.100000000
     0.200000000         0.400000000         0.100000000
     0.200000000         0.600000000         0.100000000
     0.200000000         0.800000000         0.100000000
     0.400000000         0.000000000         0.100000000
     0.400000000         0.200000000         0.100000000
     0.400000000         0.400000000         0.100000000
     0.400000000         0.600000000         0.100000000
     0.400000000         0.800000000         0.100000000
     0.600000000         0.000000000         0.100000000
     0.600000000         0.200000000         0.100000000
     0.600000000         0.400000000         0.100000000
     0.600000000         0.600000000         0.100000000
     0.600000000         0.800000000         0.100000000
     0.800000000         0.000000000         0.100000000
     0.800000000         0.200000000         0.100000000
     0.800000000         0.400000000         0.100000000
     0.800000000         0.600000000         0.100000000
     0.800000000         0.800000000         0.100000000
