       N       E                     dE             d eps       ncg     rms          rms(c)
DAV:   1    -0.759813927184E+01   -0.75981E+01   -0.19654E-02396648   0.844E-02    0.121E+00
DAV:   2    -0.755235352227E+01    0.45786E-01   -0.56878E-03439698   0.470E-02    0.743E-01
DAV:   3    -0.753397930751E+01    0.18374E-01   -0.53153E-03391944   0.459E-02    0.280E-02
DAV:   4    -0.753395754346E+01    0.21764E-04   -0.94175E-06434868   0.169E-03    0.907E-03
DAV:   5    -0.753395626624E+01    0.12772E-05   -0.24724E-06398328   0.744E-04    0.654E-04
DAV:   6    -0.753395612416E+01    0.14208E-06   -0.44620E-09340326   0.478E-05
   1 F= -.75339561E+01 E0= -.75339476E+01  d E =-.169943E-04
 imaginary and real dielectric function
