 running   42 mpi-ranks, on    1 nodes
 distrk:  each k-point on   42 cores,    1 groups
 distr:  one band on    1 cores,   42 groups
 vasp.6.5.0 16Dec24 (build Jan 08 2025 16:17:04) complex                        
  
 POSCAR found type information on POSCAR Be
 POSCAR found :  1 types and       3 ions
 Reading from existing POTCAR
 scaLAPACK will be used
 -----------------------------------------------------------------------------
|                                                                             |
|           W    W    AA    RRRRR   N    N  II  N    N   GGGG   !!!           |
|           W    W   A  A   R    R  NN   N  II  NN   N  G    G  !!!           |
|           W    W  A    A  R    R  N N  N  II  N N  N  G       !!!           |
|           W WW W  AAAAAA  RRRRR   N  N N  II  N  N N  G  GGG   !            |
|           WW  WW  A    A  R   R   N   NN  II  N   NN  G    G                |
|           W    W  A    A  R    R  N    N  II  N    N   GGGG   !!!           |
|                                                                             |
|     For optimal performance we recommend to set                             |
|       NCORE = 2 up to number-of-cores-per-socket                            |
|     NCORE specifies how many cores store one orbital (NPAR=cpu/NCORE).      |
|     This setting can greatly improve the performance of VASP for DFT.       |
|     The default, NCORE=1 might be grossly inefficient on modern             |
|     multi-core architectures or massively parallel machines. Do your        |
|     own testing! More info at https://www.vasp.at/wiki/index.php/NCORE      |
|     Unfortunately you need to use the default for GW and RPA                |
|     calculations (for HF NCORE is supported but not extensively tested      |
|     yet).                                                                   |
|                                                                             |
 -----------------------------------------------------------------------------

 Reading from existing POTCAR
 LDA part: xc-table for (Slater+PW92), standard interpolation
 POSCAR, INCAR and KPOINTS ok, starting setup
 FFT: planning ... GRIDC
 FFT: planning ... GRID_SOFT
 FFT: planning ... GRID
 WAVECAR not read
 entering main loop
       N       E                     dE             d eps       ncg     rms          ort
DAV:   1     0.217496880227E+01    0.21750E+01   -0.27842E+03  1890   0.130E+02
DAV:   2    -0.109430397868E+02   -0.13118E+02   -0.12712E+02  1890   0.166E+01
DAV:   3    -0.109894179375E+02   -0.46378E-01   -0.46375E-01  1890   0.109E+00
DAV:   4    -0.109895251973E+02   -0.10726E-03   -0.10726E-03  1890   0.566E-02
DAV:   5    -0.109895252035E+02   -0.62437E-08   -0.60698E-08  1890   0.384E-04
 gam= 0.000 g(H,U,f)=  0.428E+00 0.634E+01 0.508E-03 ort(H,U,f) = 0.000E+00 0.000E+00 0.000E+00
SDA:   6    -0.671448476520E+01    0.42750E+01   -0.60698E-08  1890   0.676E+01 0.000E+00
 gam= 0.000 trial= 0.400  step= 1.006 mean= 0.400
 gam= 0.000 g(H,U,f)=  0.693E+00 0.119E+01 0.687E-01 ort(H,U,f) =-0.426E+00-0.320E+01-0.157E+00
CGA:   7    -0.902481252531E+01   -0.23103E+01   -0.34041E+01  1890   0.195E+01-0.378E+01
 gam= 0.000 trial= 0.430  step= 0.567 mean= 0.430
 gam= 0.031 g(H,U,f)=  0.518E-01 0.702E-02 0.840E-03 ort(H,U,f) =-0.693E-01 0.705E-01 0.694E-02
CGA:   8    -0.957562902499E+01   -0.55082E+00   -0.55202E+00  1890   0.596E-01 0.815E-02
 gam= 0.031 trial= 0.437  step= 0.580 mean= 0.437
 gam= 0.107 g(H,U,f)=  0.414E-02 0.203E-02 0.221E-03 ort(H,U,f) =-0.125E-02 0.887E-03 0.662E-04
CGA:   9    -0.959296200664E+01   -0.17333E-01   -0.17370E-01  1890   0.638E-02-0.297E-03
 gam= 0.107 trial= 0.444  step= 0.804 mean= 0.444
 gam= 0.281 g(H,U,f)=  0.103E-02 0.704E-03 0.632E-04 ort(H,U,f) =-0.130E-02 0.127E-02 0.118E-03
CGA:  10    -0.959552701288E+01   -0.25650E-02   -0.25522E-02  1890   0.180E-02 0.856E-04
 gam= 0.281 trial= 0.462  step= 0.978 mean= 0.462
 gam= 0.237 g(H,U,f)=  0.323E-03 0.949E-04 0.734E-05 ort(H,U,f) =-0.280E-03 0.280E-03 0.192E-04
CGA:  11    -0.959642374440E+01   -0.89673E-03   -0.88975E-03  1890   0.426E-03 0.192E-04
 gam= 0.237 trial= 0.488  step= 0.848 mean= 0.488
 gam= 0.171 g(H,U,f)=  0.585E-04 0.134E-04 0.757E-06 ort(H,U,f) =-0.438E-04 0.422E-04 0.137E-05
CGA:  12    -0.959660602931E+01   -0.18228E-03   -0.18227E-03  1890   0.727E-04-0.259E-06
 gam= 0.171 trial= 0.506  step= 0.928 mean= 0.506
 gam= 0.193 g(H,U,f)=  0.111E-04 0.268E-05 0.282E-06 ort(H,U,f) =-0.510E-05 0.520E-05 0.886E-07
CGA:  13    -0.959663974604E+01   -0.33717E-04   -0.33689E-04  1890   0.141E-04 0.190E-06
 gam= 0.193 trial= 0.527  step= 0.887 mean= 0.527
 gam= 0.149 g(H,U,f)=  0.150E-05 0.532E-06 0.602E-07 ort(H,U,f) =-0.147E-05 0.139E-05 0.130E-06
CGA:  14    -0.959664600390E+01   -0.62579E-05   -0.62485E-05  1890   0.209E-05 0.496E-07
 gam= 0.149 trial= 0.545  step= 0.954 mean= 0.545
 gam= 0.204 g(H,U,f)=  0.338E-06 0.786E-07 0.874E-08 ort(H,U,f) =-0.309E-06 0.264E-06 0.297E-07
CGA:  15    -0.959664699981E+01   -0.99591E-06   -0.99926E-06  1890   0.426E-06-0.152E-07
 gam= 0.204 trial= 0.566  step= 1.028 mean= 0.566
 final diagonalization
   1 F= -.95966470E+01 E0= -.95958998E+01  d E =-.149448E-02
