 running   42 mpi-ranks, on    1 nodes
 distrk:  each k-point on   42 cores,    1 groups
 distr:  one band on    1 cores,   42 groups
 vasp.6.5.0 16Dec24 (build Jan 08 2025 16:17:04) complex                        
  
 POSCAR found type information on POSCAR Be
 POSCAR found :  1 types and       1 ions
 Reading from existing POTCAR
 scaLAPACK will be used
 -----------------------------------------------------------------------------
|                                                                             |
|           W    W    AA    RRRRR   N    N  II  N    N   GGGG   !!!           |
|           W    W   A  A   R    R  NN   N  II  NN   N  G    G  !!!           |
|           W    W  A    A  R    R  N N  N  II  N N  N  G       !!!           |
|           W WW W  AAAAAA  RRRRR   N  N N  II  N  N N  G  GGG   !            |
|           WW  WW  A    A  R   R   N   NN  II  N   NN  G    G                |
|           W    W  A    A  R    R  N    N  II  N    N   GGGG   !!!           |
|                                                                             |
|     For optimal performance we recommend to set                             |
|       NCORE = 2 up to number-of-cores-per-socket                            |
|     NCORE specifies how many cores store one orbital (NPAR=cpu/NCORE).      |
|     This setting can greatly improve the performance of VASP for DFT.       |
|     The default, NCORE=1 might be grossly inefficient on modern             |
|     multi-core architectures or massively parallel machines. Do your        |
|     own testing! More info at https://www.vasp.at/wiki/index.php/NCORE      |
|     Unfortunately you need to use the default for GW and RPA                |
|     calculations (for HF NCORE is supported but not extensively tested      |
|     yet).                                                                   |
|                                                                             |
 -----------------------------------------------------------------------------

 Reading from existing POTCAR
 LDA part: xc-table for (Slater+PW92), standard interpolation
 POSCAR, INCAR and KPOINTS ok, starting setup
 FFT: planning ... GRIDC
 FFT: planning ... GRID_SOFT
 FFT: planning ... GRID
 WAVECAR not read
 entering main loop
       N       E                     dE             d eps       ncg     rms          rms(c)
DAV:   1     0.888446957030E-01    0.88845E-01   -0.75482E+02 12852   0.337E+01
DAV:   2    -0.189352884760E+01   -0.19824E+01   -0.18497E+01 18270   0.334E+00
DAV:   3    -0.189806025495E+01   -0.45314E-02   -0.45191E-02 14196   0.174E-01
DAV:   4    -0.189806735915E+01   -0.71042E-05   -0.71043E-05 24192   0.685E-03
DAV:   5    -0.189806735959E+01   -0.43906E-09   -0.40960E-10 14070   0.201E-05    0.111E+00
DAV:   6    -0.186887095685E+01    0.29196E-01   -0.13318E-02 18858   0.480E-02    0.662E-01
DAV:   7    -0.185246826503E+01    0.16403E-01   -0.31068E-02 19488   0.789E-02    0.774E-02
DAV:   8    -0.185224325429E+01    0.22501E-03   -0.98968E-04 20454   0.194E-02    0.396E-02
DAV:   9    -0.185220552462E+01    0.37730E-04   -0.45150E-05 20034   0.476E-03    0.134E-02
DAV:  10    -0.185222596669E+01   -0.20442E-04   -0.18000E-04 18984   0.596E-03    0.561E-03
DAV:  11    -0.185234377965E+01   -0.11781E-03   -0.20318E-05 17136   0.267E-03    0.417E-03
DAV:  12    -0.185247966850E+01   -0.13589E-03   -0.19252E-05 17682   0.233E-03    0.160E-03
DAV:  13    -0.185253600469E+01   -0.56336E-04   -0.42679E-06 17346   0.917E-04    0.599E-04
DAV:  14    -0.185255046647E+01   -0.14462E-04   -0.84851E-07 15960   0.217E-04    0.455E-04
DAV:  15    -0.185256096919E+01   -0.10503E-04   -0.65414E-07 17178   0.250E-04    0.164E-04
DAV:  16    -0.185256407091E+01   -0.31017E-05   -0.13035E-07 17052   0.105E-04    0.944E-05
DAV:  17    -0.185256530316E+01   -0.12322E-05   -0.10039E-07 17094   0.673E-05    0.443E-05
DAV:  18    -0.185256593567E+01   -0.63251E-06   -0.18078E-08 16926   0.270E-05
   1 F= -.18525659E+01 E0= -.18522978E+01  d E =-.536238E-03
