 running   42 mpi-ranks, on    1 nodes
 distrk:  each k-point on   42 cores,    1 groups
 distr:  one band on    1 cores,   42 groups
 vasp.6.5.0 16Dec24 (build Jan 08 2025 16:17:04) complex                        
  
 POSCAR found type information on POSCAR Be
 POSCAR found :  1 types and       3 ions
 Reading from existing POTCAR
 scaLAPACK will be used
 -----------------------------------------------------------------------------
|                                                                             |
|           W    W    AA    RRRRR   N    N  II  N    N   GGGG   !!!           |
|           W    W   A  A   R    R  NN   N  II  NN   N  G    G  !!!           |
|           W    W  A    A  R    R  N N  N  II  N N  N  G       !!!           |
|           W WW W  AAAAAA  RRRRR   N  N N  II  N  N N  G  GGG   !            |
|           WW  WW  A    A  R   R   N   NN  II  N   NN  G    G                |
|           W    W  A    A  R    R  N    N  II  N    N   GGGG   !!!           |
|                                                                             |
|     For optimal performance we recommend to set                             |
|       NCORE = 2 up to number-of-cores-per-socket                            |
|     NCORE specifies how many cores store one orbital (NPAR=cpu/NCORE).      |
|     This setting can greatly improve the performance of VASP for DFT.       |
|     The default, NCORE=1 might be grossly inefficient on modern             |
|     multi-core architectures or massively parallel machines. Do your        |
|     own testing! More info at https://www.vasp.at/wiki/index.php/NCORE      |
|     Unfortunately you need to use the default for GW and RPA                |
|     calculations (for HF NCORE is supported but not extensively tested      |
|     yet).                                                                   |
|                                                                             |
 -----------------------------------------------------------------------------

 Reading from existing POTCAR
 LDA part: xc-table for (Slater+PW92), standard interpolation
 POSCAR, INCAR and KPOINTS ok, starting setup
 FFT: planning ... GRIDC
 FFT: planning ... GRID_SOFT
 FFT: planning ... GRID
 WAVECAR not read
 entering main loop
       N       E                     dE             d eps       ncg     rms          ort
DAV:   1     0.193768060387E+01    0.19377E+01   -0.27561E+03 12096   0.130E+02
DAV:   2    -0.109450494220E+02   -0.12883E+02   -0.12391E+02 12096   0.164E+01
DAV:   3    -0.109916542480E+02   -0.46605E-01   -0.46605E-01 12096   0.110E+00
DAV:   4    -0.109917869932E+02   -0.13275E-03   -0.13275E-03 12096   0.639E-02
DAV:   5    -0.109917870048E+02   -0.11600E-07   -0.10697E-07 12096   0.469E-04
 gam= 0.000 g(H,U,f)=  0.409E+00 0.621E+01 0.124E-02 ort(H,U,f) = 0.000E+00 0.000E+00 0.000E+00
SDA:   6    -0.675933819535E+01    0.42324E+01   -0.10697E-07 12096   0.662E+01 0.000E+00
 gam= 0.000 trial= 0.400  step= 0.970 mean= 0.400
 gam= 0.206 g(H,U,f)=  0.559E+00 0.768E+00 0.364E-01 ort(H,U,f) =-0.377E+00-0.254E+01-0.124E+00
CGA:   7    -0.919355740220E+01   -0.24342E+01   -0.32075E+01 12096   0.136E+01-0.304E+01
 gam= 0.206 trial= 0.428  step= 0.850 mean= 0.428
 gam= 0.209 g(H,U,f)=  0.125E+00 0.152E+00 0.641E-02 ort(H,U,f) =-0.134E+00 0.108E+00 0.438E-02
CGA:   8    -0.950349052125E+01   -0.30993E+00   -0.31325E+00 12096   0.284E+00-0.221E-01
 gam= 0.209 trial= 0.450  step= 0.591 mean= 0.450
 gam= 0.107 g(H,U,f)=  0.296E-01 0.807E-03 0.510E-04 ort(H,U,f) = 0.136E-02-0.166E-02-0.127E-03
CGA:   9    -0.958592534786E+01   -0.82435E-01   -0.82581E-01 12096   0.305E-01-0.431E-03
 gam= 0.107 trial= 0.457  step= 0.668 mean= 0.457
 gam= 0.122 g(H,U,f)=  0.261E-02 0.103E-02 0.675E-04 ort(H,U,f) = 0.460E-03-0.306E-03-0.593E-06
CGA:  10    -0.959609967416E+01   -0.10174E-01   -0.10162E-01 12096   0.371E-02 0.153E-03
 gam= 0.122 trial= 0.467  step= 0.733 mean= 0.467
 gam= 0.177 g(H,U,f)=  0.466E-03 0.175E-03 0.171E-04 ort(H,U,f) =-0.281E-03 0.279E-03 0.263E-04
CGA:  11    -0.959747111258E+01   -0.13714E-02   -0.13683E-02 12096   0.658E-03 0.248E-04
 gam= 0.177 trial= 0.480  step= 0.874 mean= 0.480
 gam= 0.253 g(H,U,f)=  0.108E-03 0.545E-04 0.390E-05 ort(H,U,f) =-0.112E-03 0.107E-03 0.942E-05
CGA:  12    -0.959776151588E+01   -0.29040E-03   -0.28936E-03 12096   0.166E-03 0.420E-05
 gam= 0.253 trial= 0.500  step= 0.931 mean= 0.500
 gam= 0.253 g(H,U,f)=  0.352E-04 0.646E-05 0.502E-06 ort(H,U,f) =-0.211E-04 0.202E-04 0.138E-05
CGA:  13    -0.959783962928E+01   -0.78113E-04   -0.77979E-04 12096   0.422E-04 0.439E-06
 gam= 0.253 trial= 0.522  step= 0.852 mean= 0.522
 gam= 0.166 g(H,U,f)=  0.595E-05 0.944E-06 0.943E-07 ort(H,U,f) =-0.263E-05 0.276E-05 0.161E-06
CGA:  14    -0.959785768398E+01   -0.18055E-04   -0.18008E-04 12096   0.699E-05 0.293E-06
 gam= 0.166 trial= 0.538  step= 0.805 mean= 0.538
 gam= 0.167 g(H,U,f)=  0.906E-06 0.240E-06 0.186E-07 ort(H,U,f) =-0.261E-06 0.341E-06 0.290E-07
CGA:  15    -0.959786052858E+01   -0.28446E-05   -0.28299E-05 12096   0.116E-05 0.109E-06
 gam= 0.167 trial= 0.551  step= 0.876 mean= 0.551
 gam= 0.197 g(H,U,f)=  0.170E-06 0.542E-07 0.532E-08 ort(H,U,f) =-0.127E-06 0.131E-06 0.118E-07
CGA:  16    -0.959786104960E+01   -0.52103E-06   -0.51823E-06 12096   0.229E-06 0.162E-07
 gam= 0.197 trial= 0.568  step= 0.939 mean= 0.568
 final diagonalization
   1 F= -.95978610E+01 E0= -.95972402E+01  d E =-.124170E-02
