       N       E                     dE             d eps       ncg     rms          rms(c)
DAV:   1    -0.476969773479E+01   -0.47697E+01   -0.15982E+03   616   0.225E+02
DAV:   2    -0.158452133701E+02   -0.11076E+02   -0.10471E+02   840   0.303E+01
DAV:   3    -0.160541453583E+02   -0.20893E+00   -0.20818E+00   868   0.543E+00
DAV:   4    -0.160547336584E+02   -0.58830E-03   -0.58812E-03  1008   0.270E-01
DAV:   5    -0.160547338944E+02   -0.23593E-06   -0.23581E-06   868   0.591E-03
DAV:   6    -0.160547338956E+02   -0.12472E-08   -0.13971E-08   980   0.369E-04
   1 F= -.16054734E+02 E0= -.16054477E+02  d E =-.512848E-03  mag=     0.0000    -0.0000     0.0000
