  75  75   0   0
  0.5815946E+02  0.1161106E-08  0.1054012E-08  0.4000000E-08  0.5000000E-15
  1.000000000000000E-004
  CAR 
 Phonopy                                 
      2.61461715    -15.28213250  301     -3.62459499      1.00000000
    -15.282  0.0000E+00  0.0000E+00
    -15.222  0.0000E+00  0.0000E+00
    -15.163  0.0000E+00  0.0000E+00
    -15.103  0.0000E+00  0.0000E+00
    -15.044  0.0000E+00  0.0000E+00
    -14.984  0.0000E+00  0.0000E+00
    -14.924  0.0000E+00  0.0000E+00
    -14.865  0.8810E-16  0.5255E-17
    -14.805  0.6777E-13  0.4048E-14
    -14.745  0.3050E-10  0.1824E-11
    -14.686  0.6918E-08  0.4145E-09
    -14.626  0.7959E-06  0.4789E-07
    -14.566  0.4681E-04  0.2840E-05
    -14.507  0.1423E-02  0.8772E-04
    -14.447  0.2269E-01  0.1441E-02
    -14.387  0.1938E+00  0.1300E-01
    -14.328  0.9168E+00  0.6770E-01
    -14.268  0.2529E+01  0.2186E+00
    -14.208  0.4435E+01  0.4831E+00
    -14.149  0.5632E+01  0.8191E+00
    -14.089  0.6032E+01  0.1179E+01
    -14.029  0.6106E+01  0.1543E+01
    -13.970  0.6118E+01  0.1908E+01
    -13.910  0.6124E+01  0.2274E+01
    -13.850  0.6130E+01  0.2639E+01
    -13.791  0.6136E+01  0.3005E+01
    -13.731  0.6142E+01  0.3372E+01
    -13.671  0.6149E+01  0.3739E+01
    -13.612  0.6153E+01  0.4106E+01
    -13.552  0.6164E+01  0.4473E+01
    -13.492  0.6164E+01  0.4841E+01
    -13.433  0.6179E+01  0.5210E+01
    -13.373  0.6178E+01  0.5578E+01
    -13.313  0.6184E+01  0.5947E+01
    -13.254  0.6210E+01  0.6318E+01
    -13.194  0.6177E+01  0.6686E+01
    -13.135  0.6236E+01  0.7058E+01
    -13.075  0.6211E+01  0.7429E+01
    -13.015  0.6196E+01  0.7798E+01
    -12.956  0.6292E+01  0.8174E+01
    -12.896  0.6195E+01  0.8543E+01
    -12.836  0.6234E+01  0.8915E+01
    -12.777  0.6343E+01  0.9293E+01
    -12.717  0.6185E+01  0.9662E+01
    -12.657  0.6263E+01  0.1004E+02
    -12.598  0.6405E+01  0.1042E+02
    -12.538  0.6196E+01  0.1079E+02
    -12.478  0.6253E+01  0.1116E+02
    -12.419  0.6480E+01  0.1155E+02
    -12.359  0.6260E+01  0.1192E+02
    -12.299  0.6196E+01  0.1229E+02
    -12.240  0.6517E+01  0.1268E+02
    -12.180  0.6417E+01  0.1306E+02
    -12.120  0.6149E+01  0.1343E+02
    -12.061  0.6434E+01  0.1381E+02
    -12.001  0.6615E+01  0.1421E+02
    -11.941  0.6263E+01  0.1458E+02
    -11.882  0.6235E+01  0.1495E+02
    -11.822  0.6657E+01  0.1535E+02
    -11.762  0.6582E+01  0.1574E+02
    -11.703  0.6195E+01  0.1611E+02
    -11.643  0.6394E+01  0.1649E+02
    -11.583  0.6800E+01  0.1690E+02
    -11.524  0.6568E+01  0.1729E+02
    -11.464  0.6340E+01  0.1767E+02
    -11.405  0.7248E+01  0.1810E+02
    -11.345  0.9018E+01  0.1864E+02
    -11.285  0.1051E+02  0.1927E+02
    -11.226  0.1138E+02  0.1995E+02
    -11.166  0.1221E+02  0.2067E+02
    -11.106  0.1271E+02  0.2143E+02
    -11.047  0.1241E+02  0.2217E+02
    -10.987  0.1201E+02  0.2289E+02
    -10.927  0.1233E+02  0.2362E+02
    -10.868  0.1287E+02  0.2439E+02
    -10.808  0.1265E+02  0.2515E+02
    -10.748  0.1214E+02  0.2587E+02
    -10.689  0.1232E+02  0.2661E+02
    -10.629  0.1296E+02  0.2738E+02
    -10.569  0.1299E+02  0.2815E+02
    -10.510  0.1240E+02  0.2889E+02
    -10.450  0.1229E+02  0.2963E+02
    -10.390  0.1295E+02  0.3040E+02
    -10.331  0.1334E+02  0.3119E+02
    -10.271  0.1284E+02  0.3196E+02
    -10.211  0.1240E+02  0.3270E+02
    -10.152  0.1282E+02  0.3346E+02
    -10.092  0.1352E+02  0.3427E+02
    -10.032  0.1350E+02  0.3508E+02
     -9.973  0.1278E+02  0.3584E+02
     -9.913  0.1263E+02  0.3659E+02
     -9.853  0.1358E+02  0.3740E+02
     -9.794  0.1408E+02  0.3824E+02
     -9.734  0.1339E+02  0.3904E+02
     -9.674  0.1297E+02  0.3982E+02
     -9.615  0.1345E+02  0.4062E+02
     -9.555  0.1419E+02  0.4146E+02
     -9.496  0.1445E+02  0.4233E+02
     -9.436  0.1386E+02  0.4315E+02
     -9.376  0.1333E+02  0.4395E+02
     -9.317  0.1425E+02  0.4480E+02
     -9.257  0.1546E+02  0.4572E+02
     -9.197  0.1502E+02  0.4662E+02
     -9.138  0.1413E+02  0.4746E+02
     -9.078  0.1470E+02  0.4834E+02
     -9.018  0.1620E+02  0.4930E+02
     -8.959  0.1683E+02  0.5031E+02
     -8.899  0.1651E+02  0.5129E+02
     -8.839  0.1698E+02  0.5230E+02
     -8.780  0.1885E+02  0.5343E+02
     -8.720  0.1973E+02  0.5461E+02
     -8.660  0.1801E+02  0.5568E+02
     -8.601  0.1603E+02  0.5664E+02
     -8.541  0.1577E+02  0.5758E+02
     -8.481  0.1595E+02  0.5853E+02
     -8.422  0.1518E+02  0.5943E+02
     -8.362  0.1425E+02  0.6028E+02
     -8.302  0.1415E+02  0.6113E+02
     -8.243  0.1445E+02  0.6199E+02
     -8.183  0.1433E+02  0.6285E+02
     -8.123  0.1379E+02  0.6367E+02
     -8.064  0.1363E+02  0.6448E+02
     -8.004  0.1403E+02  0.6532E+02
     -7.944  0.1416E+02  0.6616E+02
     -7.885  0.1343E+02  0.6696E+02
     -7.825  0.1257E+02  0.6771E+02
     -7.765  0.1260E+02  0.6847E+02
     -7.706  0.1286E+02  0.6923E+02
     -7.646  0.1234E+02  0.6997E+02
     -7.587  0.1171E+02  0.7067E+02
     -7.527  0.1184E+02  0.7137E+02
     -7.467  0.1227E+02  0.7211E+02
     -7.408  0.1239E+02  0.7284E+02
     -7.348  0.1250E+02  0.7359E+02
     -7.288  0.1283E+02  0.7436E+02
     -7.229  0.1293E+02  0.7513E+02
     -7.169  0.1292E+02  0.7590E+02
     -7.109  0.1310E+02  0.7668E+02
     -7.050  0.1265E+02  0.7743E+02
     -6.990  0.1127E+02  0.7811E+02
     -6.930  0.9908E+01  0.7870E+02
     -6.871  0.9311E+01  0.7925E+02
     -6.811  0.9134E+01  0.7980E+02
     -6.751  0.8729E+01  0.8032E+02
     -6.692  0.8524E+01  0.8083E+02
     -6.632  0.9398E+01  0.8139E+02
     -6.572  0.1126E+02  0.8206E+02
     -6.513  0.1280E+02  0.8282E+02
     -6.453  0.1307E+02  0.8360E+02
     -6.393  0.1276E+02  0.8436E+02
     -6.334  0.1277E+02  0.8512E+02
     -6.274  0.1352E+02  0.8593E+02
     -6.214  0.1479E+02  0.8681E+02
     -6.155  0.1545E+02  0.8774E+02
     -6.095  0.1525E+02  0.8865E+02
     -6.035  0.1496E+02  0.8954E+02
     -5.976  0.1517E+02  0.9044E+02
     -5.916  0.1551E+02  0.9137E+02
     -5.857  0.1549E+02  0.9229E+02
     -5.797  0.1521E+02  0.9320E+02
     -5.737  0.1493E+02  0.9409E+02
     -5.678  0.1525E+02  0.9500E+02
     -5.618  0.1606E+02  0.9596E+02
     -5.558  0.1626E+02  0.9693E+02
     -5.499  0.1590E+02  0.9788E+02
     -5.439  0.1609E+02  0.9884E+02
     -5.379  0.1705E+02  0.9985E+02
     -5.320  0.1855E+02  0.1010E+03
     -5.260  0.1953E+02  0.1021E+03
     -5.200  0.1890E+02  0.1033E+03
     -5.141  0.1797E+02  0.1043E+03
     -5.081  0.1776E+02  0.1054E+03
     -5.021  0.1698E+02  0.1064E+03
     -4.962  0.1559E+02  0.1073E+03
     -4.902  0.1509E+02  0.1082E+03
     -4.842  0.1527E+02  0.1091E+03
     -4.783  0.1530E+02  0.1101E+03
     -4.723  0.1468E+02  0.1109E+03
     -4.663  0.1391E+02  0.1118E+03
     -4.604  0.1438E+02  0.1126E+03
     -4.544  0.1516E+02  0.1135E+03
     -4.484  0.1469E+02  0.1144E+03
     -4.425  0.1426E+02  0.1152E+03
     -4.365  0.1496E+02  0.1161E+03
     -4.305  0.1597E+02  0.1171E+03
     -4.246  0.1599E+02  0.1180E+03
     -4.186  0.1457E+02  0.1189E+03
     -4.126  0.1288E+02  0.1197E+03
     -4.067  0.1217E+02  0.1204E+03
     -4.007  0.1195E+02  0.1211E+03
     -3.948  0.1146E+02  0.1218E+03
     -3.888  0.1089E+02  0.1225E+03
     -3.828  0.1040E+02  0.1231E+03
     -3.769  0.9855E+01  0.1237E+03
     -3.709  0.9334E+01  0.1242E+03
     -3.649  0.9235E+01  0.1248E+03
     -3.590  0.9211E+01  0.1253E+03
     -3.530  0.8434E+01  0.1258E+03
     -3.470  0.7327E+01  0.1263E+03
     -3.411  0.6799E+01  0.1267E+03
     -3.351  0.6978E+01  0.1271E+03
     -3.291  0.7174E+01  0.1275E+03
     -3.232  0.6821E+01  0.1279E+03
     -3.172  0.6354E+01  0.1283E+03
     -3.112  0.6328E+01  0.1287E+03
     -3.053  0.6668E+01  0.1291E+03
     -2.993  0.6713E+01  0.1295E+03
     -2.933  0.6328E+01  0.1298E+03
     -2.874  0.6089E+01  0.1302E+03
     -2.814  0.6128E+01  0.1306E+03
     -2.754  0.6342E+01  0.1310E+03
     -2.695  0.6529E+01  0.1313E+03
     -2.635  0.6267E+01  0.1317E+03
     -2.575  0.5903E+01  0.1321E+03
     -2.516  0.5996E+01  0.1324E+03
     -2.456  0.6280E+01  0.1328E+03
     -2.396  0.6407E+01  0.1332E+03
     -2.337  0.6346E+01  0.1336E+03
     -2.277  0.6133E+01  0.1339E+03
     -2.218  0.5906E+01  0.1343E+03
     -2.158  0.5962E+01  0.1346E+03
     -2.098  0.6440E+01  0.1350E+03
     -2.039  0.6644E+01  0.1354E+03
     -1.979  0.6232E+01  0.1358E+03
     -1.919  0.5954E+01  0.1361E+03
     -1.860  0.6086E+01  0.1365E+03
     -1.800  0.6579E+01  0.1369E+03
     -1.740  0.7082E+01  0.1373E+03
     -1.681  0.7149E+01  0.1378E+03
     -1.621  0.6979E+01  0.1382E+03
     -1.561  0.7531E+01  0.1386E+03
     -1.502  0.1087E+02  0.1393E+03
     -1.442  0.1831E+02  0.1404E+03
     -1.382  0.2675E+02  0.1420E+03
     -1.323  0.3017E+02  0.1438E+03
     -1.263  0.2717E+02  0.1454E+03
     -1.203  0.2194E+02  0.1467E+03
     -1.144  0.1733E+02  0.1477E+03
     -1.084  0.1300E+02  0.1485E+03
     -1.024  0.9203E+01  0.1490E+03
     -0.965  0.7186E+01  0.1495E+03
     -0.905  0.7283E+01  0.1499E+03
     -0.845  0.8650E+01  0.1504E+03
     -0.786  0.1016E+02  0.1510E+03
     -0.726  0.1148E+02  0.1517E+03
     -0.666  0.1325E+02  0.1525E+03
     -0.607  0.1629E+02  0.1535E+03
     -0.547  0.2004E+02  0.1547E+03
     -0.487  0.2303E+02  0.1560E+03
     -0.428  0.2483E+02  0.1575E+03
     -0.368  0.2589E+02  0.1591E+03
     -0.309  0.2595E+02  0.1606E+03
     -0.249  0.2464E+02  0.1621E+03
     -0.189  0.2305E+02  0.1635E+03
     -0.130  0.2226E+02  0.1648E+03
     -0.070  0.2217E+02  0.1661E+03
     -0.010  0.2243E+02  0.1675E+03
      0.049  0.2250E+02  0.1688E+03
      0.109  0.2234E+02  0.1701E+03
      0.169  0.2251E+02  0.1715E+03
      0.228  0.2194E+02  0.1728E+03
      0.288  0.2044E+02  0.1740E+03
      0.348  0.1948E+02  0.1752E+03
      0.407  0.1948E+02  0.1763E+03
      0.467  0.1990E+02  0.1775E+03
      0.527  0.2010E+02  0.1787E+03
      0.586  0.1986E+02  0.1799E+03
      0.646  0.1960E+02  0.1811E+03
      0.706  0.1938E+02  0.1822E+03
      0.765  0.1944E+02  0.1834E+03
      0.825  0.2090E+02  0.1846E+03
      0.885  0.2386E+02  0.1860E+03
      0.944  0.2656E+02  0.1876E+03
      1.004  0.2755E+02  0.1893E+03
      1.064  0.2694E+02  0.1909E+03
      1.123  0.2612E+02  0.1924E+03
      1.183  0.2630E+02  0.1940E+03
      1.243  0.2716E+02  0.1956E+03
      1.302  0.2853E+02  0.1973E+03
      1.362  0.3069E+02  0.1992E+03
      1.422  0.3082E+02  0.2010E+03
      1.481  0.2515E+02  0.2025E+03
      1.541  0.1538E+02  0.2034E+03
      1.600  0.6872E+01  0.2038E+03
      1.660  0.2243E+01  0.2040E+03
      1.720  0.5327E+00  0.2040E+03
      1.779  0.8772E-01  0.2040E+03
      1.839  0.9142E-02  0.2040E+03
      1.899  0.5532E-03  0.2040E+03
      1.958  0.1835E-04  0.2040E+03
      2.018  0.3226E-06  0.2040E+03
      2.078  0.2943E-08  0.2040E+03
      2.137  0.1374E-10  0.2040E+03
      2.197  0.3246E-13  0.2040E+03
      2.257  0.4405E-16  0.2040E+03
      2.316  0.0000E+00  0.2040E+03
      2.376  0.0000E+00  0.2040E+03
      2.436  0.0000E+00  0.2040E+03
      2.495  0.0000E+00  0.2040E+03
      2.555  0.0000E+00  0.2040E+03
      2.615  0.0000E+00  0.2040E+03
