 125 125   0   0
  0.7826844E+01  0.1083194E-08  0.1083194E-08  0.1083194E-08  0.1500000E-16
  1.000000000000000E-004
  CAR 
 phonon_dispersion                       
     20.67325113     -5.48868687  301      7.99920808      1.00000000
     -5.489  0.0000E+00  0.0000E+00
     -5.401  0.0000E+00  0.0000E+00
     -5.314  0.0000E+00  0.0000E+00
     -5.227  0.0000E+00  0.0000E+00
     -5.140  0.0000E+00  0.0000E+00
     -5.053  0.0000E+00  0.0000E+00
     -4.965  0.0000E+00  0.0000E+00
     -4.878  0.0000E+00  0.0000E+00
     -4.791  0.0000E+00  0.0000E+00
     -4.704  0.0000E+00  0.0000E+00
     -4.617  0.0000E+00  0.0000E+00
     -4.529  0.1037E-14  0.9040E-16
     -4.442  0.1327E-08  0.1158E-09
     -4.355  0.7316E-05  0.6381E-06
     -4.268  0.4396E-03  0.3897E-04
     -4.181  0.1797E-02  0.1957E-03
     -4.093  0.2764E-02  0.4367E-03
     -4.006  0.3444E-02  0.7371E-03
     -3.919  0.4005E-02  0.1086E-02
     -3.832  0.4496E-02  0.1478E-02
     -3.745  0.4938E-02  0.1909E-02
     -3.657  0.5341E-02  0.2375E-02
     -3.570  0.5715E-02  0.2873E-02
     -3.483  0.6069E-02  0.3402E-02
     -3.396  0.6411E-02  0.3961E-02
     -3.309  0.6726E-02  0.4548E-02
     -3.221  0.6998E-02  0.5158E-02
     -3.134  0.7290E-02  0.5794E-02
     -3.047  0.7632E-02  0.6460E-02
     -2.960  0.7854E-02  0.7144E-02
     -2.872  0.8051E-02  0.7847E-02
     -2.785  0.8425E-02  0.8581E-02
     -2.698  0.8595E-02  0.9331E-02
     -2.611  0.8822E-02  0.1010E-01
     -2.524  0.9111E-02  0.1089E-01
     -2.436  0.9251E-02  0.1170E-01
     -2.349  0.9597E-02  0.1254E-01
     -2.262  0.9630E-02  0.1338E-01
     -2.175  0.1010E-01  0.1426E-01
     -2.088  0.1001E-01  0.1513E-01
     -2.000  0.1053E-01  0.1605E-01
     -1.913  0.1041E-01  0.1696E-01
     -1.826  0.1090E-01  0.1791E-01
     -1.739  0.1083E-01  0.1885E-01
     -1.652  0.1130E-01  0.1984E-01
     -1.564  0.1122E-01  0.2082E-01
     -1.477  0.1164E-01  0.2183E-01
     -1.390  0.1157E-01  0.2284E-01
     -1.303  0.1201E-01  0.2389E-01
     -1.216  0.1205E-01  0.2494E-01
     -1.128  0.1224E-01  0.2601E-01
     -1.041  0.1255E-01  0.2710E-01
     -0.954  0.1245E-01  0.2819E-01
     -0.867  0.1299E-01  0.2932E-01
     -0.780  0.1270E-01  0.3043E-01
     -0.692  0.1336E-01  0.3159E-01
     -0.605  0.1333E-01  0.3275E-01
     -0.518  0.1323E-01  0.3391E-01
     -0.431  0.1399E-01  0.3513E-01
     -0.344  0.1350E-01  0.3630E-01
     -0.256  0.1427E-01  0.3755E-01
     -0.169  0.1409E-01  0.3878E-01
     -0.082  0.1416E-01  0.4001E-01
      0.005  0.1482E-01  0.4131E-01
      0.093  0.1448E-01  0.4257E-01
      0.180  0.1485E-01  0.4386E-01
      0.267  0.1516E-01  0.4519E-01
      0.354  0.1513E-01  0.4651E-01
      0.441  0.1533E-01  0.4784E-01
      0.529  0.1572E-01  0.4921E-01
      0.616  0.1564E-01  0.5058E-01
      0.703  0.1583E-01  0.5196E-01
      0.790  0.1642E-01  0.5339E-01
      0.877  0.1601E-01  0.5479E-01
      0.965  0.1647E-01  0.5622E-01
      1.052  0.1707E-01  0.5771E-01
      1.139  0.1639E-01  0.5914E-01
      1.226  0.1723E-01  0.6064E-01
      1.313  0.1768E-01  0.6218E-01
      1.401  0.1687E-01  0.6365E-01
      1.488  0.1805E-01  0.6523E-01
      1.575  0.1831E-01  0.6682E-01
      1.662  0.1752E-01  0.6835E-01
      1.749  0.1886E-01  0.7000E-01
      1.837  0.1899E-01  0.7165E-01
      1.924  0.1845E-01  0.7326E-01
      2.011  0.1957E-01  0.7497E-01
      2.098  0.1988E-01  0.7670E-01
      2.185  0.1977E-01  0.7843E-01
      2.273  0.2024E-01  0.8019E-01
      2.360  0.2125E-01  0.8205E-01
      2.447  0.2136E-01  0.8391E-01
      2.534  0.2161E-01  0.8579E-01
      2.622  0.2333E-01  0.8783E-01
      2.709  0.2410E-01  0.8993E-01
      2.796  0.2609E-01  0.9221E-01
      2.883  0.2620E-01  0.9449E-01
      2.970  0.2581E-01  0.9674E-01
      3.058  0.2577E-01  0.9899E-01
      3.145  0.2379E-01  0.1011E+00
      3.232  0.2508E-01  0.1032E+00
      3.319  0.2361E-01  0.1053E+00
      3.406  0.2356E-01  0.1074E+00
      3.494  0.2222E-01  0.1093E+00
      3.581  0.2261E-01  0.1113E+00
      3.668  0.2302E-01  0.1133E+00
      3.755  0.1962E-01  0.1150E+00
      3.842  0.2146E-01  0.1169E+00
      3.930  0.2174E-01  0.1188E+00
      4.017  0.1915E-01  0.1204E+00
      4.104  0.1833E-01  0.1220E+00
      4.191  0.2114E-01  0.1239E+00
      4.278  0.1821E-01  0.1255E+00
      4.366  0.1693E-01  0.1269E+00
      4.453  0.1822E-01  0.1285E+00
      4.540  0.1818E-01  0.1301E+00
      4.627  0.1643E-01  0.1315E+00
      4.714  0.1472E-01  0.1328E+00
      4.802  0.1766E-01  0.1344E+00
      4.889  0.1561E-01  0.1357E+00
      4.976  0.1352E-01  0.1369E+00
      5.063  0.1465E-01  0.1382E+00
      5.151  0.1528E-01  0.1395E+00
      5.238  0.1311E-01  0.1407E+00
      5.325  0.1236E-01  0.1417E+00
      5.412  0.1287E-01  0.1429E+00
      5.499  0.1301E-01  0.1440E+00
      5.587  0.1162E-01  0.1450E+00
      5.674  0.1036E-01  0.1459E+00
      5.761  0.1086E-01  0.1469E+00
      5.848  0.1203E-01  0.1479E+00
      5.935  0.8813E-02  0.1487E+00
      6.023  0.8368E-02  0.1494E+00
      6.110  0.1035E-01  0.1503E+00
      6.197  0.9124E-02  0.1511E+00
      6.284  0.6393E-02  0.1517E+00
      6.371  0.7528E-02  0.1523E+00
      6.459  0.8585E-02  0.1531E+00
      6.546  0.6124E-02  0.1536E+00
      6.633  0.4688E-02  0.1540E+00
      6.720  0.6718E-02  0.1546E+00
      6.807  0.6224E-02  0.1551E+00
      6.895  0.4295E-02  0.1555E+00
      6.982  0.4730E-02  0.1559E+00
      7.069  0.6468E-02  0.1565E+00
      7.156  0.5365E-02  0.1570E+00
      7.243  0.4256E-02  0.1573E+00
      7.331  0.5750E-02  0.1578E+00
      7.418  0.7038E-02  0.1584E+00
      7.505  0.5333E-02  0.1589E+00
      7.592  0.5386E-02  0.1594E+00
      7.679  0.7962E-02  0.1601E+00
      7.767  0.7769E-02  0.1608E+00
      7.854  0.6843E-02  0.1613E+00
      7.941  0.7805E-02  0.1620E+00
      8.028  0.1104E-01  0.1630E+00
      8.116  0.1036E-01  0.1639E+00
      8.203  0.1049E-01  0.1648E+00
      8.290  0.1369E-01  0.1660E+00
      8.377  0.2252E-01  0.1680E+00
      8.464  0.3880E-01  0.1714E+00
      8.552  0.4197E-01  0.1750E+00
      8.639  0.3853E-01  0.1784E+00
      8.726  0.3452E-01  0.1814E+00
      8.813  0.3148E-01  0.1841E+00
      8.900  0.3088E-01  0.1868E+00
      8.988  0.3013E-01  0.1894E+00
      9.075  0.2823E-01  0.1919E+00
      9.162  0.2799E-01  0.1943E+00
      9.249  0.2669E-01  0.1967E+00
      9.336  0.2689E-01  0.1990E+00
      9.424  0.2526E-01  0.2012E+00
      9.511  0.2573E-01  0.2035E+00
      9.598  0.2412E-01  0.2056E+00
      9.685  0.2493E-01  0.2077E+00
      9.772  0.2309E-01  0.2098E+00
      9.860  0.2426E-01  0.2119E+00
      9.947  0.2229E-01  0.2138E+00
     10.034  0.2287E-01  0.2158E+00
     10.121  0.2235E-01  0.2178E+00
     10.208  0.2173E-01  0.2197E+00
     10.296  0.2230E-01  0.2216E+00
     10.383  0.2069E-01  0.2234E+00
     10.470  0.2095E-01  0.2252E+00
     10.557  0.2165E-01  0.2271E+00
     10.645  0.1998E-01  0.2289E+00
     10.732  0.2027E-01  0.2306E+00
     10.819  0.1997E-01  0.2324E+00
     10.906  0.1990E-01  0.2341E+00
     10.993  0.2034E-01  0.2359E+00
     11.081  0.1800E-01  0.2375E+00
     11.168  0.1966E-01  0.2392E+00
     11.255  0.1991E-01  0.2409E+00
     11.342  0.1768E-01  0.2424E+00
     11.429  0.1869E-01  0.2441E+00
     11.517  0.1869E-01  0.2457E+00
     11.604  0.1832E-01  0.2473E+00
     11.691  0.1825E-01  0.2489E+00
     11.778  0.1733E-01  0.2504E+00
     11.865  0.1764E-01  0.2519E+00
     11.953  0.1895E-01  0.2536E+00
     12.040  0.1801E-01  0.2552E+00
     12.127  0.1812E-01  0.2567E+00
     12.214  0.2092E-01  0.2586E+00
     12.301  0.2014E-01  0.2603E+00
     12.389  0.1985E-01  0.2621E+00
     12.476  0.2121E-01  0.2639E+00
     12.563  0.2102E-01  0.2657E+00
     12.650  0.2176E-01  0.2676E+00
     12.737  0.2255E-01  0.2696E+00
     12.825  0.2154E-01  0.2715E+00
     12.912  0.2248E-01  0.2734E+00
     12.999  0.2494E-01  0.2756E+00
     13.086  0.2345E-01  0.2777E+00
     13.173  0.2296E-01  0.2797E+00
     13.261  0.2656E-01  0.2820E+00
     13.348  0.2756E-01  0.2844E+00
     13.435  0.2498E-01  0.2866E+00
     13.522  0.3018E-01  0.2892E+00
     13.610  0.3240E-01  0.2920E+00
     13.697  0.2911E-01  0.2946E+00
     13.784  0.3016E-01  0.2972E+00
     13.871  0.3084E-01  0.2999E+00
     13.958  0.3006E-01  0.3025E+00
     14.046  0.2852E-01  0.3050E+00
     14.133  0.3027E-01  0.3076E+00
     14.220  0.2949E-01  0.3102E+00
     14.307  0.2718E-01  0.3126E+00
     14.394  0.3033E-01  0.3152E+00
     14.482  0.2900E-01  0.3177E+00
     14.569  0.2617E-01  0.3200E+00
     14.656  0.2869E-01  0.3225E+00
     14.743  0.2954E-01  0.3251E+00
     14.830  0.2605E-01  0.3274E+00
     14.918  0.2685E-01  0.3297E+00
     15.005  0.2842E-01  0.3322E+00
     15.092  0.2706E-01  0.3346E+00
     15.179  0.2541E-01  0.3368E+00
     15.266  0.2721E-01  0.3391E+00
     15.354  0.2700E-01  0.3415E+00
     15.441  0.2497E-01  0.3437E+00
     15.528  0.2624E-01  0.3460E+00
     15.615  0.2626E-01  0.3483E+00
     15.702  0.2536E-01  0.3505E+00
     15.790  0.2427E-01  0.3526E+00
     15.877  0.2559E-01  0.3548E+00
     15.964  0.2586E-01  0.3571E+00
     16.051  0.2402E-01  0.3592E+00
     16.139  0.2302E-01  0.3612E+00
     16.226  0.2634E-01  0.3635E+00
     16.313  0.2400E-01  0.3656E+00
     16.400  0.2238E-01  0.3675E+00
     16.487  0.2427E-01  0.3696E+00
     16.575  0.2424E-01  0.3717E+00
     16.662  0.2303E-01  0.3738E+00
     16.749  0.2207E-01  0.3757E+00
     16.836  0.2393E-01  0.3778E+00
     16.923  0.2342E-01  0.3798E+00
     17.011  0.2109E-01  0.3816E+00
     17.098  0.2207E-01  0.3836E+00
     17.185  0.2492E-01  0.3857E+00
     17.272  0.2386E-01  0.3878E+00
     17.359  0.2361E-01  0.3899E+00
     17.447  0.2740E-01  0.3923E+00
     17.534  0.2733E-01  0.3947E+00
     17.621  0.2546E-01  0.3969E+00
     17.708  0.2574E-01  0.3991E+00
     17.795  0.2945E-01  0.4017E+00
     17.883  0.2736E-01  0.4041E+00
     17.970  0.2583E-01  0.4063E+00
     18.057  0.2963E-01  0.4089E+00
     18.144  0.2948E-01  0.4115E+00
     18.231  0.2675E-01  0.4138E+00
     18.319  0.2843E-01  0.4163E+00
     18.406  0.3102E-01  0.4190E+00
     18.493  0.2853E-01  0.4215E+00
     18.580  0.2755E-01  0.4239E+00
     18.668  0.3025E-01  0.4265E+00
     18.755  0.3035E-01  0.4292E+00
     18.842  0.2863E-01  0.4317E+00
     18.929  0.2602E-01  0.4339E+00
     19.016  0.2122E-01  0.4358E+00
     19.104  0.1056E-01  0.4367E+00
     19.191  0.3657E-02  0.4370E+00
     19.278  0.1505E-02  0.4372E+00
     19.365  0.4992E-03  0.4372E+00
     19.452  0.8093E-04  0.4372E+00
     19.540  0.2217E-04  0.4372E+00
     19.627  0.1416E-05  0.4372E+00
     19.714  0.6599E-09  0.4372E+00
     19.801  0.9579E-15  0.4372E+00
     19.888  0.0000E+00  0.4372E+00
     19.976  0.0000E+00  0.4372E+00
     20.063  0.0000E+00  0.4372E+00
     20.150  0.0000E+00  0.4372E+00
     20.237  0.0000E+00  0.4372E+00
     20.324  0.0000E+00  0.4372E+00
     20.412  0.0000E+00  0.4372E+00
     20.499  0.0000E+00  0.4372E+00
     20.586  0.0000E+00  0.4372E+00
     20.673  0.0000E+00  0.4372E+00
