   2   2   0   0
  0.1256248E+03  0.2506240E-09  0.2506240E-09  0.4000000E-08  0.5000000E-15
  1.000000000000000E-004
  CAR 
 Convergence                             
     23.50236074    -12.77228947  301     -2.75385476      1.00000000
    -12.772  0.0000E+00  0.0000E+00
    -12.651  0.0000E+00  0.0000E+00
    -12.530  0.0000E+00  0.0000E+00
    -12.410  0.0000E+00  0.0000E+00
    -12.289  0.0000E+00  0.0000E+00
    -12.168  0.0000E+00  0.0000E+00
    -12.047  0.0000E+00  0.0000E+00
    -11.926  0.0000E+00  0.0000E+00
    -11.805  0.0000E+00  0.0000E+00
    -11.684  0.0000E+00  0.0000E+00
    -11.563  0.0000E+00  0.0000E+00
    -11.442  0.0000E+00  0.0000E+00
    -11.321  0.1929E-09  0.2332E-10
    -11.200  0.5415E-03  0.6548E-04
    -11.079  0.1336E+00  0.1622E-01
    -10.959  0.3494E+00  0.5847E-01
    -10.838  0.3574E+00  0.1017E+00
    -10.717  0.3573E+00  0.1449E+00
    -10.596  0.3573E+00  0.1881E+00
    -10.475  0.3419E+00  0.2294E+00
    -10.354  0.3510E+00  0.2719E+00
    -10.233  0.3834E+00  0.3182E+00
    -10.112  0.3260E+00  0.3576E+00
     -9.991  0.3570E+00  0.4008E+00
     -9.870  0.3606E+00  0.4444E+00
     -9.749  0.3502E+00  0.4868E+00
     -9.628  0.3870E+00  0.5336E+00
     -9.508  0.3114E+00  0.5712E+00
     -9.387  0.3911E+00  0.6185E+00
     -9.266  0.3551E+00  0.6614E+00
     -9.145  0.3169E+00  0.6997E+00
     -9.024  0.4199E+00  0.7505E+00
     -8.903  0.2734E+00  0.7836E+00
     -8.782  0.4379E+00  0.8365E+00
     -8.661  0.3125E+00  0.8743E+00
     -8.540  0.3397E+00  0.9154E+00
     -8.419  0.4186E+00  0.9660E+00
     -8.298  0.2838E+00  0.1000E+01
     -8.178  0.4489E+00  0.1055E+01
     -8.057  0.3245E+00  0.1094E+01
     -7.936  0.3112E+00  0.1131E+01
     -7.815  0.4192E+00  0.1182E+01
     -7.694  0.3840E+00  0.1229E+01
     -7.573  0.2727E+00  0.1262E+01
     -7.452  0.4373E+00  0.1314E+01
     -7.331  0.3736E+00  0.1360E+01
     -7.210  0.2912E+00  0.1395E+01
     -7.089  0.4444E+00  0.1449E+01
     -6.968  0.3383E+00  0.1489E+01
     -6.847  0.3739E+00  0.1535E+01
     -6.727  0.3478E+00  0.1577E+01
     -6.606  0.4464E+00  0.1631E+01
     -6.485  0.3379E+00  0.1672E+01
     -6.364  0.3847E+00  0.1718E+01
     -6.243  0.7946E+00  0.1814E+01
     -6.122  0.6473E+00  0.1892E+01
     -6.001  0.6653E+00  0.1973E+01
     -5.880  0.7977E+00  0.2069E+01
     -5.759  0.7447E+00  0.2159E+01
     -5.638  0.6615E+00  0.2239E+01
     -5.517  0.8010E+00  0.2336E+01
     -5.396  0.7912E+00  0.2432E+01
     -5.276  0.7018E+00  0.2517E+01
     -5.155  0.8713E+00  0.2622E+01
     -5.034  0.7659E+00  0.2715E+01
     -4.913  0.9293E+00  0.2827E+01
     -4.792  0.9219E+00  0.2939E+01
     -4.671  0.1135E+01  0.3076E+01
     -4.550  0.9971E+00  0.3196E+01
     -4.429  0.6901E+00  0.3280E+01
     -4.308  0.7844E+00  0.3375E+01
     -4.187  0.6720E+00  0.3456E+01
     -4.066  0.5900E+00  0.3527E+01
     -3.945  0.7683E+00  0.3620E+01
     -3.825  0.5474E+00  0.3686E+01
     -3.704  0.5500E+00  0.3753E+01
     -3.583  0.3536E+00  0.3796E+01
     -3.462  0.4420E+00  0.3849E+01
     -3.341  0.2055E+00  0.3874E+01
     -3.220  0.3382E+00  0.3915E+01
     -3.099  0.1875E+00  0.3937E+01
     -2.978  0.1586E+00  0.3957E+01
     -2.857  0.2070E+00  0.3982E+01
     -2.736  0.2020E+00  0.4006E+01
     -2.615  0.4026E+00  0.4055E+01
     -2.494  0.3046E+00  0.4092E+01
     -2.374  0.7631E+00  0.4184E+01
     -2.253  0.1047E+01  0.4310E+01
     -2.132  0.1306E+01  0.4468E+01
     -2.011  0.1465E+01  0.4646E+01
     -1.890  0.8909E+00  0.4753E+01
     -1.769  0.1233E+01  0.4903E+01
     -1.648  0.1040E+01  0.5028E+01
     -1.527  0.7461E+00  0.5118E+01
     -1.406  0.8664E+00  0.5223E+01
     -1.285  0.1301E+01  0.5381E+01
     -1.164  0.7207E+00  0.5468E+01
     -1.043  0.7553E+00  0.5559E+01
     -0.923  0.8641E+00  0.5663E+01
     -0.802  0.1207E+01  0.5809E+01
     -0.681  0.8331E+00  0.5910E+01
     -0.560  0.8201E+00  0.6009E+01
     -0.439  0.7781E+00  0.6103E+01
     -0.318  0.1189E+01  0.6247E+01
     -0.197  0.1166E+01  0.6388E+01
     -0.076  0.1097E+01  0.6521E+01
      0.045  0.9644E+00  0.6637E+01
      0.166  0.7782E+00  0.6732E+01
      0.287  0.1167E+01  0.6873E+01
      0.408  0.7617E+00  0.6965E+01
      0.528  0.9473E+00  0.7079E+01
      0.649  0.8176E+00  0.7178E+01
      0.770  0.1388E+01  0.7346E+01
      0.891  0.1504E+01  0.7528E+01
      1.012  0.1480E+01  0.7707E+01
      1.133  0.1372E+01  0.7873E+01
      1.254  0.1538E+01  0.8059E+01
      1.375  0.1578E+01  0.8249E+01
      1.496  0.1917E+01  0.8481E+01
      1.617  0.2283E+01  0.8757E+01
      1.738  0.1961E+01  0.8994E+01
      1.858  0.2027E+01  0.9239E+01
      1.979  0.1967E+01  0.9477E+01
      2.100  0.2141E+01  0.9736E+01
      2.221  0.2429E+01  0.1003E+02
      2.342  0.2681E+01  0.1035E+02
      2.463  0.2806E+01  0.1069E+02
      2.584  0.3095E+01  0.1107E+02
      2.705  0.2899E+01  0.1142E+02
      2.826  0.3556E+01  0.1185E+02
      2.947  0.3714E+01  0.1230E+02
      3.068  0.3831E+01  0.1276E+02
      3.189  0.3776E+01  0.1322E+02
      3.309  0.3584E+01  0.1365E+02
      3.430  0.3401E+01  0.1406E+02
      3.551  0.3702E+01  0.1451E+02
      3.672  0.3628E+01  0.1495E+02
      3.793  0.3984E+01  0.1543E+02
      3.914  0.4021E+01  0.1592E+02
      4.035  0.4125E+01  0.1641E+02
      4.156  0.4073E+01  0.1691E+02
      4.277  0.4242E+01  0.1742E+02
      4.398  0.4340E+01  0.1794E+02
      4.519  0.4189E+01  0.1845E+02
      4.640  0.4219E+01  0.1896E+02
      4.760  0.4274E+01  0.1948E+02
      4.881  0.4221E+01  0.1999E+02
      5.002  0.3794E+01  0.2045E+02
      5.123  0.4105E+01  0.2094E+02
      5.244  0.4541E+01  0.2149E+02
      5.365  0.4772E+01  0.2207E+02
      5.486  0.4547E+01  0.2262E+02
      5.607  0.4343E+01  0.2314E+02
      5.728  0.4693E+01  0.2371E+02
      5.849  0.4962E+01  0.2431E+02
      5.970  0.4253E+01  0.2483E+02
      6.091  0.4384E+01  0.2536E+02
      6.211  0.4659E+01  0.2592E+02
      6.332  0.4797E+01  0.2650E+02
      6.453  0.4562E+01  0.2705E+02
      6.574  0.4121E+01  0.2755E+02
      6.695  0.4229E+01  0.2806E+02
      6.816  0.4877E+01  0.2865E+02
      6.937  0.4846E+01  0.2924E+02
      7.058  0.4951E+01  0.2984E+02
      7.179  0.5003E+01  0.3044E+02
      7.300  0.4761E+01  0.3102E+02
      7.421  0.5431E+01  0.3167E+02
      7.542  0.5265E+01  0.3231E+02
      7.662  0.4873E+01  0.3290E+02
      7.783  0.4109E+01  0.3340E+02
      7.904  0.5671E+01  0.3408E+02
      8.025  0.5582E+01  0.3476E+02
      8.146  0.4891E+01  0.3535E+02
      8.267  0.5026E+01  0.3595E+02
      8.388  0.5513E+01  0.3662E+02
      8.509  0.5235E+01  0.3725E+02
      8.630  0.4639E+01  0.3782E+02
      8.751  0.5906E+01  0.3853E+02
      8.872  0.6180E+01  0.3928E+02
      8.993  0.4814E+01  0.3986E+02
      9.113  0.5630E+01  0.4054E+02
      9.234  0.5654E+01  0.4122E+02
      9.355  0.5078E+01  0.4184E+02
      9.476  0.5805E+01  0.4254E+02
      9.597  0.6060E+01  0.4327E+02
      9.718  0.5293E+01  0.4391E+02
      9.839  0.5638E+01  0.4459E+02
      9.960  0.5731E+01  0.4529E+02
     10.081  0.5252E+01  0.4592E+02
     10.202  0.6346E+01  0.4669E+02
     10.323  0.5336E+01  0.4733E+02
     10.443  0.5152E+01  0.4796E+02
     10.564  0.5998E+01  0.4868E+02
     10.685  0.6161E+01  0.4943E+02
     10.806  0.6873E+01  0.5026E+02
     10.927  0.5827E+01  0.5096E+02
     11.048  0.6114E+01  0.5170E+02
     11.169  0.6092E+01  0.5244E+02
     11.290  0.6351E+01  0.5321E+02
     11.411  0.6530E+01  0.5400E+02
     11.532  0.6227E+01  0.5475E+02
     11.653  0.6176E+01  0.5550E+02
     11.774  0.6360E+01  0.5627E+02
     11.894  0.5926E+01  0.5698E+02
     12.015  0.6439E+01  0.5776E+02
     12.136  0.5988E+01  0.5848E+02
     12.257  0.5706E+01  0.5917E+02
     12.378  0.6407E+01  0.5995E+02
     12.499  0.5581E+01  0.6062E+02
     12.620  0.5133E+01  0.6124E+02
     12.741  0.6682E+01  0.6205E+02
     12.862  0.6774E+01  0.6287E+02
     12.983  0.6280E+01  0.6363E+02
     13.104  0.5519E+01  0.6430E+02
     13.225  0.6448E+01  0.6508E+02
     13.345  0.6562E+01  0.6587E+02
     13.466  0.6468E+01  0.6665E+02
     13.587  0.6764E+01  0.6747E+02
     13.708  0.6231E+01  0.6823E+02
     13.829  0.6758E+01  0.6904E+02
     13.950  0.5944E+01  0.6976E+02
     14.071  0.5826E+01  0.7047E+02
     14.192  0.6757E+01  0.7128E+02
     14.313  0.6904E+01  0.7212E+02
     14.434  0.6133E+01  0.7286E+02
     14.555  0.5777E+01  0.7356E+02
     14.676  0.6249E+01  0.7431E+02
     14.796  0.5385E+01  0.7496E+02
     14.917  0.5649E+01  0.7565E+02
     15.038  0.5129E+01  0.7627E+02
     15.159  0.5338E+01  0.7691E+02
     15.280  0.4492E+01  0.7746E+02
     15.401  0.4102E+01  0.7795E+02
     15.522  0.3163E+01  0.7833E+02
     15.643  0.3029E+01  0.7870E+02
     15.764  0.3529E+01  0.7913E+02
     15.885  0.2790E+01  0.7946E+02
     16.006  0.2232E+01  0.7973E+02
     16.127  0.2552E+01  0.8004E+02
     16.247  0.1661E+01  0.8024E+02
     16.368  0.2082E+01  0.8050E+02
     16.489  0.1988E+01  0.8074E+02
     16.610  0.2559E+01  0.8105E+02
     16.731  0.1851E+01  0.8127E+02
     16.852  0.1748E+01  0.8148E+02
     16.973  0.1306E+01  0.8164E+02
     17.094  0.9167E+00  0.8175E+02
     17.215  0.1126E+01  0.8189E+02
     17.336  0.8712E+00  0.8199E+02
     17.457  0.1281E+01  0.8215E+02
     17.578  0.8794E+00  0.8225E+02
     17.698  0.8478E+00  0.8235E+02
     17.819  0.5979E+00  0.8243E+02
     17.940  0.1160E+01  0.8257E+02
     18.061  0.1192E+01  0.8271E+02
     18.182  0.9007E+00  0.8282E+02
     18.303  0.9051E+00  0.8293E+02
     18.424  0.1059E+01  0.8306E+02
     18.545  0.9640E+00  0.8317E+02
     18.666  0.8075E+00  0.8327E+02
     18.787  0.7041E+00  0.8336E+02
     18.908  0.5492E+00  0.8342E+02
     19.028  0.4304E+00  0.8348E+02
     19.149  0.2987E+00  0.8351E+02
     19.270  0.6691E-01  0.8352E+02
     19.391  0.2895E+00  0.8355E+02
     19.512  0.4780E+00  0.8361E+02
     19.633  0.3926E+00  0.8366E+02
     19.754  0.1507E+00  0.8368E+02
     19.875  0.1099E+00  0.8369E+02
     19.996  0.1142E+00  0.8371E+02
     20.117  0.1723E+00  0.8373E+02
     20.238  0.4334E+00  0.8378E+02
     20.359  0.3524E+00  0.8382E+02
     20.479  0.2712E+00  0.8385E+02
     20.600  0.3172E+00  0.8389E+02
     20.721  0.1806E+00  0.8391E+02
     20.842  0.9353E-01  0.8393E+02
     20.963  0.1063E+00  0.8394E+02
     21.084  0.5874E-01  0.8395E+02
     21.205  0.1298E+00  0.8396E+02
     21.326  0.3714E-01  0.8397E+02
     21.447  0.3855E-02  0.8397E+02
     21.568  0.1327E-05  0.8397E+02
     21.689  0.1415E-01  0.8397E+02
     21.810  0.1170E+00  0.8398E+02
     21.930  0.1487E+00  0.8400E+02
     22.051  0.1426E-02  0.8400E+02
     22.172  0.8744E-09  0.8400E+02
     22.293  0.0000E+00  0.8400E+02
     22.414  0.0000E+00  0.8400E+02
     22.535  0.0000E+00  0.8400E+02
     22.656  0.0000E+00  0.8400E+02
     22.777  0.0000E+00  0.8400E+02
     22.898  0.0000E+00  0.8400E+02
     23.019  0.0000E+00  0.8400E+02
     23.140  0.0000E+00  0.8400E+02
     23.261  0.0000E+00  0.8400E+02
     23.381  0.0000E+00  0.8400E+02
     23.502  0.0000E+00  0.8400E+02
