  75  75   0   0
  0.5815868E+02  0.1161076E-08  0.1053976E-08  0.4000000E-08  0.5000000E-15
  1.000000000000000E-004
  CAR 
 Phonopy                                 
      2.56858428    -15.29525511  301     -3.63488885      1.00000000
    -15.295  0.0000E+00  0.0000E+00
    -15.236  0.0000E+00  0.0000E+00
    -15.176  0.0000E+00  0.0000E+00
    -15.117  0.0000E+00  0.0000E+00
    -15.057  0.0000E+00  0.0000E+00
    -14.998  0.0000E+00  0.0000E+00
    -14.938  0.0000E+00  0.0000E+00
    -14.878  0.3805E-16  0.2266E-17
    -14.819  0.6400E-13  0.3813E-14
    -14.759  0.2828E-10  0.1688E-11
    -14.700  0.6357E-08  0.3802E-09
    -14.640  0.7303E-06  0.4386E-07
    -14.581  0.4316E-04  0.2614E-05
    -14.521  0.1323E-02  0.8141E-04
    -14.462  0.2133E-01  0.1351E-02
    -14.402  0.1844E+00  0.1233E-01
    -14.343  0.8837E+00  0.6496E-01
    -14.283  0.2470E+01  0.2121E+00
    -14.223  0.4380E+01  0.4729E+00
    -14.164  0.5610E+01  0.8069E+00
    -14.104  0.6027E+01  0.1166E+01
    -14.045  0.6085E+01  0.1528E+01
    -13.985  0.6162E+01  0.1895E+01
    -13.926  0.6101E+01  0.2258E+01
    -13.866  0.6062E+01  0.2619E+01
    -13.807  0.6266E+01  0.2992E+01
    -13.747  0.6130E+01  0.3357E+01
    -13.688  0.5963E+01  0.3712E+01
    -13.628  0.6279E+01  0.4086E+01
    -13.568  0.6334E+01  0.4464E+01
    -13.509  0.5981E+01  0.4820E+01
    -13.449  0.6002E+01  0.5177E+01
    -13.390  0.6400E+01  0.5558E+01
    -13.330  0.6386E+01  0.5938E+01
    -13.271  0.5948E+01  0.6293E+01
    -13.211  0.5998E+01  0.6650E+01
    -13.152  0.6414E+01  0.7032E+01
    -13.092  0.6428E+01  0.7414E+01
    -13.033  0.6212E+01  0.7784E+01
    -12.973  0.5888E+01  0.8135E+01
    -12.913  0.6056E+01  0.8496E+01
    -12.854  0.6738E+01  0.8897E+01
    -12.794  0.6526E+01  0.9285E+01
    -12.735  0.5928E+01  0.9638E+01
    -12.675  0.6001E+01  0.9996E+01
    -12.616  0.6141E+01  0.1036E+02
    -12.556  0.6467E+01  0.1075E+02
    -12.497  0.6923E+01  0.1116E+02
    -12.437  0.6507E+01  0.1155E+02
    -12.377  0.5686E+01  0.1188E+02
    -12.318  0.5689E+01  0.1222E+02
    -12.258  0.6461E+01  0.1261E+02
    -12.199  0.6975E+01  0.1302E+02
    -12.139  0.6860E+01  0.1343E+02
    -12.080  0.6444E+01  0.1382E+02
    -12.020  0.6083E+01  0.1418E+02
    -11.961  0.5734E+01  0.1452E+02
    -11.901  0.5699E+01  0.1486E+02
    -11.842  0.6800E+01  0.1526E+02
    -11.782  0.7787E+01  0.1573E+02
    -11.722  0.7045E+01  0.1615E+02
    -11.663  0.5875E+01  0.1650E+02
    -11.603  0.5744E+01  0.1684E+02
    -11.544  0.6201E+01  0.1721E+02
    -11.484  0.6219E+01  0.1758E+02
    -11.425  0.6876E+01  0.1799E+02
    -11.365  0.9520E+01  0.1855E+02
    -11.306  0.1166E+02  0.1925E+02
    -11.246  0.1144E+02  0.1993E+02
    -11.187  0.1084E+02  0.2058E+02
    -11.127  0.1132E+02  0.2125E+02
    -11.067  0.1226E+02  0.2198E+02
    -11.008  0.1258E+02  0.2273E+02
    -10.948  0.1269E+02  0.2348E+02
    -10.889  0.1345E+02  0.2428E+02
    -10.829  0.1359E+02  0.2509E+02
    -10.770  0.1241E+02  0.2583E+02
    -10.710  0.1144E+02  0.2651E+02
    -10.651  0.1146E+02  0.2720E+02
    -10.591  0.1182E+02  0.2790E+02
    -10.532  0.1281E+02  0.2866E+02
    -10.472  0.1415E+02  0.2951E+02
    -10.412  0.1415E+02  0.3035E+02
    -10.353  0.1292E+02  0.3112E+02
    -10.293  0.1206E+02  0.3184E+02
    -10.234  0.1233E+02  0.3257E+02
    -10.174  0.1304E+02  0.3335E+02
    -10.115  0.1285E+02  0.3411E+02
    -10.055  0.1195E+02  0.3482E+02
     -9.996  0.1231E+02  0.3556E+02
     -9.936  0.1444E+02  0.3642E+02
     -9.877  0.1581E+02  0.3736E+02
     -9.817  0.1471E+02  0.3823E+02
     -9.757  0.1234E+02  0.3897E+02
     -9.698  0.1106E+02  0.3963E+02
     -9.638  0.1212E+02  0.4035E+02
     -9.579  0.1430E+02  0.4120E+02
     -9.519  0.1519E+02  0.4210E+02
     -9.460  0.1474E+02  0.4298E+02
     -9.400  0.1467E+02  0.4386E+02
     -9.341  0.1446E+02  0.4472E+02
     -9.281  0.1353E+02  0.4552E+02
     -9.222  0.1376E+02  0.4634E+02
     -9.162  0.1559E+02  0.4727E+02
     -9.102  0.1650E+02  0.4825E+02
     -9.043  0.1530E+02  0.4916E+02
     -8.983  0.1424E+02  0.5001E+02
     -8.924  0.1557E+02  0.5094E+02
     -8.864  0.1819E+02  0.5202E+02
     -8.805  0.1971E+02  0.5320E+02
     -8.745  0.2021E+02  0.5440E+02
     -8.686  0.1978E+02  0.5558E+02
     -8.626  0.1697E+02  0.5659E+02
     -8.567  0.1346E+02  0.5739E+02
     -8.507  0.1271E+02  0.5815E+02
     -8.447  0.1489E+02  0.5903E+02
     -8.388  0.1689E+02  0.6004E+02
     -8.328  0.1649E+02  0.6102E+02
     -8.269  0.1485E+02  0.6191E+02
     -8.209  0.1339E+02  0.6270E+02
     -8.150  0.1257E+02  0.6345E+02
     -8.090  0.1290E+02  0.6422E+02
     -8.031  0.1407E+02  0.6506E+02
     -7.971  0.1480E+02  0.6594E+02
     -7.912  0.1441E+02  0.6680E+02
     -7.852  0.1343E+02  0.6760E+02
     -7.792  0.1213E+02  0.6832E+02
     -7.733  0.1108E+02  0.6898E+02
     -7.673  0.1131E+02  0.6965E+02
     -7.614  0.1238E+02  0.7039E+02
     -7.554  0.1357E+02  0.7120E+02
     -7.495  0.1387E+02  0.7202E+02
     -7.435  0.1270E+02  0.7278E+02
     -7.376  0.1137E+02  0.7346E+02
     -7.316  0.1069E+02  0.7409E+02
     -7.257  0.1105E+02  0.7475E+02
     -7.197  0.1290E+02  0.7552E+02
     -7.137  0.1495E+02  0.7641E+02
     -7.078  0.1454E+02  0.7728E+02
     -7.018  0.1201E+02  0.7799E+02
     -6.959  0.1028E+02  0.7860E+02
     -6.899  0.9437E+01  0.7916E+02
     -6.840  0.8173E+01  0.7965E+02
     -6.780  0.7095E+01  0.8007E+02
     -6.721  0.7492E+01  0.8052E+02
     -6.661  0.9353E+01  0.8108E+02
     -6.602  0.1167E+02  0.8177E+02
     -6.542  0.1336E+02  0.8257E+02
     -6.482  0.1359E+02  0.8338E+02
     -6.423  0.1297E+02  0.8415E+02
     -6.363  0.1267E+02  0.8490E+02
     -6.304  0.1289E+02  0.8567E+02
     -6.244  0.1332E+02  0.8646E+02
     -6.185  0.1386E+02  0.8729E+02
     -6.125  0.1467E+02  0.8816E+02
     -6.066  0.1567E+02  0.8910E+02
     -6.006  0.1671E+02  0.9009E+02
     -5.947  0.1678E+02  0.9109E+02
     -5.887  0.1562E+02  0.9202E+02
     -5.827  0.1472E+02  0.9290E+02
     -5.768  0.1459E+02  0.9377E+02
     -5.708  0.1498E+02  0.9466E+02
     -5.649  0.1531E+02  0.9557E+02
     -5.589  0.1483E+02  0.9645E+02
     -5.530  0.1465E+02  0.9732E+02
     -5.470  0.1676E+02  0.9832E+02
     -5.411  0.1957E+02  0.9949E+02
     -5.351  0.1998E+02  0.1007E+03
     -5.292  0.1854E+02  0.1018E+03
     -5.232  0.1715E+02  0.1028E+03
     -5.172  0.1688E+02  0.1038E+03
     -5.113  0.1728E+02  0.1048E+03
     -5.053  0.1765E+02  0.1059E+03
     -4.994  0.1762E+02  0.1069E+03
     -4.934  0.1689E+02  0.1079E+03
     -4.875  0.1496E+02  0.1088E+03
     -4.815  0.1345E+02  0.1096E+03
     -4.756  0.1416E+02  0.1105E+03
     -4.696  0.1509E+02  0.1114E+03
     -4.636  0.1463E+02  0.1122E+03
     -4.577  0.1434E+02  0.1131E+03
     -4.517  0.1543E+02  0.1140E+03
     -4.458  0.1635E+02  0.1150E+03
     -4.398  0.1544E+02  0.1159E+03
     -4.339  0.1360E+02  0.1167E+03
     -4.279  0.1285E+02  0.1175E+03
     -4.220  0.1366E+02  0.1183E+03
     -4.160  0.1520E+02  0.1192E+03
     -4.101  0.1576E+02  0.1201E+03
     -4.041  0.1412E+02  0.1210E+03
     -3.981  0.1153E+02  0.1217E+03
     -3.922  0.9518E+01  0.1222E+03
     -3.862  0.8580E+01  0.1227E+03
     -3.803  0.9033E+01  0.1233E+03
     -3.743  0.1039E+02  0.1239E+03
     -3.684  0.1062E+02  0.1245E+03
     -3.624  0.9362E+01  0.1251E+03
     -3.565  0.8433E+01  0.1256E+03
     -3.505  0.8087E+01  0.1261E+03
     -3.446  0.7364E+01  0.1265E+03
     -3.386  0.6312E+01  0.1269E+03
     -3.326  0.5726E+01  0.1272E+03
     -3.267  0.6450E+01  0.1276E+03
     -3.207  0.8180E+01  0.1281E+03
     -3.148  0.8702E+01  0.1286E+03
     -3.088  0.7030E+01  0.1290E+03
     -3.029  0.5058E+01  0.1293E+03
     -2.969  0.4726E+01  0.1296E+03
     -2.910  0.5577E+01  0.1300E+03
     -2.850  0.6195E+01  0.1303E+03
     -2.791  0.6546E+01  0.1307E+03
     -2.731  0.6749E+01  0.1311E+03
     -2.671  0.6788E+01  0.1315E+03
     -2.612  0.6964E+01  0.1319E+03
     -2.552  0.6897E+01  0.1323E+03
     -2.493  0.6183E+01  0.1327E+03
     -2.433  0.5501E+01  0.1330E+03
     -2.374  0.5599E+01  0.1334E+03
     -2.314  0.5990E+01  0.1337E+03
     -2.255  0.5685E+01  0.1341E+03
     -2.195  0.5324E+01  0.1344E+03
     -2.136  0.5773E+01  0.1347E+03
     -2.076  0.6842E+01  0.1351E+03
     -2.016  0.8006E+01  0.1356E+03
     -1.957  0.7988E+01  0.1361E+03
     -1.897  0.6607E+01  0.1365E+03
     -1.838  0.5605E+01  0.1368E+03
     -1.778  0.5829E+01  0.1372E+03
     -1.719  0.5599E+01  0.1375E+03
     -1.659  0.4775E+01  0.1378E+03
     -1.600  0.6085E+01  0.1381E+03
     -1.540  0.1061E+02  0.1388E+03
     -1.481  0.1704E+02  0.1398E+03
     -1.421  0.2432E+02  0.1412E+03
     -1.361  0.2979E+02  0.1430E+03
     -1.302  0.2929E+02  0.1448E+03
     -1.242  0.2386E+02  0.1462E+03
     -1.183  0.1763E+02  0.1472E+03
     -1.123  0.1267E+02  0.1480E+03
     -1.064  0.9452E+01  0.1485E+03
     -1.004  0.8604E+01  0.1491E+03
     -0.945  0.9593E+01  0.1496E+03
     -0.885  0.9983E+01  0.1502E+03
     -0.826  0.9523E+01  0.1508E+03
     -0.766  0.1042E+02  0.1514E+03
     -0.706  0.1275E+02  0.1522E+03
     -0.647  0.1476E+02  0.1531E+03
     -0.587  0.1663E+02  0.1540E+03
     -0.528  0.1944E+02  0.1552E+03
     -0.468  0.2287E+02  0.1566E+03
     -0.409  0.2592E+02  0.1581E+03
     -0.349  0.2716E+02  0.1597E+03
     -0.290  0.2566E+02  0.1612E+03
     -0.230  0.2337E+02  0.1626E+03
     -0.171  0.2338E+02  0.1640E+03
     -0.111  0.2446E+02  0.1655E+03
     -0.051  0.2388E+02  0.1669E+03
      0.008  0.2227E+02  0.1682E+03
      0.068  0.2049E+02  0.1695E+03
      0.127  0.1985E+02  0.1706E+03
      0.187  0.2162E+02  0.1719E+03
      0.246  0.2264E+02  0.1733E+03
      0.306  0.2079E+02  0.1745E+03
      0.365  0.1888E+02  0.1756E+03
      0.425  0.1982E+02  0.1768E+03
      0.484  0.2220E+02  0.1781E+03
      0.544  0.2152E+02  0.1794E+03
      0.604  0.1800E+02  0.1805E+03
      0.663  0.1661E+02  0.1815E+03
      0.723  0.1888E+02  0.1826E+03
      0.782  0.2143E+02  0.1839E+03
      0.842  0.2314E+02  0.1853E+03
      0.901  0.2549E+02  0.1868E+03
      0.961  0.2702E+02  0.1884E+03
      1.020  0.2633E+02  0.1900E+03
      1.080  0.2530E+02  0.1915E+03
      1.139  0.2574E+02  0.1930E+03
      1.199  0.2762E+02  0.1946E+03
      1.259  0.2985E+02  0.1964E+03
      1.318  0.3120E+02  0.1983E+03
      1.378  0.3142E+02  0.2001E+03
      1.437  0.2833E+02  0.2018E+03
      1.497  0.2014E+02  0.2030E+03
      1.556  0.1065E+02  0.2037E+03
      1.616  0.4186E+01  0.2039E+03
      1.675  0.1186E+01  0.2040E+03
      1.735  0.2217E+00  0.2040E+03
      1.794  0.2487E-01  0.2040E+03
      1.854  0.1568E-02  0.2040E+03
      1.914  0.5336E-04  0.2040E+03
      1.973  0.9548E-06  0.2040E+03
      2.033  0.8831E-08  0.2040E+03
      2.092  0.4171E-10  0.2040E+03
      2.152  0.1000E-12  0.2040E+03
      2.211  0.0000E+00  0.2040E+03
      2.271  0.0000E+00  0.2040E+03
      2.330  0.0000E+00  0.2040E+03
      2.390  0.0000E+00  0.2040E+03
      2.449  0.0000E+00  0.2040E+03
      2.509  0.0000E+00  0.2040E+03
      2.569  0.0000E+00  0.2040E+03
