   1   1   0   0
  0.1572813E+03  0.2130000E-09  0.2131204E-09  0.4000000E-08  0.5000000E-15
  1.000000000000000E-004
  CAR 
 Convergence                             
     34.45689194    -12.83128238  301     -4.23778380      1.00000000
    -12.831  0.0000E+00  0.0000E+00
    -12.674  0.0000E+00  0.0000E+00
    -12.516  0.0000E+00  0.0000E+00
    -12.358  0.0000E+00  0.0000E+00
    -12.201  0.0000E+00  0.0000E+00
    -12.043  0.0000E+00  0.0000E+00
    -11.886  0.0000E+00  0.0000E+00
    -11.728  0.0000E+00  0.0000E+00
    -11.570  0.0000E+00  0.0000E+00
    -11.413  0.0000E+00  0.0000E+00
    -11.255  0.0000E+00  0.0000E+00
    -11.097  0.0000E+00  0.0000E+00
    -10.940  0.1291E-14  0.2034E-15
    -10.782  0.3574E-04  0.5634E-05
    -10.625  0.8792E-01  0.1386E-01
    -10.467  0.2333E+00  0.5064E-01
    -10.309  0.2421E+00  0.8881E-01
    -10.152  0.2386E+00  0.1264E+00
     -9.994  0.2233E+00  0.1616E+00
     -9.836  0.2519E+00  0.2013E+00
     -9.679  0.2718E+00  0.2442E+00
     -9.521  0.2015E+00  0.2759E+00
     -9.363  0.2547E+00  0.3161E+00
     -9.206  0.2633E+00  0.3576E+00
     -9.048  0.2099E+00  0.3907E+00
     -8.891  0.2936E+00  0.4370E+00
     -8.733  0.2052E+00  0.4693E+00
     -8.575  0.2988E+00  0.5164E+00
     -8.418  0.1944E+00  0.5470E+00
     -8.260  0.2562E+00  0.5874E+00
     -8.102  0.2719E+00  0.6303E+00
     -7.945  0.2034E+00  0.6624E+00
     -7.787  0.3276E+00  0.7140E+00
     -7.630  0.1837E+00  0.7429E+00
     -7.472  0.3260E+00  0.7943E+00
     -7.314  0.2650E+00  0.8361E+00
     -7.157  0.1499E+00  0.8597E+00
     -6.999  0.3885E+00  0.9210E+00
     -6.841  0.2408E+00  0.9589E+00
     -6.684  0.1713E+00  0.9859E+00
     -6.526  0.4040E+00  0.1050E+01
     -6.369  0.2411E+00  0.1088E+01
     -6.211  0.1942E+00  0.1118E+01
     -6.053  0.4219E+00  0.1185E+01
     -5.896  0.2548E+00  0.1225E+01
     -5.738  0.2132E+00  0.1258E+01
     -5.580  0.5213E+00  0.1341E+01
     -5.423  0.4371E+00  0.1410E+01
     -5.265  0.3648E+00  0.1467E+01
     -5.108  0.1041E+01  0.1631E+01
     -4.950  0.4096E+00  0.1696E+01
     -4.792  0.4460E+00  0.1766E+01
     -4.635  0.6374E+00  0.1867E+01
     -4.477  0.3451E+00  0.1921E+01
     -4.319  0.2833E+00  0.1966E+01
     -4.162  0.5105E+00  0.2046E+01
     -4.004  0.2771E+00  0.2090E+01
     -3.847  0.3174E+00  0.2140E+01
     -3.689  0.2825E+00  0.2184E+01
     -3.531  0.3790E+00  0.2244E+01
     -3.374  0.2538E+00  0.2284E+01
     -3.216  0.1990E+00  0.2315E+01
     -3.058  0.3809E+00  0.2375E+01
     -2.901  0.2055E+00  0.2408E+01
     -2.743  0.1781E+00  0.2436E+01
     -2.586  0.2593E+00  0.2477E+01
     -2.428  0.2640E+00  0.2518E+01
     -2.270  0.1199E+00  0.2537E+01
     -2.113  0.2482E+00  0.2576E+01
     -1.955  0.2414E+00  0.2614E+01
     -1.797  0.1444E+00  0.2637E+01
     -1.640  0.1236E+00  0.2657E+01
     -1.482  0.2551E+00  0.2697E+01
     -1.324  0.1871E+00  0.2726E+01
     -1.167  0.1350E+00  0.2748E+01
     -1.009  0.1865E+00  0.2777E+01
     -0.852  0.2863E+00  0.2822E+01
     -0.694  0.1399E+00  0.2844E+01
     -0.536  0.1961E+00  0.2875E+01
     -0.379  0.2358E+00  0.2912E+01
     -0.221  0.3522E+00  0.2968E+01
     -0.063  0.2537E+00  0.3008E+01
      0.094  0.5177E+00  0.3089E+01
      0.252  0.4695E+00  0.3163E+01
      0.409  0.4880E+00  0.3240E+01
      0.567  0.6377E+00  0.3341E+01
      0.725  0.8267E+00  0.3471E+01
      0.882  0.1110E+01  0.3646E+01
      1.040  0.1160E+01  0.3829E+01
      1.198  0.1439E+01  0.4056E+01
      1.355  0.1814E+01  0.4342E+01
      1.513  0.1592E+01  0.4593E+01
      1.670  0.1629E+01  0.4850E+01
      1.828  0.1726E+01  0.5122E+01
      1.986  0.1678E+01  0.5386E+01
      2.143  0.1850E+01  0.5678E+01
      2.301  0.1814E+01  0.5964E+01
      2.459  0.1910E+01  0.6265E+01
      2.616  0.2056E+01  0.6589E+01
      2.774  0.1709E+01  0.6858E+01
      2.931  0.2168E+01  0.7200E+01
      3.089  0.1931E+01  0.7504E+01
      3.247  0.2363E+01  0.7877E+01
      3.404  0.2261E+01  0.8233E+01
      3.562  0.2232E+01  0.8585E+01
      3.720  0.2236E+01  0.8937E+01
      3.877  0.2681E+01  0.9360E+01
      4.035  0.2371E+01  0.9734E+01
      4.192  0.2567E+01  0.1014E+02
      4.350  0.2239E+01  0.1049E+02
      4.508  0.2325E+01  0.1086E+02
      4.665  0.2582E+01  0.1126E+02
      4.823  0.2145E+01  0.1160E+02
      4.981  0.2053E+01  0.1193E+02
      5.138  0.2368E+01  0.1230E+02
      5.296  0.1952E+01  0.1261E+02
      5.453  0.2439E+01  0.1299E+02
      5.611  0.2618E+01  0.1340E+02
      5.769  0.2612E+01  0.1382E+02
      5.926  0.2678E+01  0.1424E+02
      6.084  0.3075E+01  0.1472E+02
      6.242  0.2626E+01  0.1514E+02
      6.399  0.2627E+01  0.1555E+02
      6.557  0.2945E+01  0.1602E+02
      6.714  0.3487E+01  0.1657E+02
      6.872  0.2475E+01  0.1696E+02
      7.030  0.3141E+01  0.1745E+02
      7.187  0.3156E+01  0.1795E+02
      7.345  0.3084E+01  0.1843E+02
      7.503  0.3274E+01  0.1895E+02
      7.660  0.3501E+01  0.1950E+02
      7.818  0.2486E+01  0.1989E+02
      7.976  0.3641E+01  0.2047E+02
      8.133  0.2965E+01  0.2094E+02
      8.291  0.3353E+01  0.2146E+02
      8.448  0.3417E+01  0.2200E+02
      8.606  0.2850E+01  0.2245E+02
      8.764  0.3649E+01  0.2303E+02
      8.921  0.2975E+01  0.2350E+02
      9.079  0.3195E+01  0.2400E+02
      9.237  0.3511E+01  0.2455E+02
      9.394  0.3989E+01  0.2518E+02
      9.552  0.3732E+01  0.2577E+02
      9.709  0.2987E+01  0.2624E+02
      9.867  0.3778E+01  0.2684E+02
     10.025  0.3205E+01  0.2734E+02
     10.182  0.3784E+01  0.2794E+02
     10.340  0.3363E+01  0.2847E+02
     10.498  0.3550E+01  0.2903E+02
     10.655  0.3743E+01  0.2962E+02
     10.813  0.4105E+01  0.3026E+02
     10.970  0.3842E+01  0.3087E+02
     11.128  0.3448E+01  0.3141E+02
     11.286  0.3465E+01  0.3196E+02
     11.443  0.3886E+01  0.3257E+02
     11.601  0.4391E+01  0.3326E+02
     11.759  0.4038E+01  0.3390E+02
     11.916  0.4181E+01  0.3456E+02
     12.074  0.4002E+01  0.3519E+02
     12.231  0.4015E+01  0.3582E+02
     12.389  0.4035E+01  0.3646E+02
     12.547  0.3466E+01  0.3701E+02
     12.704  0.4261E+01  0.3768E+02
     12.862  0.3658E+01  0.3825E+02
     13.020  0.4005E+01  0.3889E+02
     13.177  0.4479E+01  0.3959E+02
     13.335  0.4820E+01  0.4035E+02
     13.492  0.4082E+01  0.4100E+02
     13.650  0.4088E+01  0.4164E+02
     13.808  0.3926E+01  0.4226E+02
     13.965  0.3942E+01  0.4288E+02
     14.123  0.4422E+01  0.4358E+02
     14.281  0.4420E+01  0.4427E+02
     14.438  0.3722E+01  0.4486E+02
     14.596  0.4005E+01  0.4549E+02
     14.753  0.4656E+01  0.4622E+02
     14.911  0.3518E+01  0.4678E+02
     15.069  0.4233E+01  0.4745E+02
     15.226  0.4651E+01  0.4818E+02
     15.384  0.4379E+01  0.4887E+02
     15.542  0.4881E+01  0.4964E+02
     15.699  0.4190E+01  0.5030E+02
     15.857  0.4307E+01  0.5098E+02
     16.015  0.4221E+01  0.5164E+02
     16.172  0.4674E+01  0.5238E+02
     16.330  0.4353E+01  0.5307E+02
     16.487  0.4378E+01  0.5376E+02
     16.645  0.4302E+01  0.5444E+02
     16.803  0.4276E+01  0.5511E+02
     16.960  0.4140E+01  0.5576E+02
     17.118  0.4924E+01  0.5654E+02
     17.276  0.4537E+01  0.5725E+02
     17.433  0.4525E+01  0.5797E+02
     17.591  0.4728E+01  0.5871E+02
     17.748  0.4352E+01  0.5940E+02
     17.906  0.4227E+01  0.6006E+02
     18.064  0.4891E+01  0.6084E+02
     18.221  0.5112E+01  0.6164E+02
     18.379  0.4819E+01  0.6240E+02
     18.537  0.4307E+01  0.6308E+02
     18.694  0.4095E+01  0.6372E+02
     18.852  0.4755E+01  0.6447E+02
     19.009  0.4387E+01  0.6517E+02
     19.167  0.4411E+01  0.6586E+02
     19.325  0.4449E+01  0.6656E+02
     19.482  0.4712E+01  0.6731E+02
     19.640  0.4944E+01  0.6808E+02
     19.798  0.3964E+01  0.6871E+02
     19.955  0.3755E+01  0.6930E+02
     20.113  0.3662E+01  0.6988E+02
     20.270  0.3798E+01  0.7048E+02
     20.428  0.3773E+01  0.7107E+02
     20.586  0.3280E+01  0.7159E+02
     20.743  0.3786E+01  0.7219E+02
     20.901  0.3730E+01  0.7277E+02
     21.059  0.2990E+01  0.7324E+02
     21.216  0.2692E+01  0.7367E+02
     21.374  0.3045E+01  0.7415E+02
     21.531  0.2789E+01  0.7459E+02
     21.689  0.2830E+01  0.7503E+02
     21.847  0.1732E+01  0.7531E+02
     22.004  0.2040E+01  0.7563E+02
     22.162  0.1646E+01  0.7589E+02
     22.320  0.2054E+01  0.7621E+02
     22.477  0.1552E+01  0.7646E+02
     22.635  0.1559E+01  0.7670E+02
     22.792  0.1674E+01  0.7697E+02
     22.950  0.1765E+01  0.7725E+02
     23.108  0.2009E+01  0.7756E+02
     23.265  0.1764E+01  0.7784E+02
     23.423  0.1681E+01  0.7810E+02
     23.581  0.1289E+01  0.7831E+02
     23.738  0.1805E+01  0.7859E+02
     23.896  0.1818E+01  0.7888E+02
     24.053  0.1265E+01  0.7908E+02
     24.211  0.1104E+01  0.7925E+02
     24.369  0.1299E+01  0.7946E+02
     24.526  0.1451E+01  0.7969E+02
     24.684  0.1171E+01  0.7987E+02
     24.842  0.1125E+01  0.8005E+02
     24.999  0.1213E+01  0.8024E+02
     25.157  0.9061E+00  0.8038E+02
     25.315  0.1922E+01  0.8069E+02
     25.472  0.1276E+01  0.8089E+02
     25.630  0.7859E+00  0.8101E+02
     25.787  0.8254E+00  0.8114E+02
     25.945  0.9529E+00  0.8129E+02
     26.103  0.8520E+00  0.8142E+02
     26.260  0.1079E+01  0.8159E+02
     26.418  0.1075E+01  0.8176E+02
     26.576  0.8500E+00  0.8190E+02
     26.733  0.4557E+00  0.8197E+02
     26.891  0.5588E+00  0.8206E+02
     27.048  0.3450E+00  0.8211E+02
     27.206  0.4520E+00  0.8218E+02
     27.364  0.6692E+00  0.8229E+02
     27.521  0.7767E+00  0.8241E+02
     27.679  0.8511E+00  0.8255E+02
     27.837  0.4614E+00  0.8262E+02
     27.994  0.4269E+00  0.8269E+02
     28.152  0.7472E+00  0.8280E+02
     28.309  0.5460E+00  0.8289E+02
     28.467  0.4069E+00  0.8295E+02
     28.625  0.5198E+00  0.8304E+02
     28.782  0.1588E+00  0.8306E+02
     28.940  0.1740E+00  0.8309E+02
     29.098  0.2258E+00  0.8312E+02
     29.255  0.5085E+00  0.8320E+02
     29.413  0.2922E+00  0.8325E+02
     29.570  0.2559E+00  0.8329E+02
     29.728  0.2376E+00  0.8333E+02
     29.886  0.3467E+00  0.8338E+02
     30.043  0.3260E+00  0.8343E+02
     30.201  0.5855E+00  0.8353E+02
     30.359  0.5442E+00  0.8361E+02
     30.516  0.3978E+00  0.8367E+02
     30.674  0.4638E+00  0.8375E+02
     30.831  0.4305E+00  0.8382E+02
     30.989  0.3141E+00  0.8387E+02
     31.147  0.6951E-01  0.8388E+02
     31.304  0.1514E+00  0.8390E+02
     31.462  0.3608E-01  0.8391E+02
     31.620  0.1144E+00  0.8392E+02
     31.777  0.1021E+00  0.8394E+02
     31.935  0.1918E+00  0.8397E+02
     32.092  0.9328E-02  0.8397E+02
     32.250  0.1297E+00  0.8399E+02
     32.408  0.5163E-01  0.8400E+02
     32.565  0.1067E-03  0.8400E+02
     32.723  0.0000E+00  0.8400E+02
     32.881  0.0000E+00  0.8400E+02
     33.038  0.0000E+00  0.8400E+02
     33.196  0.0000E+00  0.8400E+02
     33.354  0.0000E+00  0.8400E+02
     33.511  0.0000E+00  0.8400E+02
     33.669  0.0000E+00  0.8400E+02
     33.826  0.0000E+00  0.8400E+02
     33.984  0.0000E+00  0.8400E+02
     34.142  0.0000E+00  0.8400E+02
     34.299  0.0000E+00  0.8400E+02
     34.457  0.0000E+00  0.8400E+02
