       N       E                     dE             d eps       ncg     rms          rms(c)
DAV:   1     0.182169193352E+02    0.18217E+02   -0.25187E+03  9408   0.219E+02
DAV:   2    -0.146418350628E+02   -0.32859E+02   -0.32348E+02 13440   0.342E+01
DAV:   3    -0.153097683514E+02   -0.66793E+00   -0.66447E+00 12168   0.697E+00
DAV:   4    -0.153130163836E+02   -0.32480E-02   -0.32472E-02 14904   0.508E-01
DAV:   5    -0.153130205982E+02   -0.42146E-05   -0.42142E-05 12768   0.156E-02    0.392E+00
DAV:   6    -0.141435294706E+02    0.11695E+01   -0.30224E+00 13824   0.249E+00    0.176E+00
DAV:   7    -0.139522040213E+02    0.19133E+00   -0.37171E-01 16464   0.992E-01    0.104E+00
DAV:   8    -0.138797858857E+02    0.72418E-01   -0.10584E-01 16296   0.594E-01    0.210E-01
DAV:   9    -0.138735257630E+02    0.62601E-02   -0.67915E-02 17952   0.327E-01    0.287E-01
DAV:  10    -0.138689057285E+02    0.46200E-02   -0.18128E-02 16464   0.217E-01    0.550E-02
DAV:  11    -0.138693078028E+02   -0.40207E-03   -0.16053E-03 17304   0.987E-02    0.404E-02
DAV:  12    -0.138704196296E+02   -0.11118E-02   -0.73472E-04 14568   0.533E-02    0.195E-02
DAV:  13    -0.138713767475E+02   -0.95712E-03   -0.10575E-04 12480   0.213E-02    0.122E-02
DAV:  14    -0.138717421302E+02   -0.36538E-03   -0.17427E-04 12240   0.180E-02    0.117E-02
DAV:  15    -0.138723011331E+02   -0.55900E-03   -0.94704E-05 11976   0.152E-02    0.297E-03
DAV:  16    -0.138724473633E+02   -0.14623E-03   -0.16880E-05 13200   0.633E-03    0.215E-03
DAV:  17    -0.138725026407E+02   -0.55277E-04   -0.56662E-06 11688   0.307E-03    0.668E-04
DAV:  18    -0.138725227568E+02   -0.20116E-04   -0.46332E-07 13104   0.107E-03    0.527E-04
DAV:  19    -0.138725306701E+02   -0.79133E-05   -0.47619E-07 12168   0.841E-04    0.191E-04
DAV:  20    -0.138725345968E+02   -0.39267E-05   -0.37757E-08 12408   0.286E-04    0.115E-04
DAV:  21    -0.138725353460E+02   -0.74925E-06   -0.80955E-09 14736   0.122E-04
   1 F= -.13872535E+02 E0= -.13871311E+02  d E =-.138725E+02
       N       E                     dE             d eps       ncg     rms          rms(c)
DAV:   1    -0.142444855651E+02   -0.37195E+00   -0.54629E+00  9408   0.691E+00    0.361E-01
DAV:   2    -0.142439011529E+02    0.58441E-03   -0.48666E-02 13512   0.709E-01    0.182E-01
DAV:   3    -0.142430265895E+02    0.87456E-03   -0.39790E-03 16728   0.113E-01    0.610E-02
DAV:   4    -0.142429880662E+02    0.38523E-04   -0.29145E-04 13872   0.392E-02    0.150E-02
DAV:   5    -0.142429855266E+02    0.25396E-05   -0.29558E-05 15144   0.120E-02    0.564E-03
DAV:   6    -0.142429932557E+02   -0.77291E-05   -0.48621E-06 12792   0.433E-03    0.276E-03
DAV:   7    -0.142430071577E+02   -0.13902E-04   -0.11349E-06 13032   0.216E-03    0.147E-03
DAV:   8    -0.142430228847E+02   -0.15727E-04   -0.16283E-06 12288   0.184E-03    0.865E-04
DAV:   9    -0.142430393555E+02   -0.16471E-04   -0.20236E-06 12264   0.187E-03    0.299E-04
DAV:  10    -0.142430427653E+02   -0.34097E-05   -0.15152E-07 13584   0.595E-04    0.218E-04
DAV:  11    -0.142430472625E+02   -0.44972E-05   -0.17706E-07 11976   0.608E-04    0.822E-05
DAV:  12    -0.142430481535E+02   -0.89100E-06   -0.68069E-09 11832   0.115E-04
   2 F= -.14243048E+02 E0= -.14241766E+02  d E =-.370513E+00
       N       E                     dE             d eps       ncg     rms          rms(c)
DAV:   1    -0.151765908945E+02   -0.93354E+00   -0.47838E+01  9408   0.203E+01    0.103E+00
DAV:   2    -0.151989176154E+02   -0.22327E-01   -0.46936E-01 12816   0.220E+00    0.631E-01
DAV:   3    -0.151911264291E+02    0.77912E-02   -0.40153E-02 15624   0.389E-01    0.114E-01
DAV:   4    -0.151911405712E+02   -0.14142E-04   -0.81457E-04 12600   0.841E-02    0.486E-02
DAV:   5    -0.151911552165E+02   -0.14645E-04   -0.13529E-04 14064   0.245E-02    0.923E-03
DAV:   6    -0.151911670953E+02   -0.11879E-04   -0.10478E-05 12624   0.767E-03    0.332E-03
DAV:   7    -0.151911772000E+02   -0.10105E-04   -0.99669E-07 13008   0.256E-03    0.161E-03
DAV:   8    -0.151911881948E+02   -0.10995E-04   -0.60700E-07 12648   0.128E-03    0.886E-04
DAV:   9    -0.151912017914E+02   -0.13597E-04   -0.11607E-06 12144   0.147E-03    0.485E-04
DAV:  10    -0.151912093077E+02   -0.75163E-05   -0.65591E-07 13200   0.103E-03    0.311E-04
DAV:  11    -0.151912131782E+02   -0.38705E-05   -0.23415E-07 12600   0.581E-04    0.118E-04
DAV:  12    -0.151912148357E+02   -0.16576E-05   -0.30020E-08 13080   0.271E-04    0.666E-05
DAV:  13    -0.151912153563E+02   -0.52060E-06   -0.79312E-09 11544   0.119E-04
   3 F= -.15191215E+02 E0= -.15189586E+02  d E =-.131868E+01
       N       E                     dE             d eps       ncg     rms          rms(c)
DAV:   1    -0.145629909829E+02    0.62822E+00   -0.16932E+02  9408   0.346E+01    0.309E+00
DAV:   2    -0.146192116541E+02   -0.56221E-01   -0.21939E+00 14136   0.460E+00    0.194E+00
DAV:   3    -0.145601840097E+02    0.59028E-01   -0.34797E-01 14208   0.120E+00    0.189E-01
DAV:   4    -0.145590316796E+02    0.11523E-02   -0.59937E-03 14208   0.244E-01    0.108E-01
DAV:   5    -0.145586560776E+02    0.37560E-03   -0.17301E-03 11592   0.915E-02    0.160E-02
DAV:   6    -0.145586881224E+02   -0.32045E-04   -0.42679E-05 12360   0.199E-02    0.982E-03
DAV:   7    -0.145587613144E+02   -0.73192E-04   -0.48680E-05 13368   0.121E-02    0.427E-03
DAV:   8    -0.145588305340E+02   -0.69220E-04   -0.17066E-05 13032   0.634E-03    0.218E-03
DAV:   9    -0.145588695824E+02   -0.39048E-04   -0.11827E-05 13752   0.459E-03    0.140E-03
DAV:  10    -0.145588909430E+02   -0.21361E-04   -0.70743E-06 13176   0.320E-03    0.604E-04
DAV:  11    -0.145588952863E+02   -0.43433E-05   -0.51631E-07 13440   0.952E-04    0.331E-04
DAV:  12    -0.145588970907E+02   -0.18044E-05   -0.20615E-07 12648   0.544E-04    0.173E-04
DAV:  13    -0.145588980773E+02   -0.98664E-06   -0.94451E-08 12192   0.352E-04
   4 F= -.14558898E+02 E0= -.14558647E+02  d E =-.686363E+00
       N       E                     dE             d eps       ncg     rms          rms(c)
DAV:   1    -0.155775703570E+02   -0.10187E+01   -0.92701E+01  9408   0.272E+01    0.243E+00
DAV:   2    -0.155303408684E+02    0.47229E-01   -0.50010E-01 12216   0.239E+00    0.144E+00
DAV:   3    -0.155076538499E+02    0.22687E-01   -0.13206E-01 14952   0.724E-01    0.167E-01
DAV:   4    -0.155071392723E+02    0.51458E-03   -0.30319E-03 13176   0.171E-01    0.808E-02
DAV:   5    -0.155066912431E+02    0.44803E-03   -0.14353E-03 11856   0.690E-02    0.165E-02
DAV:   6    -0.155066654224E+02    0.25821E-04   -0.49691E-05 17040   0.196E-02    0.710E-03
DAV:   7    -0.155066612481E+02    0.41744E-05   -0.17747E-05 16560   0.702E-03    0.431E-03
DAV:   8    -0.155066942737E+02   -0.33026E-04   -0.12772E-05 13416   0.547E-03    0.211E-03
DAV:   9    -0.155067141826E+02   -0.19909E-04   -0.24103E-06 13272   0.253E-03    0.148E-03
DAV:  10    -0.155067385321E+02   -0.24350E-04   -0.35029E-06 13032   0.244E-03    0.718E-04
DAV:  11    -0.155067540877E+02   -0.15556E-04   -0.86688E-07 12600   0.147E-03    0.280E-04
DAV:  12    -0.155067562917E+02   -0.22040E-05   -0.18998E-08 13800   0.270E-04    0.182E-04
DAV:  13    -0.155067602242E+02   -0.39325E-05   -0.19064E-07 12168   0.468E-04    0.635E-05
DAV:  14    -0.155067615045E+02   -0.12803E-05   -0.41783E-08 13272   0.196E-04    0.316E-05
DAV:  15    -0.155067618091E+02   -0.30462E-06   -0.50398E-09 13416   0.692E-05
   5 F= -.15506762E+02 E0= -.15505890E+02  d E =-.163423E+01
       N       E                     dE             d eps       ncg     rms          rms(c)
DAV:   1    -0.155328412192E+02   -0.26080E-01   -0.40599E+00  9408   0.592E+00    0.407E-01
DAV:   2    -0.155329427217E+02   -0.10150E-03   -0.26800E-02 14832   0.595E-01    0.244E-01
DAV:   3    -0.155323015125E+02    0.64121E-03   -0.44457E-03 15456   0.136E-01    0.236E-02
DAV:   4    -0.155322814876E+02    0.20025E-04   -0.77323E-05 12696   0.271E-02    0.125E-02
DAV:   5    -0.155322695485E+02    0.11939E-04   -0.29029E-05 11736   0.104E-02    0.179E-03
DAV:   6    -0.155322705926E+02   -0.10440E-05   -0.72291E-07 12720   0.252E-03    0.112E-03
DAV:   7    -0.155322740104E+02   -0.34179E-05   -0.98802E-07 12144   0.155E-03    0.586E-04
DAV:   8    -0.155322792057E+02   -0.51952E-05   -0.66667E-07 12984   0.106E-03    0.280E-04
DAV:   9    -0.155322816691E+02   -0.24634E-05   -0.22707E-07 13728   0.559E-04    0.188E-04
DAV:  10    -0.155322838238E+02   -0.21547E-05   -0.31140E-07 12936   0.600E-04    0.890E-05
DAV:  11    -0.155322845401E+02   -0.71630E-06   -0.76743E-08 13488   0.288E-04
   6 F= -.15532285E+02 E0= -.15531522E+02  d E =-.165975E+01
       N       E                     dE             d eps       ncg     rms          rms(c)
DAV:   1    -0.157367787229E+02   -0.20449E+00   -0.16402E+01  9408   0.125E+01    0.914E-01
DAV:   2    -0.157268522965E+02    0.99264E-02   -0.12629E-01 15504   0.119E+00    0.520E-01
DAV:   3    -0.157210002193E+02    0.58521E-02   -0.28065E-02 15936   0.295E-01    0.744E-02
DAV:   4    -0.157210094906E+02   -0.92713E-05   -0.54483E-04 13152   0.698E-02    0.341E-02
DAV:   5    -0.157210713141E+02   -0.61824E-04   -0.87527E-05 15048   0.205E-02    0.917E-03
DAV:   6    -0.157212031608E+02   -0.13185E-03   -0.38727E-05 14256   0.112E-02    0.533E-03
DAV:   7    -0.157213156708E+02   -0.11251E-03   -0.36725E-05 13968   0.952E-03    0.339E-03
DAV:   8    -0.157214005688E+02   -0.84898E-04   -0.29519E-05 14040   0.731E-03    0.160E-03
DAV:   9    -0.157214259545E+02   -0.25386E-04   -0.52643E-06 13848   0.296E-03    0.822E-04
DAV:  10    -0.157214333305E+02   -0.73760E-05   -0.11960E-06 12768   0.131E-03    0.487E-04
DAV:  11    -0.157214379897E+02   -0.46592E-05   -0.57793E-07 13272   0.898E-04    0.209E-04
DAV:  12    -0.157214392055E+02   -0.12158E-05   -0.59682E-08 14640   0.327E-04    0.122E-04
DAV:  13    -0.157214396230E+02   -0.41750E-06   -0.31133E-08 11856   0.196E-04
   7 F= -.15721440E+02 E0= -.15721233E+02  d E =-.189155E+00
       N       E                     dE             d eps       ncg     rms          rms(c)
DAV:   1    -0.157221573121E+02   -0.71811E-03   -0.43950E-02 12120   0.641E-01    0.580E-02
DAV:   2    -0.157220939922E+02    0.63320E-04   -0.39885E-04 13512   0.603E-02    0.312E-02
DAV:   3    -0.157220702844E+02    0.23708E-04   -0.10342E-04 13200   0.174E-02    0.492E-03
DAV:   4    -0.157220698639E+02    0.42049E-06   -0.25168E-06 15096   0.481E-03
   8 F= -.15722070E+02 E0= -.15721798E+02  d E =-.189785E+00
       N       E                     dE             d eps       ncg     rms          rms(c)
DAV:   1    -0.157423899099E+02   -0.20320E-01   -0.16318E+00  9408   0.371E+00    0.344E-01
DAV:   2    -0.157400828322E+02    0.23071E-02   -0.14204E-02 16296   0.386E-01    0.186E-01
DAV:   3    -0.157393507085E+02    0.73212E-03   -0.37558E-03 14064   0.115E-01    0.348E-02
DAV:   4    -0.157393422513E+02    0.84572E-05   -0.11091E-04 15696   0.327E-02    0.106E-02
DAV:   5    -0.157393368509E+02    0.54005E-05   -0.85155E-06 14760   0.609E-03    0.234E-03
DAV:   6    -0.157393381286E+02   -0.12777E-05   -0.16715E-06 14064   0.241E-03    0.151E-03
DAV:   7    -0.157393437468E+02   -0.56183E-05   -0.16582E-06 12600   0.193E-03    0.101E-03
DAV:   8    -0.157393538591E+02   -0.10112E-04   -0.11269E-06 12720   0.143E-03    0.449E-04
DAV:   9    -0.157393601970E+02   -0.63379E-05   -0.41650E-07 13416   0.692E-04    0.217E-04
DAV:  10    -0.157393622767E+02   -0.20797E-05   -0.10511E-07 12720   0.332E-04    0.147E-04
DAV:  11    -0.157393640360E+02   -0.17593E-05   -0.72641E-08 12192   0.291E-04    0.669E-05
DAV:  12    -0.157393647647E+02   -0.72875E-06   -0.12199E-08 12072   0.122E-04
   9 F= -.15739365E+02 E0= -.15739048E+02  d E =-.172949E-01
       N       E                     dE             d eps       ncg     rms          rms(c)
DAV:   1    -0.157398052464E+02   -0.44121E-03   -0.27205E-02  9528   0.479E-01    0.441E-02
DAV:   2    -0.157397692727E+02    0.35974E-04   -0.28500E-04 13776   0.549E-02    0.238E-02
DAV:   3    -0.157397567678E+02    0.12505E-04   -0.63121E-05 12744   0.151E-02    0.438E-03
DAV:   4    -0.157397564936E+02    0.27420E-06   -0.19471E-06 14736   0.431E-03
  10 F= -.15739756E+02 E0= -.15739446E+02  d E =-.176866E-01
       N       E                     dE             d eps       ncg     rms          rms(c)
DAV:   1    -0.157404281932E+02   -0.67143E-03   -0.26851E-02 10728   0.521E-01    0.467E-02
DAV:   2    -0.157404018605E+02    0.26333E-04   -0.25503E-04 12600   0.513E-02    0.254E-02
DAV:   3    -0.157403903078E+02    0.11553E-04   -0.57400E-05 11880   0.141E-02    0.445E-03
DAV:   4    -0.157403899667E+02    0.34111E-06   -0.16962E-06 13968   0.389E-03
  11 F= -.15740390E+02 E0= -.15740106E+02  d E =-.633473E-03
       N       E                     dE             d eps       ncg     rms          rms(c)
DAV:   1    -0.157404412043E+02   -0.50896E-04   -0.28664E-03 15552   0.170E-01    0.140E-02
DAV:   2    -0.157404378237E+02    0.33806E-05   -0.17781E-05 16704   0.129E-02    0.775E-03
DAV:   3    -0.157404361765E+02    0.16473E-05   -0.57444E-06 13824   0.447E-03    0.144E-03
DAV:   4    -0.157404362250E+02   -0.48532E-07   -0.19131E-07 14520   0.126E-03
  12 F= -.15740436E+02 E0= -.15740167E+02  d E =-.679731E-03
       N       E                     dE             d eps       ncg     rms          rms(c)
DAV:   1    -0.157404606148E+02   -0.24438E-04   -0.14814E-03 13416   0.113E-01    0.127E-02
DAV:   2    -0.157404550878E+02    0.55270E-05   -0.19541E-05 12984   0.133E-02    0.699E-03
DAV:   3    -0.157404527300E+02    0.23578E-05   -0.10454E-05 13632   0.672E-03    0.127E-03
DAV:   4    -0.157404529397E+02   -0.20967E-06   -0.39032E-07 14448   0.190E-03
  13 F= -.15740453E+02 E0= -.15740187E+02  d E =-.167147E-04
       N       E                     dE             d eps       ncg     rms          rms(c)
DAV:   1    -0.157404598136E+02   -0.70836E-05   -0.16822E-04 12240   0.380E-02    0.422E-03
DAV:   2    -0.157404597295E+02    0.84140E-07   -0.25060E-06 13392   0.489E-03
  14 F= -.15740460E+02 E0= -.15740192E+02  d E =-.235045E-04
       N       E                     dE             d eps       ncg     rms          rms(c)
DAV:   1    -0.157404601081E+02   -0.29453E-06   -0.92173E-07 14160   0.312E-03    0.417E-04
DAV:   2    -0.157404601814E+02   -0.73222E-07   -0.23282E-08 15168   0.509E-04
  15 F= -.15740460E+02 E0= -.15740193E+02  d E =-.239564E-04
       N       E                     dE             d eps       ncg     rms          rms(c)
DAV:   1    -0.157404603276E+02   -0.21949E-06   -0.14326E-07 14400   0.108E-03    0.110E-04
DAV:   2    -0.157404603408E+02   -0.13178E-07   -0.24919E-10 15216   0.957E-05
  16 F= -.15740460E+02 E0= -.15740193E+02  d E =-.241158E-04
       N       E                     dE             d eps       ncg     rms          rms(c)
DAV:   1    -0.157404603766E+02   -0.48938E-07   -0.12412E-08 12816   0.360E-04    0.429E-05
DAV:   2    -0.157404603888E+02   -0.12240E-07    0.49892E-10 15168   0.322E-05
  17 F= -.15740460E+02 E0= -.15740193E+02  d E =-.241638E-04
       N       E                     dE             d eps       ncg     rms          rms(c)
DAV:   1    -0.157404604201E+02   -0.43567E-07   -0.10774E-08 12768   0.318E-04    0.347E-05
DAV:   2    -0.157404604265E+02   -0.63464E-08    0.52119E-10 15384   0.316E-05
  18 F= -.15740460E+02 E0= -.15740194E+02  d E =-.242015E-04
       N       E                     dE             d eps       ncg     rms          rms(c)
DAV:   1    -0.157404604423E+02   -0.22123E-07   -0.21025E-09 12912   0.159E-04    0.184E-05
DAV:   2    -0.157404604463E+02   -0.40028E-08    0.61527E-10 15120   0.148E-05
  19 F= -.15740460E+02 E0= -.15740194E+02  d E =-.242213E-04
       N       E                     dE             d eps       ncg     rms          rms(c)
DAV:   1    -0.157404604557E+02   -0.13446E-07   -0.10043E-10 12720   0.804E-05    0.935E-06
DAV:   2    -0.157404604585E+02   -0.28084E-08    0.64303E-10 14568   0.782E-06
  20 F= -.15740460E+02 E0= -.15740194E+02  d E =-.242335E-04
       N       E                     dE             d eps       ncg     rms          rms(c)
DAV:   1    -0.157404604640E+02   -0.82910E-08    0.42886E-10 12264   0.408E-05    0.473E-06
DAV:   2    -0.157404604655E+02   -0.15097E-08    0.65184E-10 15432   0.418E-06
  21 F= -.15740460E+02 E0= -.15740194E+02  d E =-.242405E-04
       N       E                     dE             d eps       ncg     rms          rms(c)
DAV:   1    -0.157404604695E+02   -0.55533E-08    0.57450E-10 12360   0.211E-05    0.233E-06
DAV:   2    -0.157404604700E+02   -0.50115E-09    0.65553E-10 15600   0.215E-06
  22 F= -.15740460E+02 E0= -.15740194E+02  d E =-.242451E-04
       N       E                     dE             d eps       ncg     rms          rms(c)
DAV:   1    -0.157404604721E+02   -0.25975E-08    0.61987E-10 12384   0.112E-05    0.108E-06
DAV:   2    -0.157404604726E+02   -0.43367E-09    0.65442E-10 15024   0.112E-06
  23 F= -.15740460E+02 E0= -.15740194E+02  d E =-.242476E-04
       N       E                     dE             d eps       ncg     rms          rms(c)
DAV:   1    -0.157404604732E+02   -0.10822E-08    0.63726E-10 12432   0.612E-06    0.440E-07
DAV:   2    -0.157404604729E+02    0.31365E-09    0.65582E-10 13464   0.556E-07
  24 F= -.15740460E+02 E0= -.15740194E+02  d E =-.242479E-04
       N       E                     dE             d eps       ncg     rms          rms(c)
DAV:   1    -0.157404604735E+02   -0.23728E-09    0.65089E-10 12120   0.309E-06    0.185E-07
DAV:   2    -0.157404604733E+02    0.17042E-09    0.65630E-10 10320   0.279E-07
  25 F= -.15740460E+02 E0= -.15740194E+02  d E =-.242483E-04
       N       E                     dE             d eps       ncg     rms          rms(c)
DAV:   1    -0.157404604737E+02   -0.19352E-09    0.65349E-10 11424   0.138E-06    0.111E-07
DAV:   2    -0.157404604734E+02    0.25555E-09    0.65248E-10  7560   0.153E-07
  26 F= -.15740460E+02 E0= -.15740194E+02  d E =-.242484E-04
       N       E                     dE             d eps       ncg     rms          rms(c)
DAV:   1    -0.157404604736E+02    0.92967E-10    0.65538E-10 11712   0.684E-07    0.616E-08
DAV:   2    -0.157404604735E+02    0.86317E-10    0.65564E-10  6288   0.789E-08
  27 F= -.15740460E+02 E0= -.15740194E+02  d E =-.242485E-04
       N       E                     dE             d eps       ncg     rms          rms(c)
DAV:   1    -0.157404604733E+02    0.27295E-09    0.65737E-10 10152   0.357E-07    0.305E-08
DAV:   2    -0.157404604733E+02   -0.54712E-11    0.65641E-10  5352   0.553E-08
  28 F= -.15740460E+02 E0= -.15740194E+02  d E =-.242483E-04
       N       E                     dE             d eps       ncg     rms          rms(c)
DAV:   1    -0.157404608369E+02   -0.36356E-06   -0.28738E-05  9408   0.150E-02    0.144E-03
DAV:   2    -0.157404607701E+02    0.66703E-07   -0.32207E-07 14520   0.185E-03
  29 F= -.15740461E+02 E0= -.15740194E+02  d E =-.296850E-06
