       N       E                     dE             d eps       ncg     rms          rms(c)
DAV:   1     0.841719685202E+03    0.84172E+03   -0.33975E+04  2730   0.834E+02
DAV:   2    -0.155453238611E+03   -0.99717E+03   -0.96328E+03  4214   0.176E+02
DAV:   3    -0.265099567110E+03   -0.10965E+03   -0.10785E+03  3430   0.646E+01
DAV:   4    -0.268496787822E+03   -0.33972E+01   -0.33817E+01  3584   0.129E+01
DAV:   5    -0.268576494978E+03   -0.79707E-01   -0.79588E-01  3864   0.178E+00    0.150E+01
DAV:   6    -0.258647966858E+03    0.99285E+01   -0.74694E+00  3038   0.541E+00    0.882E+00
DAV:   7    -0.253528722972E+03    0.51192E+01   -0.78352E+00  3017   0.578E+00    0.176E+00
DAV:   8    -0.253211957517E+03    0.31677E+00   -0.98888E-01  3696   0.201E+00    0.118E+00
DAV:   9    -0.253007345006E+03    0.20461E+00   -0.78733E-02  3325   0.767E-01    0.405E-01
DAV:  10    -0.252941107779E+03    0.66237E-01   -0.55628E-02  3332   0.498E-01    0.328E-01
DAV:  11    -0.252904919823E+03    0.36188E-01   -0.74734E-02  3297   0.487E-01    0.214E-01
DAV:  12    -0.252929669390E+03   -0.24750E-01   -0.28367E-02  3248   0.350E-01    0.184E-01
DAV:  13    -0.252933581799E+03   -0.39124E-02   -0.80529E-03  3185   0.217E-01    0.100E-01
DAV:  14    -0.252941070064E+03   -0.74883E-02   -0.15495E-03  3304   0.839E-02    0.334E-02
DAV:  15    -0.252950128585E+03   -0.90585E-02   -0.11248E-03  2877   0.539E-02    0.425E-02
DAV:  16    -0.252952523062E+03   -0.23945E-02   -0.18477E-04  3080   0.231E-02    0.124E-02
DAV:  17    -0.252953594636E+03   -0.10716E-02   -0.89487E-05  3192   0.197E-02    0.850E-03
DAV:  18    -0.252954429189E+03   -0.83455E-03   -0.64935E-05  2891   0.117E-02    0.305E-03
DAV:  19    -0.252954526665E+03   -0.97476E-04   -0.30043E-06  3199   0.290E-03    0.271E-03
DAV:  20    -0.252954690877E+03   -0.16421E-03   -0.39673E-06  2863   0.376E-03    0.185E-03
DAV:  21    -0.252954712823E+03   -0.21946E-04   -0.66097E-07  3199   0.196E-03    0.133E-03
DAV:  22    -0.252954739592E+03   -0.26769E-04   -0.29084E-07  3080   0.116E-03    0.650E-04
DAV:  23    -0.252954745117E+03   -0.55250E-05   -0.61717E-08  3010   0.651E-04    0.252E-04
DAV:  24    -0.252954749608E+03   -0.44907E-05   -0.24548E-08  2527   0.229E-04    0.129E-04
DAV:  25    -0.252954750901E+03   -0.12935E-05   -0.35820E-09  2128   0.175E-04    0.845E-05
DAV:  26    -0.252954751331E+03   -0.42903E-06   -0.55466E-10  2037   0.105E-04    0.756E-05
DAV:  27    -0.252954751470E+03   -0.13917E-06    0.12094E-09  2030   0.695E-05    0.116E-05
DAV:  28    -0.252954751509E+03   -0.39605E-07    0.15455E-09  2086   0.381E-05    0.150E-05
DAV:  29    -0.252954751530E+03   -0.20419E-07    0.17597E-09  2044   0.201E-05    0.113E-05
DAV:  30    -0.252954751538E+03   -0.86136E-08    0.18030E-09  2261   0.110E-05
   1 F= -.26430481E+03 E0= -.26427792E+03  d E =-.537666E-01
