 running   42 mpi-ranks, on    1 nodes
 distrk:  each k-point on   42 cores,    1 groups
 distr:  one band on    1 cores,   42 groups
 vasp.6.5.0 16Dec24 (build Jan 08 2025 16:17:04) complex                        
  
 POSCAR found type information on POSCAR Be
 POSCAR found :  1 types and       1 ions
 Reading from existing POTCAR
 scaLAPACK will be used
 -----------------------------------------------------------------------------
|                                                                             |
|           W    W    AA    RRRRR   N    N  II  N    N   GGGG   !!!           |
|           W    W   A  A   R    R  NN   N  II  NN   N  G    G  !!!           |
|           W    W  A    A  R    R  N N  N  II  N N  N  G       !!!           |
|           W WW W  AAAAAA  RRRRR   N  N N  II  N  N N  G  GGG   !            |
|           WW  WW  A    A  R   R   N   NN  II  N   NN  G    G                |
|           W    W  A    A  R    R  N    N  II  N    N   GGGG   !!!           |
|                                                                             |
|     For optimal performance we recommend to set                             |
|       NCORE = 2 up to number-of-cores-per-socket                            |
|     NCORE specifies how many cores store one orbital (NPAR=cpu/NCORE).      |
|     This setting can greatly improve the performance of VASP for DFT.       |
|     The default, NCORE=1 might be grossly inefficient on modern             |
|     multi-core architectures or massively parallel machines. Do your        |
|     own testing! More info at https://www.vasp.at/wiki/index.php/NCORE      |
|     Unfortunately you need to use the default for GW and RPA                |
|     calculations (for HF NCORE is supported but not extensively tested      |
|     yet).                                                                   |
|                                                                             |
 -----------------------------------------------------------------------------

 Reading from existing POTCAR
 LDA part: xc-table for (Slater+PW92), standard interpolation
 -----------------------------------------------------------------------------
|                                                                             |
|           W    W    AA    RRRRR   N    N  II  N    N   GGGG   !!!           |
|           W    W   A  A   R    R  NN   N  II  NN   N  G    G  !!!           |
|           W    W  A    A  R    R  N N  N  II  N N  N  G       !!!           |
|           W WW W  AAAAAA  RRRRR   N  N N  II  N  N N  G  GGG   !            |
|           WW  WW  A    A  R   R   N   NN  II  N   NN  G    G                |
|           W    W  A    A  R    R  N    N  II  N    N   GGGG   !!!           |
|                                                                             |
|     The requested file  could not be found or opened for reading            |
|     k-point information. Automatic k-point generation is used as a          |
|     fallback, which may lead to unwanted results.                           |
|                                                                             |
 -----------------------------------------------------------------------------

 INCAR ok, starting setup
 POSCAR ok, starting setup
 FFT: planning ... GRIDC
 FFT: planning ... GRID_SOFT
 FFT: planning ... GRID
 WAVECAR not read
 entering main loop
       N       E                     dE             d eps       ncg     rms          rms(c)
DAV:   1    -0.282163494866E+00   -0.28216E+00   -0.96354E+02  1344   0.373E+01
DAV:   2    -0.336272210862E+01   -0.30806E+01   -0.24110E+01  2016   0.479E+00
DAV:   3    -0.336641411723E+01   -0.36920E-02   -0.36915E-02  1386   0.193E-01
DAV:   4    -0.336641922811E+01   -0.51109E-05   -0.51110E-05  2646   0.729E-03
DAV:   5    -0.336641922713E+01    0.98244E-09    0.34396E-10  1428   0.136E-05    0.259E+00
DAV:   6    -0.305360207840E+01    0.31282E+00   -0.17516E-01  1806   0.234E-01    0.874E-01
DAV:   7    -0.298199986031E+01    0.71602E-01   -0.59787E-02  1890   0.122E-01    0.372E-01
DAV:   8    -0.295893747772E+01    0.23062E-01   -0.48801E-02  1974   0.103E-01    0.232E-01
DAV:   9    -0.295939499448E+01   -0.45752E-03   -0.43440E-03  1890   0.400E-02    0.597E-02
DAV:  10    -0.295825056626E+01    0.11444E-02   -0.16086E-03  2142   0.166E-02    0.309E-02
DAV:  11    -0.295891748985E+01   -0.66692E-03   -0.63950E-04  2058   0.127E-02    0.121E-02
DAV:  12    -0.295923757853E+01   -0.32009E-03   -0.39914E-05  1974   0.410E-03    0.645E-03
DAV:  13    -0.295948188035E+01   -0.24430E-03   -0.34811E-05  1974   0.275E-03    0.333E-03
DAV:  14    -0.295964829799E+01   -0.16642E-03   -0.25333E-05  1806   0.177E-03    0.122E-03
DAV:  15    -0.295970053884E+01   -0.52241E-04   -0.76148E-06  1890   0.705E-04    0.782E-04
DAV:  16    -0.295971638940E+01   -0.15851E-04   -0.11809E-06  1806   0.302E-04    0.332E-04
DAV:  17    -0.295972422949E+01   -0.78401E-05   -0.46802E-07  1890   0.179E-04    0.152E-04
DAV:  18    -0.295972525403E+01   -0.10245E-05   -0.62190E-09  1974   0.332E-05    0.887E-05
DAV:  19    -0.295972596794E+01   -0.71391E-06   -0.96387E-09  1596   0.340E-05
   1 F= -.30656629E+01 E0= -.30645795E+01  d E =-.216689E-02
 Found     3 degrees of freedom:
 Finite differences POTIM= 0.01500 DOF=   3
 -----------------------------------------------------------------------------
|                                                                             |
|           W    W    AA    RRRRR   N    N  II  N    N   GGGG   !!!           |
|           W    W   A  A   R    R  NN   N  II  NN   N  G    G  !!!           |
|           W    W  A    A  R    R  N N  N  II  N N  N  G       !!!           |
|           W WW W  AAAAAA  RRRRR   N  N N  II  N  N N  G  GGG   !            |
|           WW  WW  A    A  R   R   N   NN  II  N   NN  G    G                |
|           W    W  A    A  R    R  N    N  II  N    N   GGGG   !!!           |
|                                                                             |
|     The requested file  could not be found or opened for reading            |
|     k-point information. Automatic k-point generation is used as a          |
|     fallback, which may lead to unwanted results.                           |
|                                                                             |
 -----------------------------------------------------------------------------

 bond charge predicted
       N       E                     dE             d eps       ncg     rms          rms(c)
DAV:   1    -0.295970308118E+01    0.22173E-04   -0.37179E-02  1344   0.135E-01    0.247E-02
DAV:   2    -0.295971858446E+01   -0.15503E-04   -0.34282E-05  2058   0.659E-03    0.154E-02
DAV:   3    -0.295972630492E+01   -0.77205E-05   -0.62816E-06  1932   0.229E-03    0.392E-04
DAV:   4    -0.295972632038E+01   -0.15463E-07   -0.34337E-09  1974   0.610E-05
   2 F= -.30656633E+01 E0= -.30645799E+01  d E =-.216687E-02
 Finite differences progress:
  Degree of freedom:   1/  3
  Displacement:        1/  2
  Total:               1/  6
 -----------------------------------------------------------------------------
|                                                                             |
|           W    W    AA    RRRRR   N    N  II  N    N   GGGG   !!!           |
|           W    W   A  A   R    R  NN   N  II  NN   N  G    G  !!!           |
|           W    W  A    A  R    R  N N  N  II  N N  N  G       !!!           |
|           W WW W  AAAAAA  RRRRR   N  N N  II  N  N N  G  GGG   !            |
|           WW  WW  A    A  R   R   N   NN  II  N   NN  G    G                |
|           W    W  A    A  R    R  N    N  II  N    N   GGGG   !!!           |
|                                                                             |
|     The requested file  could not be found or opened for reading            |
|     k-point information. Automatic k-point generation is used as a          |
|     fallback, which may lead to unwanted results.                           |
|                                                                             |
 -----------------------------------------------------------------------------

 bond charge predicted
       N       E                     dE             d eps       ncg     rms          rms(c)
DAV:   1    -0.295963906012E+01    0.87245E-04   -0.14868E-01  1344   0.270E-01    0.493E-02
DAV:   2    -0.295969552203E+01   -0.56462E-04   -0.83954E-05  1638   0.103E-02    0.308E-02
DAV:   3    -0.295972628696E+01   -0.30765E-04   -0.25269E-05  2226   0.460E-03    0.787E-04
DAV:   4    -0.295972632318E+01   -0.36225E-07   -0.11532E-08  2058   0.107E-04
   3 F= -.30656633E+01 E0= -.30645799E+01  d E =-.216687E-02
 Finite differences progress:
  Degree of freedom:   1/  3
  Displacement:        2/  2
  Total:               2/  6
 -----------------------------------------------------------------------------
|                                                                             |
|           W    W    AA    RRRRR   N    N  II  N    N   GGGG   !!!           |
|           W    W   A  A   R    R  NN   N  II  NN   N  G    G  !!!           |
|           W    W  A    A  R    R  N N  N  II  N N  N  G       !!!           |
|           W WW W  AAAAAA  RRRRR   N  N N  II  N  N N  G  GGG   !            |
|           WW  WW  A    A  R   R   N   NN  II  N   NN  G    G                |
|           W    W  A    A  R    R  N    N  II  N    N   GGGG   !!!           |
|                                                                             |
|     The requested file  could not be found or opened for reading            |
|     k-point information. Automatic k-point generation is used as a          |
|     fallback, which may lead to unwanted results.                           |
|                                                                             |
 -----------------------------------------------------------------------------

 bond charge predicted
       N       E                     dE             d eps       ncg     rms          rms(c)
DAV:   1    -0.295969816079E+01    0.28126E-04   -0.45949E-02  1344   0.159E-01    0.349E-02
DAV:   2    -0.295971808734E+01   -0.19927E-04   -0.25705E-05  1596   0.602E-03    0.218E-02
DAV:   3    -0.295972600691E+01   -0.79196E-05   -0.11205E-05  2436   0.313E-03    0.554E-04
DAV:   4    -0.295972619681E+01   -0.18990E-06   -0.56930E-09  2184   0.727E-05
   4 F= -.30656632E+01 E0= -.30645797E+01  d E =-.216687E-02
 Finite differences progress:
  Degree of freedom:   2/  3
  Displacement:        1/  2
  Total:               3/  6
 -----------------------------------------------------------------------------
|                                                                             |
|           W    W    AA    RRRRR   N    N  II  N    N   GGGG   !!!           |
|           W    W   A  A   R    R  NN   N  II  NN   N  G    G  !!!           |
|           W    W  A    A  R    R  N N  N  II  N N  N  G       !!!           |
|           W WW W  AAAAAA  RRRRR   N  N N  II  N  N N  G  GGG   !            |
|           WW  WW  A    A  R   R   N   NN  II  N   NN  G    G                |
|           W    W  A    A  R    R  N    N  II  N    N   GGGG   !!!           |
|                                                                             |
|     The requested file  could not be found or opened for reading            |
|     k-point information. Automatic k-point generation is used as a          |
|     fallback, which may lead to unwanted results.                           |
|                                                                             |
 -----------------------------------------------------------------------------

 bond charge predicted
       N       E                     dE             d eps       ncg     rms          rms(c)
DAV:   1    -0.295963836850E+01    0.87638E-04   -0.14872E-01  1344   0.271E-01    0.494E-02
DAV:   2    -0.295969551115E+01   -0.57143E-04   -0.89577E-05  1722   0.107E-02    0.308E-02
DAV:   3    -0.295972629102E+01   -0.30780E-04   -0.25210E-05  2478   0.461E-03    0.788E-04
DAV:   4    -0.295972632941E+01   -0.38393E-07   -0.13537E-08  2310   0.113E-04
   5 F= -.30656633E+01 E0= -.30645799E+01  d E =-.216687E-02
 Finite differences progress:
  Degree of freedom:   2/  3
  Displacement:        2/  2
  Total:               4/  6
 -----------------------------------------------------------------------------
|                                                                             |
|           W    W    AA    RRRRR   N    N  II  N    N   GGGG   !!!           |
|           W    W   A  A   R    R  NN   N  II  NN   N  G    G  !!!           |
|           W    W  A    A  R    R  N N  N  II  N N  N  G       !!!           |
|           W WW W  AAAAAA  RRRRR   N  N N  II  N  N N  G  GGG   !            |
|           WW  WW  A    A  R   R   N   NN  II  N   NN  G    G                |
|           W    W  A    A  R    R  N    N  II  N    N   GGGG   !!!           |
|                                                                             |
|     The requested file  could not be found or opened for reading            |
|     k-point information. Automatic k-point generation is used as a          |
|     fallback, which may lead to unwanted results.                           |
|                                                                             |
 -----------------------------------------------------------------------------

 bond charge predicted
       N       E                     dE             d eps       ncg     rms          rms(c)
DAV:   1    -0.295993960785E+01   -0.21332E-03   -0.97350E-02  1344   0.194E-01    0.530E-02
DAV:   2    -0.295984922095E+01    0.90387E-04   -0.19562E-04  1764   0.110E-02    0.339E-02
DAV:   3    -0.295973167061E+01    0.11755E-03   -0.50838E-04  2058   0.899E-03    0.300E-03
DAV:   4    -0.295972396983E+01    0.77008E-05   -0.25631E-05  2310   0.198E-03    0.761E-04
DAV:   5    -0.295972389161E+01    0.78223E-07   -0.14433E-06  1974   0.453E-04
   6 F= -.30656609E+01 E0= -.30645774E+01  d E =-.216688E-02
 Finite differences progress:
  Degree of freedom:   3/  3
  Displacement:        1/  2
  Total:               5/  6
 -----------------------------------------------------------------------------
|                                                                             |
|           W    W    AA    RRRRR   N    N  II  N    N   GGGG   !!!           |
|           W    W   A  A   R    R  NN   N  II  NN   N  G    G  !!!           |
|           W    W  A    A  R    R  N N  N  II  N N  N  G       !!!           |
|           W WW W  AAAAAA  RRRRR   N  N N  II  N  N N  G  GGG   !            |
|           WW  WW  A    A  R   R   N   NN  II  N   NN  G    G                |
|           W    W  A    A  R    R  N    N  II  N    N   GGGG   !!!           |
|                                                                             |
|     The requested file  could not be found or opened for reading            |
|     k-point information. Automatic k-point generation is used as a          |
|     fallback, which may lead to unwanted results.                           |
|                                                                             |
 -----------------------------------------------------------------------------

 bond charge predicted
       N       E                     dE             d eps       ncg     rms          rms(c)
DAV:   1    -0.296066220978E+01   -0.93824E-03   -0.24179E-01  1344   0.267E-01    0.937E-02
DAV:   2    -0.296024014531E+01    0.42206E-03   -0.59777E-04  2226   0.144E-02    0.604E-02
DAV:   3    -0.295974675039E+01    0.49339E-03   -0.20331E-03  1890   0.175E-02    0.576E-03
DAV:   4    -0.295972388389E+01    0.22867E-04   -0.66579E-05  2100   0.334E-03    0.195E-03
DAV:   5    -0.295972074018E+01    0.31437E-05   -0.14136E-05  1932   0.139E-03    0.102E-03
DAV:   6    -0.295972353324E+01   -0.27931E-05   -0.94419E-06  2058   0.110E-03    0.346E-04
DAV:   7    -0.295972477153E+01   -0.12383E-05   -0.73373E-07  2142   0.312E-04    0.160E-04
DAV:   8    -0.295972526776E+01   -0.49623E-06   -0.20177E-07  2142   0.158E-04
   7 F= -.30656622E+01 E0= -.30645788E+01  d E =-.216688E-02
 Finite differences progress:
  Degree of freedom:   3/  3
  Displacement:        2/  2
  Total:               6/  6
 -----------------------------------------------------------------------------
|                                                                             |
|           W    W    AA    RRRRR   N    N  II  N    N   GGGG   !!!           |
|           W    W   A  A   R    R  NN   N  II  NN   N  G    G  !!!           |
|           W    W  A    A  R    R  N N  N  II  N N  N  G       !!!           |
|           W WW W  AAAAAA  RRRRR   N  N N  II  N  N N  G  GGG   !            |
|           WW  WW  A    A  R   R   N   NN  II  N   NN  G    G                |
|           W    W  A    A  R    R  N    N  II  N    N   GGGG   !!!           |
|                                                                             |
|     The requested file  could not be found or opened for reading            |
|     k-point information. Automatic k-point generation is used as a          |
|     fallback, which may lead to unwanted results.                           |
|                                                                             |
 -----------------------------------------------------------------------------


===================================================================================
=   BAD TERMINATION OF ONE OF YOUR APPLICATION PROCESSES
=   RANK 0 PID 3859733 RUNNING AT cmt01.physics.usyd.edu.au
=   KILLED BY SIGNAL: 6 (Aborted)
===================================================================================
