 running   24 mpi-ranks, on    1 nodes
 distrk:  each k-point on    6 cores,    4 groups
 distr:  one band on    6 cores,    1 groups
 vasp.6.5.0 16Dec24 (build Jan 08 2025 16:17:04) complex                        
  
 POSCAR found type information on POSCAR BeH 
 POSCAR found :  2 types and      75 ions
 Reading from existing POTCAR
 scaLAPACK will be used
 Reading from existing POTCAR
 -----------------------------------------------------------------------------
|                                                                             |
|               ----> ADVICE to this user running VASP <----                  |
|                                                                             |
|     You have a (more or less) 'large supercell' and for larger cells it     |
|     might be more efficient to use real-space projection operators.         |
|     Therefore, try LREAL= Auto in the INCAR file.                           |
|     Mind: For very accurate calculation, you might also keep the            |
|     reciprocal projection scheme (i.e. LREAL=.FALSE.).                      |
|                                                                             |
 -----------------------------------------------------------------------------

 LDA part: xc-table for (Slater+PW92), standard interpolation
 POSCAR, INCAR and KPOINTS ok, starting setup
 FFT: planning ... GRIDC
 FFT: planning ... GRID_SOFT
 FFT: planning ... GRID
 WAVECAR not read
 entering main loop
       N       E                     dE             d eps       ncg     rms          rms(c)
DAV:   1     0.619150499757E+03    0.61915E+03   -0.26290E+04  3048   0.764E+02
DAV:   2    -0.146362902367E+03   -0.76551E+03   -0.72349E+03  4480   0.158E+02
DAV:   3    -0.270501221217E+03   -0.12414E+03   -0.12318E+03  3680   0.718E+01
DAV:   4    -0.274430152726E+03   -0.39289E+01   -0.39088E+01  3472   0.151E+01
DAV:   5    -0.274514951438E+03   -0.84799E-01   -0.84597E-01  3712   0.193E+00    0.188E+01
DAV:   6    -0.266051298786E+03    0.84637E+01   -0.34363E+00  3136   0.381E+00    0.110E+01
DAV:   7    -0.260499075990E+03    0.55522E+01   -0.82599E+00  3200   0.617E+00    0.143E+00
DAV:   8    -0.260309737000E+03    0.18934E+00   -0.45007E-01  3160   0.131E+00    0.641E-01
DAV:   9    -0.260185863472E+03    0.12387E+00   -0.80748E-02  3272   0.556E-01    0.303E-01
