Geometry                                
           1
     3.186355    1.839643    0.000000
    -3.186355    1.839643    0.000000
     0.000000    0.000000   40.000000
   Be
     6
Direct configuration=     1
   0.00000000  0.00000000  0.15000000
   0.66666667  0.33333333  0.15000000
   0.33333333  0.66666667  0.10000000
   0.66666667  0.33333333  0.10000000
   0.33333333  0.66666667  0.05000000
   0.66666667  0.33333333  0.05000000
Geometry                                
           1
     3.176311    1.833844    0.000000
    -3.176311    1.833844    0.000000
     0.000000    0.000000   40.000000
   Be
     6
Direct configuration=     2
   1.00000000  0.00000000  0.14800967
   0.66666667  0.33333333  0.15023883
   0.33333333  0.66666667  0.10208910
   0.66666667  0.33333333  0.09975666
   0.33333333  0.66666667  0.04996515
   0.66666667  0.33333333  0.04994059
Geometry                                
           1
     3.146176    1.816446    0.000000
    -3.146176    1.816446    0.000000
     0.000000    0.000000   40.000000
   Be
     6
Direct configuration=     3
   0.00000000  0.00000000  0.14203868
   0.66666667  0.33333333  0.15095534
   0.33333333  0.66666667  0.10835639
   0.66666667  0.33333333  0.09902663
   0.33333333  0.66666667  0.04986061
   0.66666667  0.33333333  0.04976236
Geometry                                
           1
     3.085908    1.781650    0.000000
    -3.085908    1.781650    0.000000
     0.000000    0.000000   40.000000
   Be
     6
Direct configuration=     4
   1.00000000  0.00000000  0.13009670
   0.66666667  0.33333333  0.15238834
   0.33333333  0.66666667  0.12089098
   0.66666667  0.33333333  0.09756656
   0.33333333  0.66666667  0.04965152
   0.66666667  0.33333333  0.04940589
Geometry                                
           1
     3.067472    1.771006    0.000000
    -3.067472    1.771006    0.000000
     0.000000    0.000000   40.000000
   Be
     6
Direct configuration=     5
   0.00000000  0.00000000  0.12840163
   0.66666667  0.33333333  0.15183642
   0.33333333  0.66666667  0.12281164
   0.66666667  0.33333333  0.09813717
   0.33333333  0.66666667  0.05036890
   0.66666667  0.33333333  0.04844423
Geometry                                
           1
     3.012164    1.739074    0.000000
    -3.012164    1.739074    0.000000
     0.000000    0.000000   40.000000
   Be
     6
Direct configuration=     6
   1.00000000  0.00000000  0.12331642
   0.66666667  0.33333333  0.15018063
   0.33333333  0.66666667  0.12857364
   0.66666667  0.33333333  0.09984900
   0.33333333  0.66666667  0.05252105
   0.66666667  0.33333333  0.04555925
Geometry                                
           1
     3.003087    1.733833    0.000000
    -3.003087    1.733833    0.000000
     0.000000    0.000000   40.000000
   Be
     6
Direct configuration=     7
   0.00000000  0.00000000  0.12248185
   0.66666667  0.33333333  0.14990889
   0.33333333  0.66666667  0.12951929
   0.66666667  0.33333333  0.10012994
   0.33333333  0.66666667  0.05287426
   0.66666667  0.33333333  0.04508578
Geometry                                
           1
     3.006428    1.735762    0.000000
    -3.006428    1.735762    0.000000
     0.000000    0.000000   40.000000
   Be
     6
Direct configuration=     8
   1.00000000  0.00000000  0.12231626
   0.66666667  0.33333333  0.14937913
   0.33333333  0.66666667  0.12987578
   0.66666667  0.33333333  0.09976491
   0.33333333  0.66666667  0.05479125
   0.66666667  0.33333333  0.04387267
Geometry                                
           1
     3.016451    1.741549    0.000000
    -3.016451    1.741549    0.000000
     0.000000    0.000000   40.000000
   Be
     6
Direct configuration=     9
   0.00000000  0.00000000  0.12181949
   0.66666667  0.33333333  0.14778986
   0.33333333  0.66666667  0.13094528
   0.66666667  0.33333333  0.09866983
   0.33333333  0.66666667  0.06054220
   0.66666667  0.33333333  0.04023335
Geometry                                
           1
     3.036496    1.753122    0.000000
    -3.036496    1.753122    0.000000
     0.000000    0.000000   40.000000
   Be
     6
Direct configuration=    10
   1.00000000  0.00000000  0.12082595
   0.66666667  0.33333333  0.14461132
   0.33333333  0.66666667  0.13308426
   0.66666667  0.33333333  0.09647966
   0.33333333  0.66666667  0.07204410
   0.66666667  0.33333333  0.03295470
Geometry                                
           1
     3.024271    1.746064    0.000000
    -3.024271    1.746064    0.000000
     0.000000    0.000000   40.000000
   Be
     6
Direct configuration=    11
   0.00000000  0.00000000  0.12143187
   0.66666667  0.33333333  0.14654980
   0.33333333  0.66666667  0.13177977
   0.66666667  0.33333333  0.09781537
   0.33333333  0.66666667  0.06502950
   0.66666667  0.33333333  0.03739369
Geometry                                
           1
     2.957201    1.707341    0.000000
    -2.957201    1.707341    0.000000
     0.000000    0.000000   40.000000
   Be
     6
Direct configuration=    12
   1.00000000  0.00000000  0.12159095
   0.66666667  0.33333333  0.14644254
   0.33333333  0.66666667  0.13073624
   0.66666667  0.33333333  0.09641599
   0.33333333  0.66666667  0.06808449
   0.66666667  0.33333333  0.03672980
Geometry                                
           1
     2.926097    1.689383    0.000000
    -2.926097    1.689383    0.000000
     0.000000    0.000000   40.000000
   Be
     6
Direct configuration=    13
   0.00000000  0.00000000  0.12166472
   0.66666667  0.33333333  0.14639280
   0.33333333  0.66666667  0.13025230
   0.66666667  0.33333333  0.09576702
   0.33333333  0.66666667  0.06950126
   0.66666667  0.33333333  0.03642191
Geometry                                
           1
     2.910584    1.680427    0.000000
    -2.910584    1.680427    0.000000
     0.000000    0.000000   40.000000
   Be
     6
Direct configuration=    14
   1.00000000  0.00000000  0.12157106
   0.66666667  0.33333333  0.14676308
   0.33333333  0.66666667  0.12864986
   0.66666667  0.33333333  0.09606497
   0.33333333  0.66666667  0.06930527
   0.66666667  0.33333333  0.03764576
Geometry                                
           1
     2.872596    1.658494    0.000000
    -2.872596    1.658494    0.000000
     0.000000    0.000000   40.000000
   Be
     6
Direct configuration=    15
   0.00000000  0.00000000  0.12134170
   0.66666667  0.33333333  0.14766983
   0.33333333  0.66666667  0.12472577
   0.66666667  0.33333333  0.09679460
   0.33333333  0.66666667  0.06882534
   0.66666667  0.33333333  0.04064276
Geometry                                
           1
     2.901840    1.675378    0.000000
    -2.901840    1.675378    0.000000
     0.000000    0.000000   40.000000
   Be
     6
Direct configuration=    16
   1.00000000  0.00000000  0.12113070
   0.66666667  0.33333333  0.14728080
   0.33333333  0.66666667  0.12418427
   0.66666667  0.33333333  0.09698476
   0.33333333  0.66666667  0.06920381
   0.66666667  0.33333333  0.04121566
Geometry                                
           1
     2.910513    1.680385    0.000000
    -2.910513    1.680385    0.000000
     0.000000    0.000000   40.000000
   Be
     6
Direct configuration=    17
   0.00000000  0.00000000  0.12106812
   0.66666667  0.33333333  0.14716542
   0.33333333  0.66666667  0.12402367
   0.66666667  0.33333333  0.09704115
   0.33333333  0.66666667  0.06931606
   0.66666667  0.33333333  0.04138557
Geometry                                
           1
     2.908631    1.679299    0.000000
    -2.908631    1.679299    0.000000
     0.000000    0.000000   40.000000
   Be
     6
Direct configuration=    18
   0.00000000  0.00000000  0.12082631
   0.66666667  0.33333333  0.14684923
   0.33333333  0.66666667  0.12404412
   0.66666667  0.33333333  0.09682880
   0.33333333  0.66666667  0.06958875
   0.66666667  0.33333333  0.04186278
Geometry                                
           1
     2.906942    1.678324    0.000000
    -2.906942    1.678324    0.000000
     0.000000    0.000000   40.000000
   Be
     6
Direct configuration=    19
   0.00000000  0.00000000  0.12060919
   0.66666667  0.33333333  0.14656533
   0.33333333  0.66666667  0.12406248
   0.66666667  0.33333333  0.09663813
   0.33333333  0.66666667  0.06983360
   0.66666667  0.33333333  0.04229127
Geometry                                
           1
     2.905627    1.677565    0.000000
    -2.905627    1.677565    0.000000
     0.000000    0.000000   40.000000
   Be
     6
Direct configuration=    20
   0.00000000  0.00000000  0.12027634
   0.66666667  0.33333333  0.14660080
   0.33333333  0.66666667  0.12418668
   0.66666667  0.33333333  0.09668374
   0.33333333  0.66666667  0.06993001
   0.66666667  0.33333333  0.04232242
Geometry                                
           1
     2.901681    1.675286    0.000000
    -2.901681    1.675286    0.000000
     0.000000    0.000000   40.000000
   Be
     6
Direct configuration=    21
   0.00000000  0.00000000  0.11927781
   0.66666667  0.33333333  0.14670723
   0.33333333  0.66666667  0.12455927
   0.66666667  0.33333333  0.09682058
   0.33333333  0.66666667  0.07021924
   0.66666667  0.33333333  0.04241588
Geometry                                
           1
     2.900600    1.674662    0.000000
    -2.900600    1.674662    0.000000
     0.000000    0.000000   40.000000
   Be
     6
Direct configuration=    22
   0.00000000  0.00000000  0.11900415
   0.66666667  0.33333333  0.14673640
   0.33333333  0.66666667  0.12466138
   0.66666667  0.33333333  0.09685808
   0.33333333  0.66666667  0.07029850
   0.66666667  0.33333333  0.04244149
Geometry                                
           1
     2.906158    1.677871    0.000000
    -2.906158    1.677871    0.000000
     0.000000    0.000000   40.000000
   Be
     6
Direct configuration=    23
   0.00000000  0.00000000  0.11857764
   0.66666667  0.33333333  0.14697918
   0.33333333  0.66666667  0.12456500
   0.66666667  0.33333333  0.09677996
   0.33333333  0.66666667  0.07060231
   0.66666667  0.33333333  0.04249591
Geometry                                
           1
     2.904168    1.676722    0.000000
    -2.904168    1.676722    0.000000
     0.000000    0.000000   40.000000
   Be
     6
Direct configuration=    24
   0.00000000  0.00000000  0.11873037
   0.66666667  0.33333333  0.14689224
   0.33333333  0.66666667  0.12459951
   0.66666667  0.33333333  0.09680793
   0.33333333  0.66666667  0.07049352
   0.66666667  0.33333333  0.04247642
Geometry                                
           1
     2.902538    1.675781    0.000000
    -2.902538    1.675781    0.000000
     0.000000    0.000000   40.000000
   Be
     6
Direct configuration=    25
   1.00000000  0.00000000  0.11865613
   0.66666667  0.33333333  0.14688312
   0.33333333  0.66666667  0.12450272
   0.66666667  0.33333333  0.09684508
   0.33333333  0.66666667  0.07055724
   0.66666667  0.33333333  0.04255570
Geometry                                
           1
     2.902527    1.675775    0.000000
    -2.902527    1.675775    0.000000
     0.000000    0.000000   40.000000
   Be
     6
Direct configuration=    26
   0.00000000  0.00000000  0.11865563
   0.66666667  0.33333333  0.14688306
   0.33333333  0.66666667  0.12450206
   0.66666667  0.33333333  0.09684533
   0.33333333  0.66666667  0.07055767
   0.66666667  0.33333333  0.04255624
Geometry                                
           1
     2.902904    1.675993    0.000000
    -2.902904    1.675993    0.000000
     0.000000    0.000000   40.000000
   Be
     6
Direct configuration=    27
   0.00000000  0.00000000  0.11863166
   0.66666667  0.33333333  0.14686558
   0.33333333  0.66666667  0.12450976
   0.66666667  0.33333333  0.09684473
   0.33333333  0.66666667  0.07054935
   0.66666667  0.33333333  0.04259892
Geometry                                
           1
     2.902950    1.676019    0.000000
    -2.902950    1.676019    0.000000
     0.000000    0.000000   40.000000
   Be
     6
Direct configuration=    28
   0.00000000  0.00000000  0.11862878
   0.66666667  0.33333333  0.14686348
   0.33333333  0.66666667  0.12451068
   0.66666667  0.33333333  0.09684466
   0.33333333  0.66666667  0.07054834
   0.66666667  0.33333333  0.04260406
Geometry                                
           1
     2.903239    1.676186    0.000000
    -2.903239    1.676186    0.000000
     0.000000    0.000000   40.000000
   Be
     6
Direct configuration=    29
   0.00000000  0.00000000  0.11861626
   0.66666667  0.33333333  0.14686480
   0.33333333  0.66666667  0.12451694
   0.66666667  0.33333333  0.09683674
   0.33333333  0.66666667  0.07055897
   0.66666667  0.33333333  0.04260630
Geometry                                
           1
     2.903273    1.676205    0.000000
    -2.903273    1.676205    0.000000
     0.000000    0.000000   40.000000
   Be
     6
Direct configuration=    30
   0.00000000  0.00000000  0.11861482
   0.66666667  0.33333333  0.14686495
   0.33333333  0.66666667  0.12451766
   0.66666667  0.33333333  0.09683583
   0.33333333  0.66666667  0.07056019
   0.66666667  0.33333333  0.04260655
Geometry                                
           1
     2.903175    1.676149    0.000000
    -2.903175    1.676149    0.000000
     0.000000    0.000000   40.000000
   Be
     6
Direct configuration=    31
   1.00000000  0.00000000  0.11860046
   0.66666667  0.33333333  0.14686410
   0.33333333  0.66666667  0.12452273
   0.66666667  0.33333333  0.09683677
   0.33333333  0.66666667  0.07056916
   0.66666667  0.33333333  0.04260678
Geometry                                
           1
     2.903033    1.676067    0.000000
    -2.903033    1.676067    0.000000
     0.000000    0.000000   40.000000
   Be
     6
Direct configuration=    32
   0.00000000  0.00000000  0.11857970
   0.66666667  0.33333333  0.14686286
   0.33333333  0.66666667  0.12453006
   0.66666667  0.33333333  0.09683814
   0.33333333  0.66666667  0.07058213
   0.66666667  0.33333333  0.04260712
Geometry                                
           1
     2.902894    1.675986    0.000000
    -2.902894    1.675986    0.000000
     0.000000    0.000000   40.000000
   Be
     6
Direct configuration=    33
   1.00000000  0.00000000  0.11856687
   0.66666667  0.33333333  0.14686827
   0.33333333  0.66666667  0.12452745
   0.66666667  0.33333333  0.09684485
   0.33333333  0.66666667  0.07058096
   0.66666667  0.33333333  0.04261161
