 running   42 mpi-ranks, on    1 nodes
 distrk:  each k-point on   42 cores,    1 groups
 distr:  one band on    1 cores,   42 groups
 vasp.6.5.0 16Dec24 (build Jan 08 2025 16:17:04) complex                        
  
 POSCAR found type information on POSCAR Be
 POSCAR found :  1 types and       1 ions
 Reading from existing POTCAR
 scaLAPACK will be used
 -----------------------------------------------------------------------------
|                                                                             |
|           W    W    AA    RRRRR   N    N  II  N    N   GGGG   !!!           |
|           W    W   A  A   R    R  NN   N  II  NN   N  G    G  !!!           |
|           W    W  A    A  R    R  N N  N  II  N N  N  G       !!!           |
|           W WW W  AAAAAA  RRRRR   N  N N  II  N  N N  G  GGG   !            |
|           WW  WW  A    A  R   R   N   NN  II  N   NN  G    G                |
|           W    W  A    A  R    R  N    N  II  N    N   GGGG   !!!           |
|                                                                             |
|     The value NCORE = 16 specified in the INCAR file was overwritten,       |
|     because it was not compatible with the 42 processes available:          |
|     NCORE = 1                                                               |
|     was used instead, please check that this makes sense for your           |
|     machine.                                                                |
|                                                                             |
 -----------------------------------------------------------------------------

 -----------------------------------------------------------------------------
|                                                                             |
|           W    W    AA    RRRRR   N    N  II  N    N   GGGG   !!!           |
|           W    W   A  A   R    R  NN   N  II  NN   N  G    G  !!!           |
|           W    W  A    A  R    R  N N  N  II  N N  N  G       !!!           |
|           W WW W  AAAAAA  RRRRR   N  N N  II  N  N N  G  GGG   !            |
|           WW  WW  A    A  R   R   N   NN  II  N   NN  G    G                |
|           W    W  A    A  R    R  N    N  II  N    N   GGGG   !!!           |
|                                                                             |
|     For optimal performance we recommend to set                             |
|       NCORE = 2 up to number-of-cores-per-socket                            |
|     NCORE specifies how many cores store one orbital (NPAR=cpu/NCORE).      |
|     This setting can greatly improve the performance of VASP for DFT.       |
|     The default, NCORE=1 might be grossly inefficient on modern             |
|     multi-core architectures or massively parallel machines. Do your        |
|     own testing! More info at https://www.vasp.at/wiki/index.php/NCORE      |
|     Unfortunately you need to use the default for GW and RPA                |
|     calculations (for HF NCORE is supported but not extensively tested      |
|     yet).                                                                   |
|                                                                             |
 -----------------------------------------------------------------------------

 Reading from existing POTCAR
 LDA part: xc-table for (Slater+PW92), standard interpolation
 -----------------------------------------------------------------------------
|                                                                             |
|           W    W    AA    RRRRR   N    N  II  N    N   GGGG   !!!           |
|           W    W   A  A   R    R  NN   N  II  NN   N  G    G  !!!           |
|           W    W  A    A  R    R  N N  N  II  N N  N  G       !!!           |
|           W WW W  AAAAAA  RRRRR   N  N N  II  N  N N  G  GGG   !            |
|           WW  WW  A    A  R   R   N   NN  II  N   NN  G    G                |
|           W    W  A    A  R    R  N    N  II  N    N   GGGG   !!!           |
|                                                                             |
|     The number of bands has been changed from the values supplied in        |
|     the INCAR file. This is a result of running the parallel version.       |
|     The orbitals not found in the WAVECAR file will be initialized with     |
|     random numbers, which is usually adequate. For correlated               |
|     calculations, however, you should redo the groundstate calculation.     |
|     I found NBANDS = 64. Now, NBANDS = 84.                                  |
|                                                                             |
 -----------------------------------------------------------------------------

 found WAVECAR, reading the header
  number of bands has changed, file:   168 present:    84
  trying to continue reading WAVECAR, but it might fail
 POSCAR, INCAR and KPOINTS ok, starting setup
 FFT: planning ... GRIDC
 FFT: planning ... GRID_SOFT
 FFT: planning ... GRID
 reading WAVECAR
 the WAVECAR file was read successfully
 entering main loop
       N       E                     dE             d eps       ncg     rms          rms(c)
DAV:   1    -0.343132778792E+01   -0.34313E+01   -0.10067E+00 42840   0.247E-01    0.236E+00
DAV:   2    -0.312637139671E+01    0.30496E+00   -0.14926E-01 43260   0.112E-01    0.125E+00
DAV:   3    -0.297580140607E+01    0.15057E+00   -0.21450E-01 41706   0.117E-01    0.184E-01
DAV:   4    -0.297381337008E+01    0.19880E-02   -0.93183E-04 45654   0.138E-02    0.820E-02
DAV:   5    -0.297040045279E+01    0.34129E-02   -0.33506E-03 45066   0.129E-02    0.544E-02
DAV:   6    -0.297129268315E+01   -0.89223E-03   -0.38229E-04 44058   0.780E-03    0.378E-02
DAV:   7    -0.297143796907E+01   -0.14529E-03   -0.10824E-03 45696   0.737E-03    0.153E-02
DAV:   8    -0.297192197696E+01   -0.48401E-03   -0.54246E-05 43554   0.246E-03    0.105E-02
DAV:   9    -0.297206882883E+01   -0.14685E-03   -0.42646E-05 43344   0.170E-03    0.543E-03
DAV:  10    -0.297226391673E+01   -0.19509E-03   -0.51055E-05 40740   0.147E-03    0.130E-03
DAV:  11    -0.297231188063E+01   -0.47964E-04   -0.65069E-06 38094   0.420E-04    0.792E-04
DAV:  12    -0.297233853975E+01   -0.26659E-04   -0.31986E-06 38934   0.212E-04    0.415E-04
DAV:  13    -0.297234672661E+01   -0.81869E-05   -0.34026E-07 40236   0.818E-05    0.176E-04
DAV:  14    -0.297234774225E+01   -0.10156E-05   -0.59977E-08 39648   0.415E-05    0.104E-04
DAV:  15    -0.297234901447E+01   -0.12722E-05   -0.17812E-08 36456   0.245E-05    0.716E-05
DAV:  16    -0.297234921126E+01   -0.19680E-06   -0.26459E-09 44730   0.890E-06
   1 F= -.29723492E+01 E0= -.29723038E+01  d E =-.908057E-04
 writing wavefunctions
 optical routines
 imaginary and real dielectric function
 recalculating local potential from charge density
 direction            1
 direction            2
 direction            3
