   2   2   0   0
  0.1256248E+03  0.2506240E-09  0.2506240E-09  0.4000000E-08  0.5000000E-15
  1.000000000000000E-004
  CAR 
 Convergence                             
     23.55009340    -12.70513706  301     -2.75391946      1.00000000
    -12.705  0.0000E+00  0.0000E+00
    -12.584  0.0000E+00  0.0000E+00
    -12.463  0.0000E+00  0.0000E+00
    -12.343  0.0000E+00  0.0000E+00
    -12.222  0.0000E+00  0.0000E+00
    -12.101  0.0000E+00  0.0000E+00
    -11.980  0.0000E+00  0.0000E+00
    -11.859  0.0000E+00  0.0000E+00
    -11.738  0.0000E+00  0.0000E+00
    -11.617  0.0000E+00  0.0000E+00
    -11.497  0.0000E+00  0.0000E+00
    -11.376  0.0000E+00  0.0000E+00
    -11.255  0.3522E-09  0.4256E-10
    -11.134  0.5780E-03  0.6986E-04
    -11.013  0.1373E+00  0.1666E-01
    -10.892  0.3618E+00  0.6038E-01
    -10.772  0.3043E+00  0.9716E-01
    -10.651  0.3987E+00  0.1453E+00
    -10.530  0.2852E+00  0.1798E+00
    -10.409  0.4702E+00  0.2366E+00
    -10.288  0.2100E+00  0.2620E+00
    -10.167  0.5182E+00  0.3246E+00
    -10.046  0.3193E+00  0.3632E+00
     -9.926  0.2528E+00  0.3938E+00
     -9.805  0.4305E+00  0.4458E+00
     -9.684  0.4255E+00  0.4972E+00
     -9.563  0.2595E+00  0.5286E+00
     -9.442  0.2122E+00  0.5542E+00
     -9.321  0.5789E+00  0.6242E+00
     -9.200  0.3720E+00  0.6691E+00
     -9.080  0.2205E+00  0.6958E+00
     -8.959  0.2912E+00  0.7310E+00
     -8.838  0.5820E+00  0.8013E+00
     -8.717  0.2801E+00  0.8352E+00
     -8.596  0.3851E+00  0.8817E+00
     -8.475  0.2445E+00  0.9113E+00
     -8.355  0.3135E+00  0.9491E+00
     -8.234  0.4843E+00  0.1008E+01
     -8.113  0.3938E+00  0.1055E+01
     -7.992  0.4242E+00  0.1107E+01
     -7.871  0.3266E-01  0.1110E+01
     -7.750  0.4475E+00  0.1165E+01
     -7.629  0.5758E+00  0.1234E+01
     -7.509  0.3810E+00  0.1280E+01
     -7.388  0.3015E+00  0.1317E+01
     -7.267  0.2391E+00  0.1346E+01
     -7.146  0.4555E+00  0.1401E+01
     -7.025  0.3025E+00  0.1437E+01
     -6.904  0.4612E+00  0.1493E+01
     -6.783  0.3997E+00  0.1541E+01
     -6.663  0.4160E+00  0.1591E+01
     -6.542  0.2443E+00  0.1621E+01
     -6.421  0.2594E+00  0.1652E+01
     -6.300  0.4259E+00  0.1704E+01
     -6.179  0.1062E+01  0.1832E+01
     -6.058  0.6384E+00  0.1909E+01
     -5.937  0.6199E+00  0.1984E+01
     -5.817  0.5971E+00  0.2056E+01
     -5.696  0.7954E+00  0.2152E+01
     -5.575  0.7150E+00  0.2239E+01
     -5.454  0.9342E+00  0.2352E+01
     -5.333  0.6861E+00  0.2435E+01
     -5.212  0.6656E+00  0.2515E+01
     -5.092  0.8655E+00  0.2620E+01
     -4.971  0.8329E+00  0.2720E+01
     -4.850  0.6473E+00  0.2799E+01
     -4.729  0.1361E+01  0.2963E+01
     -4.608  0.1079E+01  0.3093E+01
     -4.487  0.6460E+00  0.3171E+01
     -4.366  0.1095E+01  0.3304E+01
     -4.246  0.5729E+00  0.3373E+01
     -4.125  0.5583E+00  0.3441E+01
     -4.004  0.8851E+00  0.3548E+01
     -3.883  0.4981E+00  0.3608E+01
     -3.762  0.5002E+00  0.3668E+01
     -3.641  0.8641E+00  0.3773E+01
     -3.520  0.2550E+00  0.3803E+01
     -3.400  0.1839E+00  0.3826E+01
     -3.279  0.4483E+00  0.3880E+01
     -3.158  0.4487E+00  0.3934E+01
     -3.037  0.4543E-01  0.3940E+01
     -2.916  0.1147E-02  0.3940E+01
     -2.795  0.3024E+00  0.3976E+01
     -2.675  0.4175E+00  0.4027E+01
     -2.554  0.3062E+00  0.4064E+01
     -2.433  0.2090E+00  0.4089E+01
     -2.312  0.8374E+00  0.4190E+01
     -2.191  0.1179E+01  0.4333E+01
     -2.070  0.1356E+01  0.4496E+01
     -1.949  0.1108E+01  0.4630E+01
     -1.829  0.8490E+00  0.4733E+01
     -1.708  0.1188E+01  0.4876E+01
     -1.587  0.1668E+01  0.5078E+01
     -1.466  0.6909E+00  0.5162E+01
     -1.345  0.6555E+00  0.5241E+01
     -1.224  0.1121E+01  0.5376E+01
     -1.103  0.6751E+00  0.5458E+01
     -0.983  0.7213E+00  0.5545E+01
     -0.862  0.6882E+00  0.5628E+01
     -0.741  0.1401E+01  0.5798E+01
     -0.620  0.1530E+01  0.5982E+01
     -0.499  0.5540E+00  0.6049E+01
     -0.378  0.6670E+00  0.6130E+01
     -0.258  0.9323E+00  0.6243E+01
     -0.137  0.1134E+01  0.6380E+01
     -0.016  0.8832E+00  0.6486E+01
      0.105  0.1058E+01  0.6614E+01
      0.226  0.1239E+01  0.6764E+01
      0.347  0.1111E+01  0.6898E+01
      0.468  0.9354E+00  0.7011E+01
      0.588  0.7090E+00  0.7097E+01
      0.709  0.1040E+01  0.7223E+01
      0.830  0.1227E+01  0.7371E+01
      0.951  0.1767E+01  0.7584E+01
      1.072  0.1492E+01  0.7765E+01
      1.193  0.1739E+01  0.7975E+01
      1.314  0.1410E+01  0.8145E+01
      1.434  0.1688E+01  0.8349E+01
      1.555  0.2083E+01  0.8601E+01
      1.676  0.2606E+01  0.8916E+01
      1.797  0.1923E+01  0.9148E+01
      1.918  0.1713E+01  0.9355E+01
      2.039  0.2190E+01  0.9620E+01
      2.160  0.2463E+01  0.9918E+01
      2.280  0.2057E+01  0.1017E+02
      2.401  0.2488E+01  0.1047E+02
      2.522  0.3322E+01  0.1087E+02
      2.643  0.3161E+01  0.1125E+02
      2.764  0.2927E+01  0.1160E+02
      2.885  0.3675E+01  0.1205E+02
      3.005  0.3843E+01  0.1251E+02
      3.126  0.3792E+01  0.1297E+02
      3.247  0.3897E+01  0.1344E+02
      3.368  0.3163E+01  0.1382E+02
      3.489  0.3443E+01  0.1424E+02
      3.610  0.4216E+01  0.1475E+02
      3.731  0.3225E+01  0.1514E+02
      3.851  0.4164E+01  0.1564E+02
      3.972  0.4320E+01  0.1616E+02
      4.093  0.3712E+01  0.1661E+02
      4.214  0.4506E+01  0.1716E+02
      4.335  0.4199E+01  0.1767E+02
      4.456  0.4155E+01  0.1817E+02
      4.577  0.4464E+01  0.1871E+02
      4.697  0.4510E+01  0.1925E+02
      4.818  0.3471E+01  0.1967E+02
      4.939  0.4315E+01  0.2019E+02
      5.060  0.4171E+01  0.2070E+02
      5.181  0.4037E+01  0.2118E+02
      5.302  0.5068E+01  0.2180E+02
      5.422  0.4518E+01  0.2234E+02
      5.543  0.4337E+01  0.2287E+02
      5.664  0.4182E+01  0.2337E+02
      5.785  0.5176E+01  0.2400E+02
      5.906  0.5099E+01  0.2461E+02
      6.027  0.4400E+01  0.2515E+02
      6.148  0.4348E+01  0.2567E+02
      6.268  0.4006E+01  0.2616E+02
      6.389  0.4856E+01  0.2674E+02
      6.510  0.4732E+01  0.2731E+02
      6.631  0.4071E+01  0.2781E+02
      6.752  0.4591E+01  0.2836E+02
      6.873  0.5644E+01  0.2904E+02
      6.994  0.3964E+01  0.2952E+02
      7.114  0.5070E+01  0.3014E+02
      7.235  0.4803E+01  0.3072E+02
      7.356  0.4912E+01  0.3131E+02
      7.477  0.5217E+01  0.3194E+02
      7.598  0.6550E+01  0.3273E+02
      7.719  0.3786E+01  0.3319E+02
      7.839  0.4749E+01  0.3376E+02
      7.960  0.5015E+01  0.3437E+02
      8.081  0.5473E+01  0.3503E+02
      8.202  0.5294E+01  0.3567E+02
      8.323  0.5561E+01  0.3634E+02
      8.444  0.4725E+01  0.3691E+02
      8.565  0.5082E+01  0.3753E+02
      8.685  0.5727E+01  0.3822E+02
      8.806  0.5223E+01  0.3885E+02
      8.927  0.6438E+01  0.3963E+02
      9.048  0.5201E+01  0.4026E+02
      9.169  0.4812E+01  0.4084E+02
      9.290  0.5832E+01  0.4154E+02
      9.411  0.5132E+01  0.4216E+02
      9.531  0.6055E+01  0.4290E+02
      9.652  0.5754E+01  0.4359E+02
      9.773  0.5872E+01  0.4430E+02
      9.894  0.5671E+01  0.4499E+02
     10.015  0.5892E+01  0.4570E+02
     10.136  0.4895E+01  0.4629E+02
     10.257  0.5450E+01  0.4695E+02
     10.377  0.5266E+01  0.4758E+02
     10.498  0.6369E+01  0.4835E+02
     10.619  0.5487E+01  0.4902E+02
     10.740  0.6957E+01  0.4986E+02
     10.861  0.6001E+01  0.5058E+02
     10.982  0.6360E+01  0.5135E+02
     11.102  0.7060E+01  0.5221E+02
     11.223  0.5854E+01  0.5291E+02
     11.344  0.5347E+01  0.5356E+02
     11.465  0.6228E+01  0.5431E+02
     11.586  0.6464E+01  0.5509E+02
     11.707  0.5160E+01  0.5572E+02
     11.828  0.6636E+01  0.5652E+02
     11.948  0.7558E+01  0.5743E+02
     12.069  0.6503E+01  0.5822E+02
     12.190  0.6182E+01  0.5896E+02
     12.311  0.5861E+01  0.5967E+02
     12.432  0.5172E+01  0.6030E+02
     12.553  0.5577E+01  0.6097E+02
     12.674  0.5851E+01  0.6168E+02
     12.794  0.5598E+01  0.6236E+02
     12.915  0.6003E+01  0.6308E+02
     13.036  0.6949E+01  0.6392E+02
     13.157  0.7780E+01  0.6486E+02
     13.278  0.6424E+01  0.6564E+02
     13.399  0.6243E+01  0.6639E+02
     13.519  0.6413E+01  0.6717E+02
     13.640  0.5224E+01  0.6780E+02
     13.761  0.6476E+01  0.6858E+02
     13.882  0.6153E+01  0.6932E+02
     14.003  0.6172E+01  0.7007E+02
     14.124  0.6722E+01  0.7088E+02
     14.245  0.7145E+01  0.7175E+02
     14.365  0.6809E+01  0.7257E+02
     14.486  0.6271E+01  0.7333E+02
     14.607  0.6178E+01  0.7407E+02
     14.728  0.6070E+01  0.7481E+02
     14.849  0.5428E+01  0.7546E+02
     14.970  0.3917E+01  0.7594E+02
     15.091  0.4885E+01  0.7653E+02
     15.211  0.5738E+01  0.7722E+02
     15.332  0.4272E+01  0.7774E+02
     15.453  0.3862E+01  0.7820E+02
     15.574  0.3966E+01  0.7868E+02
     15.695  0.2811E+01  0.7902E+02
     15.816  0.2619E+01  0.7934E+02
     15.936  0.2741E+01  0.7967E+02
     16.057  0.2174E+01  0.7993E+02
     16.178  0.2299E+01  0.8021E+02
     16.299  0.1755E+01  0.8042E+02
     16.420  0.1864E+01  0.8065E+02
     16.541  0.2230E+01  0.8092E+02
     16.662  0.2379E+01  0.8120E+02
     16.782  0.1925E+01  0.8144E+02
     16.903  0.7419E+00  0.8153E+02
     17.024  0.3640E+00  0.8157E+02
     17.145  0.1991E+01  0.8181E+02
     17.266  0.1963E+01  0.8205E+02
     17.387  0.7834E+00  0.8214E+02
     17.508  0.9656E+00  0.8226E+02
     17.628  0.1067E+01  0.8239E+02
     17.749  0.9990E+00  0.8251E+02
     17.870  0.1262E+01  0.8266E+02
     17.991  0.1002E+01  0.8278E+02
     18.112  0.9437E+00  0.8290E+02
     18.233  0.1041E+01  0.8302E+02
     18.354  0.5993E+00  0.8310E+02
     18.474  0.5284E+00  0.8316E+02
     18.595  0.4905E+00  0.8322E+02
     18.716  0.4165E+00  0.8327E+02
     18.837  0.8310E+00  0.8337E+02
     18.958  0.7639E+00  0.8346E+02
     19.079  0.4315E+00  0.8351E+02
     19.199  0.8111E+00  0.8361E+02
     19.320  0.3321E+00  0.8365E+02
     19.441  0.1266E+00  0.8367E+02
     19.562  0.8340E-04  0.8367E+02
     19.683  0.1399E-01  0.8367E+02
     19.804  0.1094E+00  0.8368E+02
     19.925  0.1734E-02  0.8368E+02
     20.045  0.1971E-01  0.8368E+02
     20.166  0.4141E+00  0.8373E+02
     20.287  0.4497E+00  0.8379E+02
     20.408  0.1987E+00  0.8381E+02
     20.529  0.1627E+00  0.8383E+02
     20.650  0.6790E+00  0.8391E+02
     20.771  0.2659E+00  0.8395E+02
     20.891  0.2371E-03  0.8395E+02
     21.012  0.6469E-01  0.8395E+02
     21.133  0.6037E-01  0.8396E+02
     21.254  0.3361E-04  0.8396E+02
     21.375  0.3753E-12  0.8396E+02
     21.496  0.5174E-13  0.8396E+02
     21.616  0.8493E-05  0.8396E+02
     21.737  0.3415E-01  0.8397E+02
     21.858  0.1635E+00  0.8399E+02
     21.979  0.1134E+00  0.8400E+02
     22.100  0.1853E-02  0.8400E+02
     22.221  0.1393E-08  0.8400E+02
     22.342  0.0000E+00  0.8400E+02
     22.462  0.0000E+00  0.8400E+02
     22.583  0.0000E+00  0.8400E+02
     22.704  0.0000E+00  0.8400E+02
     22.825  0.0000E+00  0.8400E+02
     22.946  0.0000E+00  0.8400E+02
     23.067  0.0000E+00  0.8400E+02
     23.188  0.0000E+00  0.8400E+02
     23.308  0.0000E+00  0.8400E+02
     23.429  0.0000E+00  0.8400E+02
     23.550  0.0000E+00  0.8400E+02
