 100 100   0   0
  0.4951695E+02  0.1298018E-08  0.1298246E-08  0.4000000E-08  0.5000000E-15
  1.000000000000000E-004
  CAR 
 Phonopy                                 
      3.16448191    -14.65125414  301     -3.09899502      1.00000000
    -14.651  0.0000E+00  0.0000E+00
    -14.592  0.0000E+00  0.0000E+00
    -14.532  0.0000E+00  0.0000E+00
    -14.473  0.0000E+00  0.0000E+00
    -14.414  0.0000E+00  0.0000E+00
    -14.354  0.0000E+00  0.0000E+00
    -14.295  0.0000E+00  0.0000E+00
    -14.236  0.7744E-16  0.4599E-17
    -14.176  0.6114E-13  0.3635E-14
    -14.117  0.2748E-10  0.1636E-11
    -14.057  0.6262E-08  0.3735E-09
    -13.998  0.7279E-06  0.4360E-07
    -13.939  0.4350E-04  0.2627E-05
    -13.879  0.1351E-02  0.8283E-04
    -13.820  0.2210E-01  0.1395E-02
    -13.760  0.1945E+00  0.1295E-01
    -13.701  0.9500E+00  0.6936E-01
    -13.642  0.2707E+01  0.2301E+00
    -13.582  0.4882E+01  0.5200E+00
    -13.523  0.6320E+01  0.8954E+00
    -13.464  0.6829E+01  0.1301E+01
    -13.404  0.6929E+01  0.1712E+01
    -13.345  0.6944E+01  0.2125E+01
    -13.285  0.6952E+01  0.2538E+01
    -13.226  0.6958E+01  0.2951E+01
    -13.167  0.6966E+01  0.3365E+01
    -13.107  0.6972E+01  0.3779E+01
    -13.048  0.6981E+01  0.4193E+01
    -12.988  0.6986E+01  0.4608E+01
    -12.929  0.6998E+01  0.5024E+01
    -12.870  0.7000E+01  0.5439E+01
    -12.810  0.7015E+01  0.5856E+01
    -12.751  0.7019E+01  0.6273E+01
    -12.692  0.7026E+01  0.6690E+01
    -12.632  0.7045E+01  0.7108E+01
    -12.573  0.7039E+01  0.7526E+01
    -12.513  0.7058E+01  0.7945E+01
    -12.454  0.7081E+01  0.8366E+01
    -12.395  0.7050E+01  0.8785E+01
    -12.335  0.7125E+01  0.9208E+01
    -12.276  0.7265E+01  0.9639E+01
    -12.216  0.7865E+01  0.1011E+02
    -12.157  0.9610E+01  0.1068E+02
    -12.098  0.1171E+02  0.1137E+02
    -12.038  0.1319E+02  0.1216E+02
    -11.979  0.1393E+02  0.1298E+02
    -11.920  0.1397E+02  0.1381E+02
    -11.860  0.1396E+02  0.1464E+02
    -11.801  0.1414E+02  0.1548E+02
    -11.741  0.1409E+02  0.1632E+02
    -11.682  0.1406E+02  0.1715E+02
    -11.623  0.1420E+02  0.1800E+02
    -11.563  0.1422E+02  0.1884E+02
    -11.504  0.1421E+02  0.1969E+02
    -11.444  0.1425E+02  0.2053E+02
    -11.385  0.1429E+02  0.2138E+02
    -11.326  0.1439E+02  0.2224E+02
    -11.266  0.1440E+02  0.2309E+02
    -11.207  0.1431E+02  0.2394E+02
    -11.147  0.1450E+02  0.2480E+02
    -11.088  0.1468E+02  0.2567E+02
    -11.029  0.1441E+02  0.2653E+02
    -10.969  0.1446E+02  0.2739E+02
    -10.910  0.1488E+02  0.2827E+02
    -10.851  0.1480E+02  0.2915E+02
    -10.791  0.1448E+02  0.3001E+02
    -10.732  0.1480E+02  0.3089E+02
    -10.672  0.1516E+02  0.3179E+02
    -10.613  0.1492E+02  0.3268E+02
    -10.554  0.1470E+02  0.3355E+02
    -10.494  0.1507E+02  0.3444E+02
    -10.435  0.1549E+02  0.3536E+02
    -10.375  0.1515E+02  0.3626E+02
    -10.316  0.1486E+02  0.3715E+02
    -10.257  0.1551E+02  0.3807E+02
    -10.197  0.1584E+02  0.3901E+02
    -10.138  0.1530E+02  0.3992E+02
    -10.079  0.1529E+02  0.4082E+02
    -10.019  0.1592E+02  0.4177E+02
     -9.960  0.1613E+02  0.4273E+02
     -9.900  0.1570E+02  0.4366E+02
     -9.841  0.1572E+02  0.4459E+02
     -9.782  0.1642E+02  0.4557E+02
     -9.722  0.1653E+02  0.4655E+02
     -9.663  0.1610E+02  0.4751E+02
     -9.603  0.1644E+02  0.4848E+02
     -9.544  0.1702E+02  0.4949E+02
     -9.485  0.1689E+02  0.5050E+02
     -9.425  0.1688E+02  0.5150E+02
     -9.366  0.1734E+02  0.5253E+02
     -9.307  0.1760E+02  0.5357E+02
     -9.247  0.1770E+02  0.5462E+02
     -9.188  0.1794E+02  0.5569E+02
     -9.128  0.1839E+02  0.5678E+02
     -9.069  0.1891E+02  0.5790E+02
     -9.010  0.1962E+02  0.5907E+02
     -8.950  0.2150E+02  0.6035E+02
     -8.891  0.2443E+02  0.6180E+02
     -8.831  0.2660E+02  0.6338E+02
     -8.772  0.2809E+02  0.6505E+02
     -8.713  0.2947E+02  0.6680E+02
     -8.653  0.2957E+02  0.6855E+02
     -8.594  0.2839E+02  0.7024E+02
     -8.535  0.2785E+02  0.7189E+02
     -8.475  0.2832E+02  0.7357E+02
     -8.416  0.2856E+02  0.7527E+02
     -8.356  0.2906E+02  0.7699E+02
     -8.297  0.3025E+02  0.7879E+02
     -8.238  0.3001E+02  0.8057E+02
     -8.178  0.2827E+02  0.8225E+02
     -8.119  0.2707E+02  0.8386E+02
     -8.059  0.2629E+02  0.8542E+02
     -8.000  0.2553E+02  0.8694E+02
     -7.941  0.2508E+02  0.8843E+02
     -7.881  0.2486E+02  0.8990E+02
     -7.822  0.2480E+02  0.9138E+02
     -7.763  0.2473E+02  0.9284E+02
     -7.703  0.2481E+02  0.9432E+02
     -7.644  0.2526E+02  0.9582E+02
     -7.584  0.2595E+02  0.9736E+02
     -7.525  0.2717E+02  0.9897E+02
     -7.466  0.2918E+02  0.1007E+03
     -7.406  0.3118E+02  0.1026E+03
     -7.347  0.3123E+02  0.1044E+03
     -7.287  0.2891E+02  0.1061E+03
     -7.228  0.2688E+02  0.1077E+03
     -7.169  0.2664E+02  0.1093E+03
     -7.109  0.2762E+02  0.1109E+03
     -7.050  0.2872E+02  0.1127E+03
     -6.990  0.2823E+02  0.1143E+03
     -6.931  0.2484E+02  0.1158E+03
     -6.872  0.1951E+02  0.1170E+03
     -6.812  0.1500E+02  0.1179E+03
     -6.753  0.1273E+02  0.1186E+03
     -6.694  0.1200E+02  0.1193E+03
     -6.634  0.1174E+02  0.1200E+03
     -6.575  0.1123E+02  0.1207E+03
     -6.515  0.1056E+02  0.1213E+03
     -6.456  0.1038E+02  0.1219E+03
     -6.397  0.1059E+02  0.1226E+03
     -6.337  0.1034E+02  0.1232E+03
     -6.278  0.9752E+01  0.1238E+03
     -6.218  0.9474E+01  0.1243E+03
     -6.159  0.9720E+01  0.1249E+03
     -6.100  0.9795E+01  0.1255E+03
     -6.040  0.9288E+01  0.1260E+03
     -5.981  0.9072E+01  0.1266E+03
     -5.922  0.9196E+01  0.1271E+03
     -5.862  0.9011E+01  0.1276E+03
     -5.803  0.8956E+01  0.1282E+03
     -5.743  0.9049E+01  0.1287E+03
     -5.684  0.8786E+01  0.1292E+03
     -5.625  0.8560E+01  0.1297E+03
     -5.565  0.8675E+01  0.1303E+03
     -5.506  0.8659E+01  0.1308E+03
     -5.446  0.8430E+01  0.1313E+03
     -5.387  0.8575E+01  0.1318E+03
     -5.328  0.8688E+01  0.1323E+03
     -5.268  0.8238E+01  0.1328E+03
     -5.209  0.7968E+01  0.1333E+03
     -5.150  0.8257E+01  0.1338E+03
     -5.090  0.8588E+01  0.1343E+03
     -5.031  0.8514E+01  0.1348E+03
     -4.971  0.8055E+01  0.1352E+03
     -4.912  0.7772E+01  0.1357E+03
     -4.853  0.7892E+01  0.1362E+03
     -4.793  0.8167E+01  0.1367E+03
     -4.734  0.8432E+01  0.1372E+03
     -4.674  0.8396E+01  0.1377E+03
     -4.615  0.7884E+01  0.1381E+03
     -4.556  0.7322E+01  0.1386E+03
     -4.496  0.7491E+01  0.1390E+03
     -4.437  0.8349E+01  0.1395E+03
     -4.378  0.8788E+01  0.1400E+03
     -4.318  0.8080E+01  0.1405E+03
     -4.259  0.7191E+01  0.1409E+03
     -4.199  0.7197E+01  0.1414E+03
     -4.140  0.7879E+01  0.1418E+03
     -4.081  0.8446E+01  0.1423E+03
     -4.021  0.8301E+01  0.1428E+03
     -3.962  0.7656E+01  0.1433E+03
     -3.902  0.7419E+01  0.1437E+03
     -3.843  0.7741E+01  0.1442E+03
     -3.784  0.7788E+01  0.1446E+03
     -3.724  0.7565E+01  0.1451E+03
     -3.665  0.7801E+01  0.1456E+03
     -3.605  0.8303E+01  0.1460E+03
     -3.546  0.8347E+01  0.1465E+03
     -3.487  0.7704E+01  0.1470E+03
     -3.427  0.6870E+01  0.1474E+03
     -3.368  0.6861E+01  0.1478E+03
     -3.309  0.8001E+01  0.1483E+03
     -3.249  0.9252E+01  0.1488E+03
     -3.190  0.9010E+01  0.1494E+03
     -3.130  0.7278E+01  0.1498E+03
     -3.071  0.6121E+01  0.1502E+03
     -3.012  0.6743E+01  0.1506E+03
     -2.952  0.8477E+01  0.1511E+03
     -2.893  0.9677E+01  0.1516E+03
     -2.833  0.9045E+01  0.1522E+03
     -2.774  0.7386E+01  0.1526E+03
     -2.715  0.6356E+01  0.1530E+03
     -2.655  0.6858E+01  0.1534E+03
     -2.596  0.8490E+01  0.1539E+03
     -2.537  0.9534E+01  0.1545E+03
     -2.477  0.9075E+01  0.1550E+03
     -2.418  0.8062E+01  0.1555E+03
     -2.358  0.7454E+01  0.1559E+03
     -2.299  0.7370E+01  0.1564E+03
     -2.240  0.8011E+01  0.1569E+03
     -2.180  0.9104E+01  0.1574E+03
     -2.121  0.9650E+01  0.1580E+03
     -2.061  0.9301E+01  0.1585E+03
     -2.002  0.8645E+01  0.1590E+03
     -1.943  0.8342E+01  0.1595E+03
     -1.883  0.8700E+01  0.1600E+03
     -1.824  0.9631E+01  0.1606E+03
     -1.765  0.1062E+02  0.1612E+03
     -1.705  0.1148E+02  0.1619E+03
     -1.646  0.1210E+02  0.1626E+03
     -1.586  0.1257E+02  0.1634E+03
     -1.527  0.1318E+02  0.1642E+03
     -1.468  0.1280E+02  0.1649E+03
     -1.408  0.1068E+02  0.1656E+03
     -1.349  0.8851E+01  0.1661E+03
     -1.289  0.8777E+01  0.1666E+03
     -1.230  0.8985E+01  0.1672E+03
     -1.171  0.7993E+01  0.1676E+03
     -1.111  0.6519E+01  0.1680E+03
     -1.052  0.5758E+01  0.1684E+03
     -0.993  0.5464E+01  0.1687E+03
     -0.933  0.5347E+01  0.1690E+03
     -0.874  0.5594E+01  0.1693E+03
     -0.814  0.5645E+01  0.1697E+03
     -0.755  0.5065E+01  0.1700E+03
     -0.696  0.4545E+01  0.1702E+03
     -0.636  0.5147E+01  0.1705E+03
     -0.577  0.7738E+01  0.1710E+03
     -0.517  0.1286E+02  0.1718E+03
     -0.458  0.1988E+02  0.1729E+03
     -0.399  0.2619E+02  0.1745E+03
     -0.339  0.3018E+02  0.1763E+03
     -0.280  0.3249E+02  0.1782E+03
     -0.221  0.3316E+02  0.1802E+03
     -0.161  0.3186E+02  0.1821E+03
     -0.102  0.2962E+02  0.1838E+03
     -0.042  0.2721E+02  0.1855E+03
      0.017  0.2491E+02  0.1869E+03
      0.076  0.2358E+02  0.1883E+03
      0.136  0.2294E+02  0.1897E+03
      0.195  0.2240E+02  0.1910E+03
      0.255  0.2197E+02  0.1923E+03
      0.314  0.2184E+02  0.1936E+03
      0.373  0.2183E+02  0.1949E+03
      0.433  0.2082E+02  0.1962E+03
      0.492  0.1975E+02  0.1973E+03
      0.552  0.2047E+02  0.1986E+03
      0.611  0.2207E+02  0.1999E+03
      0.670  0.2380E+02  0.2013E+03
      0.730  0.2586E+02  0.2028E+03
      0.789  0.2758E+02  0.2045E+03
      0.848  0.2853E+02  0.2061E+03
      0.908  0.2963E+02  0.2079E+03
      0.967  0.3133E+02  0.2098E+03
      1.027  0.3252E+02  0.2117E+03
      1.086  0.3371E+02  0.2137E+03
      1.145  0.3655E+02  0.2159E+03
      1.205  0.3969E+02  0.2182E+03
      1.264  0.4113E+02  0.2207E+03
      1.324  0.4204E+02  0.2232E+03
      1.383  0.4369E+02  0.2258E+03
      1.442  0.4576E+02  0.2285E+03
      1.502  0.4862E+02  0.2314E+03
      1.561  0.5234E+02  0.2345E+03
      1.620  0.5462E+02  0.2377E+03
      1.680  0.5351E+02  0.2409E+03
      1.739  0.4935E+02  0.2438E+03
      1.799  0.4241E+02  0.2463E+03
      1.858  0.3386E+02  0.2484E+03
      1.917  0.2578E+02  0.2499E+03
      1.977  0.1812E+02  0.2510E+03
      2.036  0.1046E+02  0.2516E+03
      2.096  0.4643E+01  0.2519E+03
      2.155  0.1675E+01  0.2520E+03
      2.214  0.5389E+00  0.2520E+03
      2.274  0.1493E+00  0.2520E+03
      2.333  0.3019E-01  0.2520E+03
      2.392  0.3785E-02  0.2520E+03
      2.452  0.2656E-03  0.2520E+03
      2.511  0.9894E-05  0.2520E+03
      2.571  0.1903E-06  0.2520E+03
      2.630  0.1863E-08  0.2520E+03
      2.689  0.9202E-11  0.2520E+03
      2.749  0.2283E-13  0.2520E+03
      2.808  0.0000E+00  0.2520E+03
      2.868  0.0000E+00  0.2520E+03
      2.927  0.0000E+00  0.2520E+03
      2.986  0.0000E+00  0.2520E+03
      3.046  0.0000E+00  0.2520E+03
      3.105  0.0000E+00  0.2520E+03
      3.164  0.0000E+00  0.2520E+03
