 vasp.6.5.0 16Dec24 (build Jan 08 2025 16:17:04) complex                        
  
 executed on             LinuxIFC date 2026.09.29  01:32:23
 running   24 mpi-ranks, on    1 nodes
 distrk:  each k-point on    6 cores,    4 groups
 distr:  one band on NCORE=   6 cores,    1 groups


--------------------------------------------------------------------------------------------------------


 INCAR:
   SYSTEM = Phonopy
   PREC = Accurate
   ENCUT = 600
   LCHARG = .FALSE.
   LWAVE = .FALSE.
   IALGO = 38
   NELM = 150
   EDIFF = 1E-8
   SIGMA = 0.05
   ISMEAR = 0
   NSW = 0
   IBRION = -1
   KPAR = 4
   NCORE = 6
   LREAL = .FALSE.
   GGA = PE
   LDIPOL = .TRUE.
   IDIPOL = 3
   DIPOL = 0.5 0.5 0.10

 POTCAR:    PAW_PBE Be 06Sep2000                  
 POTCAR:    PAW_PBE H 15Jun2001                   
 POTCAR:    PAW_PBE Be 06Sep2000                  
   SHA256 =  98a2d1e63100a984719ed1fa4aa623d62d7fd86152f07ada9bb3796889d1bbc8 Be/POTCAR             
   COPYR  = (c) Copyright 06Sep2000 Georg Kresse                                                    
   COPYR  = This file is part of the software VASP. Any use, copying, and all other rights are regul
   COPYR  = If you do not have a valid VASP license, you may not use, copy or distribute this file. 
   VRHFIN =Be: s2p0                                                                                 
   LEXCH  = PE                                                                                      
   EATOM  =    27.4793 eV,    2.0197 Ry                                                             
                                                                                                    
   TITEL  = PAW_PBE Be 06Sep2000                                                                    
   LULTRA =        F    use ultrasoft PP ?                                                          
   IUNSCR =        1    unscreen: 0-lin 1-nonlin 2-no                                               
   RPACOR =    1.580    partial core radius                                                         
   POMASS =    9.013; ZVAL   =    2.000    mass and valenz                                          
   RCORE  =    1.900    outmost cutoff radius                                                       
   RWIGS  =    1.880; RWIGS  =    0.995    wigner-seitz radius (au A)                               
   ENMAX  =  247.543; ENMIN  =  185.658 eV                                                          
   ICORE  =        2    local potential                                                             
   LCOR   =        T    correct aug charges                                                         
   LPAW   =        T    paw PP                                                                      
   EAUG   =  318.781                                                                                
   DEXC   =    0.000                                                                                
   RMAX   =    1.944    core radius for proj-oper                                                   
   RAUG   =    1.300    factor for augmentation sphere                                              
   RDEP   =    2.003    radius for radial grids                                                     
   RDEPT  =    1.802    core radius for aug-charge                                                  
                                                                                                    
   Atomic configuration                                                                             
    4 entries                                                                                       
     n  l   j            E        occ.                                                              
     1  0  0.50      -106.2287   2.0000                                                             
     2  0  0.50        -5.6162   1.9900                                                             
     2  1  0.50        -2.0244   0.0100                                                             
     3  2  1.50        -1.3606   0.0000                                                             
   Description                                                                                      
     l       E           TYP  RCUT    TYP  RCUT                                                     
     0     -5.6161739     23  1.900                                                                 
     0     27.2116520     23  1.900                                                                 
     1     -2.0243505     23  1.900                                                                 
     1     27.2116520     23  1.900                                                                 
     2     -1.3605826     15  1.500                                                                 
  local pseudopotential read in
  partial core-charges read in
  partial kinetic energy density read in
  atomic valenz-charges read in
  non local Contribution for L=           0  read in
    real space projection operators read in
  non local Contribution for L=           0  read in
    real space projection operators read in
  non local Contribution for L=           1  read in
    real space projection operators read in
  non local Contribution for L=           1  read in
    real space projection operators read in
    PAW grid and wavefunctions read in
 
   number of l-projection  operators is LMAX  =           4
   number of lm-projection operators is LMMAX =           8
 
 POTCAR:    PAW_PBE H 15Jun2001                   
   SHA256 =  030f79b5d3ab3cf0e668861823c8fb652ff669f3e15e46930bd03bfd63a607b6 H/POTCAR              
   COPYR  = (c) Copyright 15Jun2001 Georg Kresse                                                    
   COPYR  = This file is part of the software VASP. Any use, copying, and all other rights are regul
   COPYR  = If you do not have a valid VASP license, you may not use, copy or distribute this file. 
   VRHFIN =H: ultrasoft test                                                                        
   LEXCH  = PE                                                                                      
   EATOM  =    12.4884 eV,    0.9179 Ry                                                             
                                                                                                    
   TITEL  = PAW_PBE H 15Jun2001                                                                     
   LULTRA =        F    use ultrasoft PP ?                                                          
   IUNSCR =        0    unscreen: 0-lin 1-nonlin 2-no                                               
   RPACOR =    0.000    partial core radius                                                         
   POMASS =    1.000; ZVAL   =    1.000    mass and valenz                                          
   RCORE  =    1.100    outmost cutoff radius                                                       
   RWIGS  =    0.700; RWIGS  =    0.370    wigner-seitz radius (au A)                               
   ENMAX  =  250.000; ENMIN  =  200.000 eV                                                          
   RCLOC  =    0.701    cutoff for local pot                                                        
   LCOR   =        T    correct aug charges                                                         
   LPAW   =        T    paw PP                                                                      
   EAUG   =  400.000                                                                                
   RMAX   =    1.123    core radius for proj-oper                                                   
   RAUG   =    1.200    factor for augmentation sphere                                              
   RDEP   =    1.112    radius for radial grids                                                     
   RDEPT  =    0.926    core radius for aug-charge                                                  
                                                                                                    
   Atomic configuration                                                                             
    2 entries                                                                                       
     n  l   j            E        occ.                                                              
     1  0  0.50        -6.4927   1.0000                                                             
     2  1  0.50        -3.4015   0.0000                                                             
   Description                                                                                      
     l       E           TYP  RCUT    TYP  RCUT                                                     
     0     -6.4927494     23  1.100                                                                 
     0      6.8029130     23  1.100                                                                 
     1     -4.0817478     23  1.100                                                                 
  local pseudopotential read in
  atomic valenz-charges read in
  non local Contribution for L=           0  read in
    real space projection operators read in
  non local Contribution for L=           0  read in
    real space projection operators read in
  non local Contribution for L=           1  read in
    real space projection operators read in
    PAW grid and wavefunctions read in
 
   number of l-projection  operators is LMAX  =           3
   number of lm-projection operators is LMMAX =           5
 
 -----------------------------------------------------------------------------
|                                                                             |
|               ----> ADVICE to this user running VASP <----                  |
|                                                                             |
|     You have a (more or less) 'large supercell' and for larger cells it     |
|     might be more efficient to use real-space projection operators.         |
|     Therefore, try LREAL= Auto in the INCAR file.                           |
|     Mind: For very accurate calculation, you might also keep the            |
|     reciprocal projection scheme (i.e. LREAL=.FALSE.).                      |
|                                                                             |
 -----------------------------------------------------------------------------

  PAW_PBE Be 06Sep2000                  :
 energy of atom  1       EATOM=  -27.4793
 kinetic energy error for atom=    0.0000 (will be added to EATOM!!)
  PAW_PBE H 15Jun2001                   :
 energy of atom  2       EATOM=  -12.4884
 kinetic energy error for atom=    0.0004 (will be added to EATOM!!)
 
 
 POSCAR: generated by phonopy
  positions in direct lattice
  No initial velocities read in


 exchange-correlation table for PE
   RHO(1)=    0.500       N(1)  =     2000
   RHO(2)=  100.500       N(2)  =     4000
 


--------------------------------------------------------------------------------------------------------


 ion  position               nearest neighbor table
   1  0.028  0.071  0.122-  75 1.44  51 1.45  25 2.08   7 2.09  30 2.25  50 2.30  26 2.30
   2  0.228  0.072  0.122-  71 1.45  52 1.45   8 2.08  21 2.08  26 2.24  27 2.31  46 2.31
   3  0.428  0.072  0.122-  72 1.45  53 1.45   9 2.08  22 2.08  27 2.24  28 2.31  47 2.31
   4  0.628  0.072  0.122-  73 1.45  54 1.45  23 2.08  10 2.08  28 2.24  29 2.31  48 2.31
   5  0.828  0.072  0.122-  74 1.45  55 1.45   6 2.08  24 2.08  29 2.24  30 2.31  49 2.31
   6  0.028  0.272  0.122-  55 1.45  56 1.45   5 2.08  12 2.08  35 2.24  31 2.31  30 2.31
   7  0.228  0.272  0.122-  51 1.45  57 1.45  13 2.08   1 2.09  31 2.24  32 2.31  26 2.31
   8  0.428  0.272  0.122-  52 1.45  58 1.45  14 2.08   2 2.08  32 2.24  33 2.31  27 2.31
   9  0.628  0.272  0.122-  53 1.45  59 1.45   3 2.08  15 2.08  33 2.24  34 2.31  28 2.31
  10  0.828  0.272  0.122-  54 1.45  60 1.45  11 2.08   4 2.08  34 2.24  35 2.31  29 2.31
  11  0.028  0.472  0.122-  60 1.45  61 1.45  10 2.08  17 2.08  40 2.24  36 2.31  35 2.31
  12  0.228  0.472  0.122-  56 1.45  62 1.45   6 2.08  18 2.08  36 2.24  37 2.31  31 2.31
  13  0.428  0.472  0.122-  57 1.45  63 1.45   7 2.08  19 2.08  37 2.24  38 2.31  32 2.31
  14  0.628  0.472  0.122-  58 1.45  64 1.45   8 2.08  20 2.08  38 2.24  39 2.31  33 2.31
  15  0.828  0.472  0.122-  59 1.45  65 1.45   9 2.08  16 2.08  39 2.24  40 2.31  34 2.31
  16  0.028  0.672  0.122-  65 1.45  66 1.45  15 2.08  22 2.08  45 2.24  41 2.31  40 2.31
  17  0.228  0.672  0.122-  61 1.45  67 1.45  23 2.08  11 2.08  41 2.24  42 2.31  36 2.31
  18  0.428  0.672  0.122-  62 1.45  68 1.45  24 2.08  12 2.08  42 2.24  43 2.31  37 2.31
  19  0.628  0.672  0.122-  63 1.45  69 1.45  13 2.08  25 2.08  43 2.24  44 2.31  38 2.31
  20  0.828  0.672  0.122-  64 1.45  70 1.45  21 2.08  14 2.08  44 2.24  45 2.31  39 2.31
  21  0.028  0.872  0.122-  70 1.45  71 1.45  20 2.08   2 2.08  50 2.24  46 2.31  45 2.31
  22  0.228  0.872  0.122-  66 1.45  72 1.45  16 2.08   3 2.08  46 2.24  47 2.31  41 2.31
  23  0.428  0.872  0.122-  67 1.45  73 1.45   4 2.08  17 2.08  47 2.24  48 2.31  42 2.31
  24  0.628  0.872  0.122-  68 1.45  74 1.45  18 2.08   5 2.08  48 2.24  49 2.31  43 2.31
  25  0.828  0.872  0.122-  69 1.45  75 1.45   1 2.08  19 2.08  49 2.24  50 2.31  44 2.31
  26  0.172  0.128  0.078-  82 1.45  76 1.45  32 2.08  50 2.08   2 2.24   1 2.30   7 2.31
  27  0.372  0.128  0.078-  83 1.45  77 1.45  33 2.08  46 2.08   3 2.24   2 2.31   8 2.31
  28  0.572  0.128  0.078-  84 1.45  78 1.45  34 2.08  47 2.08   4 2.24   3 2.31   9 2.31
  29  0.772  0.128  0.078-  85 1.45  79 1.45  35 2.08  48 2.08   5 2.24   4 2.31  10 2.31
  30  0.972  0.128  0.078-  81 1.45  80 1.45  31 2.08  49 2.08   1 2.25   5 2.31   6 2.31
  31  0.172  0.328  0.078-  87 1.45  81 1.45  30 2.08  37 2.08   7 2.24   6 2.31  12 2.31
  32  0.372  0.328  0.078-  88 1.45  82 1.45  26 2.08  38 2.08   8 2.24   7 2.31  13 2.31
  33  0.572  0.328  0.078-  89 1.45  83 1.45  27 2.08  39 2.08   9 2.24   8 2.31  14 2.31
  34  0.772  0.328  0.078-  90 1.45  84 1.45  28 2.08  40 2.08  10 2.24   9 2.31  15 2.31
  35  0.972  0.328  0.078-  86 1.45  85 1.45  29 2.08  36 2.08   6 2.24  10 2.31  11 2.31
  36  0.172  0.528  0.078-  92 1.45  86 1.45  35 2.08  42 2.08  12 2.24  11 2.31  17 2.31
  37  0.372  0.528  0.078-  93 1.45  87 1.45  43 2.08  31 2.08  13 2.24  12 2.31  18 2.31
  38  0.572  0.528  0.078-  94 1.45  88 1.45  32 2.08  44 2.08  14 2.24  13 2.31  19 2.31
  39  0.772  0.528  0.078-  95 1.45  89 1.45  45 2.08  33 2.08  15 2.24  14 2.31  20 2.31
  40  0.972  0.528  0.078-  91 1.45  90 1.45  41 2.08  34 2.08  11 2.24  15 2.31  16 2.31
  41  0.172  0.728  0.078-  97 1.45  91 1.45  40 2.08  47 2.08  17 2.24  16 2.31  22 2.31
  42  0.372  0.728  0.078-  98 1.45  92 1.45  36 2.08  48 2.08  18 2.24  17 2.31  23 2.31
  43  0.572  0.728  0.078-  99 1.45  93 1.45  37 2.08  49 2.08  19 2.24  18 2.31  24 2.31
  44  0.772  0.728  0.078- 100 1.45  94 1.45  38 2.08  50 2.08  20 2.24  19 2.31  25 2.31
  45  0.972  0.728  0.078-  96 1.45  95 1.45  39 2.08  46 2.08  16 2.24  20 2.31  21 2.31
  46  0.172  0.928  0.078-  77 1.45  96 1.45  45 2.08  27 2.08  22 2.24  21 2.31   2 2.31
  47  0.372  0.928  0.078-  78 1.45  97 1.45  28 2.08  41 2.08  23 2.24  22 2.31   3 2.31
  48  0.572  0.928  0.078-  79 1.45  98 1.45  42 2.08  29 2.08  24 2.24  23 2.31   4 2.31
  49  0.772  0.928  0.078-  80 1.45  99 1.45  30 2.08  43 2.08  25 2.24  24 2.31   5 2.31
  50  0.972  0.928  0.078-  76 1.45 100 1.45  26 2.08  44 2.08  21 2.24   1 2.30  25 2.31
  51  0.127  0.173  0.147-   7 1.45   1 1.45
  52  0.327  0.173  0.147-   8 1.45   2 1.45
  53  0.527  0.173  0.147-   9 1.45   3 1.45
  54  0.727  0.173  0.147-  10 1.45   4 1.45
  55  0.927  0.173  0.147-   6 1.45   5 1.45
  56  0.127  0.373  0.147-  12 1.45   6 1.45
  57  0.327  0.373  0.147-  13 1.45   7 1.45
  58  0.527  0.373  0.147-  14 1.45   8 1.45
  59  0.727  0.373  0.147-  15 1.45   9 1.45
  60  0.927  0.373  0.147-  11 1.45  10 1.45
  61  0.127  0.573  0.147-  17 1.45  11 1.45
  62  0.327  0.573  0.147-  18 1.45  12 1.45
  63  0.527  0.573  0.147-  19 1.45  13 1.45
  64  0.727  0.573  0.147-  20 1.45  14 1.45
  65  0.927  0.573  0.147-  16 1.45  15 1.45
  66  0.127  0.773  0.147-  22 1.45  16 1.45
  67  0.327  0.773  0.147-  23 1.45  17 1.45
  68  0.527  0.773  0.147-  24 1.45  18 1.45
  69  0.727  0.773  0.147-  25 1.45  19 1.45
  70  0.927  0.773  0.147-  21 1.45  20 1.45
  71  0.127  0.973  0.147-   2 1.45  21 1.45
  72  0.327  0.973  0.147-   3 1.45  22 1.45
  73  0.527  0.973  0.147-   4 1.45  23 1.45
  74  0.727  0.973  0.147-   5 1.45  24 1.45
  75  0.927  0.973  0.147-   1 1.44  25 1.45
  76  0.073  0.027  0.053-  50 1.45  26 1.45
  77  0.273  0.027  0.053-  46 1.45  27 1.45
  78  0.473  0.027  0.053-  47 1.45  28 1.45
  79  0.673  0.027  0.053-  48 1.45  29 1.45
  80  0.873  0.027  0.053-  49 1.45  30 1.45
  81  0.073  0.227  0.053-  30 1.45  31 1.45
  82  0.273  0.227  0.053-  26 1.45  32 1.45
  83  0.473  0.227  0.053-  27 1.45  33 1.45
  84  0.673  0.227  0.053-  28 1.45  34 1.45
  85  0.873  0.227  0.053-  29 1.45  35 1.45
  86  0.073  0.427  0.053-  35 1.45  36 1.45
  87  0.273  0.427  0.053-  31 1.45  37 1.45
  88  0.473  0.427  0.053-  32 1.45  38 1.45
  89  0.673  0.427  0.053-  33 1.45  39 1.45
  90  0.873  0.427  0.053-  34 1.45  40 1.45
  91  0.073  0.627  0.053-  40 1.45  41 1.45
  92  0.273  0.627  0.053-  36 1.45  42 1.45
  93  0.473  0.627  0.053-  37 1.45  43 1.45
  94  0.673  0.627  0.053-  38 1.45  44 1.45
  95  0.873  0.627  0.053-  39 1.45  45 1.45
  96  0.073  0.827  0.053-  45 1.45  46 1.45
  97  0.273  0.827  0.053-  41 1.45  47 1.45
  98  0.473  0.827  0.053-  42 1.45  48 1.45
  99  0.673  0.827  0.053-  43 1.45  49 1.45
 100  0.873  0.827  0.053-  44 1.45  50 1.45
 
  LATTYP: Found a simple monoclinic cell.
 ALAT       =    10.4095183790
 B/A-ratio  =     3.8426369543
 C/A-ratio  =     1.2469529670
 COS(beta)  =    -0.4007584197
  
  Lattice vectors:
  
 A1 = (   0.0532212709,  10.4093823246,   0.0000000000)
 A2 = (   0.0000000000,   0.0000000000, -40.0000000000)
 A3 = ( -11.9186706769,  -5.1410463590,   0.0000000000)


Analysis of symmetry for initial positions (statically):
=====================================================================
 Subroutine PRICEL returns:
 Original cell was already a primitive cell.
 

 Routine SETGRP: Setting up the symmetry group for a 
 simple monoclinic supercell.


 Subroutine GETGRP returns: Found  1 space group operations
 (whereof  1 operations were pure point group operations)
 out of a pool of  4 trial point group operations.


The static configuration has the point symmetry C_1 .


Analysis of symmetry for dynamics (positions and initial velocities):
=====================================================================
 Subroutine PRICEL returns:
 Original cell was already a primitive cell.
 

 Routine SETGRP: Setting up the symmetry group for a 
 simple monoclinic supercell.


 Subroutine GETGRP returns: Found  1 space group operations
 (whereof  1 operations were pure point group operations)
 out of a pool of  4 trial point group operations.


The dynamic configuration has the point symmetry C_1 .


 Subroutine INISYM returns: Found  1 space group operations
 (whereof  1 operations are pure point group operations),
 and found     1 'primitive' translations


----------------------------------------------------------------------------------------

                                     Primitive cell                                     

  volume of cell :    4951.6955

  direct lattice vectors                    reciprocal lattice vectors
    11.918670677  5.141046359  0.000000000     0.042557835  0.095849589  0.000000000
   -11.865449406  5.268335966  0.000000000    -0.041529584  0.096279513  0.000000000
     0.000000000  0.000000000 40.000000000     0.000000000  0.000000000  0.025000000

  length of vectors
    12.980179828 12.982459453 40.000000000     0.104872842  0.104854427  0.025000000

  position of ions in fractional coordinates (direct lattice)
     0.028482560  0.070772112  0.122322624
     0.228482560  0.071542382  0.122322624
     0.428482560  0.071542382  0.122322624
     0.628482560  0.071542382  0.122322624
     0.828482560  0.071542382  0.122322624
     0.028482560  0.271542382  0.122322624
     0.228482560  0.271542382  0.122322624
     0.428482560  0.271542382  0.122322624
     0.628482560  0.271542382  0.122322624
     0.828482560  0.271542382  0.122322624
     0.028482560  0.471542382  0.122322624
     0.228482560  0.471542382  0.122322624
     0.428482560  0.471542382  0.122322624
     0.628482560  0.471542382  0.122322624
     0.828482560  0.471542382  0.122322624
     0.028482560  0.671542382  0.122322624
     0.228482560  0.671542382  0.122322624
     0.428482560  0.671542382  0.122322624
     0.628482560  0.671542382  0.122322624
     0.828482560  0.671542382  0.122322624
     0.028482560  0.871542382  0.122322624
     0.228482560  0.871542382  0.122322624
     0.428482560  0.871542382  0.122322624
     0.628482560  0.871542382  0.122322624
     0.828482560  0.871542382  0.122322624
     0.171517440  0.128457618  0.077677376
     0.371517440  0.128457618  0.077677376
     0.571517440  0.128457618  0.077677376
     0.771517440  0.128457618  0.077677376
     0.971517440  0.128457618  0.077677376
     0.171517440  0.328457618  0.077677376
     0.371517440  0.328457618  0.077677376
     0.571517440  0.328457618  0.077677376
     0.771517440  0.328457618  0.077677376
     0.971517440  0.328457618  0.077677376
     0.171517440  0.528457618  0.077677376
     0.371517440  0.528457618  0.077677376
     0.571517440  0.528457618  0.077677376
     0.771517440  0.528457618  0.077677376
     0.971517440  0.528457618  0.077677376
     0.171517440  0.728457618  0.077677376
     0.371517440  0.728457618  0.077677376
     0.571517440  0.728457618  0.077677376
     0.771517440  0.728457618  0.077677376
     0.971517440  0.728457618  0.077677376
     0.171517440  0.928457618  0.077677376
     0.371517440  0.928457618  0.077677376
     0.571517440  0.928457618  0.077677376
     0.771517440  0.928457618  0.077677376
     0.971517440  0.928457618  0.077677376
     0.126737893  0.173299731  0.147410393
     0.326737893  0.173299731  0.147410393
     0.526737893  0.173299731  0.147410393
     0.726737893  0.173299731  0.147410393
     0.926737893  0.173299731  0.147410393
     0.126737893  0.373299731  0.147410393
     0.326737893  0.373299731  0.147410393
     0.526737893  0.373299731  0.147410393
     0.726737893  0.373299731  0.147410393
     0.926737893  0.373299731  0.147410393
     0.126737893  0.573299731  0.147410393
     0.326737893  0.573299731  0.147410393
     0.526737893  0.573299731  0.147410393
     0.726737893  0.573299731  0.147410393
     0.926737893  0.573299731  0.147410393
     0.126737893  0.773299731  0.147410393
     0.326737893  0.773299731  0.147410393
     0.526737893  0.773299731  0.147410393
     0.726737893  0.773299731  0.147410393
     0.926737893  0.773299731  0.147410393
     0.126737893  0.973299731  0.147410393
     0.326737893  0.973299731  0.147410393
     0.526737893  0.973299731  0.147410393
     0.726737893  0.973299731  0.147410393
     0.926737893  0.973299731  0.147410393
     0.073262107  0.026700269  0.052589607
     0.273262107  0.026700269  0.052589607
     0.473262107  0.026700269  0.052589607
     0.673262107  0.026700269  0.052589607
     0.873262107  0.026700269  0.052589607
     0.073262107  0.226700269  0.052589607
     0.273262107  0.226700269  0.052589607
     0.473262107  0.226700269  0.052589607
     0.673262107  0.226700269  0.052589607
     0.873262107  0.226700269  0.052589607
     0.073262107  0.426700269  0.052589607
     0.273262107  0.426700269  0.052589607
     0.473262107  0.426700269  0.052589607
     0.673262107  0.426700269  0.052589607
     0.873262107  0.426700269  0.052589607
     0.073262107  0.626700269  0.052589607
     0.273262107  0.626700269  0.052589607
     0.473262107  0.626700269  0.052589607
     0.673262107  0.626700269  0.052589607
     0.873262107  0.626700269  0.052589607
     0.073262107  0.826700269  0.052589607
     0.273262107  0.826700269  0.052589607
     0.473262107  0.826700269  0.052589607
     0.673262107  0.826700269  0.052589607
     0.873262107  0.826700269  0.052589607

  ion indices of the primitive-cell ions
   primitive index   ion index
                 1           1
                 2           2
                 3           3
                 4           4
                 5           5
                 6           6
                 7           7
                 8           8
                 9           9
                10          10
                11          11
                12          12
                13          13
                14          14
                15          15
                16          16
                17          17
                18          18
                19          19
                20          20
                21          21
                22          22
                23          23
                24          24
                25          25
                26          26
                27          27
                28          28
                29          29
                30          30
                31          31
                32          32
                33          33
                34          34
                35          35
                36          36
                37          37
                38          38
                39          39
                40          40
                41          41
                42          42
                43          43
                44          44
                45          45
                46          46
                47          47
                48          48
                49          49
                50          50
                51          51
                52          52
                53          53
                54          54
                55          55
                56          56
                57          57
                58          58
                59          59
                60          60
                61          61
                62          62
                63          63
                64          64
                65          65
                66          66
                67          67
                68          68
                69          69
                70          70
                71          71
                72          72
                73          73
                74          74
                75          75
                76          76
                77          77
                78          78
                79          79
                80          80
                81          81
                82          82
                83          83
                84          84
                85          85
                86          86
                87          87
                88          88
                89          89
                90          90
                91          91
                92          92
                93          93
                94          94
                95          95
                96          96
                97          97
                98          98
                99          99
               100         100

----------------------------------------------------------------------------------------

 
 
 KPOINTS: k-points                                

Automatic generation of k-mesh.
 Grid dimensions read from file:
 generate k-points for:   13   13    1

 Generating k-lattice:

  Cartesian coordinates                     Fractional coordinates (reciprocal lattice)
     0.003273680  0.007373045  0.000000000     0.076923077  0.000000000  0.000000000
    -0.003194583  0.007406116  0.000000000     0.000000000  0.076923077  0.000000000
     0.000000000  0.000000000  0.025000000     0.000000000  0.000000000  1.000000000

  Length of vectors
     0.008067142  0.008065725  0.025000000

  Shift w.r.t. Gamma in fractional coordinates (k-lattice)
     0.000000000  0.000000000  0.000000000

 
 Subroutine IBZKPT returns following result:
 ===========================================
 
 Found     85 irreducible k-points:
 
 Following reciprocal coordinates:
            Coordinates               Weight
  0.000000  0.000000  0.000000      1.000000
  0.076923  0.000000  0.000000      2.000000
  0.153846  0.000000  0.000000      2.000000
  0.230769  0.000000  0.000000      2.000000
  0.307692  0.000000  0.000000      2.000000
  0.384615  0.000000  0.000000      2.000000
  0.461538  0.000000  0.000000      2.000000
  0.000000  0.076923  0.000000      2.000000
  0.076923  0.076923  0.000000      2.000000
  0.153846  0.076923  0.000000      2.000000
  0.230769  0.076923  0.000000      2.000000
  0.307692  0.076923  0.000000      2.000000
  0.384615  0.076923  0.000000      2.000000
  0.461538  0.076923  0.000000      2.000000
 -0.461538  0.076923  0.000000      2.000000
 -0.384615  0.076923  0.000000      2.000000
 -0.307692  0.076923  0.000000      2.000000
 -0.230769  0.076923  0.000000      2.000000
 -0.153846  0.076923  0.000000      2.000000
 -0.076923  0.076923  0.000000      2.000000
  0.000000  0.153846  0.000000      2.000000
  0.076923  0.153846  0.000000      2.000000
  0.153846  0.153846  0.000000      2.000000
  0.230769  0.153846  0.000000      2.000000
  0.307692  0.153846  0.000000      2.000000
  0.384615  0.153846  0.000000      2.000000
  0.461538  0.153846  0.000000      2.000000
 -0.461538  0.153846  0.000000      2.000000
 -0.384615  0.153846  0.000000      2.000000
 -0.307692  0.153846  0.000000      2.000000
 -0.230769  0.153846  0.000000      2.000000
 -0.153846  0.153846  0.000000      2.000000
 -0.076923  0.153846  0.000000      2.000000
  0.000000  0.230769  0.000000      2.000000
  0.076923  0.230769  0.000000      2.000000
  0.153846  0.230769  0.000000      2.000000
  0.230769  0.230769  0.000000      2.000000
  0.307692  0.230769  0.000000      2.000000
  0.384615  0.230769  0.000000      2.000000
  0.461538  0.230769  0.000000      2.000000
 -0.461538  0.230769  0.000000      2.000000
 -0.384615  0.230769  0.000000      2.000000
 -0.307692  0.230769  0.000000      2.000000
 -0.230769  0.230769  0.000000      2.000000
 -0.153846  0.230769  0.000000      2.000000
 -0.076923  0.230769  0.000000      2.000000
  0.000000  0.307692  0.000000      2.000000
  0.076923  0.307692  0.000000      2.000000
  0.153846  0.307692  0.000000      2.000000
  0.230769  0.307692  0.000000      2.000000
  0.307692  0.307692  0.000000      2.000000
  0.384615  0.307692  0.000000      2.000000
  0.461538  0.307692  0.000000      2.000000
 -0.461538  0.307692  0.000000      2.000000
 -0.384615  0.307692  0.000000      2.000000
 -0.307692  0.307692  0.000000      2.000000
 -0.230769  0.307692  0.000000      2.000000
 -0.153846  0.307692  0.000000      2.000000
 -0.076923  0.307692  0.000000      2.000000
  0.000000  0.384615  0.000000      2.000000
  0.076923  0.384615  0.000000      2.000000
  0.153846  0.384615  0.000000      2.000000
  0.230769  0.384615  0.000000      2.000000
  0.307692  0.384615  0.000000      2.000000
  0.384615  0.384615  0.000000      2.000000
  0.461538  0.384615  0.000000      2.000000
 -0.461538  0.384615  0.000000      2.000000
 -0.384615  0.384615  0.000000      2.000000
 -0.307692  0.384615  0.000000      2.000000
 -0.230769  0.384615  0.000000      2.000000
 -0.153846  0.384615  0.000000      2.000000
 -0.076923  0.384615  0.000000      2.000000
  0.000000  0.461538  0.000000      2.000000
  0.076923  0.461538  0.000000      2.000000
  0.153846  0.461538  0.000000      2.000000
  0.230769  0.461538  0.000000      2.000000
  0.307692  0.461538  0.000000      2.000000
  0.384615  0.461538  0.000000      2.000000
  0.461538  0.461538  0.000000      2.000000
 -0.461538  0.461538  0.000000      2.000000
 -0.384615  0.461538  0.000000      2.000000
 -0.307692  0.461538  0.000000      2.000000
 -0.230769  0.461538  0.000000      2.000000
 -0.153846  0.461538  0.000000      2.000000
 -0.076923  0.461538  0.000000      2.000000
 
 Following cartesian coordinates:
            Coordinates               Weight
  0.000000  0.000000  0.000000      1.000000
  0.003274  0.007373  0.000000      2.000000
  0.006547  0.014746  0.000000      2.000000
  0.009821  0.022119  0.000000      2.000000
  0.013095  0.029492  0.000000      2.000000
  0.016368  0.036865  0.000000      2.000000
  0.019642  0.044238  0.000000      2.000000
 -0.003195  0.007406  0.000000      2.000000
  0.000079  0.014779  0.000000      2.000000
  0.003353  0.022152  0.000000      2.000000
  0.006626  0.029525  0.000000      2.000000
  0.009900  0.036898  0.000000      2.000000
  0.013174  0.044271  0.000000      2.000000
  0.016447  0.051644  0.000000      2.000000
 -0.022837 -0.036832  0.000000      2.000000
 -0.019563 -0.029459  0.000000      2.000000
 -0.016289 -0.022086  0.000000      2.000000
 -0.013016 -0.014713  0.000000      2.000000
 -0.009742 -0.007340  0.000000      2.000000
 -0.006468  0.000033  0.000000      2.000000
 -0.006389  0.014812  0.000000      2.000000
 -0.003115  0.022185  0.000000      2.000000
  0.000158  0.029558  0.000000      2.000000
  0.003432  0.036931  0.000000      2.000000
  0.006706  0.044304  0.000000      2.000000
  0.009979  0.051677  0.000000      2.000000
  0.013253  0.059051  0.000000      2.000000
 -0.026031 -0.029426  0.000000      2.000000
 -0.022758 -0.022053  0.000000      2.000000
 -0.019484 -0.014680  0.000000      2.000000
 -0.016210 -0.007307  0.000000      2.000000
 -0.012937  0.000066  0.000000      2.000000
 -0.009663  0.007439  0.000000      2.000000
 -0.009584  0.022218  0.000000      2.000000
 -0.006310  0.029591  0.000000      2.000000
 -0.003036  0.036964  0.000000      2.000000
  0.000237  0.044337  0.000000      2.000000
  0.003511  0.051711  0.000000      2.000000
  0.006785  0.059084  0.000000      2.000000
  0.010058  0.066457  0.000000      2.000000
 -0.029226 -0.022020  0.000000      2.000000
 -0.025952 -0.014647  0.000000      2.000000
 -0.022678 -0.007274  0.000000      2.000000
 -0.019405  0.000099  0.000000      2.000000
 -0.016131  0.007472  0.000000      2.000000
 -0.012857  0.014845  0.000000      2.000000
 -0.012778  0.029624  0.000000      2.000000
 -0.009505  0.036998  0.000000      2.000000
 -0.006231  0.044371  0.000000      2.000000
 -0.002957  0.051744  0.000000      2.000000
  0.000316  0.059117  0.000000      2.000000
  0.003590  0.066490  0.000000      2.000000
  0.006864  0.073863  0.000000      2.000000
 -0.032420 -0.014614  0.000000      2.000000
 -0.029147 -0.007241  0.000000      2.000000
 -0.025873  0.000132  0.000000      2.000000
 -0.022599  0.007505  0.000000      2.000000
 -0.019326  0.014878  0.000000      2.000000
 -0.016052  0.022251  0.000000      2.000000
 -0.015973  0.037031  0.000000      2.000000
 -0.012699  0.044404  0.000000      2.000000
 -0.009426  0.051777  0.000000      2.000000
 -0.006152  0.059150  0.000000      2.000000
 -0.002878  0.066523  0.000000      2.000000
  0.000395  0.073896  0.000000      2.000000
  0.003669  0.081269  0.000000      2.000000
 -0.035615 -0.007208  0.000000      2.000000
 -0.032341  0.000165  0.000000      2.000000
 -0.029068  0.007538  0.000000      2.000000
 -0.025794  0.014911  0.000000      2.000000
 -0.022520  0.022284  0.000000      2.000000
 -0.019247  0.029658  0.000000      2.000000
 -0.019168  0.044437  0.000000      2.000000
 -0.015894  0.051810  0.000000      2.000000
 -0.012620  0.059183  0.000000      2.000000
 -0.009346  0.066556  0.000000      2.000000
 -0.006073  0.073929  0.000000      2.000000
 -0.002799  0.081302  0.000000      2.000000
  0.000475  0.088675  0.000000      2.000000
 -0.038810  0.000198  0.000000      2.000000
 -0.035536  0.007571  0.000000      2.000000
 -0.032262  0.014945  0.000000      2.000000
 -0.028989  0.022318  0.000000      2.000000
 -0.025715  0.029691  0.000000      2.000000
 -0.022441  0.037064  0.000000      2.000000
 


--------------------------------------------------------------------------------------------------------




 Dimension of arrays:
   k-points           NKPTS =     85   k-points in BZ     NKDIM =     85   number of bands    NBANDS=    126
   number of dos      NEDOS =    301   number of ions     NIONS =    100
   non local maximal  LDIM  =      4   non local SUM 2l+1 LMDIM =      8
   total plane-waves  NPLWV = ******
   max r-space proj   IRMAX =      1   max aug-charges    IRDMAX=  25790
   dimension x,y,z NGX =   108 NGY =  108 NGZ =  320
   dimension x,y,z NGXF=   216 NGYF=  216 NGZF=  640
   support grid    NGXF=   216 NGYF=  216 NGZF=  640
   ions per type =              50  50
   NGX,Y,Z   is equivalent  to a cutoff of  13.83, 13.83, 13.30 a.u.
   NGXF,Y,Z  is equivalent  to a cutoff of  27.66, 27.66, 26.60 a.u.

 SYSTEM =  Phonopy                                 
 POSCAR =  generated by phonopy                    

 Startparameter for this run:
   NWRITE =      2    write-flag & timer
   PREC   = accura    normal or accurate (medium, high low for compatibility)
   ISTART =      0    job   : 0-new  1-cont  2-samecut
   ICHARG =      2    charge: 1-file 2-atom 10-const
   ISPIN  =      1    spin polarized calculation?
   LNONCOLLINEAR =      F non collinear calculations
   LSORBIT =      F    spin-orbit coupling
   INIWAV =      1    electr: 0-lowe 1-rand  2-diag
   LASPH  =      F    aspherical Exc in radial PAW
 Electronic Relaxation 1
   ENCUT  =  600.0 eV  44.10 Ry    6.64 a.u.  25.92 25.93 79.89*2*pi/ulx,y,z
   ENINI  =  600.0     initial cutoff
   ENAUG  =  400.0 eV  augmentation charge cutoff
   NELM   =    150;   NELMIN=  2; NELMDL= -5     # of ELM steps 
   EDIFF  = 0.1E-07   stopping-criterion for ELM
   LREAL  =      F    real-space projection
   NLSPLINE    = F    spline interpolate recip. space projectors
   LCOMPAT=      F    compatible to vasp.4.4
   GGA_COMPAT  = T    GGA compatible to vasp.4.4-vasp.4.6
   LMAXPAW     = -100 max onsite density
   LMAXMIX     =    2 max onsite mixed and CHGCAR
   VOSKOWN=      0    Vosko Wilk Nusair interpolation
   ROPT   =    0.00000   0.00000
 Ionic relaxation
   EDIFFG = 0.1E-06   stopping-criterion for IOM
   NSW    =      0    number of steps for IOM
   NBLOCK =      1;   KBLOCK =      1    inner block; outer block 
   IBRION =     -1    ionic relax: 0-MD 1-quasi-New 2-CG
   NFREE  =      0    steps in history (QN), initial steepest desc. (CG)
   ISIF   =      2    stress and relaxation
   IWAVPR =     10    prediction:  0-non 1-charg 2-wave 3-comb
   ISYM   =      2    0-nonsym 1-usesym 2-fastsym
   LCORR  =      T    Harris-Foulkes like correction to forces

   POTIM  = 0.5000    time-step for ionic-motion
   TEIN   =    0.0    initial temperature
   TEBEG  =    0.0;   TEEND  =   0.0 temperature during run
   SMASS  =  -3.00    Nose mass-parameter (am)
   estimated Nose-frequenzy (Omega)   =  0.10E-29 period in steps = 0.13E+47 mass=  -0.385E-26a.u.
   SCALEE = 1.0000    scale energy and forces
   NPACO  =    256;   APACO  = 10.0  distance and # of slots for P.C.
   PSTRESS=    0.0 pullay stress

  Mass of Ions in am
   POMASS =   9.01  1.00
  Ionic Valenz
   ZVAL   =   2.00  1.00
  Atomic Wigner-Seitz radii
   RWIGS  =  -1.00 -1.00
  virtual crystal weights 
   VCA    =   1.00  1.00
   NELECT =     150.0000    total number of electrons
   NUPDOWN=      -1.0000    fix difference up-down

 DOS related values:
   EMIN   =  10.00;   EMAX   =-10.00  energy-range for DOS
   EFERMI =   0.00;   METHOD = LEGACY      
   ISMEAR =     0;   SIGMA  =   0.05  broadening in eV -4-tet -1-fermi 0-gaus
   EFERMI_NEDOS =   21; number of points for ismear=-14 and -15

 Electronic relaxation 2 (details)
   IALGO  =     38    algorithm
   LDIAG  =      T    sub-space diagonalisation (order eigenvalues)
   LSUBROT=      F    optimize rotation matrix (better conditioning)
   TURBO    =      0    0=normal 1=particle mesh
   IRESTART =      0    0=no restart 2=restart with 2 vectors
   NREBOOT  =      0    no. of reboots
   NMIN     =      0    reboot dimension
   EREF     =   0.00    reference energy to select bands
   IMIX   =      4    mixing-type and parameters
     AMIX     =   0.40;   BMIX     =  1.00
     AMIX_MAG =   1.60;   BMIX_MAG =  1.00
     AMIN     =   0.10
     WC   =   100.;   INIMIX=   1;  MIXPRE=   1;  MAXMIX= -45

 Intra band minimization:
   WEIMIN = 0.0000     energy-eigenvalue tresh-hold
   EBREAK =  0.20E-10  absolut break condition
   DEPER  =   0.30     relativ break condition  

   TIME   =   0.40     timestep for ELM

  volume/ion in A,a.u.               =      49.52       334.16
  Fermi-wavevector in a.u.,A,eV,Ry     =   0.510333  0.964390  3.543503  0.260440
  Thomas-Fermi vector in A             =   1.523284
 
 Write flags
   LWAVE        =      F    write WAVECAR
   LDOWNSAMPLE  =      F    k-point downsampling of WAVECAR
   LCHARG       =      F    write CHGCAR
   LVTOT        =      F    write LOCPOT, total local potential
   LVHAR        =      F    write LOCPOT, Hartree potential only
   WRT_POTENTIAL= false  ! write potential to hdf5 file
   LELF         =      F    write electronic localiz. function (ELF)
   LORBIT       =      0    0 simple, 1 ext, 2 COOP (PROOUT), +10 PAW based schemes


 Python interface
   PLUGINS active      =      F    recompile with -DPLUGINS to activate
 
 Dipole corrections
   LMONO      =      F    monopole corrections only (constant potential shift)
   LDIPOL     =      T    correct potential (dipole corrections)
   IDIPOL     =      3    1-x, 2-y, 3-z, 4-all directions 
   EPSILON    =  1.0000000 bulk dielectric constant
   LVACPOTAV  =      F  vacuum potentials using an averaging scheme for the charge density
   VACPOTFLAT =  0.1000000 required flatness to determine vacuum potential
 
Coulomb truncation method
  LTRUNCATE          =      F  Coulomb kernel truncation to be used
  IDIMENSIONALITY    =      3  Dimensionality of cutoff (0 molecules / 2 surfaces)
  ISURFACE           =     -1  Direction of surface normal
  LCOARSEN           =      F  Coarsen the charge grid before padding, preferred

 
 Exchange correlation treatment:
   GGA     = PE    functional components
   XC_C    = 1    coefficients multiplying the functional components
   LIBXC   =     F    Libxc                    
   VOSKOWN =     0    Vosko Wilk Nusair interpolation
   LHFCALC =     F    Hartree Fock is set to
   LHFONE  =     F    Hartree Fock one center treatment
   AEXX    =    0.0000 exact exchange contribution

 Parameters of functionals:
   PE:
     No parameter
 
 Van der Waals corrections
   IVDW    =     0    specifies the selected vdW correction

 Linear response parameters
   LEPSILON=     F    determine dielectric tensor
   LRPA    =     F    only Hartree local field effects (RPA)
   LNABLA  =     F    use nabla operator in PAW spheres
   LVEL    =     F    velocity operator in full k-point grid
   CSHIFT  =0.1000    complex shift for real part using Kramers Kronig
   OMEGAMAX=  -1.0    maximum frequency
   DEG_THRESHOLD= 0.2000000E-02 threshold for treating states as degnerate
   RTIME   =   -0.100 relaxation time in fs
  (WPLASMAI=    0.000 imaginary part of plasma frequency in eV, 0.658/RTIME)
   DFIELD  = 0.0000000 0.0000000 0.0000000 field for delta impulse in time
 
  Optional k-point grid parameters
   LKPOINTS_OPT  =     F    use optional k-point grid
   KPOINTS_OPT_MODE=     1    mode for optional k-point grid
 
 Orbital magnetization related:
   ORBITALMAG=     F  switch on orbital magnetization
   LCHIMAG   =     F  perturbation theory with respect to B field
   DQ        =  0.001000  dq finite difference perturbation B field
   LLRAUG    =     F  two centre corrections for induced B field
   LBONE     =     F  B-component reconstruction in AE one-centre
   LVGVCALC  =     T  calculate vGv susceptibility
   LVGVAPPL  =     F  apply vGv susceptibility instead of pGv for G=0

 Random number generation:
   RANDOM_GENERATOR = DEFAULT
   PCG_SEED         = not used


--------------------------------------------------------------------------------------------------------


 Static calculation
 charge density and potential will be updated during run
 non-spin polarized calculation
 Variant of blocked Davidson
 Davidson routine will perform the subspace rotation
 perform sub-space diagonalisation
    after iterative eigenvector-optimisation
 modified Broyden-mixing scheme, WC =      100.0
 initial mixing is a Kerker type mixing with AMIX =  0.4000 and BMIX =      1.0000
 Hartree-type preconditioning will be used
 using additional bands           51
 reciprocal scheme for non local part
 use partial core corrections
 calculate Harris-corrections to forces 
   (improved forces if not selfconsistent)
 use gradient corrections 
 use of overlap-Matrix (Vanderbilt PP)
 Gauss-broadening in eV      SIGMA  =   0.05


--------------------------------------------------------------------------------------------------------


  energy-cutoff  :      600.00
  volume of cell :     4951.70
      direct lattice vectors                 reciprocal lattice vectors
    11.918670677  5.141046359  0.000000000     0.042557835  0.095849589  0.000000000
   -11.865449406  5.268335966  0.000000000    -0.041529584  0.096279513  0.000000000
     0.000000000  0.000000000 40.000000000     0.000000000  0.000000000  0.025000000

  length of vectors
    12.980179828 12.982459453 40.000000000     0.104872842  0.104854427  0.025000000


 
 k-points in units of 2pi/SCALE and weight: k-points                                
   0.00000000  0.00000000  0.00000000       0.006
   0.00327368  0.00737305  0.00000000       0.012
   0.00654736  0.01474609  0.00000000       0.012
   0.00982104  0.02211914  0.00000000       0.012
   0.01309472  0.02949218  0.00000000       0.012
   0.01636840  0.03686523  0.00000000       0.012
   0.01964208  0.04423827  0.00000000       0.012
  -0.00319458  0.00740612  0.00000000       0.012
   0.00007910  0.01477916  0.00000000       0.012
   0.00335278  0.02215221  0.00000000       0.012
   0.00662646  0.02952525  0.00000000       0.012
   0.00990014  0.03689830  0.00000000       0.012
   0.01317381  0.04427134  0.00000000       0.012
   0.01644749  0.05164439  0.00000000       0.012
  -0.02283666 -0.03683216  0.00000000       0.012
  -0.01956298 -0.02945911  0.00000000       0.012
  -0.01628930 -0.02208606  0.00000000       0.012
  -0.01301562 -0.01471302  0.00000000       0.012
  -0.00974194 -0.00733997  0.00000000       0.012
  -0.00646826  0.00003307  0.00000000       0.012
  -0.00638917  0.01481223  0.00000000       0.012
  -0.00311549  0.02218528  0.00000000       0.012
   0.00015819  0.02955832  0.00000000       0.012
   0.00343187  0.03693137  0.00000000       0.012
   0.00670555  0.04430441  0.00000000       0.012
   0.00997923  0.05167746  0.00000000       0.012
   0.01325291  0.05905050  0.00000000       0.012
  -0.02603124 -0.02942604  0.00000000       0.012
  -0.02275756 -0.02205299  0.00000000       0.012
  -0.01948389 -0.01467995  0.00000000       0.012
  -0.01621021 -0.00730690  0.00000000       0.012
  -0.01293653  0.00006614  0.00000000       0.012
  -0.00966285  0.00743919  0.00000000       0.012
  -0.00958375  0.02221835  0.00000000       0.012
  -0.00631007  0.02959139  0.00000000       0.012
  -0.00303639  0.03696444  0.00000000       0.012
   0.00023729  0.04433749  0.00000000       0.012
   0.00351097  0.05171053  0.00000000       0.012
   0.00678465  0.05908358  0.00000000       0.012
   0.01005833  0.06645662  0.00000000       0.012
  -0.02922583 -0.02201992  0.00000000       0.012
  -0.02595215 -0.01464688  0.00000000       0.012
  -0.02267847 -0.00727383  0.00000000       0.012
  -0.01940479  0.00009921  0.00000000       0.012
  -0.01613111  0.00747226  0.00000000       0.012
  -0.01285743  0.01484530  0.00000000       0.012
  -0.01277833  0.02962447  0.00000000       0.012
  -0.00950465  0.03699751  0.00000000       0.012
  -0.00623097  0.04437056  0.00000000       0.012
  -0.00295729  0.05174360  0.00000000       0.012
   0.00031638  0.05911665  0.00000000       0.012
   0.00359006  0.06648969  0.00000000       0.012
   0.00686374  0.07386274  0.00000000       0.012
  -0.03242041 -0.01461381  0.00000000       0.012
  -0.02914673 -0.00724076  0.00000000       0.012
  -0.02587305  0.00013228  0.00000000       0.012
  -0.02259937  0.00750533  0.00000000       0.012
  -0.01932569  0.01487837  0.00000000       0.012
  -0.01605201  0.02225142  0.00000000       0.012
  -0.01597292  0.03703058  0.00000000       0.012
  -0.01269924  0.04440363  0.00000000       0.012
  -0.00942556  0.05177667  0.00000000       0.012
  -0.00615188  0.05914972  0.00000000       0.012
  -0.00287820  0.06652276  0.00000000       0.012
   0.00039548  0.07389581  0.00000000       0.012
   0.00366916  0.08126885  0.00000000       0.012
  -0.03561499 -0.00720769  0.00000000       0.012
  -0.03234132  0.00016536  0.00000000       0.012
  -0.02906764  0.00753840  0.00000000       0.012
  -0.02579396  0.01491145  0.00000000       0.012
  -0.02252028  0.02228449  0.00000000       0.012
  -0.01924660  0.02965754  0.00000000       0.012
  -0.01916750  0.04443670  0.00000000       0.012
  -0.01589382  0.05180974  0.00000000       0.012
  -0.01262014  0.05918279  0.00000000       0.012
  -0.00934646  0.06655583  0.00000000       0.012
  -0.00607278  0.07392888  0.00000000       0.012
  -0.00279910  0.08130192  0.00000000       0.012
   0.00047458  0.08867497  0.00000000       0.012
  -0.03880958  0.00019843  0.00000000       0.012
  -0.03553590  0.00757147  0.00000000       0.012
  -0.03226222  0.01494452  0.00000000       0.012
  -0.02898854  0.02231756  0.00000000       0.012
  -0.02571486  0.02969061  0.00000000       0.012
  -0.02244118  0.03706365  0.00000000       0.012
 
 k-points in reciprocal lattice and weights: k-points                                
   0.00000000  0.00000000  0.00000000       0.006
   0.07692308  0.00000000  0.00000000       0.012
   0.15384615  0.00000000  0.00000000       0.012
   0.23076923  0.00000000  0.00000000       0.012
   0.30769231  0.00000000  0.00000000       0.012
   0.38461538  0.00000000  0.00000000       0.012
   0.46153846  0.00000000  0.00000000       0.012
   0.00000000  0.07692308  0.00000000       0.012
   0.07692308  0.07692308  0.00000000       0.012
   0.15384615  0.07692308  0.00000000       0.012
   0.23076923  0.07692308  0.00000000       0.012
   0.30769231  0.07692308  0.00000000       0.012
   0.38461538  0.07692308  0.00000000       0.012
   0.46153846  0.07692308  0.00000000       0.012
  -0.46153846  0.07692308  0.00000000       0.012
  -0.38461538  0.07692308  0.00000000       0.012
  -0.30769231  0.07692308  0.00000000       0.012
  -0.23076923  0.07692308  0.00000000       0.012
  -0.15384615  0.07692308  0.00000000       0.012
  -0.07692308  0.07692308  0.00000000       0.012
   0.00000000  0.15384615  0.00000000       0.012
   0.07692308  0.15384615  0.00000000       0.012
   0.15384615  0.15384615  0.00000000       0.012
   0.23076923  0.15384615  0.00000000       0.012
   0.30769231  0.15384615  0.00000000       0.012
   0.38461538  0.15384615  0.00000000       0.012
   0.46153846  0.15384615  0.00000000       0.012
  -0.46153846  0.15384615  0.00000000       0.012
  -0.38461538  0.15384615  0.00000000       0.012
  -0.30769231  0.15384615  0.00000000       0.012
  -0.23076923  0.15384615  0.00000000       0.012
  -0.15384615  0.15384615  0.00000000       0.012
  -0.07692308  0.15384615  0.00000000       0.012
   0.00000000  0.23076923  0.00000000       0.012
   0.07692308  0.23076923  0.00000000       0.012
   0.15384615  0.23076923  0.00000000       0.012
   0.23076923  0.23076923  0.00000000       0.012
   0.30769231  0.23076923  0.00000000       0.012
   0.38461538  0.23076923  0.00000000       0.012
   0.46153846  0.23076923  0.00000000       0.012
  -0.46153846  0.23076923  0.00000000       0.012
  -0.38461538  0.23076923  0.00000000       0.012
  -0.30769231  0.23076923  0.00000000       0.012
  -0.23076923  0.23076923  0.00000000       0.012
  -0.15384615  0.23076923  0.00000000       0.012
  -0.07692308  0.23076923  0.00000000       0.012
   0.00000000  0.30769231  0.00000000       0.012
   0.07692308  0.30769231  0.00000000       0.012
   0.15384615  0.30769231  0.00000000       0.012
   0.23076923  0.30769231  0.00000000       0.012
   0.30769231  0.30769231  0.00000000       0.012
   0.38461538  0.30769231  0.00000000       0.012
   0.46153846  0.30769231  0.00000000       0.012
  -0.46153846  0.30769231  0.00000000       0.012
  -0.38461538  0.30769231  0.00000000       0.012
  -0.30769231  0.30769231  0.00000000       0.012
  -0.23076923  0.30769231  0.00000000       0.012
  -0.15384615  0.30769231  0.00000000       0.012
  -0.07692308  0.30769231  0.00000000       0.012
   0.00000000  0.38461538  0.00000000       0.012
   0.07692308  0.38461538  0.00000000       0.012
   0.15384615  0.38461538  0.00000000       0.012
   0.23076923  0.38461538  0.00000000       0.012
   0.30769231  0.38461538  0.00000000       0.012
   0.38461538  0.38461538  0.00000000       0.012
   0.46153846  0.38461538  0.00000000       0.012
  -0.46153846  0.38461538  0.00000000       0.012
  -0.38461538  0.38461538  0.00000000       0.012
  -0.30769231  0.38461538  0.00000000       0.012
  -0.23076923  0.38461538  0.00000000       0.012
  -0.15384615  0.38461538  0.00000000       0.012
  -0.07692308  0.38461538  0.00000000       0.012
   0.00000000  0.46153846  0.00000000       0.012
   0.07692308  0.46153846  0.00000000       0.012
   0.15384615  0.46153846  0.00000000       0.012
   0.23076923  0.46153846  0.00000000       0.012
   0.30769231  0.46153846  0.00000000       0.012
   0.38461538  0.46153846  0.00000000       0.012
   0.46153846  0.46153846  0.00000000       0.012
  -0.46153846  0.46153846  0.00000000       0.012
  -0.38461538  0.46153846  0.00000000       0.012
  -0.30769231  0.46153846  0.00000000       0.012
  -0.23076923  0.46153846  0.00000000       0.012
  -0.15384615  0.46153846  0.00000000       0.012
  -0.07692308  0.46153846  0.00000000       0.012
 
 position of ions in fractional coordinates (direct lattice) 
   0.02848256  0.07077211  0.12232262
   0.22848256  0.07154238  0.12232262
   0.42848256  0.07154238  0.12232262
   0.62848256  0.07154238  0.12232262
   0.82848256  0.07154238  0.12232262
   0.02848256  0.27154238  0.12232262
   0.22848256  0.27154238  0.12232262
   0.42848256  0.27154238  0.12232262
   0.62848256  0.27154238  0.12232262
   0.82848256  0.27154238  0.12232262
   0.02848256  0.47154238  0.12232262
   0.22848256  0.47154238  0.12232262
   0.42848256  0.47154238  0.12232262
   0.62848256  0.47154238  0.12232262
   0.82848256  0.47154238  0.12232262
   0.02848256  0.67154238  0.12232262
   0.22848256  0.67154238  0.12232262
   0.42848256  0.67154238  0.12232262
   0.62848256  0.67154238  0.12232262
   0.82848256  0.67154238  0.12232262
   0.02848256  0.87154238  0.12232262
   0.22848256  0.87154238  0.12232262
   0.42848256  0.87154238  0.12232262
   0.62848256  0.87154238  0.12232262
   0.82848256  0.87154238  0.12232262
   0.17151744  0.12845762  0.07767738
   0.37151744  0.12845762  0.07767738
   0.57151744  0.12845762  0.07767738
   0.77151744  0.12845762  0.07767738
   0.97151744  0.12845762  0.07767738
   0.17151744  0.32845762  0.07767738
   0.37151744  0.32845762  0.07767738
   0.57151744  0.32845762  0.07767738
   0.77151744  0.32845762  0.07767738
   0.97151744  0.32845762  0.07767738
   0.17151744  0.52845762  0.07767738
   0.37151744  0.52845762  0.07767738
   0.57151744  0.52845762  0.07767738
   0.77151744  0.52845762  0.07767738
   0.97151744  0.52845762  0.07767738
   0.17151744  0.72845762  0.07767738
   0.37151744  0.72845762  0.07767738
   0.57151744  0.72845762  0.07767738
   0.77151744  0.72845762  0.07767738
   0.97151744  0.72845762  0.07767738
   0.17151744  0.92845762  0.07767738
   0.37151744  0.92845762  0.07767738
   0.57151744  0.92845762  0.07767738
   0.77151744  0.92845762  0.07767738
   0.97151744  0.92845762  0.07767738
   0.12673789  0.17329973  0.14741039
   0.32673789  0.17329973  0.14741039
   0.52673789  0.17329973  0.14741039
   0.72673789  0.17329973  0.14741039
   0.92673789  0.17329973  0.14741039
   0.12673789  0.37329973  0.14741039
   0.32673789  0.37329973  0.14741039
   0.52673789  0.37329973  0.14741039
   0.72673789  0.37329973  0.14741039
   0.92673789  0.37329973  0.14741039
   0.12673789  0.57329973  0.14741039
   0.32673789  0.57329973  0.14741039
   0.52673789  0.57329973  0.14741039
   0.72673789  0.57329973  0.14741039
   0.92673789  0.57329973  0.14741039
   0.12673789  0.77329973  0.14741039
   0.32673789  0.77329973  0.14741039
   0.52673789  0.77329973  0.14741039
   0.72673789  0.77329973  0.14741039
   0.92673789  0.77329973  0.14741039
   0.12673789  0.97329973  0.14741039
   0.32673789  0.97329973  0.14741039
   0.52673789  0.97329973  0.14741039
   0.72673789  0.97329973  0.14741039
   0.92673789  0.97329973  0.14741039
   0.07326211  0.02670027  0.05258961
   0.27326211  0.02670027  0.05258961
   0.47326211  0.02670027  0.05258961
   0.67326211  0.02670027  0.05258961
   0.87326211  0.02670027  0.05258961
   0.07326211  0.22670027  0.05258961
   0.27326211  0.22670027  0.05258961
   0.47326211  0.22670027  0.05258961
   0.67326211  0.22670027  0.05258961
   0.87326211  0.22670027  0.05258961
   0.07326211  0.42670027  0.05258961
   0.27326211  0.42670027  0.05258961
   0.47326211  0.42670027  0.05258961
   0.67326211  0.42670027  0.05258961
   0.87326211  0.42670027  0.05258961
   0.07326211  0.62670027  0.05258961
   0.27326211  0.62670027  0.05258961
   0.47326211  0.62670027  0.05258961
   0.67326211  0.62670027  0.05258961
   0.87326211  0.62670027  0.05258961
   0.07326211  0.82670027  0.05258961
   0.27326211  0.82670027  0.05258961
   0.47326211  0.82670027  0.05258961
   0.67326211  0.82670027  0.05258961
   0.87326211  0.82670027  0.05258961
 
 position of ions in cartesian coordinates  (Angst):
  -0.50026866  0.51928143  4.89290496
   1.87432587  1.55154874  4.89290496
   4.25806001  2.57975801  4.89290496
   6.64179414  3.60796728  4.89290496
   9.02552828  4.63617656  4.89290496
  -2.88249815  1.57700666  4.89290496
  -0.49876401  2.60521593  4.89290496
   1.88497013  3.63342521  4.89290496
   4.26870426  4.66163448  4.89290496
   6.65243840  5.68984375  4.89290496
  -5.25558803  2.63067386  4.89290496
  -2.87185389  3.65888313  4.89290496
  -0.48811976  4.68709240  4.89290496
   1.89561438  5.71530167  4.89290496
   4.27934851  6.74351094  4.89290496
  -7.62867791  3.68434105  4.89290496
  -5.24494377  4.71255032  4.89290496
  -2.86120964  5.74075959  4.89290496
  -0.47747550  6.76896886  4.89290496
   1.90625863  7.79717814  4.89290496
 -10.00176779  4.73800824  4.89290496
  -7.61803365  5.76621751  4.89290496
  -5.23429952  6.79442678  4.89290496
  -2.85056538  7.82263606  4.89290496
  -0.46683125  8.85084533  4.89290496
   0.52005252  1.55853700  3.10709504
   2.90378665  2.58674627  3.10709504
   5.28752079  3.61495554  3.10709504
   7.67125492  4.64316481  3.10709504
  10.05498906  5.67137408  3.10709504
  -1.85303736  2.61220419  3.10709504
   0.53069677  3.64041346  3.10709504
   2.91443091  4.66862273  3.10709504
   5.29816504  5.69683200  3.10709504
   7.68189918  6.72504128  3.10709504
  -4.22612724  3.66587138  3.10709504
  -1.84239311  4.69408065  3.10709504
   0.54134103  5.72228993  3.10709504
   2.92507516  6.75049920  3.10709504
   5.30880930  7.77870847  3.10709504
  -6.59921713  4.71953858  3.10709504
  -4.21548299  5.74774785  3.10709504
  -1.83174885  6.77595712  3.10709504
   0.55198528  7.80416639  3.10709504
   2.93571942  8.83237566  3.10709504
  -8.97230701  5.77320577  3.10709504
  -6.58857287  6.80141504  3.10709504
  -4.20483874  7.82962431  3.10709504
  -1.82110460  8.85783358  3.10709504
   0.56262954  9.88604286  3.10709504
  -0.54573199  1.56456659  5.89641571
   1.83800215  2.59277586  5.89641571
   4.22173628  3.62098513  5.89641571
   6.60547042  4.64919440  5.89641571
   8.98920455  5.67740367  5.89641571
  -2.91882187  2.61823378  5.89641571
  -0.53508774  3.64644305  5.89641571
   1.84864640  4.67465232  5.89641571
   4.23238054  5.70286160  5.89641571
   6.61611467  6.73107087  5.89641571
  -5.29191175  3.67190097  5.89641571
  -2.90817762  4.70011025  5.89641571
  -0.52444348  5.72831952  5.89641571
   1.85929065  6.75652879  5.89641571
   4.24302479  7.78473806  5.89641571
  -7.66500163  4.72556817  5.89641571
  -5.28126750  5.75377744  5.89641571
  -2.89753336  6.78198671  5.89641571
  -0.51379923  7.81019598  5.89641571
   1.86993491  8.83840525  5.89641571
 -10.03809151  5.77923536  5.89641571
  -7.65435738  6.80744463  5.89641571
  -5.27062324  7.83565390  5.89641571
  -2.88688911  8.86386318  5.89641571
  -0.50315497  9.89207245  5.89641571
   0.55637624  0.51730988  2.10358429
   2.94011038  1.54551915  2.10358429
   5.32384451  2.57372842  2.10358429
   7.70757865  3.60193769  2.10358429
  10.09131279  4.63014696  2.10358429
  -1.81671364  1.57097707  2.10358429
   0.56702050  2.59918634  2.10358429
   2.95075463  3.62739561  2.10358429
   5.33448877  4.65560489  2.10358429
   7.71822290  5.68381416  2.10358429
  -4.18980352  2.62464426  2.10358429
  -1.80606938  3.65285354  2.10358429
   0.57766475  4.68106281  2.10358429
   2.96139889  5.70927208  2.10358429
   5.34513302  6.73748135  2.10358429
  -6.56289340  3.67831146  2.10358429
  -4.17915926  4.70652073  2.10358429
  -1.79542513  5.73473000  2.10358429
   0.58830901  6.76293927  2.10358429
   2.97204314  7.79114854  2.10358429
  -8.93598328  4.73197865  2.10358429
  -6.55224915  5.76018792  2.10358429
  -4.16851501  6.78839719  2.10358429
  -1.78478087  7.81660647  2.10358429
   0.59895326  8.84481574  2.10358429
 


--------------------------------------------------------------------------------------------------------


 k-point     1 :   0.0000 0.0000 0.0000  plane waves:  165169
 k-point     2 :   0.0769 0.0000 0.0000  plane waves:  165096
 k-point     3 :   0.1538 0.0000 0.0000  plane waves:  165152
 k-point     4 :   0.2308 0.0000 0.0000  plane waves:  165217
 k-point     5 :   0.3077 0.0000 0.0000  plane waves:  165270
 k-point     6 :   0.3846 0.0000 0.0000  plane waves:  165240
 k-point     7 :   0.4615 0.0000 0.0000  plane waves:  165241
 k-point     8 :   0.0000 0.0769 0.0000  plane waves:  165079
 k-point     9 :   0.0769 0.0769 0.0000  plane waves:  165135
 k-point    10 :   0.1538 0.0769 0.0000  plane waves:  165227
 k-point    11 :   0.2308 0.0769 0.0000  plane waves:  165246
 k-point    12 :   0.3077 0.0769 0.0000  plane waves:  165264
 k-point    13 :   0.3846 0.0769 0.0000  plane waves:  165237
 k-point    14 :   0.4615 0.0769 0.0000  plane waves:  165239
 k-point    15 :  -0.4615 0.0769 0.0000  plane waves:  165228
 k-point    16 :  -0.3846 0.0769 0.0000  plane waves:  165219
 k-point    17 :  -0.3077 0.0769 0.0000  plane waves:  165210
 k-point    18 :  -0.2308 0.0769 0.0000  plane waves:  165165
 k-point    19 :  -0.1538 0.0769 0.0000  plane waves:  165142
 k-point    20 :  -0.0769 0.0769 0.0000  plane waves:  165140
 k-point    21 :   0.0000 0.1538 0.0000  plane waves:  165154
 k-point    22 :   0.0769 0.1538 0.0000  plane waves:  165219
 k-point    23 :   0.1538 0.1538 0.0000  plane waves:  165211
 k-point    24 :   0.2308 0.1538 0.0000  plane waves:  165254
 k-point    25 :   0.3077 0.1538 0.0000  plane waves:  165228
 k-point    26 :   0.3846 0.1538 0.0000  plane waves:  165235
 k-point    27 :   0.4615 0.1538 0.0000  plane waves:  165246
 k-point    28 :  -0.4615 0.1538 0.0000  plane waves:  165260
 k-point    29 :  -0.3846 0.1538 0.0000  plane waves:  165243
 k-point    30 :  -0.3077 0.1538 0.0000  plane waves:  165174
 k-point    31 :  -0.2308 0.1538 0.0000  plane waves:  165259
 k-point    32 :  -0.1538 0.1538 0.0000  plane waves:  165233
 k-point    33 :  -0.0769 0.1538 0.0000  plane waves:  165137
 k-point    34 :   0.0000 0.2308 0.0000  plane waves:  165223
 k-point    35 :   0.0769 0.2308 0.0000  plane waves:  165239
 k-point    36 :   0.1538 0.2308 0.0000  plane waves:  165236
 k-point    37 :   0.2308 0.2308 0.0000  plane waves:  165269
 k-point    38 :   0.3077 0.2308 0.0000  plane waves:  165294
 k-point    39 :   0.3846 0.2308 0.0000  plane waves:  165311
 k-point    40 :   0.4615 0.2308 0.0000  plane waves:  165278
 k-point    41 :  -0.4615 0.2308 0.0000  plane waves:  165272
 k-point    42 :  -0.3846 0.2308 0.0000  plane waves:  165259
 k-point    43 :  -0.3077 0.2308 0.0000  plane waves:  165284
 k-point    44 :  -0.2308 0.2308 0.0000  plane waves:  165181
 k-point    45 :  -0.1538 0.2308 0.0000  plane waves:  165257
 k-point    46 :  -0.0769 0.2308 0.0000  plane waves:  165157
 k-point    47 :   0.0000 0.3077 0.0000  plane waves:  165272
 k-point    48 :   0.0769 0.3077 0.0000  plane waves:  165261
 k-point    49 :   0.1538 0.3077 0.0000  plane waves:  165237
 k-point    50 :   0.2308 0.3077 0.0000  plane waves:  165316
 k-point    51 :   0.3077 0.3077 0.0000  plane waves:  165319
 k-point    52 :   0.3846 0.3077 0.0000  plane waves:  165285
 k-point    53 :   0.4615 0.3077 0.0000  plane waves:  165283
 k-point    54 :  -0.4615 0.3077 0.0000  plane waves:  165298
 k-point    55 :  -0.3846 0.3077 0.0000  plane waves:  165292
 k-point    56 :  -0.3077 0.3077 0.0000  plane waves:  165293
 k-point    57 :  -0.2308 0.3077 0.0000  plane waves:  165282
 k-point    58 :  -0.1538 0.3077 0.0000  plane waves:  165180
 k-point    59 :  -0.0769 0.3077 0.0000  plane waves:  165200
 k-point    60 :   0.0000 0.3846 0.0000  plane waves:  165230
 k-point    61 :   0.0769 0.3846 0.0000  plane waves:  165249
 k-point    62 :   0.1538 0.3846 0.0000  plane waves:  165241
 k-point    63 :   0.2308 0.3846 0.0000  plane waves:  165313
 k-point    64 :   0.3077 0.3846 0.0000  plane waves:  165279
 k-point    65 :   0.3846 0.3846 0.0000  plane waves:  165309
 k-point    66 :   0.4615 0.3846 0.0000  plane waves:  165341
 k-point    67 :  -0.4615 0.3846 0.0000  plane waves:  165342
 k-point    68 :  -0.3846 0.3846 0.0000  plane waves:  165304
 k-point    69 :  -0.3077 0.3846 0.0000  plane waves:  165302
 k-point    70 :  -0.2308 0.3846 0.0000  plane waves:  165255
 k-point    71 :  -0.1538 0.3846 0.0000  plane waves:  165233
 k-point    72 :  -0.0769 0.3846 0.0000  plane waves:  165230
 k-point    73 :   0.0000 0.4615 0.0000  plane waves:  165263
 k-point    74 :   0.0769 0.4615 0.0000  plane waves:  165259
 k-point    75 :   0.1538 0.4615 0.0000  plane waves:  165246
 k-point    76 :   0.2308 0.4615 0.0000  plane waves:  165281
 k-point    77 :   0.3077 0.4615 0.0000  plane waves:  165285
 k-point    78 :   0.3846 0.4615 0.0000  plane waves:  165331
 k-point    79 :   0.4615 0.4615 0.0000  plane waves:  165318
 k-point    80 :  -0.4615 0.4615 0.0000  plane waves:  165302
 k-point    81 :  -0.3846 0.4615 0.0000  plane waves:  165347
 k-point    82 :  -0.3077 0.4615 0.0000  plane waves:  165302
 k-point    83 :  -0.2308 0.4615 0.0000  plane waves:  165266
 k-point    84 :  -0.1538 0.4615 0.0000  plane waves:  165268
 k-point    85 :  -0.0769 0.4615 0.0000  plane waves:  165238

 maximum and minimum number of plane-waves per node :     27590    27463

 maximum number of plane-waves:    165347
 maximum index in each direction: 
   IXMAX=   26   IYMAX=   25   IZMAX=   79
   IXMIN=  -26   IYMIN=  -26   IZMIN=  -79


 parallel 3D FFT for wavefunctions:
    minimum data exchange during FFTs selected (reduces bandwidth)
 parallel 3D FFT for charge:
    minimum data exchange during FFTs selected (reduces bandwidth)


 total amount of memory used by VASP MPI-rank0  5607754. kBytes
=======================================================================

   base                                    :      30000. kBytes
   nonl-proj                               :     344086. kBytes
   fftplans                                :     185630. kBytes
   grid                                    :     304228. kBytes
   one-center                              :         52. kBytes
   wavefun                                 :    4743758. kBytes
 
     INWAV:  cpu time      0.0000: real time      0.0000
 Broyden mixing: mesh for mixing (old mesh)
   NGX = 51   NGY = 51   NGZ =159
  (NGX  =216   NGY  =216   NGZ  =640)
  gives a total of 413559 points

 initial charge density was supplied:
 charge density of overlapping atoms calculated
 number of electron     150.0000000 magnetization 
 keeping initial charge density in first step


--------------------------------------------------------------------------------------------------------


 Maximum index for augmentation-charges         4154 (set IRDMAX)


--------------------------------------------------------------------------------------------------------


 First call to EWALD:  gamma=   0.104
 Maximum number of real-space cells   5x   5x   1
 Maximum number of reciprocal cells   2x   2x   6

    FEWALD:  cpu time      0.1446: real time      0.1452


--------------------------------------- Ionic step        1  -------------------------------------------




--------------------------------------- Iteration      1(   1)  ---------------------------------------


    POTLOK:  cpu time      4.4356: real time      4.4614
    SETDIJ:  cpu time      0.0108: real time      0.0108
     EDDAV:  cpu time    671.3893: real time    675.5827
       DOS:  cpu time      0.0018: real time      0.0018
    --------------------------------------------
      LOOP:  cpu time    675.8378: real time    680.0570

 eigenvalue-minimisations  : 21756
 total energy-change (2. order) : 0.9707015E+03  (-0.4162076E+04)
 number of electron     150.0000000 magnetization 
 augmentation part      150.0000000 magnetization 

 DIPCOR: dipole corrections for dipol
 direction  3 min pos   385,
 dipolmoment           0.000000      0.000000      0.000000 electrons x Angstroem
 Tr[quadrupol]     -4120.505881

 energy correction for charged system         0.000000 eV
 dipol+quadrupol energy correction           -0.000000 eV
 added-field ion interaction         -0.000000 eV  (added to PSCEN)


 Free energy of the ion-electron system (eV)
  ---------------------------------------------------
  alpha Z        PSCENC =        16.91953745
  Ewald energy   TEWEN  =     40449.27459858
  -Hartree energ DENC   =    -41321.94306248
  -exchange      EXHF   =         0.00000000
  -V(xc)+E(xc)   XCENC  =       303.14981790
  PAW double counting   =       869.51293836     -838.27406964
  entropy T*S    EENTRO =        -0.03266739
  eigenvalues    EBANDS =      -506.26767518
  atomic energy  EATOM  =      1998.36210175
  Solvation  Ediel_sol  =         0.00000000
  ---------------------------------------------------
  free energy    TOTEN  =       970.70151934 eV

  energy without entropy =      970.73418673  energy(sigma->0) =      970.71785304


--------------------------------------------------------------------------------------------------------




--------------------------------------- Iteration      1(   2)  ---------------------------------------


     EDDAV:  cpu time    924.9023: real time    930.5696
       DOS:  cpu time      0.0038: real time      0.0039
    --------------------------------------------
      LOOP:  cpu time    924.9062: real time    930.5735

 eigenvalue-minimisations  : 33120
 total energy-change (2. order) :-0.1178802E+04  (-0.1135089E+04)
 number of electron     150.0000000 magnetization 
 augmentation part      150.0000000 magnetization 

 DIPCOR: dipole corrections for dipol
 direction  3 min pos   385,
 dipolmoment           0.000000      0.000000      0.000000 electrons x Angstroem
 Tr[quadrupol]     -4120.505881

 energy correction for charged system         0.000000 eV
 dipol+quadrupol energy correction           -0.000000 eV
 added-field ion interaction         -0.000000 eV  (added to PSCEN)


 Free energy of the ion-electron system (eV)
  ---------------------------------------------------
  alpha Z        PSCENC =        16.91953745
  Ewald energy   TEWEN  =     40449.27459858
  -Hartree energ DENC   =    -41321.94306248
  -exchange      EXHF   =         0.00000000
  -V(xc)+E(xc)   XCENC  =       303.14981790
  PAW double counting   =       869.51293836     -838.27406964
  entropy T*S    EENTRO =        -0.01296791
  eigenvalues    EBANDS =     -1685.08917894
  atomic energy  EATOM  =      1998.36210175
  Solvation  Ediel_sol  =         0.00000000
  ---------------------------------------------------
  free energy    TOTEN  =      -208.10028495 eV

  energy without entropy =     -208.08731703  energy(sigma->0) =     -208.09380099


--------------------------------------------------------------------------------------------------------




--------------------------------------- Iteration      1(   3)  ---------------------------------------


     EDDAV:  cpu time    758.8642: real time    763.6891
       DOS:  cpu time      0.0042: real time      0.0042
    --------------------------------------------
      LOOP:  cpu time    758.8685: real time    763.6934

 eigenvalue-minimisations  : 27320
 total energy-change (2. order) :-0.1510399E+03  (-0.1487304E+03)
 number of electron     150.0000000 magnetization 
 augmentation part      150.0000000 magnetization 

 DIPCOR: dipole corrections for dipol
 direction  3 min pos   385,
 dipolmoment           0.000000      0.000000      0.000000 electrons x Angstroem
 Tr[quadrupol]     -4120.505881

 energy correction for charged system         0.000000 eV
 dipol+quadrupol energy correction           -0.000000 eV
 added-field ion interaction         -0.000000 eV  (added to PSCEN)


 Free energy of the ion-electron system (eV)
  ---------------------------------------------------
  alpha Z        PSCENC =        16.91953745
  Ewald energy   TEWEN  =     40449.27459858
  -Hartree energ DENC   =    -41321.94306248
  -exchange      EXHF   =         0.00000000
  -V(xc)+E(xc)   XCENC  =       303.14981790
  PAW double counting   =       869.51293836     -838.27406964
  entropy T*S    EENTRO =        -0.00663886
  eigenvalues    EBANDS =     -1836.13538174
  atomic energy  EATOM  =      1998.36210175
  Solvation  Ediel_sol  =         0.00000000
  ---------------------------------------------------
  free energy    TOTEN  =      -359.14015869 eV

  energy without entropy =     -359.13351983  energy(sigma->0) =     -359.13683926


--------------------------------------------------------------------------------------------------------




--------------------------------------- Iteration      1(   4)  ---------------------------------------


     EDDAV:  cpu time    810.6595: real time    815.9060
       DOS:  cpu time      0.0043: real time      0.0043
    --------------------------------------------
      LOOP:  cpu time    810.6637: real time    815.9102

 eigenvalue-minimisations  : 27712
 total energy-change (2. order) :-0.4200599E+01  (-0.4186982E+01)
 number of electron     150.0000000 magnetization 
 augmentation part      150.0000000 magnetization 

 DIPCOR: dipole corrections for dipol
 direction  3 min pos   385,
 dipolmoment           0.000000      0.000000      0.000000 electrons x Angstroem
 Tr[quadrupol]     -4120.505881

 energy correction for charged system         0.000000 eV
 dipol+quadrupol energy correction           -0.000000 eV
 added-field ion interaction         -0.000000 eV  (added to PSCEN)


 Free energy of the ion-electron system (eV)
  ---------------------------------------------------
  alpha Z        PSCENC =        16.91953745
  Ewald energy   TEWEN  =     40449.27459858
  -Hartree energ DENC   =    -41321.94306248
  -exchange      EXHF   =         0.00000000
  -V(xc)+E(xc)   XCENC  =       303.14981790
  PAW double counting   =       869.51293836     -838.27406964
  entropy T*S    EENTRO =        -0.00643506
  eigenvalues    EBANDS =     -1840.33618449
  atomic energy  EATOM  =      1998.36210175
  Solvation  Ediel_sol  =         0.00000000
  ---------------------------------------------------
  free energy    TOTEN  =      -363.34075764 eV

  energy without entropy =     -363.33432258  energy(sigma->0) =     -363.33754011


--------------------------------------------------------------------------------------------------------




--------------------------------------- Iteration      1(   5)  ---------------------------------------


     EDDAV:  cpu time    859.3136: real time    864.7980
       DOS:  cpu time      0.0032: real time      0.0032
    CHARGE:  cpu time     35.4311: real time     35.6763
    MIXING:  cpu time      0.1254: real time      0.1260
    --------------------------------------------
      LOOP:  cpu time    894.8730: real time    900.6032

 eigenvalue-minimisations  : 30338
 total energy-change (2. order) :-0.1023440E+00  (-0.1022311E+00)
 number of electron     149.9999989 magnetization 
 augmentation part        0.0494067 magnetization 

 DIPCOR: dipole corrections for dipol
 direction  3 min pos   385,
 dipolmoment           0.000000      0.000000      0.000000 electrons x Angstroem
 Tr[quadrupol]     -4120.505881

 energy correction for charged system         0.000000 eV
 dipol+quadrupol energy correction           -0.000000 eV
 added-field ion interaction         -0.000000 eV  (added to PSCEN)


 Broyden mixing:
  rms(total) = 0.21011E+01    rms(broyden)= 0.21010E+01
  rms(prec ) = 0.21570E+01
  weight for this iteration     100.00

 Free energy of the ion-electron system (eV)
  ---------------------------------------------------
  alpha Z        PSCENC =        16.91953745
  Ewald energy   TEWEN  =     40449.27459858
  -Hartree energ DENC   =    -41321.94306248
  -exchange      EXHF   =         0.00000000
  -V(xc)+E(xc)   XCENC  =       303.14981790
  PAW double counting   =       869.51293836     -838.27406964
  entropy T*S    EENTRO =        -0.00640031
  eigenvalues    EBANDS =     -1840.43856329
  atomic energy  EATOM  =      1998.36210175
  Solvation  Ediel_sol  =         0.00000000
  ---------------------------------------------------
  free energy    TOTEN  =      -363.44310169 eV

  energy without entropy =     -363.43670138  energy(sigma->0) =     -363.43990153


--------------------------------------------------------------------------------------------------------




--------------------------------------- Iteration      1(   6)  ---------------------------------------


    POTLOK:  cpu time      4.6404: real time      4.6682
    SETDIJ:  cpu time      0.0136: real time      0.0137
     EDDAV:  cpu time    719.8804: real time    724.3771
       DOS:  cpu time      0.0020: real time      0.0020
    CHARGE:  cpu time     35.6712: real time     35.9214
    MIXING:  cpu time      0.1432: real time      0.1443
    --------------------------------------------
      LOOP:  cpu time    760.3509: real time    765.1266

 eigenvalue-minimisations  : 24084
 total energy-change (2. order) : 0.1122557E+02  (-0.4333681E+00)
 number of electron     149.9999990 magnetization 
 augmentation part        0.0116713 magnetization 

 DIPCOR: dipole corrections for dipol
 direction  3 min pos   385,
 dipolmoment           0.000000      0.000000     -0.000024 electrons x Angstroem
 Tr[quadrupol]     -4124.905230

 energy correction for charged system         0.000000 eV
 dipol+quadrupol energy correction           -0.000000 eV
 added-field ion interaction          0.000000 eV  (added to PSCEN)


 Broyden mixing:
  rms(total) = 0.12144E+01    rms(broyden)= 0.12144E+01
  rms(prec ) = 0.12534E+01
  weight for this iteration     100.00

 eigenvalues of (default mixing * dielectric matrix)
  average eigenvalue GAMMA=   2.3385
  2.3385

 Free energy of the ion-electron system (eV)
  ---------------------------------------------------
  alpha Z        PSCENC =        16.91953745
  Ewald energy   TEWEN  =     40449.27459858
  -Hartree energ DENC   =    -41439.42713386
  -exchange      EXHF   =         0.00000000
  -V(xc)+E(xc)   XCENC  =       309.35520854
  PAW double counting   =      1856.95165000    -1827.62966680
  entropy T*S    EENTRO =        -0.00647324
  eigenvalues    EBANDS =     -1716.01735570
  atomic energy  EATOM  =      1998.36210175
  Solvation  Ediel_sol  =         0.00000000
  ---------------------------------------------------
  free energy    TOTEN  =      -352.21753328 eV

  energy without entropy =     -352.21106005  energy(sigma->0) =     -352.21429666


--------------------------------------------------------------------------------------------------------




--------------------------------------- Iteration      1(   7)  ---------------------------------------


    POTLOK:  cpu time      4.5503: real time      4.5793
    SETDIJ:  cpu time      0.0102: real time      0.0103
     EDDAV:  cpu time    708.2280: real time    712.6935
       DOS:  cpu time      0.0023: real time      0.0023
    CHARGE:  cpu time     35.5236: real time     35.7721
    MIXING:  cpu time      0.1348: real time      0.1356
    --------------------------------------------
      LOOP:  cpu time    748.4493: real time    753.1929

 eigenvalue-minimisations  : 23286
 total energy-change (2. order) : 0.7182525E+01  (-0.9976223E+00)
 number of electron     149.9999990 magnetization 
 augmentation part       -0.0421780 magnetization 

 DIPCOR: dipole corrections for dipol
 direction  3 min pos   385,
 dipolmoment           0.000000      0.000000      0.000016 electrons x Angstroem
 Tr[quadrupol]     -4133.287940

 energy correction for charged system         0.000000 eV
 dipol+quadrupol energy correction           -0.000000 eV
 added-field ion interaction         -0.000000 eV  (added to PSCEN)


 Broyden mixing:
  rms(total) = 0.14398E+00    rms(broyden)= 0.14397E+00
  rms(prec ) = 0.17304E+00
  weight for this iteration     100.00

 eigenvalues of (default mixing * dielectric matrix)
  average eigenvalue GAMMA=   2.6515
  2.6515  2.6515

 Free energy of the ion-electron system (eV)
  ---------------------------------------------------
  alpha Z        PSCENC =        16.91953745
  Ewald energy   TEWEN  =     40449.27459858
  -Hartree energ DENC   =    -41655.10928801
  -exchange      EXHF   =         0.00000000
  -V(xc)+E(xc)   XCENC  =       320.69964041
  PAW double counting   =      3929.27969565    -3902.28682251
  entropy T*S    EENTRO =        -0.00667077
  eigenvalues    EBANDS =     -1502.16780061
  atomic energy  EATOM  =      1998.36210175
  Solvation  Ediel_sol  =         0.00000000
  ---------------------------------------------------
  free energy    TOTEN  =      -345.03500808 eV

  energy without entropy =     -345.02833731  energy(sigma->0) =     -345.03167269


--------------------------------------------------------------------------------------------------------




--------------------------------------- Iteration      1(   8)  ---------------------------------------


    POTLOK:  cpu time      4.4238: real time      4.4499
    SETDIJ:  cpu time      0.0108: real time      0.0108
     EDDAV:  cpu time    808.9981: real time    813.7747
       DOS:  cpu time      0.0025: real time      0.0025
    CHARGE:  cpu time     41.1075: real time     41.3441
    MIXING:  cpu time      0.1528: real time      0.1536
    --------------------------------------------
      LOOP:  cpu time    854.6954: real time    859.7356

 eigenvalue-minimisations  : 26608
 total energy-change (2. order) : 0.4238643E+00  (-0.1026518E+00)
 number of electron     149.9999990 magnetization 
 augmentation part       -0.0303802 magnetization 

 DIPCOR: dipole corrections for dipol
 direction  3 min pos   385,
 dipolmoment           0.000000      0.000000      0.000008 electrons x Angstroem
 Tr[quadrupol]     -4139.190444

 energy correction for charged system         0.000000 eV
 dipol+quadrupol energy correction           -0.000000 eV
 added-field ion interaction         -0.000000 eV  (added to PSCEN)


 Broyden mixing:
  rms(total) = 0.85648E-01    rms(broyden)= 0.85647E-01
  rms(prec ) = 0.97981E-01
  weight for this iteration     100.00

 eigenvalues of (default mixing * dielectric matrix)
  average eigenvalue GAMMA=   2.0888
  3.1080  2.5062  0.6522

 Free energy of the ion-electron system (eV)
  ---------------------------------------------------
  alpha Z        PSCENC =        16.91953745
  Ewald energy   TEWEN  =     40449.27459858
  -Hartree energ DENC   =    -41753.83120512
  -exchange      EXHF   =         0.00000000
  -V(xc)+E(xc)   XCENC  =       321.76469015
  PAW double counting   =      3948.65349914    -3921.29021716
  entropy T*S    EENTRO =        -0.00588545
  eigenvalues    EBANDS =     -1404.45826316
  atomic energy  EATOM  =      1998.36210175
  Solvation  Ediel_sol  =         0.00000000
  ---------------------------------------------------
  free energy    TOTEN  =      -344.61114382 eV

  energy without entropy =     -344.60525837  energy(sigma->0) =     -344.60820110


--------------------------------------------------------------------------------------------------------




--------------------------------------- Iteration      1(   9)  ---------------------------------------


    POTLOK:  cpu time      4.9759: real time      5.0078
    SETDIJ:  cpu time      0.0151: real time      0.0154
     EDDAV:  cpu time    890.4297: real time    895.2061
       DOS:  cpu time      0.0019: real time      0.0019
    CHARGE:  cpu time     31.9982: real time     32.1880
    MIXING:  cpu time      0.1328: real time      0.1335
    --------------------------------------------
      LOOP:  cpu time    927.5535: real time    932.5526

 eigenvalue-minimisations  : 28178
 total energy-change (2. order) : 0.7761772E-01  (-0.1352032E-01)
 number of electron     149.9999990 magnetization 
 augmentation part       -0.0308244 magnetization 

 DIPCOR: dipole corrections for dipol
 direction  3 min pos   385,
 dipolmoment           0.000000      0.000000      0.000011 electrons x Angstroem
 Tr[quadrupol]     -4140.611934

 energy correction for charged system         0.000000 eV
 dipol+quadrupol energy correction           -0.000000 eV
 added-field ion interaction         -0.000000 eV  (added to PSCEN)


 Broyden mixing:
  rms(total) = 0.61590E-01    rms(broyden)= 0.61590E-01
  rms(prec ) = 0.72348E-01
  weight for this iteration     100.00

 eigenvalues of (default mixing * dielectric matrix)
  average eigenvalue GAMMA=   2.0640
  2.7263  2.7263  1.4017  1.4017

 Free energy of the ion-electron system (eV)
  ---------------------------------------------------
  alpha Z        PSCENC =        16.91953745
  Ewald energy   TEWEN  =     40449.27459858
  -Hartree energ DENC   =    -41779.46625770
  -exchange      EXHF   =         0.00000000
  -V(xc)+E(xc)   XCENC  =       322.48867215
  PAW double counting   =      4008.82378543    -3981.50442629
  entropy T*S    EENTRO =        -0.00589795
  eigenvalues    EBANDS =     -1379.42563950
  atomic energy  EATOM  =      1998.36210175
  Solvation  Ediel_sol  =         0.00000000
  ---------------------------------------------------
  free energy    TOTEN  =      -344.53352610 eV

  energy without entropy =     -344.52762815  energy(sigma->0) =     -344.53057712


--------------------------------------------------------------------------------------------------------




--------------------------------------- Iteration      1(  10)  ---------------------------------------


    POTLOK:  cpu time      3.8547: real time      3.8805
    SETDIJ:  cpu time      0.0100: real time      0.0101
     EDDAV:  cpu time    778.3212: real time    782.5328
       DOS:  cpu time      0.0020: real time      0.0020
    CHARGE:  cpu time     41.0093: real time     41.2473
    MIXING:  cpu time      0.1529: real time      0.1538
    --------------------------------------------
      LOOP:  cpu time    823.3501: real time    827.8264

 eigenvalue-minimisations  : 24922
 total energy-change (2. order) : 0.3643566E-01  (-0.5311013E-02)
 number of electron     149.9999990 magnetization 
 augmentation part       -0.0370336 magnetization 

 DIPCOR: dipole corrections for dipol
 direction  3 min pos   385,
 dipolmoment           0.000000      0.000000      0.000014 electrons x Angstroem
 Tr[quadrupol]     -4142.609113

 energy correction for charged system         0.000000 eV
 dipol+quadrupol energy correction           -0.000000 eV
 added-field ion interaction         -0.000000 eV  (added to PSCEN)


 Broyden mixing:
  rms(total) = 0.22852E-01    rms(broyden)= 0.22852E-01
  rms(prec ) = 0.34323E-01
  weight for this iteration     100.00

 eigenvalues of (default mixing * dielectric matrix)
  average eigenvalue GAMMA=   1.9767
  2.9258  2.9258  2.1479  0.9421  0.9421

 Free energy of the ion-electron system (eV)
  ---------------------------------------------------
  alpha Z        PSCENC =        16.91953745
  Ewald energy   TEWEN  =     40449.27459858
  -Hartree energ DENC   =    -41811.29625421
  -exchange      EXHF   =         0.00000000
  -V(xc)+E(xc)   XCENC  =       323.18028232
  PAW double counting   =      3981.12940839    -3953.83696145
  entropy T*S    EENTRO =        -0.00604574
  eigenvalues    EBANDS =     -1348.22375753
  atomic energy  EATOM  =      1998.36210175
  Solvation  Ediel_sol  =         0.00000000
  ---------------------------------------------------
  free energy    TOTEN  =      -344.49709044 eV

  energy without entropy =     -344.49104470  energy(sigma->0) =     -344.49406757


--------------------------------------------------------------------------------------------------------




--------------------------------------- Iteration      1(  11)  ---------------------------------------


    POTLOK:  cpu time      4.9533: real time      4.9860
    SETDIJ:  cpu time      0.0127: real time      0.0128
     EDDAV:  cpu time    821.5715: real time    826.0659
       DOS:  cpu time      0.0024: real time      0.0024
    CHARGE:  cpu time     38.2908: real time     38.5136
    MIXING:  cpu time      0.1726: real time      0.1736
    --------------------------------------------
      LOOP:  cpu time    865.0032: real time    869.7542

 eigenvalue-minimisations  : 25054
 total energy-change (2. order) : 0.2633531E-02  (-0.2272766E-02)
 number of electron     149.9999990 magnetization 
 augmentation part       -0.0386568 magnetization 

 DIPCOR: dipole corrections for dipol
 direction  3 min pos   385,
 dipolmoment           0.000000      0.000000      0.000008 electrons x Angstroem
 Tr[quadrupol]     -4143.979550

 energy correction for charged system         0.000000 eV
 dipol+quadrupol energy correction           -0.000000 eV
 added-field ion interaction         -0.000000 eV  (added to PSCEN)


 Broyden mixing:
  rms(total) = 0.23515E-01    rms(broyden)= 0.23515E-01
  rms(prec ) = 0.30149E-01
  weight for this iteration     100.00

 eigenvalues of (default mixing * dielectric matrix)
  average eigenvalue GAMMA=   2.4102
  5.3939  3.0017  2.3484  0.9870  1.3652  1.3652

 Free energy of the ion-electron system (eV)
  ---------------------------------------------------
  alpha Z        PSCENC =        16.91953745
  Ewald energy   TEWEN  =     40449.27459858
  -Hartree energ DENC   =    -41831.92773499
  -exchange      EXHF   =         0.00000000
  -V(xc)+E(xc)   XCENC  =       323.41805794
  PAW double counting   =      3968.74954166    -3941.46182294
  entropy T*S    EENTRO =        -0.00601526
  eigenvalues    EBANDS =     -1327.82272109
  atomic energy  EATOM  =      1998.36210175
  Solvation  Ediel_sol  =         0.00000000
  ---------------------------------------------------
  free energy    TOTEN  =      -344.49445691 eV

  energy without entropy =     -344.48844165  energy(sigma->0) =     -344.49144928


--------------------------------------------------------------------------------------------------------




--------------------------------------- Iteration      1(  12)  ---------------------------------------


    POTLOK:  cpu time      4.7771: real time      4.8077
    SETDIJ:  cpu time      0.0125: real time      0.0126
     EDDAV:  cpu time    789.9217: real time    794.1676
       DOS:  cpu time      0.0019: real time      0.0019
    CHARGE:  cpu time     40.7801: real time     41.0192
    MIXING:  cpu time      0.1387: real time      0.1394
    --------------------------------------------
      LOOP:  cpu time    835.6319: real time    840.1484

 eigenvalue-minimisations  : 23518
 total energy-change (2. order) :-0.1051235E-01  (-0.2369385E-02)
 number of electron     149.9999990 magnetization 
 augmentation part       -0.0374590 magnetization 

 DIPCOR: dipole corrections for dipol
 direction  3 min pos   385,
 dipolmoment           0.000000      0.000000     -0.000009 electrons x Angstroem
 Tr[quadrupol]     -4146.609265

 energy correction for charged system         0.000000 eV
 dipol+quadrupol energy correction           -0.000000 eV
 added-field ion interaction          0.000000 eV  (added to PSCEN)


 Broyden mixing:
  rms(total) = 0.79864E-02    rms(broyden)= 0.79864E-02
  rms(prec ) = 0.10290E-01
  weight for this iteration     100.00

 eigenvalues of (default mixing * dielectric matrix)
  average eigenvalue GAMMA=   2.5057
  5.9862  3.3131  2.6800  2.1107  0.9794  1.2352  1.2352

 Free energy of the ion-electron system (eV)
  ---------------------------------------------------
  alpha Z        PSCENC =        16.91953745
  Ewald energy   TEWEN  =     40449.27459858
  -Hartree energ DENC   =    -41868.25565830
  -exchange      EXHF   =         0.00000000
  -V(xc)+E(xc)   XCENC  =       323.52631463
  PAW double counting   =      3953.29256948    -3926.01794881
  entropy T*S    EENTRO =        -0.00588122
  eigenvalues    EBANDS =     -1291.60060282
  atomic energy  EATOM  =      1998.36210175
  Solvation  Ediel_sol  =         0.00000000
  ---------------------------------------------------
  free energy    TOTEN  =      -344.50496927 eV

  energy without entropy =     -344.49908805  energy(sigma->0) =     -344.50202866


--------------------------------------------------------------------------------------------------------




--------------------------------------- Iteration      1(  13)  ---------------------------------------


    POTLOK:  cpu time      5.2883: real time      5.3223
    SETDIJ:  cpu time      0.0133: real time      0.0133
     EDDAV:  cpu time    808.1540: real time    812.4766
       DOS:  cpu time      0.0025: real time      0.0025
    CHARGE:  cpu time     41.1847: real time     41.4272
    MIXING:  cpu time      0.1734: real time      0.1743
    --------------------------------------------
      LOOP:  cpu time    854.8162: real time    859.4163

 eigenvalue-minimisations  : 24578
 total energy-change (2. order) :-0.1749986E-01  (-0.7969796E-03)
 number of electron     149.9999990 magnetization 
 augmentation part       -0.0359762 magnetization 

 DIPCOR: dipole corrections for dipol
 direction  3 min pos   385,
 dipolmoment           0.000000      0.000000     -0.000002 electrons x Angstroem
 Tr[quadrupol]     -4147.499825

 energy correction for charged system         0.000000 eV
 dipol+quadrupol energy correction           -0.000000 eV
 added-field ion interaction          0.000000 eV  (added to PSCEN)


 Broyden mixing:
  rms(total) = 0.12367E-01    rms(broyden)= 0.12367E-01
  rms(prec ) = 0.13264E-01
  weight for this iteration     100.00

 eigenvalues of (default mixing * dielectric matrix)
  average eigenvalue GAMMA=   2.6082
  6.6711  4.2580  2.5925  2.5423  1.4277  1.4277  1.0050  0.9413

 Free energy of the ion-electron system (eV)
  ---------------------------------------------------
  alpha Z        PSCENC =        16.91953745
  Ewald energy   TEWEN  =     40449.27459858
  -Hartree energ DENC   =    -41879.47236000
  -exchange      EXHF   =         0.00000000
  -V(xc)+E(xc)   XCENC  =       323.54213154
  PAW double counting   =      3972.92534665    -3945.65137972
  entropy T*S    EENTRO =        -0.00582040
  eigenvalues    EBANDS =     -1280.41662496
  atomic energy  EATOM  =      1998.36210175
  Solvation  Ediel_sol  =         0.00000000
  ---------------------------------------------------
  free energy    TOTEN  =      -344.52246912 eV

  energy without entropy =     -344.51664872  energy(sigma->0) =     -344.51955892


--------------------------------------------------------------------------------------------------------




--------------------------------------- Iteration      1(  14)  ---------------------------------------


    POTLOK:  cpu time      4.9396: real time      4.9706
    SETDIJ:  cpu time      0.0118: real time      0.0118
     EDDAV:  cpu time    773.4654: real time    777.5866
       DOS:  cpu time      0.0019: real time      0.0019
    CHARGE:  cpu time     37.1843: real time     37.4027
    MIXING:  cpu time      0.1744: real time      0.1755
    --------------------------------------------
      LOOP:  cpu time    815.7775: real time    820.1491

 eigenvalue-minimisations  : 23142
 total energy-change (2. order) :-0.1353317E-01  (-0.6175101E-03)
 number of electron     149.9999990 magnetization 
 augmentation part       -0.0370557 magnetization 

 DIPCOR: dipole corrections for dipol
 direction  3 min pos   385,
 dipolmoment           0.000000      0.000000      0.000009 electrons x Angstroem
 Tr[quadrupol]     -4147.769337

 energy correction for charged system         0.000000 eV
 dipol+quadrupol energy correction           -0.000000 eV
 added-field ion interaction         -0.000000 eV  (added to PSCEN)


 Broyden mixing:
  rms(total) = 0.55770E-02    rms(broyden)= 0.55770E-02
  rms(prec ) = 0.58749E-02
  weight for this iteration     100.00

 eigenvalues of (default mixing * dielectric matrix)
  average eigenvalue GAMMA=   2.4913
  6.6548  4.3054  2.7695  2.5417  1.6736  1.3053  1.3053  0.9620  0.9043

 Free energy of the ion-electron system (eV)
  ---------------------------------------------------
  alpha Z        PSCENC =        16.91953745
  Ewald energy   TEWEN  =     40449.27459858
  -Hartree energ DENC   =    -41881.52426753
  -exchange      EXHF   =         0.00000000
  -V(xc)+E(xc)   XCENC  =       323.61584026
  PAW double counting   =      3959.24664661    -3931.94883343
  entropy T*S    EENTRO =        -0.00589668
  eigenvalues    EBANDS =     -1278.47572928
  atomic energy  EATOM  =      1998.36210175
  Solvation  Ediel_sol  =         0.00000000
  ---------------------------------------------------
  free energy    TOTEN  =      -344.53600229 eV

  energy without entropy =     -344.53010561  energy(sigma->0) =     -344.53305395


--------------------------------------------------------------------------------------------------------




--------------------------------------- Iteration      1(  15)  ---------------------------------------


    POTLOK:  cpu time      5.1685: real time      5.2012
    SETDIJ:  cpu time      0.0119: real time      0.0120
     EDDAV:  cpu time    871.7030: real time    876.3703
       DOS:  cpu time      0.0021: real time      0.0022
    CHARGE:  cpu time     37.8068: real time     38.0210
    MIXING:  cpu time      0.1652: real time      0.1662
    --------------------------------------------
      LOOP:  cpu time    914.8576: real time    919.7728

 eigenvalue-minimisations  : 26878
 total energy-change (2. order) :-0.2350804E-02  (-0.6118725E-04)
 number of electron     149.9999990 magnetization 
 augmentation part       -0.0373344 magnetization 

 DIPCOR: dipole corrections for dipol
 direction  3 min pos   385,
 dipolmoment           0.000000      0.000000      0.000001 electrons x Angstroem
 Tr[quadrupol]     -4147.888628

 energy correction for charged system         0.000000 eV
 dipol+quadrupol energy correction           -0.000000 eV
 added-field ion interaction         -0.000000 eV  (added to PSCEN)


 Broyden mixing:
  rms(total) = 0.51261E-02    rms(broyden)= 0.51261E-02
  rms(prec ) = 0.53649E-02
  weight for this iteration     100.00

 eigenvalues of (default mixing * dielectric matrix)
  average eigenvalue GAMMA=   2.6113
  7.5296  4.8803  2.9531  2.5190  2.5190  1.4312  1.4312  0.9709  0.9709  0.9078

 Free energy of the ion-electron system (eV)
  ---------------------------------------------------
  alpha Z        PSCENC =        16.91953745
  Ewald energy   TEWEN  =     40449.27459858
  -Hartree energ DENC   =    -41882.71723102
  -exchange      EXHF   =         0.00000000
  -V(xc)+E(xc)   XCENC  =       323.61755502
  PAW double counting   =      3959.41668733    -3932.12227763
  entropy T*S    EENTRO =        -0.00589067
  eigenvalues    EBANDS =     -1277.28343390
  atomic energy  EATOM  =      1998.36210175
  Solvation  Ediel_sol  =         0.00000000
  ---------------------------------------------------
  free energy    TOTEN  =      -344.53835309 eV

  energy without entropy =     -344.53246242  energy(sigma->0) =     -344.53540776


--------------------------------------------------------------------------------------------------------




--------------------------------------- Iteration      1(  16)  ---------------------------------------


    POTLOK:  cpu time      4.5264: real time      4.5537
    SETDIJ:  cpu time      0.0099: real time      0.0099
     EDDAV:  cpu time    745.9249: real time    749.9278
       DOS:  cpu time      0.0025: real time      0.0026
    CHARGE:  cpu time     36.0644: real time     36.2674
    MIXING:  cpu time      0.1398: real time      0.1414
    --------------------------------------------
      LOOP:  cpu time    786.6678: real time    790.9028

 eigenvalue-minimisations  : 23282
 total energy-change (2. order) :-0.2974410E-02  (-0.5230037E-04)
 number of electron     149.9999990 magnetization 
 augmentation part       -0.0369058 magnetization 

 DIPCOR: dipole corrections for dipol
 direction  3 min pos   385,
 dipolmoment           0.000000      0.000000     -0.000006 electrons x Angstroem
 Tr[quadrupol]     -4148.069978

 energy correction for charged system         0.000000 eV
 dipol+quadrupol energy correction           -0.000000 eV
 added-field ion interaction          0.000000 eV  (added to PSCEN)


 Broyden mixing:
  rms(total) = 0.23486E-02    rms(broyden)= 0.23486E-02
  rms(prec ) = 0.24417E-02
  weight for this iteration     100.00

 eigenvalues of (default mixing * dielectric matrix)
  average eigenvalue GAMMA=   2.6109
  7.7266  5.3323  3.3870  2.4660  2.4660  1.4120  1.4120  1.5505  1.0098  1.0098
  0.9478

 Free energy of the ion-electron system (eV)
  ---------------------------------------------------
  alpha Z        PSCENC =        16.91953745
  Ewald energy   TEWEN  =     40449.27459858
  -Hartree energ DENC   =    -41884.01899303
  -exchange      EXHF   =         0.00000000
  -V(xc)+E(xc)   XCENC  =       323.56850721
  PAW double counting   =      3962.13767145    -3934.85244355
  entropy T*S    EENTRO =        -0.00586504
  eigenvalues    EBANDS =     -1275.92644232
  atomic energy  EATOM  =      1998.36210175
  Solvation  Ediel_sol  =         0.00000000
  ---------------------------------------------------
  free energy    TOTEN  =      -344.54132750 eV

  energy without entropy =     -344.53546247  energy(sigma->0) =     -344.53839499


--------------------------------------------------------------------------------------------------------




--------------------------------------- Iteration      1(  17)  ---------------------------------------


    POTLOK:  cpu time      4.6466: real time      4.6803
    SETDIJ:  cpu time      0.0120: real time      0.0120
     EDDAV:  cpu time    761.4386: real time    765.9155
       DOS:  cpu time      0.0018: real time      0.0018
    CHARGE:  cpu time     32.7694: real time     32.9963
    MIXING:  cpu time      0.1563: real time      0.1571
    --------------------------------------------
      LOOP:  cpu time    799.0247: real time    803.7630

 eigenvalue-minimisations  : 25816
 total energy-change (2. order) :-0.7809004E-03  (-0.1194077E-04)
 number of electron     149.9999990 magnetization 
 augmentation part       -0.0369834 magnetization 

 DIPCOR: dipole corrections for dipol
 direction  3 min pos   385,
 dipolmoment           0.000000      0.000000      0.000001 electrons x Angstroem
 Tr[quadrupol]     -4148.120759

 energy correction for charged system         0.000000 eV
 dipol+quadrupol energy correction           -0.000000 eV
 added-field ion interaction         -0.000000 eV  (added to PSCEN)


 Broyden mixing:
  rms(total) = 0.52046E-03    rms(broyden)= 0.52046E-03
  rms(prec ) = 0.62561E-03
  weight for this iteration     100.00

 eigenvalues of (default mixing * dielectric matrix)
  average eigenvalue GAMMA=   2.6955
  7.9445  5.9237  3.8083  3.0009  2.4042  2.4042  1.4300  1.4300  0.9722  0.9858
  0.9858  1.0571

 Free energy of the ion-electron system (eV)
  ---------------------------------------------------
  alpha Z        PSCENC =        16.91953745
  Ewald energy   TEWEN  =     40449.27459858
  -Hartree energ DENC   =    -41884.31874617
  -exchange      EXHF   =         0.00000000
  -V(xc)+E(xc)   XCENC  =       323.58709035
  PAW double counting   =      3960.87853309    -3933.59102050
  entropy T*S    EENTRO =        -0.00587488
  eigenvalues    EBANDS =     -1275.64832807
  atomic energy  EATOM  =      1998.36210175
  Solvation  Ediel_sol  =         0.00000000
  ---------------------------------------------------
  free energy    TOTEN  =      -344.54210841 eV

  energy without entropy =     -344.53623352  energy(sigma->0) =     -344.53917096


--------------------------------------------------------------------------------------------------------




--------------------------------------- Iteration      1(  18)  ---------------------------------------


    POTLOK:  cpu time      4.1013: real time      4.1261
    SETDIJ:  cpu time      0.0102: real time      0.0102
     EDDAV:  cpu time    712.1076: real time    716.4027
       DOS:  cpu time      0.0023: real time      0.0023
    CHARGE:  cpu time     33.6233: real time     33.8301
    MIXING:  cpu time      0.1678: real time      0.1687
    --------------------------------------------
      LOOP:  cpu time    750.0125: real time    754.5401

 eigenvalue-minimisations  : 23670
 total energy-change (2. order) :-0.5445490E-03  (-0.2415896E-05)
 number of electron     149.9999990 magnetization 
 augmentation part       -0.0369789 magnetization 

 DIPCOR: dipole corrections for dipol
 direction  3 min pos   385,
 dipolmoment           0.000000      0.000000      0.000003 electrons x Angstroem
 Tr[quadrupol]     -4148.193270

 energy correction for charged system         0.000000 eV
 dipol+quadrupol energy correction           -0.000000 eV
 added-field ion interaction         -0.000000 eV  (added to PSCEN)


 Broyden mixing:
  rms(total) = 0.75132E-03    rms(broyden)= 0.75132E-03
  rms(prec ) = 0.77390E-03
  weight for this iteration     100.00

 eigenvalues of (default mixing * dielectric matrix)
  average eigenvalue GAMMA=   2.6829
  8.0033  6.3213  3.8538  3.0162  2.5304  2.5304  1.7325  1.4254  1.4254  1.1296
  0.9639  0.9639  0.9814

 Free energy of the ion-electron system (eV)
  ---------------------------------------------------
  alpha Z        PSCENC =        16.91953745
  Ewald energy   TEWEN  =     40449.27459858
  -Hartree energ DENC   =    -41884.76416252
  -exchange      EXHF   =         0.00000000
  -V(xc)+E(xc)   XCENC  =       323.59160888
  PAW double counting   =      3960.98653132    -3933.69835331
  entropy T*S    EENTRO =        -0.00587498
  eigenvalues    EBANDS =     -1275.20864010
  atomic energy  EATOM  =      1998.36210175
  Solvation  Ediel_sol  =         0.00000000
  ---------------------------------------------------
  free energy    TOTEN  =      -344.54265295 eV

  energy without entropy =     -344.53677797  energy(sigma->0) =     -344.53971546


--------------------------------------------------------------------------------------------------------




--------------------------------------- Iteration      1(  19)  ---------------------------------------


    POTLOK:  cpu time      4.1463: real time      4.1728
    SETDIJ:  cpu time      0.0110: real time      0.0110
     EDDAV:  cpu time    867.1575: real time    872.0735
       DOS:  cpu time      0.0021: real time      0.0021
    CHARGE:  cpu time     43.4521: real time     43.7459
    MIXING:  cpu time      0.2110: real time      0.2123
    --------------------------------------------
      LOOP:  cpu time    914.9800: real time    920.2176

 eigenvalue-minimisations  : 27254
 total energy-change (2. order) :-0.1197346E-03  (-0.2963125E-06)
 number of electron     149.9999990 magnetization 
 augmentation part       -0.0369316 magnetization 

 DIPCOR: dipole corrections for dipol
 direction  3 min pos   385,
 dipolmoment           0.000000      0.000000     -0.000002 electrons x Angstroem
 Tr[quadrupol]     -4148.212658

 energy correction for charged system         0.000000 eV
 dipol+quadrupol energy correction           -0.000000 eV
 added-field ion interaction          0.000000 eV  (added to PSCEN)


 Broyden mixing:
  rms(total) = 0.11728E-03    rms(broyden)= 0.11727E-03
  rms(prec ) = 0.15289E-03
  weight for this iteration     100.00

 eigenvalues of (default mixing * dielectric matrix)
  average eigenvalue GAMMA=   2.7203
  8.2097  6.7509  4.5635  3.3791  2.6709  2.2846  2.2846  1.4247  1.4247  1.0875
  1.0875  0.9599  0.9780  0.9780

 Free energy of the ion-electron system (eV)
  ---------------------------------------------------
  alpha Z        PSCENC =        16.91953745
  Ewald energy   TEWEN  =     40449.27459858
  -Hartree energ DENC   =    -41884.77633039
  -exchange      EXHF   =         0.00000000
  -V(xc)+E(xc)   XCENC  =       323.58571716
  PAW double counting   =      3961.19838211    -3933.91025087
  entropy T*S    EENTRO =        -0.00587326
  eigenvalues    EBANDS =     -1275.19065521
  atomic energy  EATOM  =      1998.36210175
  Solvation  Ediel_sol  =         0.00000000
  ---------------------------------------------------
  free energy    TOTEN  =      -344.54277269 eV

  energy without entropy =     -344.53689943  energy(sigma->0) =     -344.53983606


--------------------------------------------------------------------------------------------------------




--------------------------------------- Iteration      1(  20)  ---------------------------------------


    POTLOK:  cpu time      5.2565: real time      5.2911
    SETDIJ:  cpu time      0.0131: real time      0.0132
     EDDAV:  cpu time    809.7224: real time    814.3113
       DOS:  cpu time      0.0020: real time      0.0020
    CHARGE:  cpu time     39.3002: real time     39.5532
    MIXING:  cpu time      0.2121: real time      0.2134
    --------------------------------------------
      LOOP:  cpu time    854.5064: real time    859.3842

 eigenvalue-minimisations  : 23216
 total energy-change (2. order) :-0.8807819E-04  (-0.1038157E-06)
 number of electron     149.9999990 magnetization 
 augmentation part       -0.0369267 magnetization 

 DIPCOR: dipole corrections for dipol
 direction  3 min pos   385,
 dipolmoment           0.000000      0.000000     -0.000002 electrons x Angstroem
 Tr[quadrupol]     -4148.237467

 energy correction for charged system         0.000000 eV
 dipol+quadrupol energy correction           -0.000000 eV
 added-field ion interaction          0.000000 eV  (added to PSCEN)


 Broyden mixing:
  rms(total) = 0.24776E-03    rms(broyden)= 0.24776E-03
  rms(prec ) = 0.25494E-03
  weight for this iteration     100.00

 eigenvalues of (default mixing * dielectric matrix)
  average eigenvalue GAMMA=   2.6916
  8.3905  6.9557  4.7902  3.5165  2.7021  2.3712  2.3712  1.4178  1.4178  1.2717
  1.2717  0.9503  0.9503  0.9983  0.9983

 Free energy of the ion-electron system (eV)
  ---------------------------------------------------
  alpha Z        PSCENC =        16.91953745
  Ewald energy   TEWEN  =     40449.27459858
  -Hartree energ DENC   =    -41884.88110483
  -exchange      EXHF   =         0.00000000
  -V(xc)+E(xc)   XCENC  =       323.58483622
  PAW double counting   =      3961.31047578    -3934.02259126
  entropy T*S    EENTRO =        -0.00587290
  eigenvalues    EBANDS =     -1275.08484154
  atomic energy  EATOM  =      1998.36210175
  Solvation  Ediel_sol  =         0.00000000
  ---------------------------------------------------
  free energy    TOTEN  =      -344.54286077 eV

  energy without entropy =     -344.53698787  energy(sigma->0) =     -344.53992432


--------------------------------------------------------------------------------------------------------




--------------------------------------- Iteration      1(  21)  ---------------------------------------


    POTLOK:  cpu time      4.8160: real time      4.8451
    SETDIJ:  cpu time      0.0104: real time      0.0104
     EDDAV:  cpu time    808.9453: real time    813.5280
       DOS:  cpu time      0.0021: real time      0.0021
    CHARGE:  cpu time     43.3657: real time     43.6473
    MIXING:  cpu time      0.2200: real time      0.2212
    --------------------------------------------
      LOOP:  cpu time    857.3594: real time    862.2541

 eigenvalue-minimisations  : 23226
 total energy-change (2. order) :-0.3208717E-04  (-0.8711389E-08)
 number of electron     149.9999990 magnetization 
 augmentation part       -0.0369285 magnetization 

 DIPCOR: dipole corrections for dipol
 direction  3 min pos   385,
 dipolmoment           0.000000      0.000000      0.000000 electrons x Angstroem
 Tr[quadrupol]     -4148.246429

 energy correction for charged system         0.000000 eV
 dipol+quadrupol energy correction           -0.000000 eV
 added-field ion interaction         -0.000000 eV  (added to PSCEN)


 Broyden mixing:
  rms(total) = 0.15789E-03    rms(broyden)= 0.15789E-03
  rms(prec ) = 0.16292E-03
  weight for this iteration     100.00

 eigenvalues of (default mixing * dielectric matrix)
  average eigenvalue GAMMA=   2.8104
  8.7057  7.5668  5.4227  3.9711  3.2329  2.5859  2.3709  2.1288  1.4252  1.4252
  1.1193  1.1193  0.9930  0.9930  0.9534  0.9534

 Free energy of the ion-electron system (eV)
  ---------------------------------------------------
  alpha Z        PSCENC =        16.91953745
  Ewald energy   TEWEN  =     40449.27459858
  -Hartree energ DENC   =    -41884.91824085
  -exchange      EXHF   =         0.00000000
  -V(xc)+E(xc)   XCENC  =       323.58547655
  PAW double counting   =      3961.22781150    -3933.93996911
  entropy T*S    EENTRO =        -0.00587298
  eigenvalues    EBANDS =     -1275.04833573
  atomic energy  EATOM  =      1998.36210175
  Solvation  Ediel_sol  =         0.00000000
  ---------------------------------------------------
  free energy    TOTEN  =      -344.54289285 eV

  energy without entropy =     -344.53701987  energy(sigma->0) =     -344.53995636


--------------------------------------------------------------------------------------------------------




--------------------------------------- Iteration      1(  22)  ---------------------------------------


    POTLOK:  cpu time      5.2314: real time      5.2654
    SETDIJ:  cpu time      0.0116: real time      0.0116
     EDDAV:  cpu time    790.7117: real time    795.1922
       DOS:  cpu time      0.0024: real time      0.0024
    CHARGE:  cpu time     43.3310: real time     43.6026
    MIXING:  cpu time      0.2446: real time      0.2461
    --------------------------------------------
      LOOP:  cpu time    839.5327: real time    844.3203

 eigenvalue-minimisations  : 22696
 total energy-change (2. order) :-0.2367296E-04  (-0.4320075E-07)
 number of electron     149.9999990 magnetization 
 augmentation part       -0.0369444 magnetization 

 DIPCOR: dipole corrections for dipol
 direction  3 min pos   385,
 dipolmoment           0.000000      0.000000      0.000000 electrons x Angstroem
 Tr[quadrupol]     -4148.254085

 energy correction for charged system         0.000000 eV
 dipol+quadrupol energy correction           -0.000000 eV
 added-field ion interaction         -0.000000 eV  (added to PSCEN)


 Broyden mixing:
  rms(total) = 0.10193E-03    rms(broyden)= 0.10193E-03
  rms(prec ) = 0.10407E-03
  weight for this iteration     100.00

 eigenvalues of (default mixing * dielectric matrix)
  average eigenvalue GAMMA=   2.8002
  8.9838  7.5668  5.6086  4.1090  3.1109  2.7704  2.3895  2.2652  1.8176  1.4251
  1.4251  1.1999  1.0081  1.0081  0.9728  0.9728  0.9693

 Free energy of the ion-electron system (eV)
  ---------------------------------------------------
  alpha Z        PSCENC =        16.91953745
  Ewald energy   TEWEN  =     40449.27459858
  -Hartree energ DENC   =    -41884.95164829
  -exchange      EXHF   =         0.00000000
  -V(xc)+E(xc)   XCENC  =       323.58740438
  PAW double counting   =      3961.11408542    -3933.82617884
  entropy T*S    EENTRO =        -0.00587369
  eigenvalues    EBANDS =     -1275.01694328
  atomic energy  EATOM  =      1998.36210175
  Solvation  Ediel_sol  =         0.00000000
  ---------------------------------------------------
  free energy    TOTEN  =      -344.54291653 eV

  energy without entropy =     -344.53704284  energy(sigma->0) =     -344.53997968


--------------------------------------------------------------------------------------------------------




--------------------------------------- Iteration      1(  23)  ---------------------------------------


    POTLOK:  cpu time      5.2392: real time      5.2722
    SETDIJ:  cpu time      0.0129: real time      0.0129
     EDDAV:  cpu time    847.3302: real time    852.1033
       DOS:  cpu time      0.0022: real time      0.0022
    CHARGE:  cpu time     43.0281: real time     43.3046
    MIXING:  cpu time      0.2512: real time      0.2527
    --------------------------------------------
      LOOP:  cpu time    895.8637: real time    900.9479

 eigenvalue-minimisations  : 24734
 total energy-change (2. order) :-0.5853889E-05  (-0.6665426E-08)
 number of electron     149.9999990 magnetization 
 augmentation part       -0.0369409 magnetization 

 DIPCOR: dipole corrections for dipol
 direction  3 min pos   385,
 dipolmoment           0.000000      0.000000     -0.000002 electrons x Angstroem
 Tr[quadrupol]     -4148.255395

 energy correction for charged system         0.000000 eV
 dipol+quadrupol energy correction           -0.000000 eV
 added-field ion interaction          0.000000 eV  (added to PSCEN)


 Broyden mixing:
  rms(total) = 0.13746E-04    rms(broyden)= 0.13746E-04
  rms(prec ) = 0.14532E-04
  weight for this iteration     100.00

 eigenvalues of (default mixing * dielectric matrix)
  average eigenvalue GAMMA=   2.8035
  9.1957  7.8871  5.8218  4.4475  3.3383  2.8625  2.4530  2.4530  1.9062  1.4251
  1.4251  1.3016  1.0647  0.9975  0.9975  0.9505  0.9684  0.9684

 Free energy of the ion-electron system (eV)
  ---------------------------------------------------
  alpha Z        PSCENC =        16.91953745
  Ewald energy   TEWEN  =     40449.27459858
  -Hartree energ DENC   =    -41884.95145404
  -exchange      EXHF   =         0.00000000
  -V(xc)+E(xc)   XCENC  =       323.58664142
  PAW double counting   =      3961.16718764    -3933.87928108
  entropy T*S    EENTRO =        -0.00587340
  eigenvalues    EBANDS =     -1275.01638069
  atomic energy  EATOM  =      1998.36210175
  Solvation  Ediel_sol  =         0.00000000
  ---------------------------------------------------
  free energy    TOTEN  =      -344.54292238 eV

  energy without entropy =     -344.53704898  energy(sigma->0) =     -344.53998568


--------------------------------------------------------------------------------------------------------




--------------------------------------- Iteration      1(  24)  ---------------------------------------


    POTLOK:  cpu time      5.2247: real time      5.2588
    SETDIJ:  cpu time      0.0113: real time      0.0113
     EDDAV:  cpu time    731.3394: real time    735.6183
       DOS:  cpu time      0.0026: real time      0.0026
    CHARGE:  cpu time     43.4343: real time     43.7192
    MIXING:  cpu time      0.2607: real time      0.2623
    --------------------------------------------
      LOOP:  cpu time    780.2729: real time    784.8726

 eigenvalue-minimisations  : 19816
 total energy-change (2. order) :-0.2512885E-05  (-0.2374945E-09)
 number of electron     149.9999990 magnetization 
 augmentation part       -0.0369407 magnetization 

 DIPCOR: dipole corrections for dipol
 direction  3 min pos   385,
 dipolmoment           0.000000      0.000000     -0.000001 electrons x Angstroem
 Tr[quadrupol]     -4148.256081

 energy correction for charged system         0.000000 eV
 dipol+quadrupol energy correction           -0.000000 eV
 added-field ion interaction          0.000000 eV  (added to PSCEN)


 Broyden mixing:
  rms(total) = 0.36375E-05    rms(broyden)= 0.36375E-05
  rms(prec ) = 0.40848E-05
  weight for this iteration     100.00

 eigenvalues of (default mixing * dielectric matrix)
  average eigenvalue GAMMA=   2.8180
  9.2951  7.9931  5.8801  4.7474  3.3220  3.3220  2.5378  2.3109  2.3109  1.4245
  1.4245  1.5147  1.5147  0.9966  0.9966  1.0142  1.0142  0.9616  0.9616

 Free energy of the ion-electron system (eV)
  ---------------------------------------------------
  alpha Z        PSCENC =        16.91953745
  Ewald energy   TEWEN  =     40449.27459858
  -Hartree energ DENC   =    -41884.95177267
  -exchange      EXHF   =         0.00000000
  -V(xc)+E(xc)   XCENC  =       323.58658166
  PAW double counting   =      3961.17435084    -3933.88642306
  entropy T*S    EENTRO =        -0.00587341
  eigenvalues    EBANDS =     -1275.01602602
  atomic energy  EATOM  =      1998.36210175
  Solvation  Ediel_sol  =         0.00000000
  ---------------------------------------------------
  free energy    TOTEN  =      -344.54292489 eV

  energy without entropy =     -344.53705148  energy(sigma->0) =     -344.53998819


--------------------------------------------------------------------------------------------------------




--------------------------------------- Iteration      1(  25)  ---------------------------------------


    POTLOK:  cpu time      5.2377: real time      5.2772
    SETDIJ:  cpu time      0.0117: real time      0.0118
     EDDAV:  cpu time    657.9947: real time    661.8851
       DOS:  cpu time      0.0021: real time      0.0021
    CHARGE:  cpu time     38.2669: real time     38.5026
    MIXING:  cpu time      0.2447: real time      0.2460
    --------------------------------------------
      LOOP:  cpu time    701.7577: real time    705.9247

 eigenvalue-minimisations  : 17216
 total energy-change (2. order) :-0.9542141E-06  ( 0.6341677E-09)
 number of electron     149.9999990 magnetization 
 augmentation part       -0.0369404 magnetization 

 DIPCOR: dipole corrections for dipol
 direction  3 min pos   385,
 dipolmoment           0.000000      0.000000     -0.000000 electrons x Angstroem
 Tr[quadrupol]     -4148.256196

 energy correction for charged system         0.000000 eV
 dipol+quadrupol energy correction           -0.000000 eV
 added-field ion interaction          0.000000 eV  (added to PSCEN)


 Broyden mixing:
  rms(total) = 0.89088E-05    rms(broyden)= 0.89087E-05
  rms(prec ) = 0.90788E-05
  weight for this iteration     100.00

 eigenvalues of (default mixing * dielectric matrix)
  average eigenvalue GAMMA=   2.7718
  9.3783  7.9708  6.0341  4.7735  3.7278  3.1764  2.6429  2.3346  2.3346  1.4253
  1.4253  1.7163  1.5361  1.0627  1.0627  0.9942  0.9942  0.9562  0.9562  0.9339

 Free energy of the ion-electron system (eV)
  ---------------------------------------------------
  alpha Z        PSCENC =        16.91953745
  Ewald energy   TEWEN  =     40449.27459858
  -Hartree energ DENC   =    -41884.95131522
  -exchange      EXHF   =         0.00000000
  -V(xc)+E(xc)   XCENC  =       323.58649280
  PAW double counting   =      3961.17793167    -3933.89002065
  entropy T*S    EENTRO =        -0.00587338
  eigenvalues    EBANDS =     -1275.01637884
  atomic energy  EATOM  =      1998.36210175
  Solvation  Ediel_sol  =         0.00000000
  ---------------------------------------------------
  free energy    TOTEN  =      -344.54292585 eV

  energy without entropy =     -344.53705247  energy(sigma->0) =     -344.53998916


--------------------------------------------------------------------------------------------------------




--------------------------------------- Iteration      1(  26)  ---------------------------------------


    POTLOK:  cpu time      5.0721: real time      5.1053
    SETDIJ:  cpu time      0.0134: real time      0.0134
     EDDAV:  cpu time    644.8710: real time    648.6641
       DOS:  cpu time      0.0023: real time      0.0023
    CHARGE:  cpu time     43.5637: real time     43.8512
    MIXING:  cpu time      0.2872: real time      0.2889
    --------------------------------------------
      LOOP:  cpu time    693.8097: real time    697.9253

 eigenvalue-minimisations  : 16802
 total energy-change (2. order) :-0.2076231E-06  ( 0.8464709E-09)
 number of electron     149.9999990 magnetization 
 augmentation part       -0.0369404 magnetization 

 DIPCOR: dipole corrections for dipol
 direction  3 min pos   385,
 dipolmoment           0.000000      0.000000     -0.000001 electrons x Angstroem
 Tr[quadrupol]     -4148.256286

 energy correction for charged system         0.000000 eV
 dipol+quadrupol energy correction           -0.000000 eV
 added-field ion interaction          0.000000 eV  (added to PSCEN)


 Broyden mixing:
  rms(total) = 0.40577E-05    rms(broyden)= 0.40577E-05
  rms(prec ) = 0.41450E-05
  weight for this iteration     100.00

 eigenvalues of (default mixing * dielectric matrix)
  average eigenvalue GAMMA=   2.7525
  9.3717  8.0208  6.0142  4.9590  3.7132  3.3028  2.6478  2.4907  2.4907  1.7970
  1.7970  1.4255  1.4255  1.2985  1.1768  1.0011  1.0011  0.9710  0.9710  0.9516
  0.9748

 Free energy of the ion-electron system (eV)
  ---------------------------------------------------
  alpha Z        PSCENC =        16.91953745
  Ewald energy   TEWEN  =     40449.27459858
  -Hartree energ DENC   =    -41884.95238864
  -exchange      EXHF   =         0.00000000
  -V(xc)+E(xc)   XCENC  =       323.58654320
  PAW double counting   =      3961.17515630    -3933.88724070
  entropy T*S    EENTRO =        -0.00587340
  eigenvalues    EBANDS =     -1275.01536060
  atomic energy  EATOM  =      1998.36210175
  Solvation  Ediel_sol  =         0.00000000
  ---------------------------------------------------
  free energy    TOTEN  =      -344.54292606 eV

  energy without entropy =     -344.53705266  energy(sigma->0) =     -344.53998936


--------------------------------------------------------------------------------------------------------




--------------------------------------- Iteration      1(  27)  ---------------------------------------


    POTLOK:  cpu time      5.2393: real time      5.2724
    SETDIJ:  cpu time      0.0124: real time      0.0125
     EDDAV:  cpu time    595.9835: real time    599.5459
       DOS:  cpu time      0.0025: real time      0.0025
    CHARGE:  cpu time     41.7770: real time     42.0536
    MIXING:  cpu time      0.2999: real time      0.3015
    --------------------------------------------
      LOOP:  cpu time    643.3145: real time    647.1884

 eigenvalue-minimisations  : 16186
 total energy-change (2. order) :-0.1024373E-06  ( 0.8766718E-09)
 number of electron     149.9999990 magnetization 
 augmentation part       -0.0369407 magnetization 

 DIPCOR: dipole corrections for dipol
 direction  3 min pos   385,
 dipolmoment           0.000000      0.000000     -0.000001 electrons x Angstroem
 Tr[quadrupol]     -4148.256283

 energy correction for charged system         0.000000 eV
 dipol+quadrupol energy correction           -0.000000 eV
 added-field ion interaction          0.000000 eV  (added to PSCEN)


 Broyden mixing:
  rms(total) = 0.11699E-05    rms(broyden)= 0.11699E-05
  rms(prec ) = 0.11945E-05
  weight for this iteration     100.00

 eigenvalues of (default mixing * dielectric matrix)
  average eigenvalue GAMMA=   2.7116
  9.3913  7.9982  6.1008  4.9163  4.0177  3.1469  2.8661  2.4395  2.4253  2.0876
  1.4253  1.4253  1.6888  1.6888  1.1014  1.1014  1.0000  1.0000  0.9846  0.9439
  0.9527  0.9527

 Free energy of the ion-electron system (eV)
  ---------------------------------------------------
  alpha Z        PSCENC =        16.91953745
  Ewald energy   TEWEN  =     40449.27459858
  -Hartree energ DENC   =    -41884.95246467
  -exchange      EXHF   =         0.00000000
  -V(xc)+E(xc)   XCENC  =       323.58656345
  PAW double counting   =      3961.17332800    -3933.88541488
  entropy T*S    EENTRO =        -0.00587341
  eigenvalues    EBANDS =     -1275.01530243
  atomic energy  EATOM  =      1998.36210175
  Solvation  Ediel_sol  =         0.00000000
  ---------------------------------------------------
  free energy    TOTEN  =      -344.54292616 eV

  energy without entropy =     -344.53705275  energy(sigma->0) =     -344.53998946


--------------------------------------------------------------------------------------------------------




--------------------------------------- Iteration      1(  28)  ---------------------------------------


    POTLOK:  cpu time      5.2460: real time      5.2794
    SETDIJ:  cpu time      0.0138: real time      0.0139
     EDDAV:  cpu time    633.0262: real time    636.7656
       DOS:  cpu time      0.0022: real time      0.0022
    CHARGE:  cpu time     43.4345: real time     43.7252
    MIXING:  cpu time      0.3194: real time      0.3213
    --------------------------------------------
      LOOP:  cpu time    682.0420: real time    686.1075

 eigenvalue-minimisations  : 16346
 total energy-change (2. order) :-0.2719571E-07  ( 0.8930067E-09)
 number of electron     149.9999990 magnetization 
 augmentation part       -0.0369408 magnetization 

 DIPCOR: dipole corrections for dipol
 direction  3 min pos   385,
 dipolmoment           0.000000      0.000000     -0.000001 electrons x Angstroem
 Tr[quadrupol]     -4148.256296

 energy correction for charged system         0.000000 eV
 dipol+quadrupol energy correction           -0.000000 eV
 added-field ion interaction          0.000000 eV  (added to PSCEN)


 Broyden mixing:
  rms(total) = 0.21904E-06    rms(broyden)= 0.21898E-06
  rms(prec ) = 0.24564E-06
  weight for this iteration     100.00

 eigenvalues of (default mixing * dielectric matrix)
  average eigenvalue GAMMA=   2.6800
  9.3882  8.0142  6.0752  5.0136  3.9979  3.3061  3.0034  2.5873  2.3924  1.8437
  1.8012  1.8012  1.4254  1.4254  1.3817  1.2781  1.0822  0.9987  0.9987  0.9858
  0.9583  0.9583  0.9236

 Free energy of the ion-electron system (eV)
  ---------------------------------------------------
  alpha Z        PSCENC =        16.91953745
  Ewald energy   TEWEN  =     40449.27459858
  -Hartree energ DENC   =    -41884.95271822
  -exchange      EXHF   =         0.00000000
  -V(xc)+E(xc)   XCENC  =       323.58657244
  PAW double counting   =      3961.17287272    -3933.88495802
  entropy T*S    EENTRO =        -0.00587341
  eigenvalues    EBANDS =     -1275.01505947
  atomic energy  EATOM  =      1998.36210175
  Solvation  Ediel_sol  =         0.00000000
  ---------------------------------------------------
  free energy    TOTEN  =      -344.54292619 eV

  energy without entropy =     -344.53705278  energy(sigma->0) =     -344.53998948


--------------------------------------------------------------------------------------------------------




--------------------------------------- Iteration      1(  29)  ---------------------------------------


    POTLOK:  cpu time      5.2398: real time      5.2725
    SETDIJ:  cpu time      0.0117: real time      0.0118
     EDDAV:  cpu time    612.7469: real time    616.3725
       DOS:  cpu time      0.0019: real time      0.0019
    CHARGE:  cpu time     43.3169: real time     43.6018
    MIXING:  cpu time      0.3299: real time      0.3330
    --------------------------------------------
      LOOP:  cpu time    661.6470: real time    665.5936

 eigenvalue-minimisations  : 15674
 total energy-change (2. order) :-0.1999524E-07  ( 0.8992956E-09)
 number of electron     149.9999990 magnetization 
 augmentation part       -0.0369408 magnetization 

 DIPCOR: dipole corrections for dipol
 direction  3 min pos   385,
 dipolmoment           0.000000      0.000000     -0.000001 electrons x Angstroem
 Tr[quadrupol]     -4148.256293

 energy correction for charged system         0.000000 eV
 dipol+quadrupol energy correction           -0.000000 eV
 added-field ion interaction          0.000000 eV  (added to PSCEN)


 Broyden mixing:
  rms(total) = 0.18360E-06    rms(broyden)= 0.18359E-06
  rms(prec ) = 0.19980E-06
  weight for this iteration     100.00

 eigenvalues of (default mixing * dielectric matrix)
  average eigenvalue GAMMA=   2.6551
  9.3924  8.0108  6.0934  5.0384  4.1474  3.2906  3.2906  2.5931  2.4185  2.4185
  1.4252  1.4252  1.7292  1.7292  1.6791  1.2358  1.0232  1.0232  0.9931  0.9931
  0.9643  0.9643  0.9214  0.9214

 Free energy of the ion-electron system (eV)
  ---------------------------------------------------
  alpha Z        PSCENC =        16.91953745
  Ewald energy   TEWEN  =     40449.27459858
  -Hartree energ DENC   =    -41884.95269672
  -exchange      EXHF   =         0.00000000
  -V(xc)+E(xc)   XCENC  =       323.58657112
  PAW double counting   =      3961.17274798    -3933.88483322
  entropy T*S    EENTRO =        -0.00587341
  eigenvalues    EBANDS =     -1275.01507972
  atomic energy  EATOM  =      1998.36210175
  Solvation  Ediel_sol  =         0.00000000
  ---------------------------------------------------
  free energy    TOTEN  =      -344.54292621 eV

  energy without entropy =     -344.53705280  energy(sigma->0) =     -344.53998950


--------------------------------------------------------------------------------------------------------




--------------------------------------- Iteration      1(  30)  ---------------------------------------


    POTLOK:  cpu time      5.2261: real time      5.2694
    SETDIJ:  cpu time      0.0114: real time      0.0115
     EDDAV:  cpu time    599.4509: real time    603.0199
       DOS:  cpu time      0.0021: real time      0.0021
    --------------------------------------------
      LOOP:  cpu time    604.6908: real time    608.3032

 eigenvalue-minimisations  : 16630
 total energy-change (2. order) :-0.7076778E-08  ( 0.8994281E-09)
 number of electron     149.9999990 magnetization 
 augmentation part       -0.0369408 magnetization 

 DIPCOR: dipole corrections for dipol
 direction  3 min pos   385,
 dipolmoment           0.000000      0.000000     -0.000001 electrons x Angstroem
 Tr[quadrupol]     -4148.256296

 energy correction for charged system         0.000000 eV
 dipol+quadrupol energy correction           -0.000000 eV
 added-field ion interaction          0.000000 eV  (added to PSCEN)


 Free energy of the ion-electron system (eV)
  ---------------------------------------------------
  alpha Z        PSCENC =        16.91953745
  Ewald energy   TEWEN  =     40449.27459858
  -Hartree energ DENC   =    -41884.95274465
  -exchange      EXHF   =         0.00000000
  -V(xc)+E(xc)   XCENC  =       323.58657036
  PAW double counting   =      3961.17290478    -3933.88498973
  entropy T*S    EENTRO =        -0.00587341
  eigenvalues    EBANDS =     -1275.01503134
  atomic energy  EATOM  =      1998.36210175
  Solvation  Ediel_sol  =         0.00000000
  ---------------------------------------------------
  free energy    TOTEN  =      -344.54292621 eV

  energy without entropy =     -344.53705281  energy(sigma->0) =     -344.53998951


--------------------------------------------------------------------------------------------------------




 average (electrostatic) potential at core
  the test charge radii are     0.9943  0.5201
  (the norm of the test charge is              1.0000)
       1 -43.0021       2 -43.0019       3 -43.0018       4 -43.0009       5 -43.0008
       6 -43.0011       7 -43.0003       8 -43.0013       9 -43.0015      10 -43.0009
      11 -43.0007      12 -43.0012      13 -43.0011      14 -43.0012      15 -43.0014
      16 -43.0019      17 -43.0012      18 -43.0013      19 -43.0013      20 -43.0012
      21 -43.0013      22 -43.0017      23 -43.0012      24 -43.0014      25 -43.0022
      26 -43.0019      27 -43.0013      28 -43.0013      29 -43.0017      30 -43.0024
      31 -42.9998      32 -43.0015      33 -43.0012      34 -43.0013      35 -43.0016
      36 -43.0014      37 -43.0010      38 -43.0014      39 -43.0012      40 -43.0013
      41 -43.0011      42 -43.0014      43 -43.0012      44 -43.0014      45 -43.0012
      46 -43.0013      47 -43.0012      48 -43.0015      49 -43.0013      50 -43.0007
      51 -40.3282      52 -40.3362      53 -40.3363      54 -40.3361      55 -40.3326
      56 -40.3363      57 -40.3372      58 -40.3363      59 -40.3362      60 -40.3361
      61 -40.3360      62 -40.3362      63 -40.3364      64 -40.3361      65 -40.3363
      66 -40.3362      67 -40.3360      68 -40.3359      69 -40.3356      70 -40.3360
      71 -40.3412      72 -40.3361      73 -40.3360      74 -40.3360      75 -40.3433
      76 -40.3364      77 -40.3360      78 -40.3359      79 -40.3360      80 -40.3357
      81 -40.3361      82 -40.3356      83 -40.3358      84 -40.3361      85 -40.3362
      86 -40.3363      87 -40.3368      88 -40.3359      89 -40.3361      90 -40.3363
      91 -40.3362      92 -40.3363      93 -40.3366      94 -40.3366      95 -40.3364
      96 -40.3363      97 -40.3361      98 -40.3360      99 -40.3362     100 -40.3374
 
 
 
 E-fermi :  -3.0976     XC(G=0):  -1.5755     alpha+bet : -1.5639

 val. band max:       -3.0978103060   @ k =   0.2308   0.0769   0.0000
 cond. band min:      -3.0802929023   @ k =   0.3077   0.3077   0.0000
 fundamental gap:      0.0175174037
 Fermi energy:        -3.0975642292

 k-point     1 :       0.0000    0.0000    0.0000
  band No.  band energies     occupation 
      1     -13.6512      2.00000
      2     -12.8161      2.00000
      3     -12.8147      2.00000
      4     -12.4754      2.00000
      5     -12.4743      2.00000
      6     -12.4739      2.00000
      7     -12.4732      2.00000
      8     -12.1602      2.00000
      9     -11.3601      2.00000
     10     -11.3592      2.00000
     11     -10.9377      2.00000
     12     -10.9366      2.00000
     13     -10.9364      2.00000
     14     -10.9357      2.00000
     15     -10.8455      2.00000
     16     -10.8447      2.00000
     17     -10.8435      2.00000
     18     -10.8429      2.00000
     19     -10.3596      2.00000
     20     -10.3594      2.00000
     21     -10.0090      2.00000
     22     -10.0088      2.00000
     23      -9.4562      2.00000
     24      -9.4555      2.00000
     25      -9.4547      2.00000
     26      -9.4540      2.00000
     27      -9.3748      2.00000
     28      -9.3745      2.00000
     29      -9.3726      2.00000
     30      -9.3723      2.00000
     31      -9.2625      2.00000
     32      -9.2623      2.00000
     33      -8.9465      2.00000
     34      -8.5081      2.00000
     35      -8.5076      2.00000
     36      -8.2080      2.00000
     37      -8.2064      2.00000
     38      -8.1491      2.00000
     39      -8.1479      2.00000
     40      -8.1134      2.00000
     41      -8.1125      2.00000
     42      -8.0380      2.00000
     43      -8.0373      2.00000
     44      -8.0361      2.00000
     45      -8.0357      2.00000
     46      -7.8404      2.00000
     47      -7.8395      2.00000
     48      -7.8387      2.00000
     49      -7.8369      2.00000
     50      -7.4335      2.00000
     51      -7.4320      2.00000
     52      -7.4317      2.00000
     53      -7.4307      2.00000
     54      -7.1074      2.00000
     55      -7.1070      2.00000
     56      -7.1063      2.00000
     57      -7.1051      2.00000
     58      -7.0262      2.00000
     59      -7.0249      2.00000
     60      -6.1769      2.00000
     61      -6.1751      2.00000
     62      -6.1746      2.00000
     63      -6.1733      2.00000
     64      -5.9835      2.00000
     65      -5.9824      2.00000
     66      -5.7849      2.00000
     67      -5.7837      2.00000
     68      -5.7707      2.00000
     69      -5.7684      2.00000
     70      -3.7697      2.00000
     71      -3.7687      2.00000
     72      -3.1297      1.63663
     73      -3.1284      1.61738
     74      -3.1269      1.59372
     75      -3.1262      1.58130
     76      -2.3256      0.00000
     77      -2.3252      0.00000
     78      -2.3235      0.00000
     79      -2.3227      0.00000
     80      -2.0931      0.00000
     81      -2.0895      0.00000
     82      -2.0885      0.00000
     83      -2.0855      0.00000
     84      -1.0509      0.00000
     85      -1.0487      0.00000
     86      -1.0477      0.00000
     87      -1.0464      0.00000
     88      -0.8483      0.00000
     89      -0.8453      0.00000
     90      -0.5772      0.00000
     91      -0.3210      0.00000
     92      -0.3180      0.00000
     93       0.1639      0.00000
     94       0.1651      0.00000
     95       0.1660      0.00000
     96       0.1669      0.00000
     97       0.3465      0.00000
     98       0.3491      0.00000
     99       0.3521      0.00000
    100       0.3526      0.00000
    101       0.5751      0.00000
    102       0.6015      0.00000
    103       0.6042      0.00000
    104       0.6125      0.00000
    105       0.6131      0.00000
    106       0.6135      0.00000
    107       0.6139      0.00000
    108       1.1204      0.00000
    109       1.1876      0.00000
    110       1.2963      0.00000
    111       1.2974      0.00000
    112       1.4670      0.00000
    113       1.5368      0.00000
    114       1.5946      0.00000
    115       1.5947      0.00000
    116       1.6364      0.00000
    117       1.6378      0.00000
    118       1.9237      0.00000
    119       1.9275      0.00000
    120       1.9284      0.00000
    121       1.9359      0.00000
    122       1.9377      0.00000
    123       1.9775      0.00000
    124       1.9789      0.00000
    125       2.0276      0.00000
    126       2.0288      0.00000

 k-point     2 :       0.0769    0.0000    0.0000
  band No.  band energies     occupation 
      1     -13.6441      2.00000
      2     -12.8726      2.00000
      3     -12.7442      2.00000
      4     -12.6455      2.00000
      5     -12.5825      2.00000
      6     -12.3533      2.00000
      7     -12.2899      2.00000
      8     -12.1528      2.00000
      9     -11.4129      2.00000
     10     -11.2921      2.00000
     11     -11.1126      2.00000
     12     -11.0697      2.00000
     13     -11.0526      2.00000
     14     -10.8844      2.00000
     15     -10.8082      2.00000
     16     -10.7931      2.00000
     17     -10.7482      2.00000
     18     -10.6074      2.00000
     19     -10.4744      2.00000
     20     -10.2541      2.00000
     21     -10.2323      2.00000
     22      -9.7593      2.00000
     23      -9.6691      2.00000
     24      -9.6335      2.00000
     25      -9.5346      2.00000
     26      -9.5094      2.00000
     27      -9.3912      2.00000
     28      -9.3434      2.00000
     29      -9.2330      2.00000
     30      -9.2113      2.00000
     31      -9.1725      2.00000
     32      -9.1220      2.00000
     33      -8.9374      2.00000
     34      -8.7286      2.00000
     35      -8.3035      2.00000
     36      -8.2900      2.00000
     37      -8.2514      2.00000
     38      -8.2411      2.00000
     39      -8.1709      2.00000
     40      -8.1670      2.00000
     41      -8.1462      2.00000
     42      -8.0976      2.00000
     43      -7.9692      2.00000
     44      -7.9587      2.00000
     45      -7.9118      2.00000
     46      -7.8663      2.00000
     47      -7.8529      2.00000
     48      -7.8293      2.00000
     49      -7.7755      2.00000
     50      -7.6546      2.00000
     51      -7.5965      2.00000
     52      -7.2505      2.00000
     53      -7.1917      2.00000
     54      -7.1663      2.00000
     55      -7.1180      2.00000
     56      -7.1078      2.00000
     57      -7.0688      2.00000
     58      -7.0256      2.00000
     59      -7.0160      2.00000
     60      -6.4189      2.00000
     61      -6.3141      2.00000
     62      -6.1712      2.00000
     63      -6.0229      2.00000
     64      -5.9754      2.00000
     65      -5.9342      2.00000
     66      -5.9179      2.00000
     67      -5.7683      2.00000
     68      -5.5863      2.00000
     69      -5.5649      2.00000
     70      -4.1422      2.00000
     71      -3.5241      2.00000
     72      -3.4355      2.00000
     73      -3.3857      2.00000
     74      -2.8166      0.00000
     75      -2.7354      0.00000
     76      -2.6247      0.00000
     77      -2.6091      0.00000
     78      -2.4627      0.00000
     79      -2.1193      0.00000
     80      -2.0621      0.00000
     81      -2.0499      0.00000
     82      -2.0276      0.00000
     83      -1.6999      0.00000
     84      -1.5015      0.00000
     85      -1.2881      0.00000
     86      -0.9745      0.00000
     87      -0.7741      0.00000
     88      -0.7218      0.00000
     89      -0.6057      0.00000
     90      -0.5698      0.00000
     91      -0.3652      0.00000
     92      -0.2519      0.00000
     93       0.0766      0.00000
     94       0.0779      0.00000
     95       0.0948      0.00000
     96       0.1703      0.00000
     97       0.2652      0.00000
     98       0.2924      0.00000
     99       0.4467      0.00000
    100       0.4500      0.00000
    101       0.4846      0.00000
    102       0.5416      0.00000
    103       0.5847      0.00000
    104       0.6585      0.00000
    105       0.7478      0.00000
    106       0.7575      0.00000
    107       0.7883      0.00000
    108       1.1301      0.00000
    109       1.1973      0.00000
    110       1.2920      0.00000
    111       1.3273      0.00000
    112       1.4767      0.00000
    113       1.5297      0.00000
    114       1.5422      0.00000
    115       1.5462      0.00000
    116       1.6776      0.00000
    117       1.6901      0.00000
    118       1.7421      0.00000
    119       1.7618      0.00000
    120       1.8161      0.00000
    121       1.8828      0.00000
    122       1.9217      0.00000
    123       1.9257      0.00000
    124       1.9578      0.00000
    125       2.0047      0.00000
    126       2.0852      0.00000

 k-point     3 :       0.1538    0.0000    0.0000
  band No.  band energies     occupation 
      1     -13.6229      2.00000
      2     -12.9157      2.00000
      3     -12.8042      2.00000
      4     -12.6773      2.00000
      5     -12.6591      2.00000
      6     -12.2194      2.00000
      7     -12.1305      2.00000
      8     -12.0936      2.00000
      9     -11.4517      2.00000
     10     -11.2851      2.00000
     11     -11.2763      2.00000
     12     -11.2103      2.00000
     13     -11.1552      2.00000
     14     -10.9116      2.00000
     15     -10.7295      2.00000
     16     -10.6672      2.00000
     17     -10.5767      2.00000
     18     -10.5489      2.00000
     19     -10.4933      2.00000
     20     -10.3623      2.00000
     21     -10.0931      2.00000
     22      -9.8995      2.00000
     23      -9.8752      2.00000
     24      -9.6902      2.00000
     25      -9.5520      2.00000
     26      -9.5071      2.00000
     27      -9.4148      2.00000
     28      -9.3164      2.00000
     29      -9.0750      2.00000
     30      -9.0468      2.00000
     31      -9.0062      2.00000
     32      -8.9495      2.00000
     33      -8.9104      2.00000
     34      -8.8878      2.00000
     35      -8.4832      2.00000
     36      -8.4626      2.00000
     37      -8.2984      2.00000
     38      -8.2785      2.00000
     39      -8.2227      2.00000
     40      -8.1267      2.00000
     41      -8.0781      2.00000
     42      -8.0684      2.00000
     43      -8.0639      2.00000
     44      -7.9109      2.00000
     45      -7.8601      2.00000
     46      -7.8316      2.00000
     47      -7.8253      2.00000
     48      -7.7915      2.00000
     49      -7.7779      2.00000
     50      -7.7433      2.00000
     51      -7.6973      2.00000
     52      -7.2545      2.00000
     53      -7.1396      2.00000
     54      -7.1210      2.00000
     55      -7.0519      2.00000
     56      -7.0512      2.00000
     57      -7.0160      2.00000
     58      -6.9971      2.00000
     59      -6.9345      2.00000
     60      -6.6503      2.00000
     61      -6.4395      2.00000
     62      -6.3322      2.00000
     63      -6.1370      2.00000
     64      -6.0788      2.00000
     65      -5.8565      2.00000
     66      -5.6499      2.00000
     67      -5.5302      2.00000
     68      -5.3847      2.00000
     69      -5.3177      2.00000
     70      -4.5027      2.00000
     71      -3.9190      2.00000
     72      -3.7341      2.00000
     73      -2.9943      0.00351
     74      -2.9307      0.00000
     75      -2.9064      0.00000
     76      -2.8241      0.00000
     77      -2.5044      0.00000
     78      -2.3628      0.00000
     79      -2.1354      0.00000
     80      -1.9978      0.00000
     81      -1.9557      0.00000
     82      -1.8302      0.00000
     83      -1.7389      0.00000
     84      -1.4909      0.00000
     85      -1.3003      0.00000
     86      -1.1027      0.00000
     87      -0.6015      0.00000
     88      -0.5475      0.00000
     89      -0.4625      0.00000
     90      -0.3889      0.00000
     91      -0.2248      0.00000
     92      -0.1628      0.00000
     93      -0.1462      0.00000
     94       0.0130      0.00000
     95       0.0370      0.00000
     96       0.0640      0.00000
     97       0.2900      0.00000
     98       0.3017      0.00000
     99       0.3626      0.00000
    100       0.3984      0.00000
    101       0.4527      0.00000
    102       0.6133      0.00000
    103       0.7456      0.00000
    104       0.8881      0.00000
    105       0.9105      0.00000
    106       0.9692      0.00000
    107       0.9758      0.00000
    108       1.1595      0.00000
    109       1.2262      0.00000
    110       1.3111      0.00000
    111       1.3821      0.00000
    112       1.4519      0.00000
    113       1.4655      0.00000
    114       1.4856      0.00000
    115       1.5060      0.00000
    116       1.5153      0.00000
    117       1.5743      0.00000
    118       1.7049      0.00000
    119       1.7195      0.00000
    120       1.7229      0.00000
    121       1.7773      0.00000
    122       1.7933      0.00000
    123       1.8283      0.00000
    124       1.8781      0.00000
    125       1.9651      0.00000
    126       1.9878      0.00000

 k-point     4 :       0.2308    0.0000    0.0000
  band No.  band energies     occupation 
      1     -13.5875      2.00000
      2     -12.9499      2.00000
      3     -12.9448      2.00000
      4     -12.7587      2.00000
      5     -12.5600      2.00000
      6     -12.0933      2.00000
      7     -12.0728      2.00000
      8     -11.8857      2.00000
      9     -11.4890      2.00000
     10     -11.4760      2.00000
     11     -11.4271      2.00000
     12     -11.2444      2.00000
     13     -11.1145      2.00000
     14     -10.9262      2.00000
     15     -10.7252      2.00000
     16     -10.6661      2.00000
     17     -10.6543      2.00000
     18     -10.5142      2.00000
     19     -10.3391      2.00000
     20     -10.1669      2.00000
     21     -10.1096      2.00000
     22     -10.0717      2.00000
     23      -9.9426      2.00000
     24      -9.8402      2.00000
     25      -9.5833      2.00000
     26      -9.4757      2.00000
     27      -9.2548      2.00000
     28      -9.2318      2.00000
     29      -9.1684      2.00000
     30      -8.9713      2.00000
     31      -8.8831      2.00000
     32      -8.8654      2.00000
     33      -8.7763      2.00000
     34      -8.6954      2.00000
     35      -8.6784      2.00000
     36      -8.6709      2.00000
     37      -8.4298      2.00000
     38      -8.3300      2.00000
     39      -8.2884      2.00000
     40      -8.2846      2.00000
     41      -8.0480      2.00000
     42      -8.0330      2.00000
     43      -7.9754      2.00000
     44      -7.9740      2.00000
     45      -7.8756      2.00000
     46      -7.8726      2.00000
     47      -7.8439      2.00000
     48      -7.8428      2.00000
     49      -7.6947      2.00000
     50      -7.6786      2.00000
     51      -7.5738      2.00000
     52      -7.3728      2.00000
     53      -7.1711      2.00000
     54      -7.1473      2.00000
     55      -7.0564      2.00000
     56      -6.9964      2.00000
     57      -6.9688      2.00000
     58      -6.8680      2.00000
     59      -6.8349      2.00000
     60      -6.6605      2.00000
     61      -6.5516      2.00000
     62      -6.4672      2.00000
     63      -6.2670      2.00000
     64      -6.2023      2.00000
     65      -5.6761      2.00000
     66      -5.3714      2.00000
     67      -5.2727      2.00000
     68      -5.1656      2.00000
     69      -5.0420      2.00000
     70      -4.8494      2.00000
     71      -4.3068      2.00000
     72      -4.0224      2.00000
     73      -3.2405      1.99995
     74      -3.2108      1.99864
     75      -3.1711      1.96236
     76      -2.5994      0.00000
     77      -2.4032      0.00000
     78      -2.2000      0.00000
     79      -2.1381      0.00000
     80      -2.0324      0.00000
     81      -1.9345      0.00000
     82      -1.6597      0.00000
     83      -1.6400      0.00000
     84      -1.4651      0.00000
     85      -1.2293      0.00000
     86      -0.8906      0.00000
     87      -0.5106      0.00000
     88      -0.4866      0.00000
     89      -0.3905      0.00000
     90      -0.2969      0.00000
     91      -0.1198      0.00000
     92      -0.1183      0.00000
     93      -0.1077      0.00000
     94      -0.0528      0.00000
     95      -0.0210      0.00000
     96       0.1443      0.00000
     97       0.1612      0.00000
     98       0.2469      0.00000
     99       0.3025      0.00000
    100       0.5647      0.00000
    101       0.6385      0.00000
    102       0.6610      0.00000
    103       0.9522      0.00000
    104       1.0328      0.00000
    105       1.0577      0.00000
    106       1.1525      0.00000
    107       1.2084      0.00000
    108       1.2185      0.00000
    109       1.2745      0.00000
    110       1.2776      0.00000
    111       1.3026      0.00000
    112       1.3519      0.00000
    113       1.4098      0.00000
    114       1.4308      0.00000
    115       1.4328      0.00000
    116       1.4924      0.00000
    117       1.5251      0.00000
    118       1.5547      0.00000
    119       1.6062      0.00000
    120       1.6212      0.00000
    121       1.6852      0.00000
    122       1.7589      0.00000
    123       1.8449      0.00000
    124       1.8941      0.00000
    125       1.9287      0.00000
    126       1.9324      0.00000

 k-point     5 :       0.3077    0.0000    0.0000
  band No.  band energies     occupation 
      1     -13.5381      2.00000
      2     -13.0821      2.00000
      3     -12.9600      2.00000
      4     -12.8267      2.00000
      5     -12.4471      2.00000
      6     -12.0414      2.00000
      7     -11.9140      2.00000
      8     -11.6810      2.00000
      9     -11.6665      2.00000
     10     -11.5646      2.00000
     11     -11.4859      2.00000
     12     -11.3199      2.00000
     13     -11.0047      2.00000
     14     -10.9487      2.00000
     15     -10.9280      2.00000
     16     -10.7425      2.00000
     17     -10.5679      2.00000
     18     -10.4325      2.00000
     19     -10.3499      2.00000
     20     -10.2576      2.00000
     21     -10.1200      2.00000
     22      -9.9833      2.00000
     23      -9.8509      2.00000
     24      -9.7815      2.00000
     25      -9.6030      2.00000
     26      -9.5257      2.00000
     27      -9.3834      2.00000
     28      -9.1380      2.00000
     29      -9.0053      2.00000
     30      -8.9348      2.00000
     31      -8.8636      2.00000
     32      -8.8626      2.00000
     33      -8.8023      2.00000
     34      -8.7224      2.00000
     35      -8.5598      2.00000
     36      -8.5587      2.00000
     37      -8.5460      2.00000
     38      -8.5039      2.00000
     39      -8.3584      2.00000
     40      -8.2812      2.00000
     41      -8.2182      2.00000
     42      -8.0601      2.00000
     43      -8.0030      2.00000
     44      -7.9844      2.00000
     45      -7.9612      2.00000
     46      -7.8634      2.00000
     47      -7.8631      2.00000
     48      -7.6864      2.00000
     49      -7.5777      2.00000
     50      -7.5744      2.00000
     51      -7.5202      2.00000
     52      -7.4848      2.00000
     53      -7.2123      2.00000
     54      -7.1869      2.00000
     55      -7.0876      2.00000
     56      -7.0717      2.00000
     57      -6.9666      2.00000
     58      -6.9308      2.00000
     59      -6.6509      2.00000
     60      -6.6012      2.00000
     61      -6.5797      2.00000
     62      -6.3699      2.00000
     63      -6.3621      2.00000
     64      -6.3028      2.00000
     65      -5.4816      2.00000
     66      -5.1814      2.00000
     67      -5.0834      2.00000
     68      -5.0005      2.00000
     69      -4.9295      2.00000
     70      -4.7377      2.00000
     71      -4.6846      2.00000
     72      -4.2989      2.00000
     73      -3.5526      2.00000
     74      -3.5178      2.00000
     75      -3.5032      2.00000
     76      -2.8393      0.00000
     77      -2.2077      0.00000
     78      -2.1266      0.00000
     79      -1.9165      0.00000
     80      -1.8606      0.00000
     81      -1.7974      0.00000
     82      -1.7778      0.00000
     83      -1.5013      0.00000
     84      -1.3521      0.00000
     85      -1.2353      0.00000
     86      -0.4729      0.00000
     87      -0.4590      0.00000
     88      -0.3775      0.00000
     89      -0.3702      0.00000
     90      -0.3536      0.00000
     91      -0.2176      0.00000
     92      -0.1265      0.00000
     93      -0.0869      0.00000
     94       0.0106      0.00000
     95       0.0315      0.00000
     96       0.0773      0.00000
     97       0.1369      0.00000
     98       0.2627      0.00000
     99       0.6255      0.00000
    100       0.7278      0.00000
    101       0.7575      0.00000
    102       0.8394      0.00000
    103       0.9934      0.00000
    104       1.0809      0.00000
    105       1.1378      0.00000
    106       1.1385      0.00000
    107       1.1803      0.00000
    108       1.1897      0.00000
    109       1.2769      0.00000
    110       1.3323      0.00000
    111       1.3420      0.00000
    112       1.3456      0.00000
    113       1.3764      0.00000
    114       1.4116      0.00000
    115       1.4315      0.00000
    116       1.5205      0.00000
    117       1.5225      0.00000
    118       1.5268      0.00000
    119       1.5895      0.00000
    120       1.6230      0.00000
    121       1.6383      0.00000
    122       1.6583      0.00000
    123       1.6632      0.00000
    124       1.6867      0.00000
    125       1.8491      0.00000
    126       1.8637      0.00000

 k-point     6 :       0.3846    0.0000    0.0000
  band No.  band energies     occupation 
      1     -13.4747      2.00000
      2     -13.2008      2.00000
      3     -12.9611      2.00000
      4     -12.8810      2.00000
      5     -12.3206      2.00000
      6     -11.9748      2.00000
      7     -11.8604      2.00000
      8     -11.7432      2.00000
      9     -11.6883      2.00000
     10     -11.4813      2.00000
     11     -11.4369      2.00000
     12     -11.3815      2.00000
     13     -11.1629      2.00000
     14     -10.9170      2.00000
     15     -10.8812      2.00000
     16     -10.8058      2.00000
     17     -10.6940      2.00000
     18     -10.4706      2.00000
     19     -10.4320      2.00000
     20     -10.1748      2.00000
     21     -10.1186      2.00000
     22      -9.8926      2.00000
     23      -9.6110      2.00000
     24      -9.6108      2.00000
     25      -9.5929      2.00000
     26      -9.5881      2.00000
     27      -9.5645      2.00000
     28      -9.1771      2.00000
     29      -9.0554      2.00000
     30      -9.0357      2.00000
     31      -8.8047      2.00000
     32      -8.7622      2.00000
     33      -8.7537      2.00000
     34      -8.7213      2.00000
     35      -8.6866      2.00000
     36      -8.5672      2.00000
     37      -8.4444      2.00000
     38      -8.3767      2.00000
     39      -8.3707      2.00000
     40      -8.3185      2.00000
     41      -8.2567      2.00000
     42      -8.1640      2.00000
     43      -8.1217      2.00000
     44      -8.0786      2.00000
     45      -7.9732      2.00000
     46      -7.8875      2.00000
     47      -7.7363      2.00000
     48      -7.6934      2.00000
     49      -7.5149      2.00000
     50      -7.4803      2.00000
     51      -7.4739      2.00000
     52      -7.4293      2.00000
     53      -7.2633      2.00000
     54      -7.2607      2.00000
     55      -7.2395      2.00000
     56      -7.1493      2.00000
     57      -6.9263      2.00000
     58      -6.8829      2.00000
     59      -6.7376      2.00000
     60      -6.6746      2.00000
     61      -6.4200      2.00000
     62      -6.3781      2.00000
     63      -6.3505      2.00000
     64      -6.0630      2.00000
     65      -5.4980      2.00000
     66      -5.2729      2.00000
     67      -5.0503      2.00000
     68      -4.7873      2.00000
     69      -4.7174      2.00000
     70      -4.6765      2.00000
     71      -4.5627      2.00000
     72      -4.4051      2.00000
     73      -3.8653      2.00000
     74      -3.8243      2.00000
     75      -3.8201      2.00000
     76      -3.2605      2.00000
     77      -2.0996      0.00000
     78      -1.9071      0.00000
     79      -1.8307      0.00000
     80      -1.7765      0.00000
     81      -1.6747      0.00000
     82      -1.6248      0.00000
     83      -1.4696      0.00000
     84      -1.4232      0.00000
     85      -1.1289      0.00000
     86      -0.3929      0.00000
     87      -0.3286      0.00000
     88      -0.3218      0.00000
     89      -0.2742      0.00000
     90      -0.2729      0.00000
     91      -0.1743      0.00000
     92      -0.1104      0.00000
     93      -0.0846      0.00000
     94      -0.0806      0.00000
     95      -0.0505      0.00000
     96       0.0316      0.00000
     97       0.2268      0.00000
     98       0.6645      0.00000
     99       0.7149      0.00000
    100       0.7796      0.00000
    101       0.8136      0.00000
    102       0.8926      0.00000
    103       0.9657      0.00000
    104       1.0352      0.00000
    105       1.0388      0.00000
    106       1.1216      0.00000
    107       1.1845      0.00000
    108       1.2845      0.00000
    109       1.3283      0.00000
    110       1.3649      0.00000
    111       1.3650      0.00000
    112       1.3871      0.00000
    113       1.4288      0.00000
    114       1.4409      0.00000
    115       1.4547      0.00000
    116       1.4872      0.00000
    117       1.4987      0.00000
    118       1.5052      0.00000
    119       1.5344      0.00000
    120       1.5762      0.00000
    121       1.6780      0.00000
    122       1.7108      0.00000
    123       1.7150      0.00000
    124       1.7397      0.00000
    125       1.7476      0.00000
    126       1.7706      0.00000

 k-point     7 :       0.4615    0.0000    0.0000
  band No.  band energies     occupation 
      1     -13.3972      2.00000
      2     -13.3059      2.00000
      3     -12.9483      2.00000
      4     -12.9215      2.00000
      5     -12.1805      2.00000
      6     -12.0270      2.00000
      7     -11.8936      2.00000
      8     -11.7981      2.00000
      9     -11.5607      2.00000
     10     -11.4623      2.00000
     11     -11.4290      2.00000
     12     -11.3671      2.00000
     13     -11.1976      2.00000
     14     -10.9495      2.00000
     15     -10.8930      2.00000
     16     -10.8560      2.00000
     17     -10.7444      2.00000
     18     -10.5945      2.00000
     19     -10.3630      2.00000
     20     -10.2454      2.00000
     21      -9.9896      2.00000
     22      -9.7953      2.00000
     23      -9.6584      2.00000
     24      -9.6072      2.00000
     25      -9.5917      2.00000
     26      -9.4317      2.00000
     27      -9.4192      2.00000
     28      -9.3239      2.00000
     29      -9.2459      2.00000
     30      -9.0614      2.00000
     31      -8.9257      2.00000
     32      -8.8090      2.00000
     33      -8.6451      2.00000
     34      -8.6223      2.00000
     35      -8.5409      2.00000
     36      -8.5299      2.00000
     37      -8.5055      2.00000
     38      -8.4204      2.00000
     39      -8.3142      2.00000
     40      -8.3089      2.00000
     41      -8.2850      2.00000
     42      -8.2148      2.00000
     43      -8.1554      2.00000
     44      -8.0976      2.00000
     45      -7.9437      2.00000
     46      -7.9148      2.00000
     47      -7.8875      2.00000
     48      -7.5933      2.00000
     49      -7.4347      2.00000
     50      -7.4034      2.00000
     51      -7.3970      2.00000
     52      -7.3831      2.00000
     53      -7.3655      2.00000
     54      -7.3247      2.00000
     55      -7.3049      2.00000
     56      -7.2425      2.00000
     57      -6.8749      2.00000
     58      -6.8247      2.00000
     59      -6.8121      2.00000
     60      -6.7556      2.00000
     61      -6.4402      2.00000
     62      -6.4250      2.00000
     63      -6.0829      2.00000
     64      -5.7986      2.00000
     65      -5.7404      2.00000
     66      -5.4026      2.00000
     67      -5.0500      2.00000
     68      -4.8132      2.00000
     69      -4.4845      2.00000
     70      -4.4258      2.00000
     71      -4.4071      2.00000
     72      -4.1766      2.00000
     73      -4.1275      2.00000
     74      -4.1216      2.00000
     75      -4.0463      2.00000
     76      -3.6638      2.00000
     77      -2.0556      0.00000
     78      -1.9921      0.00000
     79      -1.6828      0.00000
     80      -1.5802      0.00000
     81      -1.5619      0.00000
     82      -1.5017      0.00000
     83      -1.4899      0.00000
     84      -1.4184      0.00000
     85      -1.2291      0.00000
     86      -0.3126      0.00000
     87      -0.2789      0.00000
     88      -0.2666      0.00000
     89      -0.2657      0.00000
     90      -0.2358      0.00000
     91      -0.2183      0.00000
     92      -0.1843      0.00000
     93      -0.1714      0.00000
     94      -0.0706      0.00000
     95       0.0808      0.00000
     96       0.3681      0.00000
     97       0.3707      0.00000
     98       0.3946      0.00000
     99       0.5794      0.00000
    100       0.7782      0.00000
    101       0.9184      0.00000
    102       0.9948      0.00000
    103       1.0420      0.00000
    104       1.0811      0.00000
    105       1.0938      0.00000
    106       1.1749      0.00000
    107       1.2075      0.00000
    108       1.2500      0.00000
    109       1.3000      0.00000
    110       1.3691      0.00000
    111       1.3749      0.00000
    112       1.4052      0.00000
    113       1.4676      0.00000
    114       1.4725      0.00000
    115       1.4737      0.00000
    116       1.4840      0.00000
    117       1.5126      0.00000
    118       1.5349      0.00000
    119       1.5752      0.00000
    120       1.5997      0.00000
    121       1.6125      0.00000
    122       1.6338      0.00000
    123       1.6510      0.00000
    124       1.6602      0.00000
    125       1.6714      0.00000
    126       1.7070      0.00000

 k-point     8 :       0.0000    0.0769    0.0000
  band No.  band energies     occupation 
      1     -13.6441      2.00000
      2     -12.8725      2.00000
      3     -12.7443      2.00000
      4     -12.6459      2.00000
      5     -12.5820      2.00000
      6     -12.3529      2.00000
      7     -12.2904      2.00000
      8     -12.1528      2.00000
      9     -11.4128      2.00000
     10     -11.2922      2.00000
     11     -11.1130      2.00000
     12     -11.0709      2.00000
     13     -11.0522      2.00000
     14     -10.8831      2.00000
     15     -10.8078      2.00000
     16     -10.7917      2.00000
     17     -10.7487      2.00000
     18     -10.6088      2.00000
     19     -10.4743      2.00000
     20     -10.2541      2.00000
     21     -10.2324      2.00000
     22      -9.7593      2.00000
     23      -9.6701      2.00000
     24      -9.6351      2.00000
     25      -9.5328      2.00000
     26      -9.5083      2.00000
     27      -9.3900      2.00000
     28      -9.3434      2.00000
     29      -9.2342      2.00000
     30      -9.2095      2.00000
     31      -9.1726      2.00000
     32      -9.1238      2.00000
     33      -8.9375      2.00000
     34      -8.7285      2.00000
     35      -8.3044      2.00000
     36      -8.2901      2.00000
     37      -8.2513      2.00000
     38      -8.2426      2.00000
     39      -8.1704      2.00000
     40      -8.1655      2.00000
     41      -8.1463      2.00000
     42      -8.0966      2.00000
     43      -7.9697      2.00000
     44      -7.9609      2.00000
     45      -7.9102      2.00000
     46      -7.8643      2.00000
     47      -7.8545      2.00000
     48      -7.8273      2.00000
     49      -7.7773      2.00000
     50      -7.6550      2.00000
     51      -7.5961      2.00000
     52      -7.2500      2.00000
     53      -7.1922      2.00000
     54      -7.1675      2.00000
     55      -7.1168      2.00000
     56      -7.1067      2.00000
     57      -7.0698      2.00000
     58      -7.0256      2.00000
     59      -7.0160      2.00000
     60      -6.4197      2.00000
     61      -6.3134      2.00000
     62      -6.1710      2.00000
     63      -6.0220      2.00000
     64      -5.9752      2.00000
     65      -5.9340      2.00000
     66      -5.9188      2.00000
     67      -5.7685      2.00000
     68      -5.5864      2.00000
     69      -5.5651      2.00000
     70      -4.1421      2.00000
     71      -3.5256      2.00000
     72      -3.4339      2.00000
     73      -3.3858      2.00000
     74      -2.8149      0.00000
     75      -2.7372      0.00000
     76      -2.6259      0.00000
     77      -2.6080      0.00000
     78      -2.4654      0.00000
     79      -2.1163      0.00000
     80      -2.0601      0.00000
     81      -2.0473      0.00000
     82      -2.0295      0.00000
     83      -1.7030      0.00000
     84      -1.5039      0.00000
     85      -1.2857      0.00000
     86      -0.9743      0.00000
     87      -0.7723      0.00000
     88      -0.7219      0.00000
     89      -0.6073      0.00000
     90      -0.5698      0.00000
     91      -0.3652      0.00000
     92      -0.2519      0.00000
     93       0.0735      0.00000
     94       0.0782      0.00000
     95       0.0939      0.00000
     96       0.1743      0.00000
     97       0.2633      0.00000
     98       0.2941      0.00000
     99       0.4465      0.00000
    100       0.4499      0.00000
    101       0.4849      0.00000
    102       0.5456      0.00000
    103       0.5847      0.00000
    104       0.6543      0.00000
    105       0.7482      0.00000
    106       0.7576      0.00000
    107       0.7879      0.00000
    108       1.1301      0.00000
    109       1.1973      0.00000
    110       1.2920      0.00000
    111       1.3273      0.00000
    112       1.4767      0.00000
    113       1.5298      0.00000
    114       1.5425      0.00000
    115       1.5462      0.00000
    116       1.6775      0.00000
    117       1.6885      0.00000
    118       1.7418      0.00000
    119       1.7596      0.00000
    120       1.8162      0.00000
    121       1.8928      0.00000
    122       1.9241      0.00000
    123       1.9592      0.00000
    124       2.0024      0.00000
    125       2.0236      0.00000
    126       2.0664      0.00000

 k-point     9 :       0.0769    0.0769    0.0000
  band No.  band energies     occupation 
      1     -13.6278      2.00000
      2     -12.7930      2.00000
      3     -12.7916      2.00000
      4     -12.7462      2.00000
      5     -12.7451      2.00000
      6     -12.1619      2.00000
      7     -12.1608      2.00000
      8     -12.1353      2.00000
      9     -11.3357      2.00000
     10     -11.3348      2.00000
     11     -11.2208      2.00000
     12     -11.2199      2.00000
     13     -11.1035      2.00000
     14     -11.1020      2.00000
     15     -10.6130      2.00000
     16     -10.6121      2.00000
     17     -10.5510      2.00000
     18     -10.5492      2.00000
     19     -10.4974      2.00000
     20     -10.3377      2.00000
     21     -10.3374      2.00000
     22      -9.7996      2.00000
     23      -9.7975      2.00000
     24      -9.7166      2.00000
     25      -9.7155      2.00000
     26      -9.5105      2.00000
     27      -9.2403      2.00000
     28      -9.2401      2.00000
     29      -9.1640      2.00000
     30      -9.1626      2.00000
     31      -8.9707      2.00000
     32      -8.9685      2.00000
     33      -8.9530      2.00000
     34      -8.9151      2.00000
     35      -8.3837      2.00000
     36      -8.3820      2.00000
     37      -8.3440      2.00000
     38      -8.3074      2.00000
     39      -8.1768      2.00000
     40      -8.1752      2.00000
     41      -8.0803      2.00000
     42      -7.9773      2.00000
     43      -7.9752      2.00000
     44      -7.9414      2.00000
     45      -7.9006      2.00000
     46      -7.8410      2.00000
     47      -7.8392      2.00000
     48      -7.8065      2.00000
     49      -7.8053      2.00000
     50      -7.7463      2.00000
     51      -7.7446      2.00000
     52      -7.1828      2.00000
     53      -7.1816      2.00000
     54      -7.0945      2.00000
     55      -7.0933      2.00000
     56      -6.9980      2.00000
     57      -6.9968      2.00000
     58      -6.9955      2.00000
     59      -6.9942      2.00000
     60      -6.5427      2.00000
     61      -6.5409      2.00000
     62      -6.3557      2.00000
     63      -6.1635      2.00000
     64      -5.7509      2.00000
     65      -5.7490      2.00000
     66      -5.7424      2.00000
     67      -5.7401      2.00000
     68      -5.5493      2.00000
     69      -5.3426      2.00000
     70      -4.5070      2.00000
     71      -3.8292      2.00000
     72      -3.8270      2.00000
     73      -2.9983      0.00501
     74      -2.9153      0.00000
     75      -2.9139      0.00000
     76      -2.4348      0.00000
     77      -2.4322      0.00000
     78      -2.4149      0.00000
     79      -2.4109      0.00000
     80      -1.7881      0.00000
     81      -1.7854      0.00000
     82      -1.7358      0.00000
     83      -1.7329      0.00000
     84      -1.7230      0.00000
     85      -1.7189      0.00000
     86      -0.8180      0.00000
     87      -0.8150      0.00000
     88      -0.5512      0.00000
     89      -0.3272      0.00000
     90      -0.3261      0.00000
     91      -0.2976      0.00000
     92      -0.2946      0.00000
     93      -0.0762      0.00000
     94      -0.0722      0.00000
     95       0.0339      0.00000
     96       0.0342      0.00000
     97       0.3147      0.00000
     98       0.3260      0.00000
     99       0.3268      0.00000
    100       0.4210      0.00000
    101       0.4234      0.00000
    102       0.6072      0.00000
    103       0.8572      0.00000
    104       0.8616      0.00000
    105       0.9268      0.00000
    106       0.9277      0.00000
    107       0.9301      0.00000
    108       1.1532      0.00000
    109       1.2202      0.00000
    110       1.3188      0.00000
    111       1.3199      0.00000
    112       1.4246      0.00000
    113       1.4997      0.00000
    114       1.5688      0.00000
    115       1.6259      0.00000
    116       1.6261      0.00000
    117       1.6514      0.00000
    118       1.6544      0.00000
    119       1.7280      0.00000
    120       1.7310      0.00000
    121       1.7944      0.00000
    122       1.7949      0.00000
    123       1.8023      0.00000
    124       1.8062      0.00000
    125       1.9563      0.00000
    126       1.9991      0.00000

 k-point    10 :       0.1538    0.0769    0.0000
  band No.  band energies     occupation 
      1     -13.5974      2.00000
      2     -12.8958      2.00000
      3     -12.8324      2.00000
      4     -12.8263      2.00000
      5     -12.6980      2.00000
      6     -12.1030      2.00000
      7     -12.0202      2.00000
      8     -11.9574      2.00000
      9     -11.3754      2.00000
     10     -11.3640      2.00000
     11     -11.3147      2.00000
     12     -11.3100      2.00000
     13     -11.2433      2.00000
     14     -11.1230      2.00000
     15     -10.7338      2.00000
     16     -10.4815      2.00000
     17     -10.4649      2.00000
     18     -10.4304      2.00000
     19     -10.4061      2.00000
     20     -10.2987      2.00000
     21     -10.1885      2.00000
     22     -10.0652      2.00000
     23      -9.9573      2.00000
     24      -9.9137      2.00000
     25      -9.7512      2.00000
     26      -9.2989      2.00000
     27      -9.2609      2.00000
     28      -9.1759      2.00000
     29      -9.1286      2.00000
     30      -9.0844      2.00000
     31      -8.9313      2.00000
     32      -8.8747      2.00000
     33      -8.8190      2.00000
     34      -8.7493      2.00000
     35      -8.6117      2.00000
     36      -8.5240      2.00000
     37      -8.4913      2.00000
     38      -8.3529      2.00000
     39      -8.1889      2.00000
     40      -8.1631      2.00000
     41      -8.0836      2.00000
     42      -8.0015      2.00000
     43      -7.9979      2.00000
     44      -7.9395      2.00000
     45      -7.9250      2.00000
     46      -7.8820      2.00000
     47      -7.8797      2.00000
     48      -7.8789      2.00000
     49      -7.7573      2.00000
     50      -7.6458      2.00000
     51      -7.6097      2.00000
     52      -7.2848      2.00000
     53      -7.2095      2.00000
     54      -7.1307      2.00000
     55      -7.0913      2.00000
     56      -6.9648      2.00000
     57      -6.9554      2.00000
     58      -6.7853      2.00000
     59      -6.7566      2.00000
     60      -6.7268      2.00000
     61      -6.6506      2.00000
     62      -6.5128      2.00000
     63      -6.3230      2.00000
     64      -5.8773      2.00000
     65      -5.5686      2.00000
     66      -5.5297      2.00000
     67      -5.4654      2.00000
     68      -5.3054      2.00000
     69      -5.0924      2.00000
     70      -4.8582      2.00000
     71      -4.2152      2.00000
     72      -4.1210      2.00000
     73      -3.2197      1.99945
     74      -3.2110      1.99867
     75      -2.7620      0.00000
     76      -2.6068      0.00000
     77      -2.3503      0.00000
     78      -2.1797      0.00000
     79      -2.1431      0.00000
     80      -2.0852      0.00000
     81      -1.9324      0.00000
     82      -1.7312      0.00000
     83      -1.5892      0.00000
     84      -1.5289      0.00000
     85      -1.3123      0.00000
     86      -0.9140      0.00000
     87      -0.6615      0.00000
     88      -0.5179      0.00000
     89      -0.3183      0.00000
     90      -0.2536      0.00000
     91      -0.2056      0.00000
     92      -0.1963      0.00000
     93      -0.0778      0.00000
     94      -0.0536      0.00000
     95       0.0323      0.00000
     96       0.1700      0.00000
     97       0.1789      0.00000
     98       0.1836      0.00000
     99       0.2144      0.00000
    100       0.5801      0.00000
    101       0.6045      0.00000
    102       0.6488      0.00000
    103       1.0640      0.00000
    104       1.0691      0.00000
    105       1.0997      0.00000
    106       1.1100      0.00000
    107       1.1747      0.00000
    108       1.1958      0.00000
    109       1.2624      0.00000
    110       1.3298      0.00000
    111       1.3350      0.00000
    112       1.3740      0.00000
    113       1.4147      0.00000
    114       1.4963      0.00000
    115       1.5309      0.00000
    116       1.5422      0.00000
    117       1.5915      0.00000
    118       1.5923      0.00000
    119       1.6102      0.00000
    120       1.6204      0.00000
    121       1.6692      0.00000
    122       1.7400      0.00000
    123       1.7667      0.00000
    124       1.8566      0.00000
    125       1.8580      0.00000
    126       1.9229      0.00000

 k-point    11 :       0.2308    0.0769    0.0000
  band No.  band energies     occupation 
      1     -13.5530      2.00000
      2     -13.0329      2.00000
      3     -12.9053      2.00000
      4     -12.8465      2.00000
      5     -12.5899      2.00000
      6     -12.0558      2.00000
      7     -11.8665      2.00000
      8     -11.7425      2.00000
      9     -11.5173      2.00000
     10     -11.5060      2.00000
     11     -11.3950      2.00000
     12     -11.3783      2.00000
     13     -11.1374      2.00000
     14     -11.1298      2.00000
     15     -10.9619      2.00000
     16     -10.5105      2.00000
     17     -10.4011      2.00000
     18     -10.3320      2.00000
     19     -10.3056      2.00000
     20     -10.1902      2.00000
     21     -10.1081      2.00000
     22     -10.1017      2.00000
     23     -10.0414      2.00000
     24     -10.0280      2.00000
     25      -9.7739      2.00000
     26      -9.3952      2.00000
     27      -9.3476      2.00000
     28      -9.0133      2.00000
     29      -9.0101      2.00000
     30      -8.9960      2.00000
     31      -8.8496      2.00000
     32      -8.8163      2.00000
     33      -8.6982      2.00000
     34      -8.6715      2.00000
     35      -8.6624      2.00000
     36      -8.6616      2.00000
     37      -8.5606      2.00000
     38      -8.3921      2.00000
     39      -8.3803      2.00000
     40      -8.1847      2.00000
     41      -8.1724      2.00000
     42      -8.0554      2.00000
     43      -8.0309      2.00000
     44      -8.0289      2.00000
     45      -7.9789      2.00000
     46      -7.9746      2.00000
     47      -7.8417      2.00000
     48      -7.6896      2.00000
     49      -7.6158      2.00000
     50      -7.5543      2.00000
     51      -7.5086      2.00000
     52      -7.4171      2.00000
     53      -7.2474      2.00000
     54      -7.1783      2.00000
     55      -7.1144      2.00000
     56      -6.9584      2.00000
     57      -6.9247      2.00000
     58      -6.9063      2.00000
     59      -6.7456      2.00000
     60      -6.6418      2.00000
     61      -6.5561      2.00000
     62      -6.4524      2.00000
     63      -6.4399      2.00000
     64      -5.9929      2.00000
     65      -5.3733      2.00000
     66      -5.3003      2.00000
     67      -5.1948      2.00000
     68      -5.1710      2.00000
     69      -5.0399      2.00000
     70      -4.8148      2.00000
     71      -4.5940      2.00000
     72      -4.4008      2.00000
     73      -3.5246      2.00000
     74      -3.5097      2.00000
     75      -3.0978      1.00555
     76      -2.6200      0.00000
     77      -2.2743      0.00000
     78      -2.2173      0.00000
     79      -2.0962      0.00000
     80      -1.8777      0.00000
     81      -1.8066      0.00000
     82      -1.7276      0.00000
     83      -1.4454      0.00000
     84      -1.3094      0.00000
     85      -1.0123      0.00000
     86      -0.8965      0.00000
     87      -0.5118      0.00000
     88      -0.4699      0.00000
     89      -0.3449      0.00000
     90      -0.3180      0.00000
     91      -0.2791      0.00000
     92      -0.1073      0.00000
     93      -0.0943      0.00000
     94      -0.0861      0.00000
     95       0.0430      0.00000
     96       0.0583      0.00000
     97       0.1108      0.00000
     98       0.3601      0.00000
     99       0.5460      0.00000
    100       0.7095      0.00000
    101       0.7580      0.00000
    102       0.8012      0.00000
    103       1.2122      0.00000
    104       1.2193      0.00000
    105       1.2569      0.00000
    106       1.2580      0.00000
    107       1.2608      0.00000
    108       1.2659      0.00000
    109       1.2665      0.00000
    110       1.2902      0.00000
    111       1.2917      0.00000
    112       1.3239      0.00000
    113       1.3729      0.00000
    114       1.4061      0.00000
    115       1.4094      0.00000
    116       1.4525      0.00000
    117       1.4558      0.00000
    118       1.5625      0.00000
    119       1.5787      0.00000
    120       1.6042      0.00000
    121       1.6703      0.00000
    122       1.7685      0.00000
    123       1.8221      0.00000
    124       1.8556      0.00000
    125       1.8560      0.00000
    126       1.8706      0.00000

 k-point    12 :       0.3077    0.0769    0.0000
  band No.  band energies     occupation 
      1     -13.4945      2.00000
      2     -13.1565      2.00000
      3     -12.9646      2.00000
      4     -12.8526      2.00000
      5     -12.4681      2.00000
      6     -11.9940      2.00000
      7     -11.7008      2.00000
      8     -11.6898      2.00000
      9     -11.6455      2.00000
     10     -11.5168      2.00000
     11     -11.4614      2.00000
     12     -11.3783      2.00000
     13     -11.1810      2.00000
     14     -11.1236      2.00000
     15     -11.0177      2.00000
     16     -10.5956      2.00000
     17     -10.5778      2.00000
     18     -10.3101      2.00000
     19     -10.2787      2.00000
     20     -10.2507      2.00000
     21     -10.1355      2.00000
     22      -9.9657      2.00000
     23      -9.8569      2.00000
     24      -9.7846      2.00000
     25      -9.7791      2.00000
     26      -9.6091      2.00000
     27      -9.3859      2.00000
     28      -9.0916      2.00000
     29      -8.8996      2.00000
     30      -8.8867      2.00000
     31      -8.8381      2.00000
     32      -8.7970      2.00000
     33      -8.7705      2.00000
     34      -8.7399      2.00000
     35      -8.6181      2.00000
     36      -8.5308      2.00000
     37      -8.4663      2.00000
     38      -8.4413      2.00000
     39      -8.4144      2.00000
     40      -8.3294      2.00000
     41      -8.1635      2.00000
     42      -8.1536      2.00000
     43      -8.1512      2.00000
     44      -8.1259      2.00000
     45      -8.0630      2.00000
     46      -7.8492      2.00000
     47      -7.8065      2.00000
     48      -7.5763      2.00000
     49      -7.5164      2.00000
     50      -7.4896      2.00000
     51      -7.4728      2.00000
     52      -7.4419      2.00000
     53      -7.2961      2.00000
     54      -7.2375      2.00000
     55      -7.1673      2.00000
     56      -7.1461      2.00000
     57      -6.8746      2.00000
     58      -6.8479      2.00000
     59      -6.8272      2.00000
     60      -6.7443      2.00000
     61      -6.5496      2.00000
     62      -6.3099      2.00000
     63      -6.1366      2.00000
     64      -6.0866      2.00000
     65      -5.5159      2.00000
     66      -5.1644      2.00000
     67      -5.0535      2.00000
     68      -4.9615      2.00000
     69      -4.8675      2.00000
     70      -4.7572      2.00000
     71      -4.6673      2.00000
     72      -4.5094      2.00000
     73      -3.8282      2.00000
     74      -3.8077      2.00000
     75      -3.4187      2.00000
     76      -3.0497      0.17544
     77      -2.2295      0.00000
     78      -2.1865      0.00000
     79      -1.8403      0.00000
     80      -1.7108      0.00000
     81      -1.6604      0.00000
     82      -1.6313      0.00000
     83      -1.3699      0.00000
     84      -1.1863      0.00000
     85      -1.1094      0.00000
     86      -0.4757      0.00000
     87      -0.4075      0.00000
     88      -0.3688      0.00000
     89      -0.3367      0.00000
     90      -0.3145      0.00000
     91      -0.2954      0.00000
     92      -0.1647      0.00000
     93      -0.1151      0.00000
     94      -0.0806      0.00000
     95      -0.0584      0.00000
     96       0.0150      0.00000
     97       0.0373      0.00000
     98       0.7495      0.00000
     99       0.7892      0.00000
    100       0.8774      0.00000
    101       0.9093      0.00000
    102       0.9450      0.00000
    103       0.9924      0.00000
    104       1.0433      0.00000
    105       1.0824      0.00000
    106       1.2183      0.00000
    107       1.2391      0.00000
    108       1.2924      0.00000
    109       1.3397      0.00000
    110       1.3544      0.00000
    111       1.3769      0.00000
    112       1.4047      0.00000
    113       1.4308      0.00000
    114       1.4323      0.00000
    115       1.4595      0.00000
    116       1.4744      0.00000
    117       1.5478      0.00000
    118       1.5628      0.00000
    119       1.6021      0.00000
    120       1.6475      0.00000
    121       1.6666      0.00000
    122       1.6791      0.00000
    123       1.6857      0.00000
    124       1.6925      0.00000
    125       1.7409      0.00000
    126       1.7791      0.00000

 k-point    13 :       0.3846    0.0769    0.0000
  band No.  band energies     occupation 
      1     -13.4220      2.00000
      2     -13.2664      2.00000
      3     -13.0102      2.00000
      4     -12.8447      2.00000
      5     -12.3326      2.00000
      6     -11.9176      2.00000
      7     -11.8608      2.00000
      8     -11.7599      2.00000
      9     -11.5236      2.00000
     10     -11.5137      2.00000
     11     -11.3901      2.00000
     12     -11.3640      2.00000
     13     -11.2811      2.00000
     14     -11.1043      2.00000
     15     -10.8844      2.00000
     16     -10.8538      2.00000
     17     -10.6322      2.00000
     18     -10.4440      2.00000
     19     -10.3844      2.00000
     20     -10.2090      2.00000
     21      -9.9554      2.00000
     22      -9.8162      2.00000
     23      -9.7831      2.00000
     24      -9.7340      2.00000
     25      -9.6758      2.00000
     26      -9.5141      2.00000
     27      -9.4135      2.00000
     28      -9.3343      2.00000
     29      -9.0166      2.00000
     30      -8.9267      2.00000
     31      -8.8693      2.00000
     32      -8.7959      2.00000
     33      -8.7602      2.00000
     34      -8.6455      2.00000
     35      -8.5371      2.00000
     36      -8.5023      2.00000
     37      -8.4686      2.00000
     38      -8.4000      2.00000
     39      -8.3232      2.00000
     40      -8.3095      2.00000
     41      -8.2893      2.00000
     42      -8.2392      2.00000
     43      -8.2344      2.00000
     44      -8.1249      2.00000
     45      -8.0962      2.00000
     46      -7.7752      2.00000
     47      -7.7583      2.00000
     48      -7.7073      2.00000
     49      -7.4065      2.00000
     50      -7.4016      2.00000
     51      -7.3798      2.00000
     52      -7.3635      2.00000
     53      -7.3546      2.00000
     54      -7.3195      2.00000
     55      -7.3087      2.00000
     56      -7.2521      2.00000
     57      -6.8959      2.00000
     58      -6.8246      2.00000
     59      -6.8143      2.00000
     60      -6.7798      2.00000
     61      -6.6116      2.00000
     62      -6.1566      2.00000
     63      -6.0469      2.00000
     64      -5.8212      2.00000
     65      -5.8173      2.00000
     66      -5.3160      2.00000
     67      -4.9420      2.00000
     68      -4.9200      2.00000
     69      -4.7898      2.00000
     70      -4.5562      2.00000
     71      -4.4618      2.00000
     72      -4.1759      2.00000
     73      -4.1296      2.00000
     74      -4.1028      2.00000
     75      -3.7242      2.00000
     76      -3.4653      2.00000
     77      -2.3350      0.00000
     78      -2.0873      0.00000
     79      -1.6796      0.00000
     80      -1.5593      0.00000
     81      -1.5154      0.00000
     82      -1.4943      0.00000
     83      -1.3802      0.00000
     84      -1.2481      0.00000
     85      -1.2035      0.00000
     86      -0.3306      0.00000
     87      -0.2973      0.00000
     88      -0.2777      0.00000
     89      -0.2509      0.00000
     90      -0.2328      0.00000
     91      -0.2215      0.00000
     92      -0.1912      0.00000
     93      -0.1637      0.00000
     94      -0.0738      0.00000
     95      -0.0548      0.00000
     96      -0.0171      0.00000
     97       0.1881      0.00000
     98       0.5319      0.00000
     99       0.8319      0.00000
    100       0.8878      0.00000
    101       1.0107      0.00000
    102       1.0907      0.00000
    103       1.1248      0.00000
    104       1.1352      0.00000
    105       1.1479      0.00000
    106       1.1699      0.00000
    107       1.1786      0.00000
    108       1.2015      0.00000
    109       1.2050      0.00000
    110       1.3024      0.00000
    111       1.3949      0.00000
    112       1.4050      0.00000
    113       1.4410      0.00000
    114       1.4706      0.00000
    115       1.4926      0.00000
    116       1.5047      0.00000
    117       1.5060      0.00000
    118       1.5888      0.00000
    119       1.6027      0.00000
    120       1.6050      0.00000
    121       1.6310      0.00000
    122       1.6830      0.00000
    123       1.6857      0.00000
    124       1.7156      0.00000
    125       1.7299      0.00000
    126       1.7884      0.00000

 k-point    14 :       0.4615    0.0769    0.0000
  band No.  band energies     occupation 
      1     -13.3626      2.00000
      2     -13.3356      2.00000
      3     -13.0419      2.00000
      4     -12.8230      2.00000
      5     -12.1837      2.00000
      6     -12.0188      2.00000
      7     -11.8601      2.00000
      8     -11.8268      2.00000
      9     -11.5886      2.00000
     10     -11.5517      2.00000
     11     -11.3354      2.00000
     12     -11.3350      2.00000
     13     -11.1049      2.00000
     14     -11.0718      2.00000
     15     -11.0364      2.00000
     16     -10.7379      2.00000
     17     -10.6736      2.00000
     18     -10.5969      2.00000
     19     -10.5086      2.00000
     20     -10.0983      2.00000
     21     -10.0153      2.00000
     22      -9.7694      2.00000
     23      -9.7659      2.00000
     24      -9.5750      2.00000
     25      -9.4967      2.00000
     26      -9.4861      2.00000
     27      -9.4299      2.00000
     28      -9.2494      2.00000
     29      -9.1941      2.00000
     30      -9.1284      2.00000
     31      -9.0502      2.00000
     32      -8.6861      2.00000
     33      -8.6334      2.00000
     34      -8.5900      2.00000
     35      -8.5747      2.00000
     36      -8.5332      2.00000
     37      -8.5201      2.00000
     38      -8.4406      2.00000
     39      -8.3178      2.00000
     40      -8.2977      2.00000
     41      -8.2971      2.00000
     42      -8.2820      2.00000
     43      -8.1289      2.00000
     44      -8.0691      2.00000
     45      -8.0210      2.00000
     46      -7.9584      2.00000
     47      -7.7475      2.00000
     48      -7.5494      2.00000
     49      -7.4780      2.00000
     50      -7.4227      2.00000
     51      -7.3980      2.00000
     52      -7.3919      2.00000
     53      -7.3682      2.00000
     54      -7.3405      2.00000
     55      -7.2862      2.00000
     56      -7.2351      2.00000
     57      -6.9519      2.00000
     58      -6.8877      2.00000
     59      -6.7433      2.00000
     60      -6.7017      2.00000
     61      -6.6358      2.00000
     62      -6.2004      2.00000
     63      -6.1100      2.00000
     64      -5.7672      2.00000
     65      -5.6565      2.00000
     66      -5.4826      2.00000
     67      -5.1585      2.00000
     68      -4.7062      2.00000
     69      -4.5096      2.00000
     70      -4.4276      2.00000
     71      -4.3933      2.00000
     72      -4.2390      2.00000
     73      -4.1574      2.00000
     74      -4.0142      2.00000
     75      -3.8641      2.00000
     76      -3.8155      2.00000
     77      -2.4158      0.00000
     78      -1.9772      0.00000
     79      -1.6323      0.00000
     80      -1.5588      0.00000
     81      -1.4906      0.00000
     82      -1.4850      0.00000
     83      -1.4547      0.00000
     84      -1.2930      0.00000
     85      -1.2158      0.00000
     86      -0.2884      0.00000
     87      -0.2565      0.00000
     88      -0.2551      0.00000
     89      -0.2447      0.00000
     90      -0.2420      0.00000
     91      -0.2397      0.00000
     92      -0.1848      0.00000
     93      -0.1567      0.00000
     94      -0.1030      0.00000
     95       0.1974      0.00000
     96       0.2199      0.00000
     97       0.3559      0.00000
     98       0.3572      0.00000
     99       0.6340      0.00000
    100       0.7981      0.00000
    101       0.9521      0.00000
    102       0.9611      0.00000
    103       0.9872      0.00000
    104       1.0054      0.00000
    105       1.0563      0.00000
    106       1.2093      0.00000
    107       1.2261      0.00000
    108       1.2411      0.00000
    109       1.2784      0.00000
    110       1.2810      0.00000
    111       1.3308      0.00000
    112       1.3543      0.00000
    113       1.4592      0.00000
    114       1.5166      0.00000
    115       1.5619      0.00000
    116       1.5768      0.00000
    117       1.5855      0.00000
    118       1.5949      0.00000
    119       1.6028      0.00000
    120       1.6227      0.00000
    121       1.6240      0.00000
    122       1.6304      0.00000
    123       1.6521      0.00000
    124       1.6631      0.00000
    125       1.6950      0.00000
    126       1.8263      0.00000

 k-point    15 :      -0.4615    0.0769    0.0000
  band No.  band energies     occupation 
      1     -13.4450      2.00000
      2     -13.2354      2.00000
      3     -13.0598      2.00000
      4     -12.7875      2.00000
      5     -12.1635      2.00000
      6     -12.0216      2.00000
      7     -11.9460      2.00000
      8     -11.7761      2.00000
      9     -11.7217      2.00000
     10     -11.5754      2.00000
     11     -11.3478      2.00000
     12     -11.2926      2.00000
     13     -11.1358      2.00000
     14     -11.0261      2.00000
     15     -10.7837      2.00000
     16     -10.7371      2.00000
     17     -10.7022      2.00000
     18     -10.6226      2.00000
     19     -10.5785      2.00000
     20     -10.2053      2.00000
     21      -9.9786      2.00000
     22      -9.8113      2.00000
     23      -9.7434      2.00000
     24      -9.5685      2.00000
     25      -9.4352      2.00000
     26      -9.3910      2.00000
     27      -9.3677      2.00000
     28      -9.2894      2.00000
     29      -9.2556      2.00000
     30      -9.1665      2.00000
     31      -8.9885      2.00000
     32      -8.7498      2.00000
     33      -8.6935      2.00000
     34      -8.6566      2.00000
     35      -8.6019      2.00000
     36      -8.5711      2.00000
     37      -8.5095      2.00000
     38      -8.4031      2.00000
     39      -8.3431      2.00000
     40      -8.3402      2.00000
     41      -8.1798      2.00000
     42      -8.1716      2.00000
     43      -8.1601      2.00000
     44      -8.1187      2.00000
     45      -7.9960      2.00000
     46      -7.8166      2.00000
     47      -7.7241      2.00000
     48      -7.6213      2.00000
     49      -7.5126      2.00000
     50      -7.4998      2.00000
     51      -7.4870      2.00000
     52      -7.4149      2.00000
     53      -7.3757      2.00000
     54      -7.2892      2.00000
     55      -7.2088      2.00000
     56      -7.1347      2.00000
     57      -6.9958      2.00000
     58      -6.9377      2.00000
     59      -6.6613      2.00000
     60      -6.6228      2.00000
     61      -6.6131      2.00000
     62      -6.3822      2.00000
     63      -6.2147      2.00000
     64      -5.9821      2.00000
     65      -5.4712      2.00000
     66      -5.3825      2.00000
     67      -5.1330      2.00000
     68      -4.7209      2.00000
     69      -4.6778      2.00000
     70      -4.4573      2.00000
     71      -4.2884      2.00000
     72      -4.2434      2.00000
     73      -4.2130      2.00000
     74      -3.9180      2.00000
     75      -3.8467      2.00000
     76      -3.4301      2.00000
     77      -2.4744      0.00000
     78      -1.8568      0.00000
     79      -1.8169      0.00000
     80      -1.6924      0.00000
     81      -1.6167      0.00000
     82      -1.5665      0.00000
     83      -1.4707      0.00000
     84      -1.3765      0.00000
     85      -1.0788      0.00000
     86      -0.3718      0.00000
     87      -0.3304      0.00000
     88      -0.3010      0.00000
     89      -0.2353      0.00000
     90      -0.2149      0.00000
     91      -0.1846      0.00000
     92      -0.1351      0.00000
     93      -0.0982      0.00000
     94      -0.0316      0.00000
     95       0.0225      0.00000
     96       0.3762      0.00000
     97       0.4514      0.00000
     98       0.5337      0.00000
     99       0.5433      0.00000
    100       0.5609      0.00000
    101       0.7295      0.00000
    102       0.8502      0.00000
    103       0.9031      0.00000
    104       0.9991      0.00000
    105       1.0040      0.00000
    106       1.0906      0.00000
    107       1.1419      0.00000
    108       1.2084      0.00000
    109       1.2401      0.00000
    110       1.3075      0.00000
    111       1.3223      0.00000
    112       1.4004      0.00000
    113       1.4027      0.00000
    114       1.4209      0.00000
    115       1.4649      0.00000
    116       1.4920      0.00000
    117       1.5359      0.00000
    118       1.5571      0.00000
    119       1.5663      0.00000
    120       1.6889      0.00000
    121       1.6941      0.00000
    122       1.7007      0.00000
    123       1.7024      0.00000
    124       1.7398      0.00000
    125       1.7484      0.00000
    126       1.7626      0.00000

 k-point    16 :      -0.3846    0.0769    0.0000
  band No.  band energies     occupation 
      1     -13.5134      2.00000
      2     -13.1215      2.00000
      3     -13.0636      2.00000
      4     -12.7383      2.00000
      5     -12.2948      2.00000
      6     -12.0174      2.00000
      7     -11.9520      2.00000
      8     -11.8465      2.00000
      9     -11.6025      2.00000
     10     -11.5846      2.00000
     11     -11.5812      2.00000
     12     -11.2358      2.00000
     13     -10.9670      2.00000
     14     -10.9266      2.00000
     15     -10.8641      2.00000
     16     -10.7261      2.00000
     17     -10.7179      2.00000
     18     -10.5245      2.00000
     19     -10.4069      2.00000
     20     -10.3854      2.00000
     21     -10.0413      2.00000
     22      -9.8508      2.00000
     23      -9.7054      2.00000
     24      -9.6534      2.00000
     25      -9.5354      2.00000
     26      -9.4293      2.00000
     27      -9.3639      2.00000
     28      -9.2747      2.00000
     29      -9.0874      2.00000
     30      -9.0135      2.00000
     31      -8.9923      2.00000
     32      -8.7791      2.00000
     33      -8.7704      2.00000
     34      -8.7447      2.00000
     35      -8.7360      2.00000
     36      -8.4523      2.00000
     37      -8.4467      2.00000
     38      -8.3935      2.00000
     39      -8.3916      2.00000
     40      -8.3712      2.00000
     41      -8.2550      2.00000
     42      -8.1890      2.00000
     43      -8.0960      2.00000
     44      -7.9474      2.00000
     45      -7.9055      2.00000
     46      -7.7491      2.00000
     47      -7.7063      2.00000
     48      -7.6810      2.00000
     49      -7.6311      2.00000
     50      -7.5933      2.00000
     51      -7.5858      2.00000
     52      -7.4596      2.00000
     53      -7.2468      2.00000
     54      -7.1864      2.00000
     55      -7.1476      2.00000
     56      -7.0649      2.00000
     57      -7.0278      2.00000
     58      -6.9762      2.00000
     59      -6.6375      2.00000
     60      -6.5749      2.00000
     61      -6.5680      2.00000
     62      -6.5133      2.00000
     63      -6.2922      2.00000
     64      -6.1964      2.00000
     65      -5.5920      2.00000
     66      -5.1592      2.00000
     67      -5.0081      2.00000
     68      -4.9551      2.00000
     69      -4.7694      2.00000
     70      -4.6006      2.00000
     71      -4.5465      2.00000
     72      -4.1957      2.00000
     73      -3.9007      2.00000
     74      -3.5954      2.00000
     75      -3.5322      2.00000
     76      -3.0225      0.03363
     77      -2.5133      0.00000
     78      -2.1919      0.00000
     79      -1.9572      0.00000
     80      -1.7522      0.00000
     81      -1.7267      0.00000
     82      -1.5502      0.00000
     83      -1.4795      0.00000
     84      -1.4529      0.00000
     85      -1.1593      0.00000
     86      -0.4412      0.00000
     87      -0.3875      0.00000
     88      -0.3481      0.00000
     89      -0.3114      0.00000
     90      -0.1503      0.00000
     91      -0.1378      0.00000
     92      -0.0995      0.00000
     93      -0.0471      0.00000
     94      -0.0171      0.00000
     95       0.0079      0.00000
     96       0.1456      0.00000
     97       0.1740      0.00000
     98       0.2858      0.00000
     99       0.6948      0.00000
    100       0.7445      0.00000
    101       0.7584      0.00000
    102       0.7738      0.00000
    103       0.8808      0.00000
    104       0.8812      0.00000
    105       0.9371      0.00000
    106       1.0672      0.00000
    107       1.1213      0.00000
    108       1.1541      0.00000
    109       1.2925      0.00000
    110       1.2971      0.00000
    111       1.3083      0.00000
    112       1.3090      0.00000
    113       1.3666      0.00000
    114       1.3721      0.00000
    115       1.3724      0.00000
    116       1.4833      0.00000
    117       1.4840      0.00000
    118       1.5463      0.00000
    119       1.5922      0.00000
    120       1.6414      0.00000
    121       1.6544      0.00000
    122       1.7028      0.00000
    123       1.7138      0.00000
    124       1.7652      0.00000
    125       1.7996      0.00000
    126       1.8381      0.00000

 k-point    17 :      -0.3077    0.0769    0.0000
  band No.  band energies     occupation 
      1     -13.5677      2.00000
      2     -13.0535      2.00000
      3     -12.9940      2.00000
      4     -12.6754      2.00000
      5     -12.4124      2.00000
      6     -12.1159      2.00000
      7     -12.0741      2.00000
      8     -11.8044      2.00000
      9     -11.6589      2.00000
     10     -11.5792      2.00000
     11     -11.4696      2.00000
     12     -11.1652      2.00000
     13     -10.9776      2.00000
     14     -10.8947      2.00000
     15     -10.8185      2.00000
     16     -10.7209      2.00000
     17     -10.7079      2.00000
     18     -10.5547      2.00000
     19     -10.2636      2.00000
     20     -10.2604      2.00000
     21     -10.2235      2.00000
     22      -9.9129      2.00000
     23      -9.7156      2.00000
     24      -9.6951      2.00000
     25      -9.6555      2.00000
     26      -9.4121      2.00000
     27      -9.3741      2.00000
     28      -9.2427      2.00000
     29      -9.1535      2.00000
     30      -8.9433      2.00000
     31      -8.8825      2.00000
     32      -8.8468      2.00000
     33      -8.8357      2.00000
     34      -8.7731      2.00000
     35      -8.6196      2.00000
     36      -8.6051      2.00000
     37      -8.4979      2.00000
     38      -8.3818      2.00000
     39      -8.3310      2.00000
     40      -8.2834      2.00000
     41      -8.2153      2.00000
     42      -8.0892      2.00000
     43      -8.0320      2.00000
     44      -7.8688      2.00000
     45      -7.8610      2.00000
     46      -7.8130      2.00000
     47      -7.7977      2.00000
     48      -7.7096      2.00000
     49      -7.6959      2.00000
     50      -7.6812      2.00000
     51      -7.5367      2.00000
     52      -7.4696      2.00000
     53      -7.2128      2.00000
     54      -7.1023      2.00000
     55      -7.0485      2.00000
     56      -7.0257      2.00000
     57      -7.0040      2.00000
     58      -6.9820      2.00000
     59      -6.8757      2.00000
     60      -6.5863      2.00000
     61      -6.4963      2.00000
     62      -6.4629      2.00000
     63      -6.4011      2.00000
     64      -6.1420      2.00000
     65      -5.7867      2.00000
     66      -5.2881      2.00000
     67      -5.2241      2.00000
     68      -4.9328      2.00000
     69      -4.8318      2.00000
     70      -4.7883      2.00000
     71      -4.3933      2.00000
     72      -3.9221      2.00000
     73      -3.5728      2.00000
     74      -3.2742      2.00000
     75      -3.2165      1.99923
     76      -2.5956      0.00000
     77      -2.5849      0.00000
     78      -2.5342      0.00000
     79      -2.2570      0.00000
     80      -1.9833      0.00000
     81      -1.6850      0.00000
     82      -1.5880      0.00000
     83      -1.5213      0.00000
     84      -1.3956      0.00000
     85      -1.3680      0.00000
     86      -0.4962      0.00000
     87      -0.4662      0.00000
     88      -0.4252      0.00000
     89      -0.3872      0.00000
     90      -0.3230      0.00000
     91      -0.2565      0.00000
     92      -0.1414      0.00000
     93      -0.0245      0.00000
     94      -0.0049      0.00000
     95       0.1136      0.00000
     96       0.1317      0.00000
     97       0.1384      0.00000
     98       0.2686      0.00000
     99       0.4263      0.00000
    100       0.5636      0.00000
    101       0.6751      0.00000
    102       0.6855      0.00000
    103       0.8299      0.00000
    104       0.9589      0.00000
    105       1.0002      0.00000
    106       1.0021      0.00000
    107       1.1933      0.00000
    108       1.1975      0.00000
    109       1.2318      0.00000
    110       1.2336      0.00000
    111       1.2986      0.00000
    112       1.3141      0.00000
    113       1.3647      0.00000
    114       1.3768      0.00000
    115       1.4111      0.00000
    116       1.4707      0.00000
    117       1.5393      0.00000
    118       1.5536      0.00000
    119       1.5666      0.00000
    120       1.5798      0.00000
    121       1.6017      0.00000
    122       1.6429      0.00000
    123       1.7893      0.00000
    124       1.8725      0.00000
    125       1.9056      0.00000
    126       1.9115      0.00000

 k-point    18 :      -0.2308    0.0769    0.0000
  band No.  band energies     occupation 
      1     -13.6080      2.00000
      2     -13.0293      2.00000
      3     -12.8532      2.00000
      4     -12.5990      2.00000
      5     -12.5162      2.00000
      6     -12.2675      2.00000
      7     -12.1160      2.00000
      8     -12.0166      2.00000
      9     -11.5594      2.00000
     10     -11.4590      2.00000
     11     -11.3233      2.00000
     12     -11.0809      2.00000
     13     -11.0773      2.00000
     14     -10.8995      2.00000
     15     -10.8091      2.00000
     16     -10.7128      2.00000
     17     -10.7112      2.00000
     18     -10.4808      2.00000
     19     -10.4767      2.00000
     20     -10.1672      2.00000
     21     -10.0292      2.00000
     22      -9.9938      2.00000
     23      -9.8457      2.00000
     24      -9.5939      2.00000
     25      -9.5740      2.00000
     26      -9.4970      2.00000
     27      -9.4638      2.00000
     28      -9.3837      2.00000
     29      -9.1183      2.00000
     30      -8.9390      2.00000
     31      -8.9264      2.00000
     32      -8.8965      2.00000
     33      -8.8468      2.00000
     34      -8.8030      2.00000
     35      -8.6776      2.00000
     36      -8.5380      2.00000
     37      -8.3751      2.00000
     38      -8.2815      2.00000
     39      -8.2391      2.00000
     40      -8.2089      2.00000
     41      -8.1867      2.00000
     42      -8.0714      2.00000
     43      -7.9881      2.00000
     44      -7.9569      2.00000
     45      -7.9057      2.00000
     46      -7.8344      2.00000
     47      -7.7866      2.00000
     48      -7.7259      2.00000
     49      -7.6951      2.00000
     50      -7.6724      2.00000
     51      -7.6482      2.00000
     52      -7.3365      2.00000
     53      -7.1871      2.00000
     54      -7.0966      2.00000
     55      -7.0726      2.00000
     56      -7.0582      2.00000
     57      -7.0216      2.00000
     58      -7.0144      2.00000
     59      -6.8640      2.00000
     60      -6.7628      2.00000
     61      -6.3905      2.00000
     62      -6.3458      2.00000
     63      -6.2743      2.00000
     64      -6.0501      2.00000
     65      -5.9667      2.00000
     66      -5.5597      2.00000
     67      -5.4834      2.00000
     68      -5.2374      2.00000
     69      -5.0135      2.00000
     70      -4.4896      2.00000
     71      -4.0062      2.00000
     72      -3.6374      2.00000
     73      -3.2299      1.99982
     74      -2.9826      0.00114
     75      -2.9573      0.00007
     76      -2.9030      0.00000
     77      -2.5732      0.00000
     78      -2.5389      0.00000
     79      -2.2949      0.00000
     80      -2.1527      0.00000
     81      -1.8691      0.00000
     82      -1.6873      0.00000
     83      -1.5811      0.00000
     84      -1.4416      0.00000
     85      -1.2284      0.00000
     86      -0.8776      0.00000
     87      -0.6048      0.00000
     88      -0.5366      0.00000
     89      -0.4648      0.00000
     90      -0.4423      0.00000
     91      -0.2041      0.00000
     92      -0.1867      0.00000
     93       0.0099      0.00000
     94       0.0489      0.00000
     95       0.1166      0.00000
     96       0.1541      0.00000
     97       0.2566      0.00000
     98       0.2716      0.00000
     99       0.3843      0.00000
    100       0.3933      0.00000
    101       0.4865      0.00000
    102       0.6317      0.00000
    103       0.6361      0.00000
    104       0.8537      0.00000
    105       0.8655      0.00000
    106       1.0100      0.00000
    107       1.0921      0.00000
    108       1.1784      0.00000
    109       1.1841      0.00000
    110       1.2444      0.00000
    111       1.3368      0.00000
    112       1.3524      0.00000
    113       1.3790      0.00000
    114       1.4553      0.00000
    115       1.5084      0.00000
    116       1.5248      0.00000
    117       1.5529      0.00000
    118       1.5786      0.00000
    119       1.5804      0.00000
    120       1.5907      0.00000
    121       1.6627      0.00000
    122       1.7597      0.00000
    123       1.9141      0.00000
    124       1.9274      0.00000
    125       1.9373      0.00000
    126       1.9553      0.00000

 k-point    19 :      -0.1538    0.0769    0.0000
  band No.  band energies     occupation 
      1     -13.6342      2.00000
      2     -12.9911      2.00000
      3     -12.6993      2.00000
      4     -12.6062      2.00000
      5     -12.5093      2.00000
      6     -12.4066      2.00000
      7     -12.2172      2.00000
      8     -12.1431      2.00000
      9     -11.5250      2.00000
     10     -11.2474      2.00000
     11     -11.1639      2.00000
     12     -11.1631      2.00000
     13     -10.9832      2.00000
     14     -10.9687      2.00000
     15     -10.8587      2.00000
     16     -10.7104      2.00000
     17     -10.6893      2.00000
     18     -10.6798      2.00000
     19     -10.4146      2.00000
     20     -10.2461      2.00000
     21      -9.9859      2.00000
     22      -9.8247      2.00000
     23      -9.7519      2.00000
     24      -9.7272      2.00000
     25      -9.5434      2.00000
     26      -9.5210      2.00000
     27      -9.4273      2.00000
     28      -9.3445      2.00000
     29      -9.2931      2.00000
     30      -9.0722      2.00000
     31      -9.0292      2.00000
     32      -9.0141      2.00000
     33      -8.9281      2.00000
     34      -8.7221      2.00000
     35      -8.4759      2.00000
     36      -8.3510      2.00000
     37      -8.3124      2.00000
     38      -8.2847      2.00000
     39      -8.2610      2.00000
     40      -8.1028      2.00000
     41      -8.0961      2.00000
     42      -8.0876      2.00000
     43      -8.0366      2.00000
     44      -7.9662      2.00000
     45      -7.9632      2.00000
     46      -7.9029      2.00000
     47      -7.7930      2.00000
     48      -7.7066      2.00000
     49      -7.7046      2.00000
     50      -7.6967      2.00000
     51      -7.5297      2.00000
     52      -7.3002      2.00000
     53      -7.2343      2.00000
     54      -7.1704      2.00000
     55      -7.1251      2.00000
     56      -7.0581      2.00000
     57      -7.0571      2.00000
     58      -7.0293      2.00000
     59      -7.0258      2.00000
     60      -6.5294      2.00000
     61      -6.2601      2.00000
     62      -6.2163      2.00000
     63      -6.1322      2.00000
     64      -6.1291      2.00000
     65      -5.9214      2.00000
     66      -5.8217      2.00000
     67      -5.7304      2.00000
     68      -5.5127      2.00000
     69      -5.2219      2.00000
     70      -4.1336      2.00000
     71      -3.6109      2.00000
     72      -3.3775      2.00000
     73      -3.3433      2.00000
     74      -2.8942      0.00000
     75      -2.8723      0.00000
     76      -2.6555      0.00000
     77      -2.6477      0.00000
     78      -2.5963      0.00000
     79      -2.5284      0.00000
     80      -2.0940      0.00000
     81      -1.9932      0.00000
     82      -1.6976      0.00000
     83      -1.6317      0.00000
     84      -1.2895      0.00000
     85      -1.2791      0.00000
     86      -1.0570      0.00000
     87      -0.9363      0.00000
     88      -0.5625      0.00000
     89      -0.5458      0.00000
     90      -0.4471      0.00000
     91      -0.4382      0.00000
     92      -0.0984      0.00000
     93      -0.0062      0.00000
     94       0.0749      0.00000
     95       0.1151      0.00000
     96       0.2434      0.00000
     97       0.2796      0.00000
     98       0.3238      0.00000
     99       0.4108      0.00000
    100       0.4245      0.00000
    101       0.4362      0.00000
    102       0.5210      0.00000
    103       0.5969      0.00000
    104       0.7109      0.00000
    105       0.7266      0.00000
    106       0.7779      0.00000
    107       0.8286      0.00000
    108       1.1427      0.00000
    109       1.2094      0.00000
    110       1.3111      0.00000
    111       1.3703      0.00000
    112       1.4166      0.00000
    113       1.4384      0.00000
    114       1.4893      0.00000
    115       1.5571      0.00000
    116       1.5622      0.00000
    117       1.5968      0.00000
    118       1.6153      0.00000
    119       1.6207      0.00000
    120       1.8006      0.00000
    121       1.8185      0.00000
    122       1.8304      0.00000
    123       1.8473      0.00000
    124       1.8726      0.00000
    125       1.9604      0.00000
    126       2.0610      0.00000

 k-point    20 :      -0.0769    0.0769    0.0000
  band No.  band energies     occupation 
      1     -13.6462      2.00000
      2     -12.9388      2.00000
      3     -12.6822      2.00000
      4     -12.5330      2.00000
      5     -12.5322      2.00000
      6     -12.4066      2.00000
      7     -12.4057      2.00000
      8     -12.1554      2.00000
      9     -11.4761      2.00000
     10     -11.2348      2.00000
     11     -11.0261      2.00000
     12     -11.0246      2.00000
     13     -10.9925      2.00000
     14     -10.9916      2.00000
     15     -10.8726      2.00000
     16     -10.8716      2.00000
     17     -10.6551      2.00000
     18     -10.6536      2.00000
     19     -10.5987      2.00000
     20     -10.1150      2.00000
     21     -10.0052      2.00000
     22     -10.0049      2.00000
     23      -9.6124      2.00000
     24      -9.6111      2.00000
     25      -9.4659      2.00000
     26      -9.4643      2.00000
     27      -9.4372      2.00000
     28      -9.2946      2.00000
     29      -9.2932      2.00000
     30      -9.2767      2.00000
     31      -9.2748      2.00000
     32      -9.0968      2.00000
     33      -8.9418      2.00000
     34      -8.5051      2.00000
     35      -8.5046      2.00000
     36      -8.3097      2.00000
     37      -8.2821      2.00000
     38      -8.2807      2.00000
     39      -8.1029      2.00000
     40      -8.1013      2.00000
     41      -8.0997      2.00000
     42      -8.0315      2.00000
     43      -8.0306      2.00000
     44      -7.9689      2.00000
     45      -7.9672      2.00000
     46      -7.9552      2.00000
     47      -7.9529      2.00000
     48      -7.7332      2.00000
     49      -7.7312      2.00000
     50      -7.4867      2.00000
     51      -7.4857      2.00000
     52      -7.3699      2.00000
     53      -7.3688      2.00000
     54      -7.1637      2.00000
     55      -7.1622      2.00000
     56      -7.0574      2.00000
     57      -7.0563      2.00000
     58      -7.0464      2.00000
     59      -7.0274      2.00000
     60      -6.2833      2.00000
     61      -6.2820      2.00000
     62      -6.1074      2.00000
     63      -6.0743      2.00000
     64      -6.0730      2.00000
     65      -5.9620      2.00000
     66      -5.9607      2.00000
     67      -5.7592      2.00000
     68      -5.7580      2.00000
     69      -5.4130      2.00000
     70      -3.7655      2.00000
     71      -3.7645      2.00000
     72      -3.2133      1.99894
     73      -3.2114      1.99872
     74      -3.0422      0.11755
     75      -3.0402      0.10444
     76      -2.5038      0.00000
     77      -2.5007      0.00000
     78      -2.3498      0.00000
     79      -2.3477      0.00000
     80      -2.3026      0.00000
     81      -2.3008      0.00000
     82      -1.6726      0.00000
     83      -1.6694      0.00000
     84      -1.2373      0.00000
     85      -1.2349      0.00000
     86      -1.1328      0.00000
     87      -0.8509      0.00000
     88      -0.8484      0.00000
     89      -0.6314      0.00000
     90      -0.5735      0.00000
     91      -0.4126      0.00000
     92      -0.1859      0.00000
     93       0.1414      0.00000
     94       0.1433      0.00000
     95       0.1919      0.00000
     96       0.1935      0.00000
     97       0.2461      0.00000
     98       0.2502      0.00000
     99       0.4601      0.00000
    100       0.4645      0.00000
    101       0.5748      0.00000
    102       0.5752      0.00000
    103       0.5812      0.00000
    104       0.5864      0.00000
    105       0.5889      0.00000
    106       0.6524      0.00000
    107       0.6529      0.00000
    108       1.1266      0.00000
    109       1.1937      0.00000
    110       1.2900      0.00000
    111       1.3570      0.00000
    112       1.4547      0.00000
    113       1.4732      0.00000
    114       1.5423      0.00000
    115       1.6502      0.00000
    116       1.6524      0.00000
    117       1.6760      0.00000
    118       1.6778      0.00000
    119       1.6838      0.00000
    120       1.7462      0.00000
    121       1.8350      0.00000
    122       1.8368      0.00000
    123       1.9449      0.00000
    124       1.9473      0.00000
    125       2.1481      0.00000
    126       2.1649      0.00000

 k-point    21 :       0.0000    0.1538    0.0000
  band No.  band energies     occupation 
      1     -13.6229      2.00000
      2     -12.9156      2.00000
      3     -12.8045      2.00000
      4     -12.6769      2.00000
      5     -12.6592      2.00000
      6     -12.2189      2.00000
      7     -12.1305      2.00000
      8     -12.0942      2.00000
      9     -11.4516      2.00000
     10     -11.2862      2.00000
     11     -11.2767      2.00000
     12     -11.2105      2.00000
     13     -11.1548      2.00000
     14     -10.9104      2.00000
     15     -10.7281      2.00000
     16     -10.6668      2.00000
     17     -10.5764      2.00000
     18     -10.5495      2.00000
     19     -10.4932      2.00000
     20     -10.3638      2.00000
     21     -10.0934      2.00000
     22      -9.9010      2.00000
     23      -9.8761      2.00000
     24      -9.6885      2.00000
     25      -9.5510      2.00000
     26      -9.5073      2.00000
     27      -9.4146      2.00000
     28      -9.3151      2.00000
     29      -9.0752      2.00000
     30      -9.0451      2.00000
     31      -9.0075      2.00000
     32      -8.9494      2.00000
     33      -8.9104      2.00000
     34      -8.8898      2.00000
     35      -8.4842      2.00000
     36      -8.4640      2.00000
     37      -8.2969      2.00000
     38      -8.2784      2.00000
     39      -8.2223      2.00000
     40      -8.1289      2.00000
     41      -8.0782      2.00000
     42      -8.0686      2.00000
     43      -8.0627      2.00000
     44      -7.9090      2.00000
     45      -7.8604      2.00000
     46      -7.8297      2.00000
     47      -7.8257      2.00000
     48      -7.7900      2.00000
     49      -7.7795      2.00000
     50      -7.7429      2.00000
     51      -7.6989      2.00000
     52      -7.2558      2.00000
     53      -7.1383      2.00000
     54      -7.1200      2.00000
     55      -7.0528      2.00000
     56      -7.0509      2.00000
     57      -7.0159      2.00000
     58      -6.9971      2.00000
     59      -6.9350      2.00000
     60      -6.6510      2.00000
     61      -6.4388      2.00000
     62      -6.3319      2.00000
     63      -6.1367      2.00000
     64      -6.0785      2.00000
     65      -5.8556      2.00000
     66      -5.6508      2.00000
     67      -5.5305      2.00000
     68      -5.3851      2.00000
     69      -5.3180      2.00000
     70      -4.5026      2.00000
     71      -3.9203      2.00000
     72      -3.7326      2.00000
     73      -2.9945      0.00356
     74      -2.9317      0.00000
     75      -2.9056      0.00000
     76      -2.8265      0.00000
     77      -2.5025      0.00000
     78      -2.3650      0.00000
     79      -2.1321      0.00000
     80      -1.9954      0.00000
     81      -1.9581      0.00000
     82      -1.8277      0.00000
     83      -1.7413      0.00000
     84      -1.4881      0.00000
     85      -1.3037      0.00000
     86      -1.1023      0.00000
     87      -0.6016      0.00000
     88      -0.5475      0.00000
     89      -0.4610      0.00000
     90      -0.3888      0.00000
     91      -0.2248      0.00000
     92      -0.1630      0.00000
     93      -0.1497      0.00000
     94       0.0169      0.00000
     95       0.0368      0.00000
     96       0.0637      0.00000
     97       0.2898      0.00000
     98       0.3015      0.00000
     99       0.3628      0.00000
    100       0.3961      0.00000
    101       0.4546      0.00000
    102       0.6133      0.00000
    103       0.7495      0.00000
    104       0.8885      0.00000
    105       0.9109      0.00000
    106       0.9686      0.00000
    107       0.9719      0.00000
    108       1.1595      0.00000
    109       1.2262      0.00000
    110       1.3110      0.00000
    111       1.3820      0.00000
    112       1.4504      0.00000
    113       1.4659      0.00000
    114       1.4858      0.00000
    115       1.5060      0.00000
    116       1.5126      0.00000
    117       1.5743      0.00000
    118       1.7052      0.00000
    119       1.7158      0.00000
    120       1.7225      0.00000
    121       1.7771      0.00000
    122       1.8296      0.00000
    123       1.8440      0.00000
    124       1.8772      0.00000
    125       1.9882      0.00000
    126       2.0360      0.00000

 k-point    22 :       0.0769    0.1538    0.0000
  band No.  band energies     occupation 
      1     -13.5975      2.00000
      2     -12.8961      2.00000
      3     -12.8320      2.00000
      4     -12.8262      2.00000
      5     -12.6982      2.00000
      6     -12.1030      2.00000
      7     -12.0197      2.00000
      8     -11.9580      2.00000
      9     -11.3757      2.00000
     10     -11.3638      2.00000
     11     -11.3143      2.00000
     12     -11.3110      2.00000
     13     -11.2435      2.00000
     14     -11.1220      2.00000
     15     -10.7337      2.00000
     16     -10.4800      2.00000
     17     -10.4644      2.00000
     18     -10.4301      2.00000
     19     -10.4067      2.00000
     20     -10.3004      2.00000
     21     -10.1889      2.00000
     22     -10.0667      2.00000
     23      -9.9557      2.00000
     24      -9.9146      2.00000
     25      -9.7503      2.00000
     26      -9.2986      2.00000
     27      -9.2610      2.00000
     28      -9.1758      2.00000
     29      -9.1289      2.00000
     30      -9.0830      2.00000
     31      -8.9326      2.00000
     32      -8.8747      2.00000
     33      -8.8171      2.00000
     34      -8.7512      2.00000
     35      -8.6131      2.00000
     36      -8.5226      2.00000
     37      -8.4921      2.00000
     38      -8.3524      2.00000
     39      -8.1887      2.00000
     40      -8.1653      2.00000
     41      -8.0838      2.00000
     42      -7.9995      2.00000
     43      -7.9981      2.00000
     44      -7.9392      2.00000
     45      -7.9233      2.00000
     46      -7.8812      2.00000
     47      -7.8809      2.00000
     48      -7.8789      2.00000
     49      -7.7580      2.00000
     50      -7.6442      2.00000
     51      -7.6113      2.00000
     52      -7.2861      2.00000
     53      -7.2084      2.00000
     54      -7.1295      2.00000
     55      -7.0924      2.00000
     56      -6.9648      2.00000
     57      -6.9554      2.00000
     58      -6.7849      2.00000
     59      -6.7573      2.00000
     60      -6.7273      2.00000
     61      -6.6500      2.00000
     62      -6.5127      2.00000
     63      -6.3228      2.00000
     64      -5.8768      2.00000
     65      -5.5676      2.00000
     66      -5.5302      2.00000
     67      -5.4664      2.00000
     68      -5.3056      2.00000
     69      -5.0926      2.00000
     70      -4.8582      2.00000
     71      -4.2166      2.00000
     72      -4.1196      2.00000
     73      -3.2205      1.99949
     74      -3.2104      1.99859
     75      -2.7642      0.00000
     76      -2.6068      0.00000
     77      -2.3481      0.00000
     78      -2.1823      0.00000
     79      -2.1408      0.00000
     80      -2.0877      0.00000
     81      -1.9295      0.00000
     82      -1.7278      0.00000
     83      -1.5861      0.00000
     84      -1.5319      0.00000
     85      -1.3157      0.00000
     86      -0.9136      0.00000
     87      -0.6618      0.00000
     88      -0.5179      0.00000
     89      -0.3181      0.00000
     90      -0.2568      0.00000
     91      -0.2058      0.00000
     92      -0.1928      0.00000
     93      -0.0770      0.00000
     94      -0.0543      0.00000
     95       0.0342      0.00000
     96       0.1687      0.00000
     97       0.1787      0.00000
     98       0.1835      0.00000
     99       0.2146      0.00000
    100       0.5777      0.00000
    101       0.6067      0.00000
    102       0.6488      0.00000
    103       1.0678      0.00000
    104       1.0695      0.00000
    105       1.1000      0.00000
    106       1.1094      0.00000
    107       1.1708      0.00000
    108       1.1958      0.00000
    109       1.2624      0.00000
    110       1.3300      0.00000
    111       1.3350      0.00000
    112       1.3739      0.00000
    113       1.4116      0.00000
    114       1.4949      0.00000
    115       1.5341      0.00000
    116       1.5422      0.00000
    117       1.5911      0.00000
    118       1.5926      0.00000
    119       1.6102      0.00000
    120       1.6165      0.00000
    121       1.6697      0.00000
    122       1.7398      0.00000
    123       1.7700      0.00000
    124       1.8542      0.00000
    125       1.9267      0.00000
    126       1.9466      0.00000

 k-point    23 :       0.1538    0.1538    0.0000
  band No.  band energies     occupation 
      1     -13.5579      2.00000
      2     -12.9745      2.00000
      3     -12.9734      2.00000
      4     -12.7237      2.00000
      5     -12.7224      2.00000
      6     -12.0607      2.00000
      7     -11.8099      2.00000
      8     -11.8087      2.00000
      9     -11.4611      2.00000
     10     -11.4603      2.00000
     11     -11.3231      2.00000
     12     -11.3217      2.00000
     13     -11.2625      2.00000
     14     -11.2616      2.00000
     15     -10.9663      2.00000
     16     -10.2721      2.00000
     17     -10.2716      2.00000
     18     -10.2527      2.00000
     19     -10.2518      2.00000
     20     -10.2264      2.00000
     21     -10.2250      2.00000
     22     -10.2243      2.00000
     23     -10.2229      2.00000
     24      -9.9408      2.00000
     25      -9.9399      2.00000
     26      -9.3990      2.00000
     27      -9.1743      2.00000
     28      -9.1739      2.00000
     29      -9.0158      2.00000
     30      -8.8496      2.00000
     31      -8.8481      2.00000
     32      -8.8209      2.00000
     33      -8.7596      2.00000
     34      -8.7580      2.00000
     35      -8.6182      2.00000
     36      -8.6160      2.00000
     37      -8.5184      2.00000
     38      -8.4775      2.00000
     39      -8.2050      2.00000
     40      -8.2028      2.00000
     41      -8.1188      2.00000
     42      -8.1176      2.00000
     43      -8.0830      2.00000
     44      -8.0814      2.00000
     45      -8.0024      2.00000
     46      -8.0008      2.00000
     47      -7.7363      2.00000
     48      -7.6908      2.00000
     49      -7.6787      2.00000
     50      -7.5330      2.00000
     51      -7.5312      2.00000
     52      -7.3259      2.00000
     53      -7.3247      2.00000
     54      -7.1458      2.00000
     55      -7.1445      2.00000
     56      -6.9049      2.00000
     57      -6.9036      2.00000
     58      -6.8498      2.00000
     59      -6.8481      2.00000
     60      -6.6671      2.00000
     61      -6.5028      2.00000
     62      -6.5016      2.00000
     63      -6.4799      2.00000
     64      -5.6575      2.00000
     65      -5.6551      2.00000
     66      -5.2697      2.00000
     67      -5.2677      2.00000
     68      -5.1992      2.00000
     69      -5.0560      2.00000
     70      -4.8391      2.00000
     71      -4.5003      2.00000
     72      -4.4983      2.00000
     73      -3.5116      2.00000
     74      -3.5103      2.00000
     75      -2.6895      0.00000
     76      -2.6857      0.00000
     77      -2.3728      0.00000
     78      -2.3697      0.00000
     79      -2.2206      0.00000
     80      -1.8420      0.00000
     81      -1.8389      0.00000
     82      -1.3824      0.00000
     83      -1.3787      0.00000
     84      -1.3185      0.00000
     85      -1.3141      0.00000
     86      -0.7273      0.00000
     87      -0.7243      0.00000
     88      -0.4737      0.00000
     89      -0.3222      0.00000
     90      -0.3194      0.00000
     91      -0.2279      0.00000
     92      -0.2249      0.00000
     93      -0.0938      0.00000
     94      -0.0932      0.00000
     95       0.0701      0.00000
     96       0.0772      0.00000
     97       0.0779      0.00000
     98       0.4563      0.00000
     99       0.4571      0.00000
    100       0.7033      0.00000
    101       0.7717      0.00000
    102       0.7743      0.00000
    103       1.2193      0.00000
    104       1.2488      0.00000
    105       1.2498      0.00000
    106       1.2517      0.00000
    107       1.2883      0.00000
    108       1.3075      0.00000
    109       1.3110      0.00000
    110       1.3178      0.00000
    111       1.3647      0.00000
    112       1.3686      0.00000
    113       1.3848      0.00000
    114       1.3859      0.00000
    115       1.4782      0.00000
    116       1.4786      0.00000
    117       1.4867      0.00000
    118       1.5372      0.00000
    119       1.5455      0.00000
    120       1.5485      0.00000
    121       1.5979      0.00000
    122       1.6648      0.00000
    123       1.7196      0.00000
    124       1.7200      0.00000
    125       1.8276      0.00000
    126       2.0142      0.00000

 k-point    24 :       0.2308    0.1538    0.0000
  band No.  band energies     occupation 
      1     -13.5044      2.00000
      2     -13.1022      2.00000
      3     -13.0385      2.00000
      4     -12.7343      2.00000
      5     -12.6058      2.00000
      6     -12.0036      2.00000
      7     -11.6491      2.00000
      8     -11.5934      2.00000
      9     -11.5873      2.00000
     10     -11.5321      2.00000
     11     -11.5098      2.00000
     12     -11.3216      2.00000
     13     -11.2667      2.00000
     14     -11.1899      2.00000
     15     -11.1461      2.00000
     16     -10.4886      2.00000
     17     -10.3745      2.00000
     18     -10.3429      2.00000
     19     -10.1415      2.00000
     20     -10.1190      2.00000
     21     -10.1016      2.00000
     22     -10.0876      2.00000
     23     -10.0306      2.00000
     24      -9.9631      2.00000
     25      -9.9545      2.00000
     26      -9.6172      2.00000
     27      -9.2105      2.00000
     28      -9.0418      2.00000
     29      -8.9992      2.00000
     30      -8.9018      2.00000
     31      -8.7748      2.00000
     32      -8.7589      2.00000
     33      -8.7492      2.00000
     34      -8.6530      2.00000
     35      -8.6131      2.00000
     36      -8.5093      2.00000
     37      -8.4932      2.00000
     38      -8.4528      2.00000
     39      -8.4304      2.00000
     40      -8.2793      2.00000
     41      -8.2459      2.00000
     42      -8.2208      2.00000
     43      -8.1410      2.00000
     44      -8.1318      2.00000
     45      -8.0639      2.00000
     46      -7.9586      2.00000
     47      -7.6728      2.00000
     48      -7.5447      2.00000
     49      -7.5172      2.00000
     50      -7.4683      2.00000
     51      -7.4642      2.00000
     52      -7.4529      2.00000
     53      -7.3743      2.00000
     54      -7.2126      2.00000
     55      -7.1882      2.00000
     56      -7.0340      2.00000
     57      -6.9272      2.00000
     58      -6.8435      2.00000
     59      -6.8343      2.00000
     60      -6.7928      2.00000
     61      -6.6077      2.00000
     62      -6.2607      2.00000
     63      -6.2024      2.00000
     64      -5.7635      2.00000
     65      -5.5249      2.00000
     66      -5.4167      2.00000
     67      -5.0592      2.00000
     68      -4.9586      2.00000
     69      -4.8672      2.00000
     70      -4.7836      2.00000
     71      -4.7696      2.00000
     72      -4.5584      2.00000
     73      -3.8070      2.00000
     74      -3.8010      2.00000
     75      -3.0105      0.01376
     76      -2.8035      0.00000
     77      -2.5999      0.00000
     78      -2.5305      0.00000
     79      -1.8452      0.00000
     80      -1.6495      0.00000
     81      -1.6379      0.00000
     82      -1.3118      0.00000
     83      -1.3099      0.00000
     84      -1.2472      0.00000
     85      -0.8951      0.00000
     86      -0.7933      0.00000
     87      -0.5411      0.00000
     88      -0.4149      0.00000
     89      -0.3423      0.00000
     90      -0.3370      0.00000
     91      -0.2249      0.00000
     92      -0.1537      0.00000
     93      -0.1381      0.00000
     94      -0.1138      0.00000
     95      -0.0474      0.00000
     96      -0.0378      0.00000
     97      -0.0140      0.00000
     98       0.7769      0.00000
     99       0.8121      0.00000
    100       0.8525      0.00000
    101       0.9434      0.00000
    102       0.9584      0.00000
    103       1.1139      0.00000
    104       1.1370      0.00000
    105       1.1416      0.00000
    106       1.2091      0.00000
    107       1.3058      0.00000
    108       1.3248      0.00000
    109       1.3271      0.00000
    110       1.3371      0.00000
    111       1.3841      0.00000
    112       1.3854      0.00000
    113       1.3925      0.00000
    114       1.4183      0.00000
    115       1.4213      0.00000
    116       1.4597      0.00000
    117       1.4647      0.00000
    118       1.5471      0.00000
    119       1.5994      0.00000
    120       1.6070      0.00000
    121       1.6731      0.00000
    122       1.7174      0.00000
    123       1.7381      0.00000
    124       1.7392      0.00000
    125       1.7613      0.00000
    126       1.8158      0.00000

 k-point    25 :       0.3077    0.1538    0.0000
  band No.  band energies     occupation 
      1     -13.4368      2.00000
      2     -13.2171      2.00000
      3     -13.0891      2.00000
      4     -12.7314      2.00000
      5     -12.4751      2.00000
      6     -11.9320      2.00000
      7     -11.7123      2.00000
      8     -11.6852      2.00000
      9     -11.5892      2.00000
     10     -11.4770      2.00000
     11     -11.4038      2.00000
     12     -11.3555      2.00000
     13     -11.3071      2.00000
     14     -11.2568      2.00000
     15     -11.0166      2.00000
     16     -10.7491      2.00000
     17     -10.5150      2.00000
     18     -10.4011      2.00000
     19     -10.2868      2.00000
     20     -10.0470      2.00000
     21      -9.9558      2.00000
     22      -9.9208      2.00000
     23      -9.9127      2.00000
     24      -9.8287      2.00000
     25      -9.8016      2.00000
     26      -9.6982      2.00000
     27      -9.2422      2.00000
     28      -9.2369      2.00000
     29      -9.0386      2.00000
     30      -8.9039      2.00000
     31      -8.8104      2.00000
     32      -8.6744      2.00000
     33      -8.6616      2.00000
     34      -8.6594      2.00000
     35      -8.5415      2.00000
     36      -8.5336      2.00000
     37      -8.4228      2.00000
     38      -8.3813      2.00000
     39      -8.3795      2.00000
     40      -8.3397      2.00000
     41      -8.3056      2.00000
     42      -8.3043      2.00000
     43      -8.2945      2.00000
     44      -8.2861      2.00000
     45      -8.0284      2.00000
     46      -7.8186      2.00000
     47      -7.6363      2.00000
     48      -7.6326      2.00000
     49      -7.4303      2.00000
     50      -7.4140      2.00000
     51      -7.4073      2.00000
     52      -7.4053      2.00000
     53      -7.3623      2.00000
     54      -7.2930      2.00000
     55      -7.2638      2.00000
     56      -7.2057      2.00000
     57      -6.9914      2.00000
     58      -6.8898      2.00000
     59      -6.7729      2.00000
     60      -6.7552      2.00000
     61      -6.7049      2.00000
     62      -6.0022      2.00000
     63      -5.8868      2.00000
     64      -5.8495      2.00000
     65      -5.8347      2.00000
     66      -5.2235      2.00000
     67      -5.1598      2.00000
     68      -5.0250      2.00000
     69      -4.8364      2.00000
     70      -4.6403      2.00000
     71      -4.4922      2.00000
     72      -4.2506      2.00000
     73      -4.0992      2.00000
     74      -4.0878      2.00000
     75      -3.3194      2.00000
     76      -3.2267      1.99974
     77      -2.6580      0.00000
     78      -2.4985      0.00000
     79      -1.5516      0.00000
     80      -1.5301      0.00000
     81      -1.4972      0.00000
     82      -1.3424      0.00000
     83      -1.2903      0.00000
     84      -1.2732      0.00000
     85      -0.8620      0.00000
     86      -0.4742      0.00000
     87      -0.3631      0.00000
     88      -0.3417      0.00000
     89      -0.3030      0.00000
     90      -0.2893      0.00000
     91      -0.2008      0.00000
     92      -0.1957      0.00000
     93      -0.1599      0.00000
     94      -0.1390      0.00000
     95      -0.0961      0.00000
     96      -0.0952      0.00000
     97       0.0187      0.00000
     98       0.7069      0.00000
     99       0.8695      0.00000
    100       1.0363      0.00000
    101       1.0844      0.00000
    102       1.0957      0.00000
    103       1.1060      0.00000
    104       1.1071      0.00000
    105       1.1086      0.00000
    106       1.1181      0.00000
    107       1.1515      0.00000
    108       1.1752      0.00000
    109       1.2090      0.00000
    110       1.3086      0.00000
    111       1.4222      0.00000
    112       1.4716      0.00000
    113       1.4866      0.00000
    114       1.5040      0.00000
    115       1.5154      0.00000
    116       1.5718      0.00000
    117       1.5736      0.00000
    118       1.5748      0.00000
    119       1.6003      0.00000
    120       1.6290      0.00000
    121       1.6426      0.00000
    122       1.7108      0.00000
    123       1.7141      0.00000
    124       1.7191      0.00000
    125       1.7425      0.00000
    126       1.7580      0.00000

 k-point    26 :       0.3846    0.1538    0.0000
  band No.  band energies     occupation 
      1     -13.3553      2.00000
      2     -13.3182      2.00000
      3     -13.1258      2.00000
      4     -12.7147      2.00000
      5     -12.3309      2.00000
      6     -11.8476      2.00000
      7     -11.8459      2.00000
      8     -11.8171      2.00000
      9     -11.6320      2.00000
     10     -11.6072      2.00000
     11     -11.2938      2.00000
     12     -11.2793      2.00000
     13     -11.2329      2.00000
     14     -11.1142      2.00000
     15     -11.0032      2.00000
     16     -10.8737      2.00000
     17     -10.6457      2.00000
     18     -10.4467      2.00000
     19     -10.4425      2.00000
     20     -10.0325      2.00000
     21      -9.9445      2.00000
     22      -9.9432      2.00000
     23      -9.7301      2.00000
     24      -9.7284      2.00000
     25      -9.5664      2.00000
     26      -9.4839      2.00000
     27      -9.4321      2.00000
     28      -9.2532      2.00000
     29      -9.1688      2.00000
     30      -8.9724      2.00000
     31      -8.9288      2.00000
     32      -8.7623      2.00000
     33      -8.5679      2.00000
     34      -8.5586      2.00000
     35      -8.5518      2.00000
     36      -8.5486      2.00000
     37      -8.5078      2.00000
     38      -8.4599      2.00000
     39      -8.3727      2.00000
     40      -8.3244      2.00000
     41      -8.3204      2.00000
     42      -8.2884      2.00000
     43      -8.2806      2.00000
     44      -8.1565      2.00000
     45      -7.9759      2.00000
     46      -7.8244      2.00000
     47      -7.6621      2.00000
     48      -7.6018      2.00000
     49      -7.4930      2.00000
     50      -7.3902      2.00000
     51      -7.3867      2.00000
     52      -7.3717      2.00000
     53      -7.3630      2.00000
     54      -7.3557      2.00000
     55      -7.3008      2.00000
     56      -7.2300      2.00000
     57      -7.0423      2.00000
     58      -6.9601      2.00000
     59      -6.7695      2.00000
     60      -6.6923      2.00000
     61      -6.6668      2.00000
     62      -6.1281      2.00000
     63      -5.9129      2.00000
     64      -5.7270      2.00000
     65      -5.5662      2.00000
     66      -5.5553      2.00000
     67      -5.2658      2.00000
     68      -4.8858      2.00000
     69      -4.6008      2.00000
     70      -4.3873      2.00000
     71      -4.3700      2.00000
     72      -4.3150      2.00000
     73      -4.1863      2.00000
     74      -3.9153      2.00000
     75      -3.6366      2.00000
     76      -3.6130      2.00000
     77      -2.7580      0.00000
     78      -2.3847      0.00000
     79      -1.5493      0.00000
     80      -1.4876      0.00000
     81      -1.4832      0.00000
     82      -1.4803      0.00000
     83      -1.2577      0.00000
     84      -1.2076      0.00000
     85      -0.9303      0.00000
     86      -0.2593      0.00000
     87      -0.2545      0.00000
     88      -0.2496      0.00000
     89      -0.2443      0.00000
     90      -0.2312      0.00000
     91      -0.1936      0.00000
     92      -0.1914      0.00000
     93      -0.1692      0.00000
     94      -0.1543      0.00000
     95      -0.0600      0.00000
     96       0.0886      0.00000
     97       0.1703      0.00000
     98       0.3300      0.00000
     99       0.8013      0.00000
    100       0.9006      0.00000
    101       0.9810      0.00000
    102       0.9867      0.00000
    103       1.0159      0.00000
    104       1.0258      0.00000
    105       1.0608      0.00000
    106       1.1783      0.00000
    107       1.2133      0.00000
    108       1.2170      0.00000
    109       1.2520      0.00000
    110       1.3176      0.00000
    111       1.3484      0.00000
    112       1.4181      0.00000
    113       1.4494      0.00000
    114       1.5367      0.00000
    115       1.5426      0.00000
    116       1.5438      0.00000
    117       1.5732      0.00000
    118       1.5998      0.00000
    119       1.6301      0.00000
    120       1.6350      0.00000
    121       1.6398      0.00000
    122       1.6806      0.00000
    123       1.6857      0.00000
    124       1.7079      0.00000
    125       1.8084      0.00000
    126       1.8173      0.00000

 k-point    27 :       0.4615    0.1538    0.0000
  band No.  band energies     occupation 
      1     -13.4054      2.00000
      2     -13.2600      2.00000
      3     -13.1486      2.00000
      4     -12.6842      2.00000
      5     -12.1733      2.00000
      6     -11.9969      2.00000
      7     -11.9077      2.00000
      8     -11.7996      2.00000
      9     -11.7455      2.00000
     10     -11.6604      2.00000
     11     -11.2494      2.00000
     12     -11.2381      2.00000
     13     -11.1948      2.00000
     14     -11.0997      2.00000
     15     -10.8646      2.00000
     16     -10.7660      2.00000
     17     -10.7177      2.00000
     18     -10.5858      2.00000
     19     -10.4795      2.00000
     20     -10.2272      2.00000
     21      -9.9206      2.00000
     22      -9.8309      2.00000
     23      -9.7220      2.00000
     24      -9.5362      2.00000
     25      -9.5304      2.00000
     26      -9.3269      2.00000
     27      -9.2914      2.00000
     28      -9.2591      2.00000
     29      -9.1885      2.00000
     30      -9.1682      2.00000
     31      -9.1351      2.00000
     32      -8.7334      2.00000
     33      -8.6566      2.00000
     34      -8.6343      2.00000
     35      -8.6194      2.00000
     36      -8.6138      2.00000
     37      -8.4512      2.00000
     38      -8.4263      2.00000
     39      -8.4221      2.00000
     40      -8.3595      2.00000
     41      -8.3058      2.00000
     42      -8.1988      2.00000
     43      -8.1168      2.00000
     44      -8.0279      2.00000
     45      -7.9434      2.00000
     46      -7.9062      2.00000
     47      -7.5792      2.00000
     48      -7.5617      2.00000
     49      -7.5097      2.00000
     50      -7.5058      2.00000
     51      -7.4930      2.00000
     52      -7.4893      2.00000
     53      -7.3985      2.00000
     54      -7.3145      2.00000
     55      -7.2068      2.00000
     56      -7.1241      2.00000
     57      -7.0801      2.00000
     58      -7.0084      2.00000
     59      -6.7985      2.00000
     60      -6.6015      2.00000
     61      -6.5688      2.00000
     62      -6.4049      2.00000
     63      -5.9516      2.00000
     64      -5.8944      2.00000
     65      -5.4917      2.00000
     66      -5.4355      2.00000
     67      -5.2088      2.00000
     68      -4.6704      2.00000
     69      -4.6462      2.00000
     70      -4.5950      2.00000
     71      -4.3528      2.00000
     72      -4.0305      2.00000
     73      -3.9849      2.00000
     74      -3.8912      2.00000
     75      -3.8705      2.00000
     76      -3.5528      2.00000
     77      -2.8329      0.00000
     78      -2.2590      0.00000
     79      -1.7993      0.00000
     80      -1.7130      0.00000
     81      -1.6055      0.00000
     82      -1.5115      0.00000
     83      -1.2103      0.00000
     84      -1.0401      0.00000
     85      -0.9966      0.00000
     86      -0.3452      0.00000
     87      -0.3118      0.00000
     88      -0.2773      0.00000
     89      -0.2345      0.00000
     90      -0.1972      0.00000
     91      -0.1534      0.00000
     92      -0.1361      0.00000
     93      -0.0859      0.00000
     94      -0.0322      0.00000
     95       0.0347      0.00000
     96       0.3299      0.00000
     97       0.3400      0.00000
     98       0.3672      0.00000
     99       0.4462      0.00000
    100       0.7064      0.00000
    101       0.7958      0.00000
    102       0.8990      0.00000
    103       0.9125      0.00000
    104       0.9722      0.00000
    105       1.0571      0.00000
    106       1.0647      0.00000
    107       1.1114      0.00000
    108       1.1391      0.00000
    109       1.1584      0.00000
    110       1.2142      0.00000
    111       1.2886      0.00000
    112       1.2925      0.00000
    113       1.3437      0.00000
    114       1.4530      0.00000
    115       1.5126      0.00000
    116       1.5636      0.00000
    117       1.6061      0.00000
    118       1.6234      0.00000
    119       1.6287      0.00000
    120       1.6709      0.00000
    121       1.7169      0.00000
    122       1.7324      0.00000
    123       1.7392      0.00000
    124       1.7768      0.00000
    125       1.7792      0.00000
    126       1.7836      0.00000

 k-point    28 :      -0.4615    0.1538    0.0000
  band No.  band energies     occupation 
      1     -13.4787      2.00000
      2     -13.1575      2.00000
      3     -13.1510      2.00000
      4     -12.6401      2.00000
      5     -12.1328      2.00000
      6     -12.0027      2.00000
      7     -11.9838      2.00000
      8     -11.9804      2.00000
      9     -11.6743      2.00000
     10     -11.6310      2.00000
     11     -11.4865      2.00000
     12     -11.1835      2.00000
     13     -11.1427      2.00000
     14     -10.8956      2.00000
     15     -10.8756      2.00000
     16     -10.7161      2.00000
     17     -10.6079      2.00000
     18     -10.5492      2.00000
     19     -10.4998      2.00000
     20     -10.4121      2.00000
     21      -9.9544      2.00000
     22      -9.8842      2.00000
     23      -9.7108      2.00000
     24      -9.4497      2.00000
     25      -9.4056      2.00000
     26      -9.3366      2.00000
     27      -9.3236      2.00000
     28      -9.2952      2.00000
     29      -9.2543      2.00000
     30      -9.0854      2.00000
     31      -8.9742      2.00000
     32      -8.9107      2.00000
     33      -8.8149      2.00000
     34      -8.7468      2.00000
     35      -8.6704      2.00000
     36      -8.4782      2.00000
     37      -8.4540      2.00000
     38      -8.3906      2.00000
     39      -8.3895      2.00000
     40      -8.3405      2.00000
     41      -8.2828      2.00000
     42      -8.2421      2.00000
     43      -8.1364      2.00000
     44      -7.9374      2.00000
     45      -7.8193      2.00000
     46      -7.7470      2.00000
     47      -7.6737      2.00000
     48      -7.6359      2.00000
     49      -7.6335      2.00000
     50      -7.6107      2.00000
     51      -7.5656      2.00000
     52      -7.4332      2.00000
     53      -7.3007      2.00000
     54      -7.2810      2.00000
     55      -7.1321      2.00000
     56      -7.1054      2.00000
     57      -7.0472      2.00000
     58      -7.0401      2.00000
     59      -6.7898      2.00000
     60      -6.6648      2.00000
     61      -6.5001      2.00000
     62      -6.4606      2.00000
     63      -6.2074      2.00000
     64      -5.9629      2.00000
     65      -5.7025      2.00000
     66      -5.1282      2.00000
     67      -4.9479      2.00000
     68      -4.9156      2.00000
     69      -4.8479      2.00000
     70      -4.4061      2.00000
     71      -4.2880      2.00000
     72      -4.1536      2.00000
     73      -4.0928      2.00000
     74      -3.6526      2.00000
     75      -3.5489      2.00000
     76      -3.1645      1.94148
     77      -2.8854      0.00000
     78      -2.1704      0.00000
     79      -2.1217      0.00000
     80      -1.9984      0.00000
     81      -1.7287      0.00000
     82      -1.5922      0.00000
     83      -1.1458      0.00000
     84      -1.0870      0.00000
     85      -1.0594      0.00000
     86      -0.4173      0.00000
     87      -0.3783      0.00000
     88      -0.3309      0.00000
     89      -0.2930      0.00000
     90      -0.1782      0.00000
     91      -0.1284      0.00000
     92      -0.0403      0.00000
     93      -0.0388      0.00000
     94       0.0039      0.00000
     95       0.1074      0.00000
     96       0.1206      0.00000
     97       0.3735      0.00000
     98       0.5251      0.00000
     99       0.5282      0.00000
    100       0.6371      0.00000
    101       0.6930      0.00000
    102       0.7548      0.00000
    103       0.8011      0.00000
    104       0.8067      0.00000
    105       0.9200      0.00000
    106       1.0056      0.00000
    107       1.0719      0.00000
    108       1.0944      0.00000
    109       1.1340      0.00000
    110       1.1953      0.00000
    111       1.1959      0.00000
    112       1.2606      0.00000
    113       1.3287      0.00000
    114       1.3524      0.00000
    115       1.4022      0.00000
    116       1.4141      0.00000
    117       1.5621      0.00000
    118       1.6495      0.00000
    119       1.6983      0.00000
    120       1.7254      0.00000
    121       1.7310      0.00000
    122       1.7509      0.00000
    123       1.7510      0.00000
    124       1.7611      0.00000
    125       1.7697      0.00000
    126       1.8220      0.00000

 k-point    29 :      -0.3846    0.1538    0.0000
  band No.  band energies     occupation 
      1     -13.5380      2.00000
      2     -13.1523      2.00000
      3     -13.0284      2.00000
      4     -12.5823      2.00000
      5     -12.2551      2.00000
      6     -12.1494      2.00000
      7     -12.0452      2.00000
      8     -11.8194      2.00000
      9     -11.7136      2.00000
     10     -11.6736      2.00000
     11     -11.5027      2.00000
     12     -11.1155      2.00000
     13     -11.0769      2.00000
     14     -10.9739      2.00000
     15     -10.8331      2.00000
     16     -10.6820      2.00000
     17     -10.5863      2.00000
     18     -10.5075      2.00000
     19     -10.3687      2.00000
     20     -10.3458      2.00000
     21     -10.1795      2.00000
     22      -9.8354      2.00000
     23      -9.7093      2.00000
     24      -9.5838      2.00000
     25      -9.5105      2.00000
     26      -9.4503      2.00000
     27      -9.2389      2.00000
     28      -9.2246      2.00000
     29      -9.1311      2.00000
     30      -9.1113      2.00000
     31      -8.9990      2.00000
     32      -8.8446      2.00000
     33      -8.8190      2.00000
     34      -8.7354      2.00000
     35      -8.6649      2.00000
     36      -8.5300      2.00000
     37      -8.4683      2.00000
     38      -8.4627      2.00000
     39      -8.4170      2.00000
     40      -8.3420      2.00000
     41      -8.2282      2.00000
     42      -8.1215      2.00000
     43      -8.0941      2.00000
     44      -7.8589      2.00000
     45      -7.7899      2.00000
     46      -7.7459      2.00000
     47      -7.7385      2.00000
     48      -7.7158      2.00000
     49      -7.7149      2.00000
     50      -7.5729      2.00000
     51      -7.5624      2.00000
     52      -7.4985      2.00000
     53      -7.2549      2.00000
     54      -7.1184      2.00000
     55      -7.0965      2.00000
     56      -7.0763      2.00000
     57      -7.0592      2.00000
     58      -7.0005      2.00000
     59      -6.9076      2.00000
     60      -6.7441      2.00000
     61      -6.5048      2.00000
     62      -6.3877      2.00000
     63      -6.3417      2.00000
     64      -5.9437      2.00000
     65      -5.8982      2.00000
     66      -5.2186      2.00000
     67      -5.1773      2.00000
     68      -4.8054      2.00000
     69      -4.7610      2.00000
     70      -4.4739      2.00000
     71      -4.4000      2.00000
     72      -3.9651      2.00000
     73      -3.8216      2.00000
     74      -3.3215      2.00000
     75      -3.2248      1.99968
     76      -2.9176      0.00000
     77      -2.7525      0.00000
     78      -2.5634      0.00000
     79      -2.3128      0.00000
     80      -1.9734      0.00000
     81      -1.9385      0.00000
     82      -1.7252      0.00000
     83      -1.3224      0.00000
     84      -1.1174      0.00000
     85      -1.0611      0.00000
     86      -0.4753      0.00000
     87      -0.4285      0.00000
     88      -0.3876      0.00000
     89      -0.3462      0.00000
     90      -0.3327      0.00000
     91      -0.1778      0.00000
     92      -0.0448      0.00000
     93       0.0092      0.00000
     94       0.0855      0.00000
     95       0.0885      0.00000
     96       0.1141      0.00000
     97       0.2670      0.00000
     98       0.3645      0.00000
     99       0.5398      0.00000
    100       0.5790      0.00000
    101       0.6828      0.00000
    102       0.7095      0.00000
    103       0.7222      0.00000
    104       0.7271      0.00000
    105       0.9520      0.00000
    106       0.9774      0.00000
    107       1.0359      0.00000
    108       1.0992      0.00000
    109       1.1480      0.00000
    110       1.1951      0.00000
    111       1.2252      0.00000
    112       1.2639      0.00000
    113       1.2713      0.00000
    114       1.3347      0.00000
    115       1.3481      0.00000
    116       1.4283      0.00000
    117       1.4713      0.00000
    118       1.4922      0.00000
    119       1.6175      0.00000
    120       1.6751      0.00000
    121       1.6762      0.00000
    122       1.7399      0.00000
    123       1.7617      0.00000
    124       1.8299      0.00000
    125       1.8780      0.00000
    126       1.9266      0.00000

 k-point    30 :      -0.3077    0.1538    0.0000
  band No.  band energies     occupation 
      1     -13.5832      2.00000
      2     -13.1331      2.00000
      3     -12.8924      2.00000
      4     -12.5110      2.00000
      5     -12.3637      2.00000
      6     -12.3060      2.00000
      7     -12.0920      2.00000
      8     -11.9300      2.00000
      9     -11.6583      2.00000
     10     -11.6237      2.00000
     11     -11.3609      2.00000
     12     -11.0607      2.00000
     13     -11.0341      2.00000
     14     -10.9975      2.00000
     15     -10.9365      2.00000
     16     -10.7491      2.00000
     17     -10.5028      2.00000
     18     -10.4598      2.00000
     19     -10.3959      2.00000
     20     -10.1768      2.00000
     21     -10.0802      2.00000
     22      -9.9647      2.00000
     23      -9.7743      2.00000
     24      -9.6055      2.00000
     25      -9.5984      2.00000
     26      -9.4802      2.00000
     27      -9.4510      2.00000
     28      -9.2129      2.00000
     29      -9.1844      2.00000
     30      -8.9214      2.00000
     31      -8.8959      2.00000
     32      -8.8732      2.00000
     33      -8.8055      2.00000
     34      -8.7147      2.00000
     35      -8.6860      2.00000
     36      -8.6078      2.00000
     37      -8.4651      2.00000
     38      -8.4389      2.00000
     39      -8.4373      2.00000
     40      -8.2140      2.00000
     41      -8.1157      2.00000
     42      -8.0714      2.00000
     43      -8.0605      2.00000
     44      -7.9425      2.00000
     45      -7.8747      2.00000
     46      -7.8426      2.00000
     47      -7.8010      2.00000
     48      -7.6838      2.00000
     49      -7.5979      2.00000
     50      -7.5937      2.00000
     51      -7.5718      2.00000
     52      -7.4258      2.00000
     53      -7.2365      2.00000
     54      -7.1331      2.00000
     55      -7.1197      2.00000
     56      -7.0671      2.00000
     57      -7.0388      2.00000
     58      -6.9826      2.00000
     59      -6.8769      2.00000
     60      -6.7859      2.00000
     61      -6.6647      2.00000
     62      -6.2641      2.00000
     63      -6.2112      2.00000
     64      -6.0788      2.00000
     65      -5.8909      2.00000
     66      -5.4818      2.00000
     67      -5.4306      2.00000
     68      -5.0926      2.00000
     69      -4.6304      2.00000
     70      -4.4679      2.00000
     71      -4.0883      2.00000
     72      -3.6269      2.00000
     73      -3.5402      2.00000
     74      -2.9954      0.00386
     75      -2.9631      0.00014
     76      -2.9314      0.00000
     77      -2.9019      0.00000
     78      -2.6396      0.00000
     79      -2.3199      0.00000
     80      -2.2301      0.00000
     81      -1.9062      0.00000
     82      -1.8149      0.00000
     83      -1.6309      0.00000
     84      -1.1694      0.00000
     85      -0.9525      0.00000
     86      -0.7417      0.00000
     87      -0.5190      0.00000
     88      -0.4610      0.00000
     89      -0.4561      0.00000
     90      -0.3961      0.00000
     91      -0.2458      0.00000
     92      -0.1935      0.00000
     93       0.0616      0.00000
     94       0.2196      0.00000
     95       0.2281      0.00000
     96       0.2340      0.00000
     97       0.2435      0.00000
     98       0.2846      0.00000
     99       0.3854      0.00000
    100       0.4092      0.00000
    101       0.5184      0.00000
    102       0.5271      0.00000
    103       0.6623      0.00000
    104       0.8193      0.00000
    105       0.8252      0.00000
    106       0.9404      0.00000
    107       1.0437      0.00000
    108       1.2093      0.00000
    109       1.2098      0.00000
    110       1.2137      0.00000
    111       1.2235      0.00000
    112       1.2451      0.00000
    113       1.2745      0.00000
    114       1.3595      0.00000
    115       1.3686      0.00000
    116       1.4265      0.00000
    117       1.4617      0.00000
    118       1.5562      0.00000
    119       1.6125      0.00000
    120       1.6144      0.00000
    121       1.6177      0.00000
    122       1.7461      0.00000
    123       1.7820      0.00000
    124       1.9029      0.00000
    125       1.9375      0.00000
    126       1.9378      0.00000

 k-point    31 :      -0.2308    0.1538    0.0000
  band No.  band energies     occupation 
      1     -13.6144      2.00000
      2     -13.0998      2.00000
      3     -12.7432      2.00000
      4     -12.4585      2.00000
      5     -12.4501      2.00000
      6     -12.4264      2.00000
      7     -12.1350      2.00000
      8     -12.1239      2.00000
      9     -11.6284      2.00000
     10     -11.4160      2.00000
     11     -11.2059      2.00000
     12     -11.1356      2.00000
     13     -11.0261      2.00000
     14     -10.9393      2.00000
     15     -10.9048      2.00000
     16     -10.8999      2.00000
     17     -10.6025      2.00000
     18     -10.4859      2.00000
     19     -10.2300      2.00000
     20     -10.2140      2.00000
     21      -9.9744      2.00000
     22      -9.8137      2.00000
     23      -9.7383      2.00000
     24      -9.7367      2.00000
     25      -9.7013      2.00000
     26      -9.6900      2.00000
     27      -9.3690      2.00000
     28      -9.3136      2.00000
     29      -9.1765      2.00000
     30      -8.9317      2.00000
     31      -8.9096      2.00000
     32      -8.9089      2.00000
     33      -8.8772      2.00000
     34      -8.7090      2.00000
     35      -8.6799      2.00000
     36      -8.4556      2.00000
     37      -8.4444      2.00000
     38      -8.3790      2.00000
     39      -8.2742      2.00000
     40      -8.2371      2.00000
     41      -8.0971      2.00000
     42      -8.0664      2.00000
     43      -8.0172      2.00000
     44      -8.0048      2.00000
     45      -7.9235      2.00000
     46      -7.8932      2.00000
     47      -7.7458      2.00000
     48      -7.7312      2.00000
     49      -7.6296      2.00000
     50      -7.5960      2.00000
     51      -7.4550      2.00000
     52      -7.3412      2.00000
     53      -7.3094      2.00000
     54      -7.2266      2.00000
     55      -7.1096      2.00000
     56      -7.0646      2.00000
     57      -7.0505      2.00000
     58      -7.0188      2.00000
     59      -6.9889      2.00000
     60      -6.6426      2.00000
     61      -6.5553      2.00000
     62      -6.2442      2.00000
     63      -6.1289      2.00000
     64      -6.0677      2.00000
     65      -5.8018      2.00000
     66      -5.7362      2.00000
     67      -5.6747      2.00000
     68      -5.3980      2.00000
     69      -4.8444      2.00000
     70      -4.1165      2.00000
     71      -3.6934      2.00000
     72      -3.3611      2.00000
     73      -3.2737      2.00000
     74      -3.2504      1.99998
     75      -2.9688      0.00027
     76      -2.9282      0.00000
     77      -2.6789      0.00000
     78      -2.5849      0.00000
     79      -2.5768      0.00000
     80      -2.1273      0.00000
     81      -1.9555      0.00000
     82      -1.8700      0.00000
     83      -1.6471      0.00000
     84      -1.2148      0.00000
     85      -1.0872      0.00000
     86      -0.8584      0.00000
     87      -0.8162      0.00000
     88      -0.5481      0.00000
     89      -0.4738      0.00000
     90      -0.4446      0.00000
     91      -0.3199      0.00000
     92      -0.0757      0.00000
     93       0.0935      0.00000
     94       0.1103      0.00000
     95       0.1343      0.00000
     96       0.2347      0.00000
     97       0.3383      0.00000
     98       0.3537      0.00000
     99       0.3793      0.00000
    100       0.3903      0.00000
    101       0.4008      0.00000
    102       0.5491      0.00000
    103       0.6214      0.00000
    104       0.6791      0.00000
    105       0.6844      0.00000
    106       0.8637      0.00000
    107       0.9031      0.00000
    108       1.1630      0.00000
    109       1.1679      0.00000
    110       1.2335      0.00000
    111       1.2506      0.00000
    112       1.3191      0.00000
    113       1.3713      0.00000
    114       1.3720      0.00000
    115       1.4287      0.00000
    116       1.5143      0.00000
    117       1.5442      0.00000
    118       1.5789      0.00000
    119       1.5966      0.00000
    120       1.6566      0.00000
    121       1.7596      0.00000
    122       1.8186      0.00000
    123       1.8218      0.00000
    124       1.8958      0.00000
    125       1.9499      0.00000
    126       1.9573      0.00000

 k-point    32 :      -0.1538    0.1538    0.0000
  band No.  band energies     occupation 
      1     -13.6313      2.00000
      2     -13.0524      2.00000
      3     -12.5816      2.00000
      4     -12.5808      2.00000
      5     -12.5393      2.00000
      6     -12.3288      2.00000
      7     -12.3279      2.00000
      8     -12.1410      2.00000
      9     -11.5839      2.00000
     10     -11.1984      2.00000
     11     -11.1969      2.00000
     12     -11.1017      2.00000
     13     -11.0388      2.00000
     14     -11.0380      2.00000
     15     -10.8313      2.00000
     16     -10.7991      2.00000
     17     -10.7982      2.00000
     18     -10.4570      2.00000
     19     -10.4554      2.00000
     20      -9.9937      2.00000
     21      -9.9933      2.00000
     22      -9.8672      2.00000
     23      -9.7637      2.00000
     24      -9.7624      2.00000
     25      -9.6166      2.00000
     26      -9.5509      2.00000
     27      -9.5494      2.00000
     28      -9.1731      2.00000
     29      -9.1711      2.00000
     30      -9.1300      2.00000
     31      -9.1286      2.00000
     32      -8.9476      2.00000
     33      -8.9279      2.00000
     34      -8.4962      2.00000
     35      -8.4957      2.00000
     36      -8.4682      2.00000
     37      -8.4666      2.00000
     38      -8.4063      2.00000
     39      -8.1643      2.00000
     40      -8.1629      2.00000
     41      -8.0765      2.00000
     42      -8.0742      2.00000
     43      -7.9937      2.00000
     44      -7.9929      2.00000
     45      -7.9882      2.00000
     46      -7.8973      2.00000
     47      -7.8955      2.00000
     48      -7.6376      2.00000
     49      -7.6357      2.00000
     50      -7.5322      2.00000
     51      -7.5312      2.00000
     52      -7.2992      2.00000
     53      -7.2981      2.00000
     54      -7.2261      2.00000
     55      -7.2246      2.00000
     56      -7.0887      2.00000
     57      -7.0518      2.00000
     58      -7.0153      2.00000
     59      -7.0143      2.00000
     60      -6.4195      2.00000
     61      -6.3949      2.00000
     62      -6.3935      2.00000
     63      -5.9821      2.00000
     64      -5.9808      2.00000
     65      -5.9091      2.00000
     66      -5.9078      2.00000
     67      -5.6758      2.00000
     68      -5.6744      2.00000
     69      -5.0417      2.00000
     70      -3.7529      2.00000
     71      -3.7519      2.00000
     72      -3.2945      2.00000
     73      -3.2927      2.00000
     74      -2.9550      0.00006
     75      -2.9528      0.00004
     76      -2.9092      0.00000
     77      -2.9062      0.00000
     78      -2.3784      0.00000
     79      -2.3763      0.00000
     80      -2.2800      0.00000
     81      -2.2782      0.00000
     82      -1.4714      0.00000
     83      -1.4087      0.00000
     84      -1.4063      0.00000
     85      -1.2527      0.00000
     86      -1.2495      0.00000
     87      -0.6487      0.00000
     88      -0.6465      0.00000
     89      -0.5626      0.00000
     90      -0.4940      0.00000
     91      -0.4664      0.00000
     92      -0.0127      0.00000
     93       0.1301      0.00000
     94       0.1321      0.00000
     95       0.1553      0.00000
     96       0.1592      0.00000
     97       0.2187      0.00000
     98       0.2201      0.00000
     99       0.5404      0.00000
    100       0.5409      0.00000
    101       0.5511      0.00000
    102       0.5534      0.00000
    103       0.5818      0.00000
    104       0.5863      0.00000
    105       0.5996      0.00000
    106       0.6884      0.00000
    107       0.6889      0.00000
    108       1.1455      0.00000
    109       1.2118      0.00000
    110       1.3052      0.00000
    111       1.3322      0.00000
    112       1.3888      0.00000
    113       1.3909      0.00000
    114       1.4329      0.00000
    115       1.4811      0.00000
    116       1.4920      0.00000
    117       1.5587      0.00000
    118       1.6333      0.00000
    119       1.6348      0.00000
    120       1.7857      0.00000
    121       1.7876      0.00000
    122       1.8587      0.00000
    123       1.8621      0.00000
    124       1.8812      0.00000
    125       1.8970      0.00000
    126       2.0033      0.00000

 k-point    33 :      -0.0769    0.1538    0.0000
  band No.  band energies     occupation 
      1     -13.6342      2.00000
      2     -12.9910      2.00000
      3     -12.6996      2.00000
      4     -12.6062      2.00000
      5     -12.5088      2.00000
      6     -12.4062      2.00000
      7     -12.2178      2.00000
      8     -12.1432      2.00000
      9     -11.5250      2.00000
     10     -11.2485      2.00000
     11     -11.1645      2.00000
     12     -11.1629      2.00000
     13     -10.9827      2.00000
     14     -10.9675      2.00000
     15     -10.8583      2.00000
     16     -10.7103      2.00000
     17     -10.6880      2.00000
     18     -10.6804      2.00000
     19     -10.4161      2.00000
     20     -10.2459      2.00000
     21      -9.9860      2.00000
     22      -9.8257      2.00000
     23      -9.7521      2.00000
     24      -9.7287      2.00000
     25      -9.5423      2.00000
     26      -9.5209      2.00000
     27      -9.4255      2.00000
     28      -9.3434      2.00000
     29      -9.2915      2.00000
     30      -9.0734      2.00000
     31      -9.0312      2.00000
     32      -9.0142      2.00000
     33      -8.9281      2.00000
     34      -8.7219      2.00000
     35      -8.4771      2.00000
     36      -8.3509      2.00000
     37      -8.3138      2.00000
     38      -8.2849      2.00000
     39      -8.2597      2.00000
     40      -8.1026      2.00000
     41      -8.0983      2.00000
     42      -8.0860      2.00000
     43      -8.0366      2.00000
     44      -7.9647      2.00000
     45      -7.9611      2.00000
     46      -7.9032      2.00000
     47      -7.7947      2.00000
     48      -7.7052      2.00000
     49      -7.7045      2.00000
     50      -7.6982      2.00000
     51      -7.5292      2.00000
     52      -7.2999      2.00000
     53      -7.2357      2.00000
     54      -7.1691      2.00000
     55      -7.1256      2.00000
     56      -7.0574      2.00000
     57      -7.0569      2.00000
     58      -7.0293      2.00000
     59      -7.0268      2.00000
     60      -6.5302      2.00000
     61      -6.2599      2.00000
     62      -6.2156      2.00000
     63      -6.1314      2.00000
     64      -6.1286      2.00000
     65      -5.9209      2.00000
     66      -5.8225      2.00000
     67      -5.7308      2.00000
     68      -5.5133      2.00000
     69      -5.2221      2.00000
     70      -4.1334      2.00000
     71      -3.6124      2.00000
     72      -3.3777      2.00000
     73      -3.3417      2.00000
     74      -2.8926      0.00000
     75      -2.8749      0.00000
     76      -2.6575      0.00000
     77      -2.6489      0.00000
     78      -2.5953      0.00000
     79      -2.5254      0.00000
     80      -2.0920      0.00000
     81      -1.9950      0.00000
     82      -1.6998      0.00000
     83      -1.6290      0.00000
     84      -1.2895      0.00000
     85      -1.2820      0.00000
     86      -1.0545      0.00000
     87      -0.9344      0.00000
     88      -0.5625      0.00000
     89      -0.5458      0.00000
     90      -0.4483      0.00000
     91      -0.4381      0.00000
     92      -0.0985      0.00000
     93      -0.0099      0.00000
     94       0.0758      0.00000
     95       0.1144      0.00000
     96       0.2413      0.00000
     97       0.2838      0.00000
     98       0.3252      0.00000
     99       0.4105      0.00000
    100       0.4243      0.00000
    101       0.4400      0.00000
    102       0.5212      0.00000
    103       0.5969      0.00000
    104       0.7112      0.00000
    105       0.7270      0.00000
    106       0.7737      0.00000
    107       0.8283      0.00000
    108       1.1427      0.00000
    109       1.2094      0.00000
    110       1.3110      0.00000
    111       1.3704      0.00000
    112       1.4150      0.00000
    113       1.4384      0.00000
    114       1.4893      0.00000
    115       1.5571      0.00000
    116       1.5624      0.00000
    117       1.5948      0.00000
    118       1.6168      0.00000
    119       1.6214      0.00000
    120       1.7972      0.00000
    121       1.8177      0.00000
    122       1.8303      0.00000
    123       1.8473      0.00000
    124       1.8722      0.00000
    125       1.9638      0.00000
    126       2.0835      0.00000

 k-point    34 :       0.0000    0.2308    0.0000
  band No.  band energies     occupation 
      1     -13.5876      2.00000
      2     -12.9501      2.00000
      3     -12.9447      2.00000
      4     -12.7583      2.00000
      5     -12.5602      2.00000
      6     -12.0933      2.00000
      7     -12.0724      2.00000
      8     -11.8864      2.00000
      9     -11.4900      2.00000
     10     -11.4758      2.00000
     11     -11.4274      2.00000
     12     -11.2440      2.00000
     13     -11.1147      2.00000
     14     -10.9251      2.00000
     15     -10.7250      2.00000
     16     -10.6657      2.00000
     17     -10.6528      2.00000
     18     -10.5138      2.00000
     19     -10.3398      2.00000
     20     -10.1682      2.00000
     21     -10.1113      2.00000
     22     -10.0725      2.00000
     23      -9.9430      2.00000
     24      -9.8385      2.00000
     25      -9.5824      2.00000
     26      -9.4754      2.00000
     27      -9.2551      2.00000
     28      -9.2305      2.00000
     29      -9.1683      2.00000
     30      -8.9716      2.00000
     31      -8.8814      2.00000
     32      -8.8654      2.00000
     33      -8.7777      2.00000
     34      -8.6966      2.00000
     35      -8.6804      2.00000
     36      -8.6720      2.00000
     37      -8.4283      2.00000
     38      -8.3323      2.00000
     39      -8.2883      2.00000
     40      -8.2844      2.00000
     41      -8.0482      2.00000
     42      -8.0316      2.00000
     43      -7.9743      2.00000
     44      -7.9735      2.00000
     45      -7.8758      2.00000
     46      -7.8722      2.00000
     47      -7.8443      2.00000
     48      -7.8416      2.00000
     49      -7.6950      2.00000
     50      -7.6770      2.00000
     51      -7.5755      2.00000
     52      -7.3742      2.00000
     53      -7.1698      2.00000
     54      -7.1465      2.00000
     55      -7.0573      2.00000
     56      -6.9963      2.00000
     57      -6.9687      2.00000
     58      -6.8687      2.00000
     59      -6.8344      2.00000
     60      -6.6611      2.00000
     61      -6.5510      2.00000
     62      -6.4668      2.00000
     63      -6.2665      2.00000
     64      -6.2018      2.00000
     65      -5.6751      2.00000
     66      -5.3723      2.00000
     67      -5.2731      2.00000
     68      -5.1662      2.00000
     69      -5.0427      2.00000
     70      -4.8492      2.00000
     71      -4.3081      2.00000
     72      -4.0209      2.00000
     73      -3.2414      1.99995
     74      -3.2103      1.99857
     75      -3.1732      1.96766
     76      -2.5997      0.00000
     77      -2.4055      0.00000
     78      -2.1979      0.00000
     79      -2.1348      0.00000
     80      -2.0350      0.00000
     81      -1.9323      0.00000
     82      -1.6566      0.00000
     83      -1.6369      0.00000
     84      -1.4681      0.00000
     85      -1.2287      0.00000
     86      -0.8941      0.00000
     87      -0.5106      0.00000
     88      -0.4869      0.00000
     89      -0.3904      0.00000
     90      -0.2998      0.00000
     91      -0.1178      0.00000
     92      -0.1150      0.00000
     93      -0.1068      0.00000
     94      -0.0531      0.00000
     95      -0.0211      0.00000
     96       0.1441      0.00000
     97       0.1610      0.00000
     98       0.2470      0.00000
     99       0.3018      0.00000
    100       0.5622      0.00000
    101       0.6405      0.00000
    102       0.6610      0.00000
    103       0.9557      0.00000
    104       1.0332      0.00000
    105       1.0582      0.00000
    106       1.1519      0.00000
    107       1.2084      0.00000
    108       1.2171      0.00000
    109       1.2738      0.00000
    110       1.2745      0.00000
    111       1.2995      0.00000
    112       1.3518      0.00000
    113       1.4104      0.00000
    114       1.4276      0.00000
    115       1.4310      0.00000
    116       1.4923      0.00000
    117       1.5248      0.00000
    118       1.5547      0.00000
    119       1.6065      0.00000
    120       1.6211      0.00000
    121       1.6603      0.00000
    122       1.7594      0.00000
    123       1.7709      0.00000
    124       1.8916      0.00000
    125       1.9286      0.00000
    126       1.9335      0.00000

 k-point    35 :       0.0769    0.2308    0.0000
  band No.  band energies     occupation 
      1     -13.5530      2.00000
      2     -13.0331      2.00000
      3     -12.9049      2.00000
      4     -12.8462      2.00000
      5     -12.5902      2.00000
      6     -12.0559      2.00000
      7     -11.8660      2.00000
      8     -11.7432      2.00000
      9     -11.5175      2.00000
     10     -11.5069      2.00000
     11     -11.3946      2.00000
     12     -11.3781      2.00000
     13     -11.1377      2.00000
     14     -11.1289      2.00000
     15     -10.9618      2.00000
     16     -10.5100      2.00000
     17     -10.3995      2.00000
     18     -10.3334      2.00000
     19     -10.3051      2.00000
     20     -10.1909      2.00000
     21     -10.1065      2.00000
     22     -10.1025      2.00000
     23     -10.0431      2.00000
     24     -10.0286      2.00000
     25      -9.7731      2.00000
     26      -9.3950      2.00000
     27      -9.3472      2.00000
     28      -9.0133      2.00000
     29      -9.0105      2.00000
     30      -8.9946      2.00000
     31      -8.8509      2.00000
     32      -8.8163      2.00000
     33      -8.6996      2.00000
     34      -8.6697      2.00000
     35      -8.6625      2.00000
     36      -8.6609      2.00000
     37      -8.5627      2.00000
     38      -8.3918      2.00000
     39      -8.3825      2.00000
     40      -8.1845      2.00000
     41      -8.1727      2.00000
     42      -8.0551      2.00000
     43      -8.0292      2.00000
     44      -8.0268      2.00000
     45      -7.9802      2.00000
     46      -7.9749      2.00000
     47      -7.8404      2.00000
     48      -7.6898      2.00000
     49      -7.6163      2.00000
     50      -7.5527      2.00000
     51      -7.5103      2.00000
     52      -7.4184      2.00000
     53      -7.2465      2.00000
     54      -7.1770      2.00000
     55      -7.1154      2.00000
     56      -6.9590      2.00000
     57      -6.9246      2.00000
     58      -6.9063      2.00000
     59      -6.7451      2.00000
     60      -6.6415      2.00000
     61      -6.5557      2.00000
     62      -6.4522      2.00000
     63      -6.4405      2.00000
     64      -5.9922      2.00000
     65      -5.3722      2.00000
     66      -5.3010      2.00000
     67      -5.1947      2.00000
     68      -5.1720      2.00000
     69      -5.0402      2.00000
     70      -4.8152      2.00000
     71      -4.5953      2.00000
     72      -4.3994      2.00000
     73      -3.5253      2.00000
     74      -3.5093      2.00000
     75      -3.0998      1.04976
     76      -2.6226      0.00000
     77      -2.2723      0.00000
     78      -2.2175      0.00000
     79      -2.0931      0.00000
     80      -1.8751      0.00000
     81      -1.8096      0.00000
     82      -1.7240      0.00000
     83      -1.4418      0.00000
     84      -1.3129      0.00000
     85      -1.0116      0.00000
     86      -0.9002      0.00000
     87      -0.5122      0.00000
     88      -0.4700      0.00000
     89      -0.3473      0.00000
     90      -0.3178      0.00000
     91      -0.2762      0.00000
     92      -0.1071      0.00000
     93      -0.0946      0.00000
     94      -0.0858      0.00000
     95       0.0428      0.00000
     96       0.0582      0.00000
     97       0.1110      0.00000
     98       0.3609      0.00000
     99       0.5461      0.00000
    100       0.7094      0.00000
    101       0.7555      0.00000
    102       0.8034      0.00000
    103       1.2127      0.00000
    104       1.2160      0.00000
    105       1.2575      0.00000
    106       1.2580      0.00000
    107       1.2611      0.00000
    108       1.2648      0.00000
    109       1.2698      0.00000
    110       1.2863      0.00000
    111       1.2896      0.00000
    112       1.3238      0.00000
    113       1.3729      0.00000
    114       1.4058      0.00000
    115       1.4129      0.00000
    116       1.4490      0.00000
    117       1.4556      0.00000
    118       1.5629      0.00000
    119       1.5790      0.00000
    120       1.6042      0.00000
    121       1.6703      0.00000
    122       1.7465      0.00000
    123       1.7913      0.00000
    124       1.8548      0.00000
    125       1.8566      0.00000
    126       1.8698      0.00000

 k-point    36 :       0.1538    0.2308    0.0000
  band No.  band energies     occupation 
      1     -13.5044      2.00000
      2     -13.1025      2.00000
      3     -13.0382      2.00000
      4     -12.7339      2.00000
      5     -12.6062      2.00000
      6     -12.0036      2.00000
      7     -11.6485      2.00000
      8     -11.5936      2.00000
      9     -11.5880      2.00000
     10     -11.5318      2.00000
     11     -11.5106      2.00000
     12     -11.3208      2.00000
     13     -11.2663      2.00000
     14     -11.1899      2.00000
     15     -11.1465      2.00000
     16     -10.4899      2.00000
     17     -10.3730      2.00000
     18     -10.3423      2.00000
     19     -10.1397      2.00000
     20     -10.1198      2.00000
     21     -10.1022      2.00000
     22     -10.0871      2.00000
     23     -10.0313      2.00000
     24      -9.9649      2.00000
     25      -9.9538      2.00000
     26      -9.6171      2.00000
     27      -9.2100      2.00000
     28      -9.0422      2.00000
     29      -9.0005      2.00000
     30      -8.9004      2.00000
     31      -8.7749      2.00000
     32      -8.7574      2.00000
     33      -8.7492      2.00000
     34      -8.6537      2.00000
     35      -8.6146      2.00000
     36      -8.5089      2.00000
     37      -8.4912      2.00000
     38      -8.4549      2.00000
     39      -8.4326      2.00000
     40      -8.2795      2.00000
     41      -8.2437      2.00000
     42      -8.2205      2.00000
     43      -8.1395      2.00000
     44      -8.1330      2.00000
     45      -8.0636      2.00000
     46      -7.9589      2.00000
     47      -7.6718      2.00000
     48      -7.5453      2.00000
     49      -7.5173      2.00000
     50      -7.4696      2.00000
     51      -7.4626      2.00000
     52      -7.4546      2.00000
     53      -7.3732      2.00000
     54      -7.2114      2.00000
     55      -7.1893      2.00000
     56      -7.0346      2.00000
     57      -6.9267      2.00000
     58      -6.8434      2.00000
     59      -6.8343      2.00000
     60      -6.7927      2.00000
     61      -6.6076      2.00000
     62      -6.2602      2.00000
     63      -6.2031      2.00000
     64      -5.7626      2.00000
     65      -5.5248      2.00000
     66      -5.4177      2.00000
     67      -5.0581      2.00000
     68      -4.9597      2.00000
     69      -4.8684      2.00000
     70      -4.7838      2.00000
     71      -4.7683      2.00000
     72      -4.5586      2.00000
     73      -3.8075      2.00000
     74      -3.8007      2.00000
     75      -3.0122      0.01579
     76      -2.8062      0.00000
     77      -2.5981      0.00000
     78      -2.5275      0.00000
     79      -1.8453      0.00000
     80      -1.6462      0.00000
     81      -1.6414      0.00000
     82      -1.3083      0.00000
     83      -1.3059      0.00000
     84      -1.2508      0.00000
     85      -0.8989      0.00000
     86      -0.7925      0.00000
     87      -0.5417      0.00000
     88      -0.4149      0.00000
     89      -0.3440      0.00000
     90      -0.3351      0.00000
     91      -0.2247      0.00000
     92      -0.1535      0.00000
     93      -0.1383      0.00000
     94      -0.1142      0.00000
     95      -0.0476      0.00000
     96      -0.0379      0.00000
     97      -0.0139      0.00000
     98       0.7769      0.00000
     99       0.8118      0.00000
    100       0.8535      0.00000
    101       0.9410      0.00000
    102       0.9607      0.00000
    103       1.1092      0.00000
    104       1.1369      0.00000
    105       1.1382      0.00000
    106       1.2128      0.00000
    107       1.3055      0.00000
    108       1.3235      0.00000
    109       1.3271      0.00000
    110       1.3419      0.00000
    111       1.3844      0.00000
    112       1.3861      0.00000
    113       1.3925      0.00000
    114       1.4184      0.00000
    115       1.4204      0.00000
    116       1.4604      0.00000
    117       1.4645      0.00000
    118       1.5503      0.00000
    119       1.6006      0.00000
    120       1.6039      0.00000
    121       1.6731      0.00000
    122       1.7181      0.00000
    123       1.7393      0.00000
    124       1.7401      0.00000
    125       1.7605      0.00000
    126       1.8140      0.00000

 k-point    37 :       0.2308    0.2308    0.0000
  band No.  band energies     occupation 
      1     -13.4418      2.00000
      2     -13.1585      2.00000
      3     -13.1575      2.00000
      4     -12.6088      2.00000
      5     -12.6074      2.00000
      6     -11.9368      2.00000
      7     -11.6558      2.00000
      8     -11.6550      2.00000
      9     -11.5013      2.00000
     10     -11.5000      2.00000
     11     -11.4215      2.00000
     12     -11.4203      2.00000
     13     -11.4084      2.00000
     14     -11.1414      2.00000
     15     -11.1404      2.00000
     16     -10.6373      2.00000
     17     -10.6354      2.00000
     18     -10.1638      2.00000
     19     -10.1630      2.00000
     20     -10.1243      2.00000
     21     -10.1235      2.00000
     22      -9.8774      2.00000
     23      -9.8752      2.00000
     24      -9.8618      2.00000
     25      -9.8608      2.00000
     26      -9.8329      2.00000
     27      -9.1444      2.00000
     28      -9.1429      2.00000
     29      -9.0656      2.00000
     30      -9.0651      2.00000
     31      -8.6650      2.00000
     32      -8.6641      2.00000
     33      -8.6186      2.00000
     34      -8.5430      2.00000
     35      -8.5235      2.00000
     36      -8.5219      2.00000
     37      -8.4807      2.00000
     38      -8.4785      2.00000
     39      -8.3690      2.00000
     40      -8.3679      2.00000
     41      -8.3602      2.00000
     42      -8.3579      2.00000
     43      -8.3000      2.00000
     44      -8.2985      2.00000
     45      -7.9268      2.00000
     46      -7.9252      2.00000
     47      -7.5512      2.00000
     48      -7.5264      2.00000
     49      -7.5251      2.00000
     50      -7.4581      2.00000
     51      -7.4080      2.00000
     52      -7.4062      2.00000
     53      -7.3620      2.00000
     54      -7.2783      2.00000
     55      -7.2770      2.00000
     56      -7.0964      2.00000
     57      -7.0947      2.00000
     58      -6.9165      2.00000
     59      -6.7535      2.00000
     60      -6.7522      2.00000
     61      -6.7333      2.00000
     62      -5.9492      2.00000
     63      -5.9480      2.00000
     64      -5.8391      2.00000
     65      -5.5160      2.00000
     66      -5.5135      2.00000
     67      -5.1273      2.00000
     68      -5.1253      2.00000
     69      -4.7358      2.00000
     70      -4.7338      2.00000
     71      -4.5045      2.00000
     72      -4.2745      2.00000
     73      -4.0865      2.00000
     74      -4.0852      2.00000
     75      -2.9578      0.00008
     76      -2.9546      0.00005
     77      -2.9119      0.00000
     78      -2.9083      0.00000
     79      -1.5442      0.00000
     80      -1.5400      0.00000
     81      -1.4984      0.00000
     82      -1.3071      0.00000
     83      -1.3037      0.00000
     84      -0.8895      0.00000
     85      -0.8851      0.00000
     86      -0.5766      0.00000
     87      -0.5735      0.00000
     88      -0.3455      0.00000
     89      -0.2996      0.00000
     90      -0.2983      0.00000
     91      -0.1552      0.00000
     92      -0.1539      0.00000
     93      -0.1284      0.00000
     94      -0.1271      0.00000
     95      -0.1265      0.00000
     96      -0.1126      0.00000
     97      -0.1099      0.00000
     98       0.8472      0.00000
     99       0.8634      0.00000
    100       0.9595      0.00000
    101       1.0425      0.00000
    102       1.0693      0.00000
    103       1.0731      0.00000
    104       1.0880      0.00000
    105       1.0903      0.00000
    106       1.2042      0.00000
    107       1.2061      0.00000
    108       1.2240      0.00000
    109       1.2243      0.00000
    110       1.3908      0.00000
    111       1.3938      0.00000
    112       1.4159      0.00000
    113       1.4805      0.00000
    114       1.4905      0.00000
    115       1.4916      0.00000
    116       1.5416      0.00000
    117       1.5428      0.00000
    118       1.5964      0.00000
    119       1.5989      0.00000
    120       1.6634      0.00000
    121       1.6668      0.00000
    122       1.6699      0.00000
    123       1.7137      0.00000
    124       1.7156      0.00000
    125       1.7615      0.00000
    126       1.7881      0.00000

 k-point    38 :       0.3077    0.2308    0.0000
  band No.  band energies     occupation 
      1     -13.3652      2.00000
      2     -13.2638      2.00000
      3     -13.1998      2.00000
      4     -12.5967      2.00000
      5     -12.4684      2.00000
      6     -11.8555      2.00000
      7     -11.7647      2.00000
      8     -11.7031      2.00000
      9     -11.6671      2.00000
     10     -11.6165      2.00000
     11     -11.4780      2.00000
     12     -11.2433      2.00000
     13     -11.1830      2.00000
     14     -11.1217      2.00000
     15     -11.0016      2.00000
     16     -10.8924      2.00000
     17     -10.7741      2.00000
     18     -10.2818      2.00000
     19     -10.2130      2.00000
     20     -10.1158      2.00000
     21     -10.0410      2.00000
     22      -9.9729      2.00000
     23      -9.7806      2.00000
     24      -9.6828      2.00000
     25      -9.6283      2.00000
     26      -9.6087      2.00000
     27      -9.3854      2.00000
     28      -9.2811      2.00000
     29      -9.0801      2.00000
     30      -8.9140      2.00000
     31      -8.7835      2.00000
     32      -8.7264      2.00000
     33      -8.6351      2.00000
     34      -8.5611      2.00000
     35      -8.5255      2.00000
     36      -8.4985      2.00000
     37      -8.4932      2.00000
     38      -8.4779      2.00000
     39      -8.4398      2.00000
     40      -8.4274      2.00000
     41      -8.3217      2.00000
     42      -8.2919      2.00000
     43      -8.2825      2.00000
     44      -8.2813      2.00000
     45      -7.8765      2.00000
     46      -7.7713      2.00000
     47      -7.6990      2.00000
     48      -7.5876      2.00000
     49      -7.4938      2.00000
     50      -7.3817      2.00000
     51      -7.3801      2.00000
     52      -7.3758      2.00000
     53      -7.3696      2.00000
     54      -7.3409      2.00000
     55      -7.2505      2.00000
     56      -7.2276      2.00000
     57      -7.1429      2.00000
     58      -7.0109      2.00000
     59      -6.8293      2.00000
     60      -6.6618      2.00000
     61      -6.6531      2.00000
     62      -6.1372      2.00000
     63      -5.6783      2.00000
     64      -5.6205      2.00000
     65      -5.5927      2.00000
     66      -5.4702      2.00000
     67      -5.3704      2.00000
     68      -5.2477      2.00000
     69      -4.4991      2.00000
     70      -4.4022      2.00000
     71      -4.3647      2.00000
     72      -4.3595      2.00000
     73      -4.2050      2.00000
     74      -3.9636      2.00000
     75      -3.3716      2.00000
     76      -3.2058      1.99779
     77      -3.0788      0.59598
     78      -2.7961      0.00000
     79      -1.5335      0.00000
     80      -1.5155      0.00000
     81      -1.4796      0.00000
     82      -1.4773      0.00000
     83      -1.2038      0.00000
     84      -0.8703      0.00000
     85      -0.6129      0.00000
     86      -0.4680      0.00000
     87      -0.3615      0.00000
     88      -0.2620      0.00000
     89      -0.2459      0.00000
     90      -0.2448      0.00000
     91      -0.2273      0.00000
     92      -0.2120      0.00000
     93      -0.1956      0.00000
     94      -0.1193      0.00000
     95      -0.0865      0.00000
     96      -0.0240      0.00000
     97       0.0220      0.00000
     98       0.4700      0.00000
     99       0.6493      0.00000
    100       0.9688      0.00000
    101       0.9788      0.00000
    102       0.9933      0.00000
    103       1.0036      0.00000
    104       1.0828      0.00000
    105       1.1595      0.00000
    106       1.1614      0.00000
    107       1.1724      0.00000
    108       1.1851      0.00000
    109       1.3959      0.00000
    110       1.3983      0.00000
    111       1.4445      0.00000
    112       1.4634      0.00000
    113       1.4734      0.00000
    114       1.5072      0.00000
    115       1.5241      0.00000
    116       1.5365      0.00000
    117       1.5671      0.00000
    118       1.5877      0.00000
    119       1.5908      0.00000
    120       1.5941      0.00000
    121       1.6424      0.00000
    122       1.6491      0.00000
    123       1.6654      0.00000
    124       1.6851      0.00000
    125       1.6940      0.00000
    126       1.7266      0.00000

 k-point    39 :       0.3846    0.2308    0.0000
  band No.  band energies     occupation 
      1     -13.3560      2.00000
      2     -13.2748      2.00000
      3     -13.2276      2.00000
      4     -12.5712      2.00000
      5     -12.3154      2.00000
      6     -11.8599      2.00000
      7     -11.8209      2.00000
      8     -11.8136      2.00000
      9     -11.7598      2.00000
     10     -11.7362      2.00000
     11     -11.4415      2.00000
     12     -11.1418      2.00000
     13     -11.0882      2.00000
     14     -11.0546      2.00000
     15     -10.9367      2.00000
     16     -10.9006      2.00000
     17     -10.8492      2.00000
     18     -10.4278      2.00000
     19     -10.2499      2.00000
     20     -10.2403      2.00000
     21     -10.0946      2.00000
     22      -9.7729      2.00000
     23      -9.6758      2.00000
     24      -9.6250      2.00000
     25      -9.4958      2.00000
     26      -9.4100      2.00000
     27      -9.3907      2.00000
     28      -9.3429      2.00000
     29      -9.0851      2.00000
     30      -8.9820      2.00000
     31      -8.9253      2.00000
     32      -8.7586      2.00000
     33      -8.7134      2.00000
     34      -8.6641      2.00000
     35      -8.6430      2.00000
     36      -8.6108      2.00000
     37      -8.5659      2.00000
     38      -8.4934      2.00000
     39      -8.4402      2.00000
     40      -8.3275      2.00000
     41      -8.2738      2.00000
     42      -8.2212      2.00000
     43      -8.1158      2.00000
     44      -8.0716      2.00000
     45      -7.8905      2.00000
     46      -7.8100      2.00000
     47      -7.6523      2.00000
     48      -7.6003      2.00000
     49      -7.5061      2.00000
     50      -7.4983      2.00000
     51      -7.4635      2.00000
     52      -7.3916      2.00000
     53      -7.3800      2.00000
     54      -7.3387      2.00000
     55      -7.2305      2.00000
     56      -7.1763      2.00000
     57      -7.1176      2.00000
     58      -7.0760      2.00000
     59      -6.8943      2.00000
     60      -6.5609      2.00000
     61      -6.5443      2.00000
     62      -6.4186      2.00000
     63      -5.8006      2.00000
     64      -5.6486      2.00000
     65      -5.5987      2.00000
     66      -5.3914      2.00000
     67      -5.2773      2.00000
     68      -4.9637      2.00000
     69      -4.6378      2.00000
     70      -4.6271      2.00000
     71      -4.2512      2.00000
     72      -4.0641      2.00000
     73      -3.8898      2.00000
     74      -3.7753      2.00000
     75      -3.6258      2.00000
     76      -3.4870      2.00000
     77      -3.1723      1.96546
     78      -2.6682      0.00000
     79      -1.7789      0.00000
     80      -1.7354      0.00000
     81      -1.5898      0.00000
     82      -1.5455      0.00000
     83      -1.0157      0.00000
     84      -0.8409      0.00000
     85      -0.6526      0.00000
     86      -0.3147      0.00000
     87      -0.2885      0.00000
     88      -0.2540      0.00000
     89      -0.2535      0.00000
     90      -0.2130      0.00000
     91      -0.1647      0.00000
     92      -0.1562      0.00000
     93      -0.0667      0.00000
     94      -0.0391      0.00000
     95      -0.0381      0.00000
     96       0.1186      0.00000
     97       0.1738      0.00000
     98       0.2163      0.00000
     99       0.3292      0.00000
    100       0.9224      0.00000
    101       0.9464      0.00000
    102       0.9526      0.00000
    103       0.9600      0.00000
    104       0.9846      0.00000
    105       1.0931      0.00000
    106       1.1176      0.00000
    107       1.1216      0.00000
    108       1.1397      0.00000
    109       1.1743      0.00000
    110       1.1830      0.00000
    111       1.2058      0.00000
    112       1.2666      0.00000
    113       1.2834      0.00000
    114       1.5159      0.00000
    115       1.5270      0.00000
    116       1.5604      0.00000
    117       1.5713      0.00000
    118       1.5997      0.00000
    119       1.6520      0.00000
    120       1.6791      0.00000
    121       1.7142      0.00000
    122       1.7146      0.00000
    123       1.7270      0.00000
    124       1.7285      0.00000
    125       1.7373      0.00000
    126       1.7470      0.00000

 k-point    40 :       0.4615    0.2308    0.0000
  band No.  band energies     occupation 
      1     -13.4342      2.00000
      2     -13.2415      2.00000
      3     -13.1707      2.00000
      4     -12.5321      2.00000
      5     -12.1494      2.00000
      6     -11.9995      2.00000
      7     -11.9613      2.00000
      8     -11.9406      2.00000
      9     -11.7548      2.00000
     10     -11.6501      2.00000
     11     -11.3915      2.00000
     12     -11.3824      2.00000
     13     -11.0409      2.00000
     14     -11.0162      2.00000
     15     -10.8558      2.00000
     16     -10.6842      2.00000
     17     -10.6827      2.00000
     18     -10.5611      2.00000
     19     -10.4299      2.00000
     20     -10.2744      2.00000
     21     -10.0604      2.00000
     22      -9.8595      2.00000
     23      -9.5644      2.00000
     24      -9.5634      2.00000
     25      -9.5300      2.00000
     26      -9.3015      2.00000
     27      -9.2409      2.00000
     28      -9.1503      2.00000
     29      -9.0815      2.00000
     30      -9.0804      2.00000
     31      -9.0707      2.00000
     32      -8.9513      2.00000
     33      -8.8556      2.00000
     34      -8.7054      2.00000
     35      -8.6607      2.00000
     36      -8.6015      2.00000
     37      -8.6008      2.00000
     38      -8.5293      2.00000
     39      -8.3334      2.00000
     40      -8.3013      2.00000
     41      -8.2252      2.00000
     42      -8.1811      2.00000
     43      -8.0949      2.00000
     44      -7.9308      2.00000
     45      -7.8659      2.00000
     46      -7.7264      2.00000
     47      -7.7198      2.00000
     48      -7.6643      2.00000
     49      -7.6268      2.00000
     50      -7.5183      2.00000
     51      -7.4493      2.00000
     52      -7.4131      2.00000
     53      -7.4053      2.00000
     54      -7.3145      2.00000
     55      -7.1963      2.00000
     56      -7.1392      2.00000
     57      -7.1143      2.00000
     58      -7.0351      2.00000
     59      -6.9265      2.00000
     60      -6.6831      2.00000
     61      -6.4501      2.00000
     62      -6.4262      2.00000
     63      -6.1161      2.00000
     64      -5.8116      2.00000
     65      -5.6809      2.00000
     66      -5.0886      2.00000
     67      -4.9195      2.00000
     68      -4.9049      2.00000
     69      -4.8878      2.00000
     70      -4.6629      2.00000
     71      -4.1637      2.00000
     72      -3.9921      2.00000
     73      -3.7528      2.00000
     74      -3.7228      2.00000
     75      -3.5639      2.00000
     76      -3.2610      2.00000
     77      -3.2405      1.99995
     78      -2.5273      0.00000
     79      -2.1435      0.00000
     80      -2.0390      0.00000
     81      -1.7057      0.00000
     82      -1.6280      0.00000
     83      -1.0271      0.00000
     84      -0.7992      0.00000
     85      -0.6932      0.00000
     86      -0.3888      0.00000
     87      -0.3557      0.00000
     88      -0.3052      0.00000
     89      -0.3027      0.00000
     90      -0.2094      0.00000
     91      -0.1679      0.00000
     92      -0.0539      0.00000
     93       0.0305      0.00000
     94       0.0386      0.00000
     95       0.0695      0.00000
     96       0.0749      0.00000
     97       0.2871      0.00000
     98       0.3432      0.00000
     99       0.5179      0.00000
    100       0.7737      0.00000
    101       0.7958      0.00000
    102       0.8070      0.00000
    103       0.8551      0.00000
    104       0.8560      0.00000
    105       0.9445      0.00000
    106       0.9502      0.00000
    107       0.9521      0.00000
    108       1.0516      0.00000
    109       1.0814      0.00000
    110       1.0927      0.00000
    111       1.1205      0.00000
    112       1.2053      0.00000
    113       1.2362      0.00000
    114       1.4031      0.00000
    115       1.4090      0.00000
    116       1.4673      0.00000
    117       1.5609      0.00000
    118       1.6540      0.00000
    119       1.6777      0.00000
    120       1.6780      0.00000
    121       1.6989      0.00000
    122       1.7547      0.00000
    123       1.7987      0.00000
    124       1.8004      0.00000
    125       1.8775      0.00000
    126       1.9046      0.00000

 k-point    41 :      -0.4615    0.2308    0.0000
  band No.  band energies     occupation 
      1     -13.4984      2.00000
      2     -13.2413      2.00000
      3     -13.0530      2.00000
      4     -12.4794      2.00000
      5     -12.1733      2.00000
      6     -12.0882      2.00000
      7     -12.0068      2.00000
      8     -11.9704      2.00000
      9     -11.7588      2.00000
     10     -11.6134      2.00000
     11     -11.5264      2.00000
     12     -11.3280      2.00000
     13     -11.1204      2.00000
     14     -10.9799      2.00000
     15     -10.6813      2.00000
     16     -10.6475      2.00000
     17     -10.6088      2.00000
     18     -10.5066      2.00000
     19     -10.4229      2.00000
     20     -10.2866      2.00000
     21     -10.0872      2.00000
     22     -10.0134      2.00000
     23      -9.6405      2.00000
     24      -9.4996      2.00000
     25      -9.4451      2.00000
     26      -9.3481      2.00000
     27      -9.2156      2.00000
     28      -9.2007      2.00000
     29      -9.1014      2.00000
     30      -9.0658      2.00000
     31      -9.0500      2.00000
     32      -8.9096      2.00000
     33      -8.8294      2.00000
     34      -8.7821      2.00000
     35      -8.6897      2.00000
     36      -8.6300      2.00000
     37      -8.5474      2.00000
     38      -8.4541      2.00000
     39      -8.4450      2.00000
     40      -8.3080      2.00000
     41      -8.1609      2.00000
     42      -8.1446      2.00000
     43      -8.1220      2.00000
     44      -7.8457      2.00000
     45      -7.7895      2.00000
     46      -7.7735      2.00000
     47      -7.7653      2.00000
     48      -7.6804      2.00000
     49      -7.6302      2.00000
     50      -7.6256      2.00000
     51      -7.4594      2.00000
     52      -7.4500      2.00000
     53      -7.2972      2.00000
     54      -7.2098      2.00000
     55      -7.2032      2.00000
     56      -7.1310      2.00000
     57      -7.0690      2.00000
     58      -6.9818      2.00000
     59      -6.9305      2.00000
     60      -6.9230      2.00000
     61      -6.4163      2.00000
     62      -6.3291      2.00000
     63      -6.2984      2.00000
     64      -6.0090      2.00000
     65      -5.6875      2.00000
     66      -5.1655      2.00000
     67      -5.1410      2.00000
     68      -4.7705      2.00000
     69      -4.5481      2.00000
     70      -4.5348      2.00000
     71      -4.3458      2.00000
     72      -4.0031      2.00000
     73      -3.7226      2.00000
     74      -3.3818      2.00000
     75      -3.2860      2.00000
     76      -3.2326      1.99987
     77      -2.8695      0.00000
     78      -2.5352      0.00000
     79      -2.3740      0.00000
     80      -2.3662      0.00000
     81      -1.8979      0.00000
     82      -1.7616      0.00000
     83      -1.2513      0.00000
     84      -0.7428      0.00000
     85      -0.7331      0.00000
     86      -0.5024      0.00000
     87      -0.4491      0.00000
     88      -0.4111      0.00000
     89      -0.3428      0.00000
     90      -0.3277      0.00000
     91      -0.2153      0.00000
     92       0.0196      0.00000
     93       0.0698      0.00000
     94       0.1220      0.00000
     95       0.2105      0.00000
     96       0.2219      0.00000
     97       0.3626      0.00000
     98       0.4835      0.00000
     99       0.5286      0.00000
    100       0.6124      0.00000
    101       0.6210      0.00000
    102       0.6431      0.00000
    103       0.7374      0.00000
    104       0.7710      0.00000
    105       0.8488      0.00000
    106       0.9280      0.00000
    107       0.9596      0.00000
    108       0.9712      0.00000
    109       1.0064      0.00000
    110       1.0190      0.00000
    111       1.0868      0.00000
    112       1.1894      0.00000
    113       1.2325      0.00000
    114       1.3216      0.00000
    115       1.3823      0.00000
    116       1.3980      0.00000
    117       1.5493      0.00000
    118       1.5602      0.00000
    119       1.6479      0.00000
    120       1.6538      0.00000
    121       1.6676      0.00000
    122       1.7168      0.00000
    123       1.7678      0.00000
    124       1.8334      0.00000
    125       1.9128      0.00000
    126       1.9500      0.00000

 k-point    42 :      -0.3846    0.2308    0.0000
  band No.  band energies     occupation 
      1     -13.5486      2.00000
      2     -13.2270      2.00000
      3     -12.9219      2.00000
      4     -12.4133      2.00000
      5     -12.3350      2.00000
      6     -12.2015      2.00000
      7     -12.0583      2.00000
      8     -11.8338      2.00000
      9     -11.7790      2.00000
     10     -11.7481      2.00000
     11     -11.3892      2.00000
     12     -11.2509      2.00000
     13     -11.2129      2.00000
     14     -10.9053      2.00000
     15     -10.7882      2.00000
     16     -10.7764      2.00000
     17     -10.4305      2.00000
     18     -10.3176      2.00000
     19     -10.3066      2.00000
     20     -10.2867      2.00000
     21     -10.1588      2.00000
     22      -9.9538      2.00000
     23      -9.7553      2.00000
     24      -9.7408      2.00000
     25      -9.4567      2.00000
     26      -9.3568      2.00000
     27      -9.3214      2.00000
     28      -9.2450      2.00000
     29      -9.1267      2.00000
     30      -9.0414      2.00000
     31      -8.8968      2.00000
     32      -8.8409      2.00000
     33      -8.7289      2.00000
     34      -8.6718      2.00000
     35      -8.6527      2.00000
     36      -8.6236      2.00000
     37      -8.5928      2.00000
     38      -8.5480      2.00000
     39      -8.5257      2.00000
     40      -8.2928      2.00000
     41      -8.1594      2.00000
     42      -8.0454      2.00000
     43      -8.0194      2.00000
     44      -7.9702      2.00000
     45      -7.9120      2.00000
     46      -7.8616      2.00000
     47      -7.7270      2.00000
     48      -7.6521      2.00000
     49      -7.5464      2.00000
     50      -7.5203      2.00000
     51      -7.5077      2.00000
     52      -7.4669      2.00000
     53      -7.2872      2.00000
     54      -7.1976      2.00000
     55      -7.1606      2.00000
     56      -7.1316      2.00000
     57      -7.0199      2.00000
     58      -6.9907      2.00000
     59      -6.9574      2.00000
     60      -6.8821      2.00000
     61      -6.7005      2.00000
     62      -6.1976      2.00000
     63      -6.1907      2.00000
     64      -6.1604      2.00000
     65      -5.6654      2.00000
     66      -5.4189      2.00000
     67      -5.3861      2.00000
     68      -4.8865      2.00000
     69      -4.4376      2.00000
     70      -4.2376      2.00000
     71      -4.1644      2.00000
     72      -4.0129      2.00000
     73      -3.4441      2.00000
     74      -3.3107      2.00000
     75      -3.0456      0.14138
     76      -2.9362      0.00001
     77      -2.9004      0.00000
     78      -2.7026      0.00000
     79      -2.4532      0.00000
     80      -2.2086      0.00000
     81      -2.1696      0.00000
     82      -1.9429      0.00000
     83      -1.5718      0.00000
     84      -0.8652      0.00000
     85      -0.7711      0.00000
     86      -0.6688      0.00000
     87      -0.4953      0.00000
     88      -0.4525      0.00000
     89      -0.3754      0.00000
     90      -0.2714      0.00000
     91      -0.2165      0.00000
     92      -0.0442      0.00000
     93       0.0723      0.00000
     94       0.2059      0.00000
     95       0.2344      0.00000
     96       0.3643      0.00000
     97       0.3942      0.00000
     98       0.4061      0.00000
     99       0.4135      0.00000
    100       0.4270      0.00000
    101       0.4621      0.00000
    102       0.5452      0.00000
    103       0.7050      0.00000
    104       0.7277      0.00000
    105       0.7909      0.00000
    106       0.8033      0.00000
    107       1.0242      0.00000
    108       1.0575      0.00000
    109       1.0997      0.00000
    110       1.1126      0.00000
    111       1.1687      0.00000
    112       1.1709      0.00000
    113       1.1834      0.00000
    114       1.2538      0.00000
    115       1.3164      0.00000
    116       1.3262      0.00000
    117       1.5059      0.00000
    118       1.5782      0.00000
    119       1.6000      0.00000
    120       1.6347      0.00000
    121       1.6547      0.00000
    122       1.6627      0.00000
    123       1.8376      0.00000
    124       1.8652      0.00000
    125       1.8879      0.00000
    126       1.9383      0.00000

 k-point    43 :      -0.3077    0.2308    0.0000
  band No.  band energies     occupation 
      1     -13.5846      2.00000
      2     -13.1987      2.00000
      3     -12.7775      2.00000
      4     -12.4840      2.00000
      5     -12.3338      2.00000
      6     -12.3011      2.00000
      7     -12.0950      2.00000
      8     -12.0431      2.00000
      9     -11.7228      2.00000
     10     -11.5754      2.00000
     11     -11.2933      2.00000
     12     -11.2387      2.00000
     13     -11.1604      2.00000
     14     -10.9322      2.00000
     15     -10.8814      2.00000
     16     -10.8175      2.00000
     17     -10.5166      2.00000
     18     -10.2747      2.00000
     19     -10.2058      2.00000
     20     -10.1176      2.00000
     21     -10.0059      2.00000
     22      -9.8928      2.00000
     23      -9.8816      2.00000
     24      -9.8304      2.00000
     25      -9.7155      2.00000
     26      -9.4921      2.00000
     27      -9.4386      2.00000
     28      -9.1939      2.00000
     29      -9.0071      2.00000
     30      -8.9019      2.00000
     31      -8.8818      2.00000
     32      -8.8298      2.00000
     33      -8.7754      2.00000
     34      -8.7447      2.00000
     35      -8.6895      2.00000
     36      -8.6687      2.00000
     37      -8.5309      2.00000
     38      -8.4405      2.00000
     39      -8.3796      2.00000
     40      -8.2585      2.00000
     41      -8.1740      2.00000
     42      -8.1481      2.00000
     43      -8.0647      2.00000
     44      -7.9362      2.00000
     45      -7.9192      2.00000
     46      -7.8083      2.00000
     47      -7.7780      2.00000
     48      -7.6677      2.00000
     49      -7.5758      2.00000
     50      -7.5016      2.00000
     51      -7.3900      2.00000
     52      -7.3739      2.00000
     53      -7.3721      2.00000
     54      -7.2857      2.00000
     55      -7.1798      2.00000
     56      -7.1200      2.00000
     57      -6.9910      2.00000
     58      -6.9685      2.00000
     59      -6.9589      2.00000
     60      -6.8048      2.00000
     61      -6.7563      2.00000
     62      -6.3571      2.00000
     63      -6.0552      2.00000
     64      -6.0113      2.00000
     65      -5.6644      2.00000
     66      -5.6225      2.00000
     67      -5.6116      2.00000
     68      -5.2165      2.00000
     69      -4.4561      2.00000
     70      -4.0909      2.00000
     71      -3.7707      2.00000
     72      -3.6647      2.00000
     73      -3.3367      2.00000
     74      -3.3164      2.00000
     75      -3.1583      1.91430
     76      -3.0394      0.09992
     77      -2.7199      0.00000
     78      -2.5726      0.00000
     79      -2.5007      0.00000
     80      -2.1636      0.00000
     81      -2.0319      0.00000
     82      -2.0147      0.00000
     83      -1.9143      0.00000
     84      -1.2216      0.00000
     85      -0.8058      0.00000
     86      -0.5743      0.00000
     87      -0.5274      0.00000
     88      -0.4778      0.00000
     89      -0.4435      0.00000
     90      -0.4020      0.00000
     91      -0.2503      0.00000
     92      -0.1307      0.00000
     93       0.1502      0.00000
     94       0.2090      0.00000
     95       0.2471      0.00000
     96       0.2483      0.00000
     97       0.3205      0.00000
     98       0.3536      0.00000
     99       0.3668      0.00000
    100       0.3793      0.00000
    101       0.5327      0.00000
    102       0.5572      0.00000
    103       0.6518      0.00000
    104       0.6535      0.00000
    105       0.6581      0.00000
    106       0.8833      0.00000
    107       0.9378      0.00000
    108       1.0330      0.00000
    109       1.1013      0.00000
    110       1.1315      0.00000
    111       1.1575      0.00000
    112       1.2056      0.00000
    113       1.2570      0.00000
    114       1.2695      0.00000
    115       1.3366      0.00000
    116       1.4540      0.00000
    117       1.4929      0.00000
    118       1.5520      0.00000
    119       1.6110      0.00000
    120       1.6133      0.00000
    121       1.6961      0.00000
    122       1.7765      0.00000
    123       1.8002      0.00000
    124       1.8831      0.00000
    125       1.9657      0.00000
    126       2.0410      0.00000

 k-point    44 :      -0.2308    0.2308    0.0000
  band No.  band energies     occupation 
      1     -13.6066      2.00000
      2     -13.1562      2.00000
      3     -12.6206      2.00000
      4     -12.6198      2.00000
      5     -12.3867      2.00000
      6     -12.2414      2.00000
      7     -12.2404      2.00000
      8     -12.1169      2.00000
      9     -11.6829      2.00000
     10     -11.3616      2.00000
     11     -11.3602      2.00000
     12     -11.0759      2.00000
     13     -11.0751      2.00000
     14     -11.0564      2.00000
     15     -10.9607      2.00000
     16     -10.7168      2.00000
     17     -10.7159      2.00000
     18     -10.2510      2.00000
     19     -10.2493      2.00000
     20      -9.9745      2.00000
     21      -9.9739      2.00000
     22      -9.9088      2.00000
     23      -9.9075      2.00000
     24      -9.7973      2.00000
     25      -9.6292      2.00000
     26      -9.6278      2.00000
     27      -9.6196      2.00000
     28      -9.0640      2.00000
     29      -9.0620      2.00000
     30      -8.9634      2.00000
     31      -8.9620      2.00000
     32      -8.9046      2.00000
     33      -8.8259      2.00000
     34      -8.6783      2.00000
     35      -8.6765      2.00000
     36      -8.4964      2.00000
     37      -8.4814      2.00000
     38      -8.4808      2.00000
     39      -8.2215      2.00000
     40      -8.2202      2.00000
     41      -8.2018      2.00000
     42      -8.1994      2.00000
     43      -8.0146      2.00000
     44      -8.0137      2.00000
     45      -7.8739      2.00000
     46      -7.8232      2.00000
     47      -7.8214      2.00000
     48      -7.5688      2.00000
     49      -7.5678      2.00000
     50      -7.5560      2.00000
     51      -7.5543      2.00000
     52      -7.2935      2.00000
     53      -7.2918      2.00000
     54      -7.2208      2.00000
     55      -7.2196      2.00000
     56      -7.1503      2.00000
     57      -7.0974      2.00000
     58      -6.9815      2.00000
     59      -6.9806      2.00000
     60      -6.6945      2.00000
     61      -6.5081      2.00000
     62      -6.5068      2.00000
     63      -5.9021      2.00000
     64      -5.9008      2.00000
     65      -5.8505      2.00000
     66      -5.8493      2.00000
     67      -5.5237      2.00000
     68      -5.5220      2.00000
     69      -4.6585      2.00000
     70      -3.7320      2.00000
     71      -3.7309      2.00000
     72      -3.3715      2.00000
     73      -3.3697      2.00000
     74      -3.3047      2.00000
     75      -3.3018      2.00000
     76      -2.8685      0.00000
     77      -2.8663      0.00000
     78      -2.4130      0.00000
     79      -2.4108      0.00000
     80      -2.2556      0.00000
     81      -2.2539      0.00000
     82      -1.8442      0.00000
     83      -1.5596      0.00000
     84      -1.5574      0.00000
     85      -0.8363      0.00000
     86      -0.8332      0.00000
     87      -0.5450      0.00000
     88      -0.4854      0.00000
     89      -0.4572      0.00000
     90      -0.4554      0.00000
     91      -0.4244      0.00000
     92       0.0759      0.00000
     93       0.0797      0.00000
     94       0.1451      0.00000
     95       0.1469      0.00000
     96       0.1973      0.00000
     97       0.2421      0.00000
     98       0.2434      0.00000
     99       0.5116      0.00000
    100       0.5120      0.00000
    101       0.5164      0.00000
    102       0.5185      0.00000
    103       0.6302      0.00000
    104       0.7117      0.00000
    105       0.7131      0.00000
    106       0.7134      0.00000
    107       0.7167      0.00000
    108       1.1533      0.00000
    109       1.1552      0.00000
    110       1.1770      0.00000
    111       1.1819      0.00000
    112       1.2004      0.00000
    113       1.2419      0.00000
    114       1.4069      0.00000
    115       1.4227      0.00000
    116       1.4240      0.00000
    117       1.5234      0.00000
    118       1.5822      0.00000
    119       1.5857      0.00000
    120       1.7379      0.00000
    121       1.7419      0.00000
    122       1.7492      0.00000
    123       1.9058      0.00000
    124       1.9415      0.00000
    125       1.9434      0.00000
    126       1.9997      0.00000

 k-point    45 :      -0.1538    0.2308    0.0000
  band No.  band energies     occupation 
      1     -13.6144      2.00000
      2     -13.0997      2.00000
      3     -12.7435      2.00000
      4     -12.4585      2.00000
      5     -12.4498      2.00000
      6     -12.4258      2.00000
      7     -12.1356      2.00000
      8     -12.1239      2.00000
      9     -11.6283      2.00000
     10     -11.4171      2.00000
     11     -11.2062      2.00000
     12     -11.1343      2.00000
     13     -11.0262      2.00000
     14     -10.9392      2.00000
     15     -10.9042      2.00000
     16     -10.8997      2.00000
     17     -10.6032      2.00000
     18     -10.4846      2.00000
     19     -10.2296      2.00000
     20     -10.2155      2.00000
     21      -9.9754      2.00000
     22      -9.8151      2.00000
     23      -9.7379      2.00000
     24      -9.7377      2.00000
     25      -9.7012      2.00000
     26      -9.6889      2.00000
     27      -9.3675      2.00000
     28      -9.3117      2.00000
     29      -9.1754      2.00000
     30      -8.9337      2.00000
     31      -8.9102      2.00000
     32      -8.9095      2.00000
     33      -8.8773      2.00000
     34      -8.7087      2.00000
     35      -8.6813      2.00000
     36      -8.4541      2.00000
     37      -8.4443      2.00000
     38      -8.3803      2.00000
     39      -8.2745      2.00000
     40      -8.2393      2.00000
     41      -8.0973      2.00000
     42      -8.0642      2.00000
     43      -8.0159      2.00000
     44      -8.0031      2.00000
     45      -7.9236      2.00000
     46      -7.8931      2.00000
     47      -7.7460      2.00000
     48      -7.7329      2.00000
     49      -7.6309      2.00000
     50      -7.5943      2.00000
     51      -7.4544      2.00000
     52      -7.3409      2.00000
     53      -7.3109      2.00000
     54      -7.2251      2.00000
     55      -7.1096      2.00000
     56      -7.0645      2.00000
     57      -7.0511      2.00000
     58      -7.0182      2.00000
     59      -6.9897      2.00000
     60      -6.6433      2.00000
     61      -6.5552      2.00000
     62      -6.2433      2.00000
     63      -6.1283      2.00000
     64      -6.0673      2.00000
     65      -5.8008      2.00000
     66      -5.7369      2.00000
     67      -5.6750      2.00000
     68      -5.3991      2.00000
     69      -4.8446      2.00000
     70      -4.1162      2.00000
     71      -3.6947      2.00000
     72      -3.3614      2.00000
     73      -3.2762      2.00000
     74      -3.2487      1.99998
     75      -2.9673      0.00023
     76      -2.9253      0.00000
     77      -2.6804      0.00000
     78      -2.5840      0.00000
     79      -2.5788      0.00000
     80      -2.1252      0.00000
     81      -1.9571      0.00000
     82      -1.8719      0.00000
     83      -1.6469      0.00000
     84      -1.2121      0.00000
     85      -1.0853      0.00000
     86      -0.8615      0.00000
     87      -0.8138      0.00000
     88      -0.5481      0.00000
     89      -0.4738      0.00000
     90      -0.4447      0.00000
     91      -0.3201      0.00000
     92      -0.0792      0.00000
     93       0.0934      0.00000
     94       0.1107      0.00000
     95       0.1337      0.00000
     96       0.2326      0.00000
     97       0.3419      0.00000
     98       0.3549      0.00000
     99       0.3791      0.00000
    100       0.3901      0.00000
    101       0.4051      0.00000
    102       0.5493      0.00000
    103       0.6214      0.00000
    104       0.6793      0.00000
    105       0.6848      0.00000
    106       0.8634      0.00000
    107       0.8988      0.00000
    108       1.1616      0.00000
    109       1.1679      0.00000
    110       1.2335      0.00000
    111       1.2507      0.00000
    112       1.3193      0.00000
    113       1.3715      0.00000
    114       1.3730      0.00000
    115       1.4270      0.00000
    116       1.5143      0.00000
    117       1.5441      0.00000
    118       1.5789      0.00000
    119       1.5963      0.00000
    120       1.6523      0.00000
    121       1.7606      0.00000
    122       1.8183      0.00000
    123       1.8219      0.00000
    124       1.9488      0.00000
    125       1.9552      0.00000
    126       1.9709      0.00000

 k-point    46 :      -0.0769    0.2308    0.0000
  band No.  band energies     occupation 
      1     -13.6080      2.00000
      2     -13.0292      2.00000
      3     -12.8535      2.00000
      4     -12.5985      2.00000
      5     -12.5163      2.00000
      6     -12.2672      2.00000
      7     -12.1160      2.00000
      8     -12.0173      2.00000
      9     -11.5593      2.00000
     10     -11.4600      2.00000
     11     -11.3235      2.00000
     12     -11.0804      2.00000
     13     -11.0774      2.00000
     14     -10.8982      2.00000
     15     -10.8089      2.00000
     16     -10.7123      2.00000
     17     -10.7101      2.00000
     18     -10.4805      2.00000
     19     -10.4774      2.00000
     20     -10.1689      2.00000
     21     -10.0301      2.00000
     22      -9.9951      2.00000
     23      -9.8459      2.00000
     24      -9.5937      2.00000
     25      -9.5722      2.00000
     26      -9.4973      2.00000
     27      -9.4626      2.00000
     28      -9.3827      2.00000
     29      -9.1166      2.00000
     30      -8.9387      2.00000
     31      -8.9265      2.00000
     32      -8.8965      2.00000
     33      -8.8481      2.00000
     34      -8.8050      2.00000
     35      -8.6788      2.00000
     36      -8.5393      2.00000
     37      -8.3750      2.00000
     38      -8.2837      2.00000
     39      -8.2377      2.00000
     40      -8.2073      2.00000
     41      -8.1867      2.00000
     42      -8.0717      2.00000
     43      -7.9861      2.00000
     44      -7.9571      2.00000
     45      -7.9059      2.00000
     46      -7.8330      2.00000
     47      -7.7867      2.00000
     48      -7.7272      2.00000
     49      -7.6932      2.00000
     50      -7.6719      2.00000
     51      -7.6499      2.00000
     52      -7.3380      2.00000
     53      -7.1857      2.00000
     54      -7.0963      2.00000
     55      -7.0719      2.00000
     56      -7.0581      2.00000
     57      -7.0215      2.00000
     58      -7.0152      2.00000
     59      -6.8647      2.00000
     60      -6.7635      2.00000
     61      -6.3901      2.00000
     62      -6.3452      2.00000
     63      -6.2739      2.00000
     64      -6.0494      2.00000
     65      -5.9657      2.00000
     66      -5.5605      2.00000
     67      -5.4837      2.00000
     68      -5.2382      2.00000
     69      -5.0139      2.00000
     70      -4.4894      2.00000
     71      -4.0075      2.00000
     72      -3.6358      2.00000
     73      -3.2322      1.99986
     74      -2.9829      0.00118
     75      -2.9584      0.00008
     76      -2.9024      0.00000
     77      -2.5714      0.00000
     78      -2.5358      0.00000
     79      -2.2972      0.00000
     80      -2.1549      0.00000
     81      -1.8665      0.00000
     82      -1.6896      0.00000
     83      -1.5787      0.00000
     84      -1.4412      0.00000
     85      -1.2255      0.00000
     86      -0.8810      0.00000
     87      -0.6030      0.00000
     88      -0.5367      0.00000
     89      -0.4649      0.00000
     90      -0.4423      0.00000
     91      -0.2074      0.00000
     92      -0.1858      0.00000
     93       0.0097      0.00000
     94       0.0487      0.00000
     95       0.1207      0.00000
     96       0.1535      0.00000
     97       0.2564      0.00000
     98       0.2713      0.00000
     99       0.3819      0.00000
    100       0.3935      0.00000
    101       0.4880      0.00000
    102       0.6316      0.00000
    103       0.6397      0.00000
    104       0.8540      0.00000
    105       0.8660      0.00000
    106       1.0096      0.00000
    107       1.0880      0.00000
    108       1.1783      0.00000
    109       1.1827      0.00000
    110       1.2443      0.00000
    111       1.3369      0.00000
    112       1.3523      0.00000
    113       1.3765      0.00000
    114       1.4555      0.00000
    115       1.5083      0.00000
    116       1.5248      0.00000
    117       1.5482      0.00000
    118       1.5794      0.00000
    119       1.5815      0.00000
    120       1.5907      0.00000
    121       1.6624      0.00000
    122       1.7585      0.00000
    123       1.9145      0.00000
    124       1.9345      0.00000
    125       1.9408      0.00000
    126       1.9494      0.00000

 k-point    47 :       0.0000    0.3077    0.0000
  band No.  band energies     occupation 
      1     -13.5382      2.00000
      2     -13.0823      2.00000
      3     -12.9597      2.00000
      4     -12.8263      2.00000
      5     -12.4475      2.00000
      6     -12.0414      2.00000
      7     -11.9136      2.00000
      8     -11.6818      2.00000
      9     -11.6673      2.00000
     10     -11.5648      2.00000
     11     -11.4857      2.00000
     12     -11.3195      2.00000
     13     -11.0050      2.00000
     14     -10.9485      2.00000
     15     -10.9270      2.00000
     16     -10.7420      2.00000
     17     -10.5663      2.00000
     18     -10.4337      2.00000
     19     -10.3495      2.00000
     20     -10.2583      2.00000
     21     -10.1207      2.00000
     22      -9.9816      2.00000
     23      -9.8527      2.00000
     24      -9.7820      2.00000
     25      -9.6022      2.00000
     26      -9.5254      2.00000
     27      -9.3832      2.00000
     28      -9.1367      2.00000
     29      -9.0056      2.00000
     30      -8.9360      2.00000
     31      -8.8639      2.00000
     32      -8.8636      2.00000
     33      -8.8024      2.00000
     34      -8.7207      2.00000
     35      -8.5610      2.00000
     36      -8.5583      2.00000
     37      -8.5475      2.00000
     38      -8.5061      2.00000
     39      -8.3585      2.00000
     40      -8.2810      2.00000
     41      -8.2184      2.00000
     42      -8.0583      2.00000
     43      -8.0014      2.00000
     44      -7.9840      2.00000
     45      -7.9623      2.00000
     46      -7.8636      2.00000
     47      -7.8612      2.00000
     48      -7.6867      2.00000
     49      -7.5778      2.00000
     50      -7.5728      2.00000
     51      -7.5217      2.00000
     52      -7.4865      2.00000
     53      -7.2109      2.00000
     54      -7.1861      2.00000
     55      -7.0885      2.00000
     56      -7.0723      2.00000
     57      -6.9665      2.00000
     58      -6.9307      2.00000
     59      -6.6504      2.00000
     60      -6.6008      2.00000
     61      -6.5794      2.00000
     62      -6.3706      2.00000
     63      -6.3616      2.00000
     64      -6.3022      2.00000
     65      -5.4805      2.00000
     66      -5.1812      2.00000
     67      -5.0843      2.00000
     68      -5.0009      2.00000
     69      -4.9303      2.00000
     70      -4.7386      2.00000
     71      -4.6857      2.00000
     72      -4.2975      2.00000
     73      -3.5535      2.00000
     74      -3.5176      2.00000
     75      -3.5052      2.00000
     76      -2.8415      0.00000
     77      -2.2081      0.00000
     78      -2.1232      0.00000
     79      -1.9141      0.00000
     80      -1.8586      0.00000
     81      -1.7941      0.00000
     82      -1.7810      0.00000
     83      -1.4977      0.00000
     84      -1.3513      0.00000
     85      -1.2386      0.00000
     86      -0.4766      0.00000
     87      -0.4590      0.00000
     88      -0.3778      0.00000
     89      -0.3701      0.00000
     90      -0.3558      0.00000
     91      -0.2145      0.00000
     92      -0.1260      0.00000
     93      -0.0862      0.00000
     94       0.0105      0.00000
     95       0.0313      0.00000
     96       0.0769      0.00000
     97       0.1370      0.00000
     98       0.2635      0.00000
     99       0.6262      0.00000
    100       0.7278      0.00000
    101       0.7549      0.00000
    102       0.8414      0.00000
    103       0.9922      0.00000
    104       1.0758      0.00000
    105       1.1346      0.00000
    106       1.1408      0.00000
    107       1.1808      0.00000
    108       1.1906      0.00000
    109       1.2768      0.00000
    110       1.3316      0.00000
    111       1.3420      0.00000
    112       1.3453      0.00000
    113       1.3771      0.00000
    114       1.4114      0.00000
    115       1.4318      0.00000
    116       1.5224      0.00000
    117       1.5232      0.00000
    118       1.5248      0.00000
    119       1.5892      0.00000
    120       1.6230      0.00000
    121       1.6358      0.00000
    122       1.6588      0.00000
    123       1.6632      0.00000
    124       1.6867      0.00000
    125       1.8499      0.00000
    126       1.9137      0.00000

 k-point    48 :       0.0769    0.3077    0.0000
  band No.  band energies     occupation 
      1     -13.4945      2.00000
      2     -13.1567      2.00000
      3     -12.9643      2.00000
      4     -12.8523      2.00000
      5     -12.4684      2.00000
      6     -11.9940      2.00000
      7     -11.7004      2.00000
      8     -11.6905      2.00000
      9     -11.6457      2.00000
     10     -11.5176      2.00000
     11     -11.4611      2.00000
     12     -11.3780      2.00000
     13     -11.1808      2.00000
     14     -11.1228      2.00000
     15     -11.0180      2.00000
     16     -10.5969      2.00000
     17     -10.5772      2.00000
     18     -10.3085      2.00000
     19     -10.2794      2.00000
     20     -10.2491      2.00000
     21     -10.1350      2.00000
     22      -9.9665      2.00000
     23      -9.8575      2.00000
     24      -9.7839      2.00000
     25      -9.7809      2.00000
     26      -9.6089      2.00000
     27      -9.3854      2.00000
     28      -9.0927      2.00000
     29      -8.8981      2.00000
     30      -8.8871      2.00000
     31      -8.8389      2.00000
     32      -8.7956      2.00000
     33      -8.7708      2.00000
     34      -8.7399      2.00000
     35      -8.6203      2.00000
     36      -8.5290      2.00000
     37      -8.4678      2.00000
     38      -8.4412      2.00000
     39      -8.4166      2.00000
     40      -8.3296      2.00000
     41      -8.1631      2.00000
     42      -8.1534      2.00000
     43      -8.1496      2.00000
     44      -8.1270      2.00000
     45      -8.0609      2.00000
     46      -7.8495      2.00000
     47      -7.8051      2.00000
     48      -7.5777      2.00000
     49      -7.5167      2.00000
     50      -7.4900      2.00000
     51      -7.4712      2.00000
     52      -7.4436      2.00000
     53      -7.2952      2.00000
     54      -7.2362      2.00000
     55      -7.1682      2.00000
     56      -7.1467      2.00000
     57      -6.8745      2.00000
     58      -6.8478      2.00000
     59      -6.8267      2.00000
     60      -6.7440      2.00000
     61      -6.5493      2.00000
     62      -6.3095      2.00000
     63      -6.1373      2.00000
     64      -6.0858      2.00000
     65      -5.5158      2.00000
     66      -5.1632      2.00000
     67      -5.0545      2.00000
     68      -4.9626      2.00000
     69      -4.8685      2.00000
     70      -4.7575      2.00000
     71      -4.6660      2.00000
     72      -4.5100      2.00000
     73      -3.8289      2.00000
     74      -3.8075      2.00000
     75      -3.4204      2.00000
     76      -3.0521      0.19819
     77      -2.2263      0.00000
     78      -2.1847      0.00000
     79      -1.8407      0.00000
     80      -1.7072      0.00000
     81      -1.6572      0.00000
     82      -1.6350      0.00000
     83      -1.3660      0.00000
     84      -1.1896      0.00000
     85      -1.1084      0.00000
     86      -0.4796      0.00000
     87      -0.4075      0.00000
     88      -0.3692      0.00000
     89      -0.3382      0.00000
     90      -0.3123      0.00000
     91      -0.2953      0.00000
     92      -0.1645      0.00000
     93      -0.1153      0.00000
     94      -0.0807      0.00000
     95      -0.0585      0.00000
     96       0.0151      0.00000
     97       0.0369      0.00000
     98       0.7499      0.00000
     99       0.7891      0.00000
    100       0.8790      0.00000
    101       0.9046      0.00000
    102       0.9426      0.00000
    103       0.9946      0.00000
    104       1.0421      0.00000
    105       1.0787      0.00000
    106       1.2187      0.00000
    107       1.2389      0.00000
    108       1.2961      0.00000
    109       1.3397      0.00000
    110       1.3550      0.00000
    111       1.3783      0.00000
    112       1.4046      0.00000
    113       1.4307      0.00000
    114       1.4335      0.00000
    115       1.4585      0.00000
    116       1.4748      0.00000
    117       1.5479      0.00000
    118       1.5679      0.00000
    119       1.6020      0.00000
    120       1.6646      0.00000
    121       1.6778      0.00000
    122       1.6856      0.00000
    123       1.6931      0.00000
    124       1.7398      0.00000
    125       1.7521      0.00000
    126       1.7822      0.00000

 k-point    49 :       0.1538    0.3077    0.0000
  band No.  band energies     occupation 
      1     -13.4368      2.00000
      2     -13.2173      2.00000
      3     -13.0888      2.00000
      4     -12.7310      2.00000
      5     -12.4756      2.00000
      6     -11.9320      2.00000
      7     -11.7125      2.00000
      8     -11.6858      2.00000
      9     -11.5889      2.00000
     10     -11.4765      2.00000
     11     -11.4037      2.00000
     12     -11.3562      2.00000
     13     -11.3063      2.00000
     14     -11.2565      2.00000
     15     -11.0170      2.00000
     16     -10.7504      2.00000
     17     -10.5135      2.00000
     18     -10.4004      2.00000
     19     -10.2874      2.00000
     20     -10.0452      2.00000
     21      -9.9552      2.00000
     22      -9.9215      2.00000
     23      -9.9122      2.00000
     24      -9.8286      2.00000
     25      -9.8023      2.00000
     26      -9.7001      2.00000
     27      -9.2433      2.00000
     28      -9.2364      2.00000
     29      -9.0373      2.00000
     30      -8.9044      2.00000
     31      -8.8111      2.00000
     32      -8.6766      2.00000
     33      -8.6600      2.00000
     34      -8.6595      2.00000
     35      -8.5417      2.00000
     36      -8.5333      2.00000
     37      -8.4230      2.00000
     38      -8.3828      2.00000
     39      -8.3777      2.00000
     40      -8.3418      2.00000
     41      -8.3055      2.00000
     42      -8.3053      2.00000
     43      -8.2931      2.00000
     44      -8.2839      2.00000
     45      -8.0281      2.00000
     46      -7.8189      2.00000
     47      -7.6377      2.00000
     48      -7.6314      2.00000
     49      -7.4293      2.00000
     50      -7.4144      2.00000
     51      -7.4090      2.00000
     52      -7.4037      2.00000
     53      -7.3625      2.00000
     54      -7.2918      2.00000
     55      -7.2648      2.00000
     56      -7.2061      2.00000
     57      -6.9910      2.00000
     58      -6.8896      2.00000
     59      -6.7728      2.00000
     60      -6.7552      2.00000
     61      -6.7047      2.00000
     62      -6.0016      2.00000
     63      -5.8875      2.00000
     64      -5.8485      2.00000
     65      -5.8346      2.00000
     66      -5.2246      2.00000
     67      -5.1610      2.00000
     68      -5.0238      2.00000
     69      -4.8352      2.00000
     70      -4.6415      2.00000
     71      -4.4924      2.00000
     72      -4.2510      2.00000
     73      -4.0998      2.00000
     74      -4.0876      2.00000
     75      -3.3209      2.00000
     76      -3.2293      1.99981
     77      -2.6549      0.00000
     78      -2.4969      0.00000
     79      -1.5557      0.00000
     80      -1.5263      0.00000
     81      -1.4976      0.00000
     82      -1.3389      0.00000
     83      -1.2865      0.00000
     84      -1.2759      0.00000
     85      -0.8609      0.00000
     86      -0.4781      0.00000
     87      -0.3637      0.00000
     88      -0.3417      0.00000
     89      -0.3018      0.00000
     90      -0.2902      0.00000
     91      -0.2006      0.00000
     92      -0.1947      0.00000
     93      -0.1600      0.00000
     94      -0.1391      0.00000
     95      -0.0968      0.00000
     96      -0.0958      0.00000
     97       0.0182      0.00000
     98       0.7032      0.00000
     99       0.8695      0.00000
    100       1.0325      0.00000
    101       1.0847      0.00000
    102       1.0937      0.00000
    103       1.1064      0.00000
    104       1.1087      0.00000
    105       1.1115      0.00000
    106       1.1218      0.00000
    107       1.1513      0.00000
    108       1.1777      0.00000
    109       1.2081      0.00000
    110       1.3090      0.00000
    111       1.4221      0.00000
    112       1.4715      0.00000
    113       1.4865      0.00000
    114       1.5059      0.00000
    115       1.5163      0.00000
    116       1.5706      0.00000
    117       1.5725      0.00000
    118       1.5734      0.00000
    119       1.6005      0.00000
    120       1.6249      0.00000
    121       1.6434      0.00000
    122       1.7136      0.00000
    123       1.7169      0.00000
    124       1.7201      0.00000
    125       1.7452      0.00000
    126       1.7563      0.00000

 k-point    50 :       0.2308    0.3077    0.0000
  band No.  band energies     occupation 
      1     -13.3652      2.00000
      2     -13.2640      2.00000
      3     -13.1996      2.00000
      4     -12.5962      2.00000
      5     -12.4689      2.00000
      6     -11.8555      2.00000
      7     -11.7649      2.00000
      8     -11.7029      2.00000
      9     -11.6677      2.00000
     10     -11.6165      2.00000
     11     -11.4774      2.00000
     12     -11.2426      2.00000
     13     -11.1837      2.00000
     14     -11.1212      2.00000
     15     -11.0020      2.00000
     16     -10.8937      2.00000
     17     -10.7727      2.00000
     18     -10.2823      2.00000
     19     -10.2121      2.00000
     20     -10.1153      2.00000
     21     -10.0410      2.00000
     22      -9.9738      2.00000
     23      -9.7787      2.00000
     24      -9.6822      2.00000
     25      -9.6290      2.00000
     26      -9.6107      2.00000
     27      -9.3866      2.00000
     28      -9.2798      2.00000
     29      -9.0794      2.00000
     30      -8.9146      2.00000
     31      -8.7840      2.00000
     32      -8.7285      2.00000
     33      -8.6348      2.00000
     34      -8.5611      2.00000
     35      -8.5235      2.00000
     36      -8.4986      2.00000
     37      -8.4943      2.00000
     38      -8.4766      2.00000
     39      -8.4396      2.00000
     40      -8.4258      2.00000
     41      -8.3218      2.00000
     42      -8.2935      2.00000
     43      -8.2847      2.00000
     44      -8.2793      2.00000
     45      -7.8761      2.00000
     46      -7.7718      2.00000
     47      -7.7003      2.00000
     48      -7.5865      2.00000
     49      -7.4930      2.00000
     50      -7.3819      2.00000
     51      -7.3805      2.00000
     52      -7.3768      2.00000
     53      -7.3679      2.00000
     54      -7.3413      2.00000
     55      -7.2508      2.00000
     56      -7.2277      2.00000
     57      -7.1425      2.00000
     58      -7.0108      2.00000
     59      -6.8292      2.00000
     60      -6.6617      2.00000
     61      -6.6531      2.00000
     62      -6.1371      2.00000
     63      -5.6777      2.00000
     64      -5.6212      2.00000
     65      -5.5915      2.00000
     66      -5.4713      2.00000
     67      -5.3693      2.00000
     68      -5.2490      2.00000
     69      -4.4978      2.00000
     70      -4.4034      2.00000
     71      -4.3651      2.00000
     72      -4.3593      2.00000
     73      -4.2051      2.00000
     74      -3.9638      2.00000
     75      -3.3743      2.00000
     76      -3.2071      1.99805
     77      -3.0759      0.53938
     78      -2.7948      0.00000
     79      -1.5377      0.00000
     80      -1.5113      0.00000
     81      -1.4796      0.00000
     82      -1.4769      0.00000
     83      -1.2040      0.00000
     84      -0.8665      0.00000
     85      -0.6117      0.00000
     86      -0.4719      0.00000
     87      -0.3623      0.00000
     88      -0.2620      0.00000
     89      -0.2465      0.00000
     90      -0.2442      0.00000
     91      -0.2274      0.00000
     92      -0.2120      0.00000
     93      -0.1955      0.00000
     94      -0.1169      0.00000
     95      -0.0862      0.00000
     96      -0.0267      0.00000
     97       0.0215      0.00000
     98       0.4676      0.00000
     99       0.6518      0.00000
    100       0.9688      0.00000
    101       0.9790      0.00000
    102       0.9895      0.00000
    103       1.0073      0.00000
    104       1.0825      0.00000
    105       1.1610      0.00000
    106       1.1616      0.00000
    107       1.1710      0.00000
    108       1.1841      0.00000
    109       1.3952      0.00000
    110       1.3969      0.00000
    111       1.4446      0.00000
    112       1.4643      0.00000
    113       1.4763      0.00000
    114       1.5104      0.00000
    115       1.5241      0.00000
    116       1.5366      0.00000
    117       1.5646      0.00000
    118       1.5877      0.00000
    119       1.5881      0.00000
    120       1.5934      0.00000
    121       1.6421      0.00000
    122       1.6503      0.00000
    123       1.6640      0.00000
    124       1.6871      0.00000
    125       1.6938      0.00000
    126       1.7250      0.00000

 k-point    51 :       0.3077    0.3077    0.0000
  band No.  band energies     occupation 
      1     -13.2973      2.00000
      2     -13.2962      2.00000
      3     -13.2798      2.00000
      4     -12.4489      2.00000
      5     -12.4475      2.00000
      6     -11.8184      2.00000
      7     -11.8031      2.00000
      8     -11.8023      2.00000
      9     -11.7646      2.00000
     10     -11.6363      2.00000
     11     -11.6352      2.00000
     12     -11.0266      2.00000
     13     -11.0247      2.00000
     14     -11.0008      2.00000
     15     -10.9995      2.00000
     16     -10.9734      2.00000
     17     -10.9724      2.00000
     18     -10.2642      2.00000
     19     -10.2635      2.00000
     20     -10.2446      2.00000
     21     -10.0142      2.00000
     22     -10.0131      2.00000
     23      -9.5218      2.00000
     24      -9.5203      2.00000
     25      -9.5137      2.00000
     26      -9.5114      2.00000
     27      -9.4477      2.00000
     28      -9.4466      2.00000
     29      -8.9168      2.00000
     30      -8.9161      2.00000
     31      -8.7784      2.00000
     32      -8.7751      2.00000
     33      -8.7730      2.00000
     34      -8.7272      2.00000
     35      -8.6910      2.00000
     36      -8.6896      2.00000
     37      -8.5569      2.00000
     38      -8.5558      2.00000
     39      -8.4448      2.00000
     40      -8.2471      2.00000
     41      -8.2448      2.00000
     42      -8.2012      2.00000
     43      -8.1995      2.00000
     44      -8.1155      2.00000
     45      -7.7645      2.00000
     46      -7.7632      2.00000
     47      -7.7085      2.00000
     48      -7.7068      2.00000
     49      -7.5031      2.00000
     50      -7.5019      2.00000
     51      -7.4094      2.00000
     52      -7.3612      2.00000
     53      -7.3595      2.00000
     54      -7.2818      2.00000
     55      -7.2801      2.00000
     56      -7.2531      2.00000
     57      -7.1155      2.00000
     58      -7.1038      2.00000
     59      -6.9235      2.00000
     60      -6.5421      2.00000
     61      -6.5409      2.00000
     62      -6.4231      2.00000
     63      -5.7028      2.00000
     64      -5.7009      2.00000
     65      -5.3391      2.00000
     66      -5.3378      2.00000
     67      -5.3180      2.00000
     68      -5.3154      2.00000
     69      -4.6243      2.00000
     70      -4.6230      2.00000
     71      -4.1549      2.00000
     72      -4.1528      2.00000
     73      -3.8974      2.00000
     74      -3.6499      2.00000
     75      -3.4891      2.00000
     76      -3.4859      2.00000
     77      -3.0803      0.62519
     78      -3.0768      0.55690
     79      -1.7584      0.00000
     80      -1.7564      0.00000
     81      -1.5729      0.00000
     82      -1.5686      0.00000
     83      -1.0077      0.00000
     84      -0.4604      0.00000
     85      -0.4563      0.00000
     86      -0.3667      0.00000
     87      -0.3635      0.00000
     88      -0.2833      0.00000
     89      -0.2826      0.00000
     90      -0.2780      0.00000
     91      -0.2324      0.00000
     92      -0.2313      0.00000
     93      -0.1685      0.00000
     94       0.0456      0.00000
     95       0.0485      0.00000
     96       0.0783      0.00000
     97       0.0819      0.00000
     98       0.2110      0.00000
     99       0.2253      0.00000
    100       0.9044      0.00000
    101       0.9341      0.00000
    102       0.9376      0.00000
    103       1.0327      0.00000
    104       1.0330      0.00000
    105       1.0870      0.00000
    106       1.1547      0.00000
    107       1.1561      0.00000
    108       1.1874      0.00000
    109       1.1906      0.00000
    110       1.1940      0.00000
    111       1.2705      0.00000
    112       1.2735      0.00000
    113       1.2804      0.00000
    114       1.4586      0.00000
    115       1.4619      0.00000
    116       1.5911      0.00000
    117       1.5914      0.00000
    118       1.6282      0.00000
    119       1.6293      0.00000
    120       1.6396      0.00000
    121       1.6398      0.00000
    122       1.6457      0.00000
    123       1.7082      0.00000
    124       1.7349      0.00000
    125       1.8557      0.00000
    126       1.8591      0.00000

 k-point    52 :       0.3846    0.3077    0.0000
  band No.  band energies     occupation 
      1     -13.3798      2.00000
      2     -13.3156      2.00000
      3     -13.1806      2.00000
      4     -12.4144      2.00000
      5     -12.2864      2.00000
      6     -12.0089      2.00000
      7     -11.8880      2.00000
      8     -11.8262      2.00000
      9     -11.7804      2.00000
     10     -11.6596      2.00000
     11     -11.5907      2.00000
     12     -11.2691      2.00000
     13     -11.1478      2.00000
     14     -10.9305      2.00000
     15     -10.8111      2.00000
     16     -10.8071      2.00000
     17     -10.7490      2.00000
     18     -10.4388      2.00000
     19     -10.3996      2.00000
     20     -10.2326      2.00000
     21     -10.0425      2.00000
     22      -9.8044      2.00000
     23      -9.7567      2.00000
     24      -9.6475      2.00000
     25      -9.4097      2.00000
     26      -9.2589      2.00000
     27      -9.2474      2.00000
     28      -9.2079      2.00000
     29      -9.0281      2.00000
     30      -8.9235      2.00000
     31      -8.9105      2.00000
     32      -8.8923      2.00000
     33      -8.8790      2.00000
     34      -8.8153      2.00000
     35      -8.7483      2.00000
     36      -8.7271      2.00000
     37      -8.6552      2.00000
     38      -8.5965      2.00000
     39      -8.3106      2.00000
     40      -8.2791      2.00000
     41      -8.2296      2.00000
     42      -8.1073      2.00000
     43      -7.9860      2.00000
     44      -7.9554      2.00000
     45      -7.9276      2.00000
     46      -7.8292      2.00000
     47      -7.6531      2.00000
     48      -7.6413      2.00000
     49      -7.6271      2.00000
     50      -7.5221      2.00000
     51      -7.4054      2.00000
     52      -7.3761      2.00000
     53      -7.3744      2.00000
     54      -7.3468      2.00000
     55      -7.2973      2.00000
     56      -7.1668      2.00000
     57      -7.1577      2.00000
     58      -7.0290      2.00000
     59      -6.9876      2.00000
     60      -6.6922      2.00000
     61      -6.4204      2.00000
     62      -6.4122      2.00000
     63      -6.0190      2.00000
     64      -5.9178      2.00000
     65      -5.3651      2.00000
     66      -5.0406      2.00000
     67      -5.0227      2.00000
     68      -4.9836      2.00000
     69      -4.8807      2.00000
     70      -4.8754      2.00000
     71      -3.8955      2.00000
     72      -3.8833      2.00000
     73      -3.8040      2.00000
     74      -3.5759      2.00000
     75      -3.5726      2.00000
     76      -3.3463      2.00000
     77      -3.3095      2.00000
     78      -2.9373      0.00001
     79      -2.1118      0.00000
     80      -2.0775      0.00000
     81      -1.6817      0.00000
     82      -1.6586      0.00000
     83      -0.9922      0.00000
     84      -0.4425      0.00000
     85      -0.3737      0.00000
     86      -0.3576      0.00000
     87      -0.3373      0.00000
     88      -0.3272      0.00000
     89      -0.2744      0.00000
     90      -0.2425      0.00000
     91      -0.1970      0.00000
     92      -0.1236      0.00000
     93      -0.0761      0.00000
     94      -0.0615      0.00000
     95       0.0542      0.00000
     96       0.0945      0.00000
     97       0.1989      0.00000
     98       0.2058      0.00000
     99       0.3566      0.00000
    100       0.8544      0.00000
    101       0.8624      0.00000
    102       0.9035      0.00000
    103       0.9177      0.00000
    104       0.9230      0.00000
    105       0.9668      0.00000
    106       0.9907      0.00000
    107       1.0019      0.00000
    108       1.0658      0.00000
    109       1.0821      0.00000
    110       1.1136      0.00000
    111       1.1151      0.00000
    112       1.1175      0.00000
    113       1.2241      0.00000
    114       1.3283      0.00000
    115       1.3636      0.00000
    116       1.4782      0.00000
    117       1.5312      0.00000
    118       1.5597      0.00000
    119       1.6033      0.00000
    120       1.6799      0.00000
    121       1.7404      0.00000
    122       1.7516      0.00000
    123       1.7726      0.00000
    124       1.7868      0.00000
    125       1.8235      0.00000
    126       1.8478      0.00000

 k-point    53 :       0.4615    0.3077    0.0000
  band No.  band energies     occupation 
      1     -13.4489      2.00000
      2     -13.3204      2.00000
      3     -13.0678      2.00000
      4     -12.3669      2.00000
      5     -12.1877      2.00000
      6     -12.1120      2.00000
      7     -11.9589      2.00000
      8     -11.9119      2.00000
      9     -11.8349      2.00000
     10     -11.5407      2.00000
     11     -11.5318      2.00000
     12     -11.5038      2.00000
     13     -11.2577      2.00000
     14     -10.8742      2.00000
     15     -10.6370      2.00000
     16     -10.6223      2.00000
     17     -10.6044      2.00000
     18     -10.5227      2.00000
     19     -10.4917      2.00000
     20     -10.1881      2.00000
     21     -10.0590      2.00000
     22      -9.9868      2.00000
     23      -9.7636      2.00000
     24      -9.5871      2.00000
     25      -9.3000      2.00000
     26      -9.2848      2.00000
     27      -9.1710      2.00000
     28      -9.0960      2.00000
     29      -9.0643      2.00000
     30      -9.0034      2.00000
     31      -8.9904      2.00000
     32      -8.9679      2.00000
     33      -8.8955      2.00000
     34      -8.8485      2.00000
     35      -8.7363      2.00000
     36      -8.7174      2.00000
     37      -8.6187      2.00000
     38      -8.5782      2.00000
     39      -8.3780      2.00000
     40      -8.2315      2.00000
     41      -8.1587      2.00000
     42      -8.1584      2.00000
     43      -8.0132      2.00000
     44      -7.8938      2.00000
     45      -7.8296      2.00000
     46      -7.7904      2.00000
     47      -7.7896      2.00000
     48      -7.7638      2.00000
     49      -7.5295      2.00000
     50      -7.5157      2.00000
     51      -7.4195      2.00000
     52      -7.3694      2.00000
     53      -7.3391      2.00000
     54      -7.3204      2.00000
     55      -7.2997      2.00000
     56      -7.2002      2.00000
     57      -7.0753      2.00000
     58      -7.0206      2.00000
     59      -6.9702      2.00000
     60      -6.9442      2.00000
     61      -6.3216      2.00000
     62      -6.2895      2.00000
     63      -6.2741      2.00000
     64      -6.1174      2.00000
     65      -5.3901      2.00000
     66      -5.1307      2.00000
     67      -5.1195      2.00000
     68      -4.7271      2.00000
     69      -4.7124      2.00000
     70      -4.6151      2.00000
     71      -4.2656      2.00000
     72      -3.6366      2.00000
     73      -3.6272      2.00000
     74      -3.5993      2.00000
     75      -3.4538      2.00000
     76      -3.2376      1.99993
     77      -2.9422      0.00001
     78      -2.7819      0.00000
     79      -2.5007      0.00000
     80      -2.4161      0.00000
     81      -1.8609      0.00000
     82      -1.7959      0.00000
     83      -1.1944      0.00000
     84      -0.5866      0.00000
     85      -0.4192      0.00000
     86      -0.4177      0.00000
     87      -0.3889      0.00000
     88      -0.3853      0.00000
     89      -0.3604      0.00000
     90      -0.3104      0.00000
     91      -0.2520      0.00000
     92       0.0258      0.00000
     93       0.0584      0.00000
     94       0.1069      0.00000
     95       0.1642      0.00000
     96       0.2174      0.00000
     97       0.3497      0.00000
     98       0.3673      0.00000
     99       0.6655      0.00000
    100       0.6720      0.00000
    101       0.7330      0.00000
    102       0.7380      0.00000
    103       0.7557      0.00000
    104       0.8320      0.00000
    105       0.8508      0.00000
    106       0.8526      0.00000
    107       0.9006      0.00000
    108       0.9174      0.00000
    109       0.9368      0.00000
    110       0.9488      0.00000
    111       0.9900      0.00000
    112       1.0668      0.00000
    113       1.1815      0.00000
    114       1.3798      0.00000
    115       1.3845      0.00000
    116       1.4410      0.00000
    117       1.4480      0.00000
    118       1.5479      0.00000
    119       1.5840      0.00000
    120       1.6422      0.00000
    121       1.7303      0.00000
    122       1.7455      0.00000
    123       1.7664      0.00000
    124       1.7783      0.00000
    125       1.8803      0.00000
    126       1.8989      0.00000

 k-point    54 :      -0.4615    0.3077    0.0000
  band No.  band energies     occupation 
      1     -13.5040      2.00000
      2     -13.3111      2.00000
      3     -12.9415      2.00000
      4     -12.3542      2.00000
      5     -12.3059      2.00000
      6     -12.0299      2.00000
      7     -12.0151      2.00000
      8     -11.9249      2.00000
      9     -11.8289      2.00000
     10     -11.7282      2.00000
     11     -11.4592      2.00000
     12     -11.4080      2.00000
     13     -11.3559      2.00000
     14     -10.8045      2.00000
     15     -10.7947      2.00000
     16     -10.6328      2.00000
     17     -10.4510      2.00000
     18     -10.3929      2.00000
     19     -10.2294      2.00000
     20     -10.2090      2.00000
     21     -10.1305      2.00000
     22     -10.0635      2.00000
     23      -9.8693      2.00000
     24      -9.5400      2.00000
     25      -9.4268      2.00000
     26      -9.3626      2.00000
     27      -9.2998      2.00000
     28      -9.1858      2.00000
     29      -9.1305      2.00000
     30      -8.8742      2.00000
     31      -8.8714      2.00000
     32      -8.8653      2.00000
     33      -8.7995      2.00000
     34      -8.7463      2.00000
     35      -8.7297      2.00000
     36      -8.7173      2.00000
     37      -8.6232      2.00000
     38      -8.5306      2.00000
     39      -8.4087      2.00000
     40      -8.3686      2.00000
     41      -8.2508      2.00000
     42      -8.0261      2.00000
     43      -7.9887      2.00000
     44      -7.9578      2.00000
     45      -7.9461      2.00000
     46      -7.9207      2.00000
     47      -7.6309      2.00000
     48      -7.6182      2.00000
     49      -7.6116      2.00000
     50      -7.4943      2.00000
     51      -7.4150      2.00000
     52      -7.3877      2.00000
     53      -7.3389      2.00000
     54      -7.2888      2.00000
     55      -7.2070      2.00000
     56      -7.1789      2.00000
     57      -7.1026      2.00000
     58      -7.0206      2.00000
     59      -7.0134      2.00000
     60      -6.9399      2.00000
     61      -6.6086      2.00000
     62      -6.3011      2.00000
     63      -6.1487      2.00000
     64      -6.1266      2.00000
     65      -5.3906      2.00000
     66      -5.3736      2.00000
     67      -5.3554      2.00000
     68      -4.6313      2.00000
     69      -4.3989      2.00000
     70      -4.3856      2.00000
     71      -4.2339      2.00000
     72      -3.8371      2.00000
     73      -3.6743      2.00000
     74      -3.3509      2.00000
     75      -3.1074      1.21860
     76      -2.9020      0.00000
     77      -2.8974      0.00000
     78      -2.7611      0.00000
     79      -2.6133      0.00000
     80      -2.5479      0.00000
     81      -2.1142      0.00000
     82      -1.9809      0.00000
     83      -1.5162      0.00000
     84      -0.9655      0.00000
     85      -0.4671      0.00000
     86      -0.4308      0.00000
     87      -0.3999      0.00000
     88      -0.3857      0.00000
     89      -0.3835      0.00000
     90      -0.2817      0.00000
     91      -0.2428      0.00000
     92       0.0797      0.00000
     93       0.1908      0.00000
     94       0.2556      0.00000
     95       0.2826      0.00000
     96       0.3237      0.00000
     97       0.3429      0.00000
     98       0.4532      0.00000
     99       0.5069      0.00000
    100       0.5506      0.00000
    101       0.5643      0.00000
    102       0.5700      0.00000
    103       0.7317      0.00000
    104       0.7600      0.00000
    105       0.7884      0.00000
    106       0.7916      0.00000
    107       0.8737      0.00000
    108       0.8998      0.00000
    109       0.9804      0.00000
    110       0.9970      0.00000
    111       1.0028      0.00000
    112       1.0179      0.00000
    113       1.0263      0.00000
    114       1.3104      0.00000
    115       1.3696      0.00000
    116       1.4410      0.00000
    117       1.5031      0.00000
    118       1.5540      0.00000
    119       1.5555      0.00000
    120       1.5802      0.00000
    121       1.6564      0.00000
    122       1.7006      0.00000
    123       1.8105      0.00000
    124       1.8225      0.00000
    125       1.8544      0.00000
    126       1.9012      0.00000

 k-point    55 :      -0.3846    0.3077    0.0000
  band No.  band energies     occupation 
      1     -13.5450      2.00000
      2     -13.2877      2.00000
      3     -12.8019      2.00000
      4     -12.5082      2.00000
      5     -12.2316      2.00000
      6     -12.1341      2.00000
      7     -12.0566      2.00000
      8     -11.9416      2.00000
      9     -11.8082      2.00000
     10     -11.7255      2.00000
     11     -11.4419      2.00000
     12     -11.3731      2.00000
     13     -11.2621      2.00000
     14     -10.9553      2.00000
     15     -10.7293      2.00000
     16     -10.7215      2.00000
     17     -10.4221      2.00000
     18     -10.2538      2.00000
     19     -10.1736      2.00000
     20     -10.0601      2.00000
     21     -10.0563      2.00000
     22      -9.9646      2.00000
     23      -9.9638      2.00000
     24      -9.7910      2.00000
     25      -9.6866      2.00000
     26      -9.5019      2.00000
     27      -9.2562      2.00000
     28      -9.1329      2.00000
     29      -9.0686      2.00000
     30      -8.8920      2.00000
     31      -8.8449      2.00000
     32      -8.8384      2.00000
     33      -8.7283      2.00000
     34      -8.7242      2.00000
     35      -8.6635      2.00000
     36      -8.6101      2.00000
     37      -8.5820      2.00000
     38      -8.5220      2.00000
     39      -8.4967      2.00000
     40      -8.2844      2.00000
     41      -8.2429      2.00000
     42      -8.2378      2.00000
     43      -8.1083      2.00000
     44      -8.0214      2.00000
     45      -7.8315      2.00000
     46      -7.8011      2.00000
     47      -7.6925      2.00000
     48      -7.6032      2.00000
     49      -7.5365      2.00000
     50      -7.4747      2.00000
     51      -7.4281      2.00000
     52      -7.3962      2.00000
     53      -7.3472      2.00000
     54      -7.2834      2.00000
     55      -7.2648      2.00000
     56      -7.1923      2.00000
     57      -6.9852      2.00000
     58      -6.9737      2.00000
     59      -6.9366      2.00000
     60      -6.8795      2.00000
     61      -6.8690      2.00000
     62      -6.4689      2.00000
     63      -5.9979      2.00000
     64      -5.9694      2.00000
     65      -5.6090      2.00000
     66      -5.5829      2.00000
     67      -5.3639      2.00000
     68      -4.9786      2.00000
     69      -4.0594      2.00000
     70      -4.0569      2.00000
     71      -4.0430      2.00000
     72      -3.8419      2.00000
     73      -3.6910      2.00000
     74      -3.3045      2.00000
     75      -3.1051      1.16818
     76      -3.0688      0.41625
     77      -2.7711      0.00000
     78      -2.5587      0.00000
     79      -2.4317      0.00000
     80      -2.4288      0.00000
     81      -2.2045      0.00000
     82      -2.1277      0.00000
     83      -1.8718      0.00000
     84      -1.3334      0.00000
     85      -0.5013      0.00000
     86      -0.4610      0.00000
     87      -0.4157      0.00000
     88      -0.3973      0.00000
     89      -0.3462      0.00000
     90      -0.2272      0.00000
     91      -0.1713      0.00000
     92      -0.0460      0.00000
     93       0.1613      0.00000
     94       0.1631      0.00000
     95       0.2968      0.00000
     96       0.3348      0.00000
     97       0.3604      0.00000
     98       0.3683      0.00000
     99       0.3988      0.00000
    100       0.5250      0.00000
    101       0.5777      0.00000
    102       0.6347      0.00000
    103       0.6438      0.00000
    104       0.6748      0.00000
    105       0.7070      0.00000
    106       0.7464      0.00000
    107       0.8682      0.00000
    108       0.9239      0.00000
    109       0.9775      0.00000
    110       1.0230      0.00000
    111       1.0733      0.00000
    112       1.0813      0.00000
    113       1.1661      0.00000
    114       1.2559      0.00000
    115       1.3172      0.00000
    116       1.3234      0.00000
    117       1.5113      0.00000
    118       1.5824      0.00000
    119       1.5890      0.00000
    120       1.6021      0.00000
    121       1.6526      0.00000
    122       1.6870      0.00000
    123       1.7464      0.00000
    124       1.8484      0.00000
    125       1.9068      0.00000
    126       1.9297      0.00000

 k-point    56 :      -0.3077    0.3077    0.0000
  band No.  band energies     occupation 
      1     -13.5719      2.00000
      2     -13.2502      2.00000
      3     -12.6497      2.00000
      4     -12.6490      2.00000
      5     -12.2246      2.00000
      6     -12.1443      2.00000
      7     -12.1433      2.00000
      8     -12.0832      2.00000
      9     -11.7728      2.00000
     10     -11.5156      2.00000
     11     -11.5143      2.00000
     12     -11.2734      2.00000
     13     -11.1038      2.00000
     14     -11.1030      2.00000
     15     -10.8123      2.00000
     16     -10.6259      2.00000
     17     -10.6248      2.00000
     18     -10.0473      2.00000
     19     -10.0461      2.00000
     20     -10.0376      2.00000
     21     -10.0359      2.00000
     22      -9.9770      2.00000
     23      -9.9476      2.00000
     24      -9.9469      2.00000
     25      -9.7005      2.00000
     26      -9.6992      2.00000
     27      -9.3775      2.00000
     28      -8.9500      2.00000
     29      -8.9478      2.00000
     30      -8.9018      2.00000
     31      -8.9000      2.00000
     32      -8.8723      2.00000
     33      -8.7966      2.00000
     34      -8.7952      2.00000
     35      -8.7485      2.00000
     36      -8.5793      2.00000
     37      -8.4608      2.00000
     38      -8.4600      2.00000
     39      -8.3292      2.00000
     40      -8.3268      2.00000
     41      -8.2742      2.00000
     42      -8.2730      2.00000
     43      -8.0849      2.00000
     44      -8.0839      2.00000
     45      -7.7582      2.00000
     46      -7.7473      2.00000
     47      -7.7455      2.00000
     48      -7.5964      2.00000
     49      -7.5954      2.00000
     50      -7.4914      2.00000
     51      -7.4899      2.00000
     52      -7.3648      2.00000
     53      -7.3631      2.00000
     54      -7.2283      2.00000
     55      -7.1621      2.00000
     56      -7.1351      2.00000
     57      -7.1339      2.00000
     58      -6.9561      2.00000
     59      -6.9554      2.00000
     60      -6.9128      2.00000
     61      -6.6212      2.00000
     62      -6.6198      2.00000
     63      -5.8371      2.00000
     64      -5.8359      2.00000
     65      -5.8023      2.00000
     66      -5.8011      2.00000
     67      -5.3075      2.00000
     68      -5.3055      2.00000
     69      -4.2658      2.00000
     70      -3.7028      2.00000
     71      -3.7017      2.00000
     72      -3.6882      2.00000
     73      -3.6854      2.00000
     74      -3.4432      2.00000
     75      -3.4416      2.00000
     76      -2.7846      0.00000
     77      -2.7823      0.00000
     78      -2.4549      0.00000
     79      -2.4527      0.00000
     80      -2.2377      0.00000
     81      -2.2287      0.00000
     82      -2.2272      0.00000
     83      -1.6857      0.00000
     84      -1.6837      0.00000
     85      -0.5215      0.00000
     86      -0.4774      0.00000
     87      -0.4318      0.00000
     88      -0.4288      0.00000
     89      -0.4029      0.00000
     90      -0.3013      0.00000
     91      -0.2997      0.00000
     92       0.0082      0.00000
     93       0.0118      0.00000
     94       0.2110      0.00000
     95       0.2124      0.00000
     96       0.2606      0.00000
     97       0.2618      0.00000
     98       0.4401      0.00000
     99       0.4893      0.00000
    100       0.4896      0.00000
    101       0.5000      0.00000
    102       0.5018      0.00000
    103       0.6730      0.00000
    104       0.7106      0.00000
    105       0.7113      0.00000
    106       0.8499      0.00000
    107       0.8546      0.00000
    108       0.9494      0.00000
    109       0.9512      0.00000
    110       1.0007      0.00000
    111       1.0679      0.00000
    112       1.2042      0.00000
    113       1.2053      0.00000
    114       1.2210      0.00000
    115       1.2838      0.00000
    116       1.4869      0.00000
    117       1.5673      0.00000
    118       1.5978      0.00000
    119       1.6021      0.00000
    120       1.6027      0.00000
    121       1.6226      0.00000
    122       1.6299      0.00000
    123       1.8559      0.00000
    124       1.9567      0.00000
    125       1.9749      0.00000
    126       1.9927      0.00000

 k-point    57 :      -0.2308    0.3077    0.0000
  band No.  band energies     occupation 
      1     -13.5847      2.00000
      2     -13.1986      2.00000
      3     -12.7777      2.00000
      4     -12.4838      2.00000
      5     -12.3332      2.00000
      6     -12.3011      2.00000
      7     -12.0950      2.00000
      8     -12.0438      2.00000
      9     -11.7228      2.00000
     10     -11.5765      2.00000
     11     -11.2921      2.00000
     12     -11.2389      2.00000
     13     -11.1602      2.00000
     14     -10.9320      2.00000
     15     -10.8814      2.00000
     16     -10.8169      2.00000
     17     -10.5173      2.00000
     18     -10.2733      2.00000
     19     -10.2053      2.00000
     20     -10.1185      2.00000
     21     -10.0075      2.00000
     22      -9.8941      2.00000
     23      -9.8815      2.00000
     24      -9.8293      2.00000
     25      -9.7161      2.00000
     26      -9.4922      2.00000
     27      -9.4373      2.00000
     28      -9.1919      2.00000
     29      -9.0060      2.00000
     30      -8.9034      2.00000
     31      -8.8818      2.00000
     32      -8.8319      2.00000
     33      -8.7754      2.00000
     34      -8.7460      2.00000
     35      -8.6890      2.00000
     36      -8.6671      2.00000
     37      -8.5309      2.00000
     38      -8.4417      2.00000
     39      -8.3819      2.00000
     40      -8.2590      2.00000
     41      -8.1718      2.00000
     42      -8.1486      2.00000
     43      -8.0635      2.00000
     44      -7.9357      2.00000
     45      -7.9175      2.00000
     46      -7.8084      2.00000
     47      -7.7782      2.00000
     48      -7.6695      2.00000
     49      -7.5768      2.00000
     50      -7.5003      2.00000
     51      -7.3916      2.00000
     52      -7.3731      2.00000
     53      -7.3721      2.00000
     54      -7.2841      2.00000
     55      -7.1798      2.00000
     56      -7.1199      2.00000
     57      -6.9906      2.00000
     58      -6.9692      2.00000
     59      -6.9594      2.00000
     60      -6.8047      2.00000
     61      -6.7571      2.00000
     62      -6.3562      2.00000
     63      -6.0547      2.00000
     64      -6.0110      2.00000
     65      -5.6650      2.00000
     66      -5.6227      2.00000
     67      -5.6103      2.00000
     68      -5.2180      2.00000
     69      -4.4563      2.00000
     70      -4.0904      2.00000
     71      -3.7719      2.00000
     72      -3.6671      2.00000
     73      -3.3372      2.00000
     74      -3.3136      2.00000
     75      -3.1566      1.90476
     76      -3.0380      0.09212
     77      -2.7214      0.00000
     78      -2.5719      0.00000
     79      -2.5028      0.00000
     80      -2.1614      0.00000
     81      -2.0316      0.00000
     82      -2.0164      0.00000
     83      -1.9158      0.00000
     84      -1.2199      0.00000
     85      -0.8032      0.00000
     86      -0.5722      0.00000
     87      -0.5274      0.00000
     88      -0.4778      0.00000
     89      -0.4466      0.00000
     90      -0.4020      0.00000
     91      -0.2493      0.00000
     92      -0.1340      0.00000
     93       0.1498      0.00000
     94       0.2088      0.00000
     95       0.2456      0.00000
     96       0.2512      0.00000
     97       0.3203      0.00000
     98       0.3535      0.00000
     99       0.3667      0.00000
    100       0.3802      0.00000
    101       0.5372      0.00000
    102       0.5571      0.00000
    103       0.6521      0.00000
    104       0.6537      0.00000
    105       0.6581      0.00000
    106       0.8832      0.00000
    107       0.9367      0.00000
    108       1.0286      0.00000
    109       1.1014      0.00000
    110       1.1316      0.00000
    111       1.1586      0.00000
    112       1.2056      0.00000
    113       1.2557      0.00000
    114       1.2695      0.00000
    115       1.3359      0.00000
    116       1.4540      0.00000
    117       1.4883      0.00000
    118       1.5519      0.00000
    119       1.6109      0.00000
    120       1.6133      0.00000
    121       1.6962      0.00000
    122       1.7763      0.00000
    123       1.8034      0.00000
    124       1.8831      0.00000
    125       1.9378      0.00000
    126       1.9698      0.00000

 k-point    58 :      -0.1538    0.3077    0.0000
  band No.  band energies     occupation 
      1     -13.5833      2.00000
      2     -13.1330      2.00000
      3     -12.8927      2.00000
      4     -12.5105      2.00000
      5     -12.3638      2.00000
      6     -12.3058      2.00000
      7     -12.0920      2.00000
      8     -11.9307      2.00000
      9     -11.6582      2.00000
     10     -11.6246      2.00000
     11     -11.3611      2.00000
     12     -11.0594      2.00000
     13     -11.0338      2.00000
     14     -10.9970      2.00000
     15     -10.9366      2.00000
     16     -10.7488      2.00000
     17     -10.5016      2.00000
     18     -10.4594      2.00000
     19     -10.3967      2.00000
     20     -10.1777      2.00000
     21     -10.0815      2.00000
     22      -9.9664      2.00000
     23      -9.7741      2.00000
     24      -9.6043      2.00000
     25      -9.5986      2.00000
     26      -9.4806      2.00000
     27      -9.4491      2.00000
     28      -9.2119      2.00000
     29      -9.1829      2.00000
     30      -8.9210      2.00000
     31      -8.8972      2.00000
     32      -8.8733      2.00000
     33      -8.8056      2.00000
     34      -8.7168      2.00000
     35      -8.6873      2.00000
     36      -8.6090      2.00000
     37      -8.4650      2.00000
     38      -8.4398      2.00000
     39      -8.4370      2.00000
     40      -8.2143      2.00000
     41      -8.1141      2.00000
     42      -8.0692      2.00000
     43      -8.0610      2.00000
     44      -7.9427      2.00000
     45      -7.8733      2.00000
     46      -7.8428      2.00000
     47      -7.8007      2.00000
     48      -7.6849      2.00000
     49      -7.5996      2.00000
     50      -7.5932      2.00000
     51      -7.5701      2.00000
     52      -7.4273      2.00000
     53      -7.2350      2.00000
     54      -7.1329      2.00000
     55      -7.1196      2.00000
     56      -7.0671      2.00000
     57      -7.0383      2.00000
     58      -6.9833      2.00000
     59      -6.8777      2.00000
     60      -6.7866      2.00000
     61      -6.6644      2.00000
     62      -6.2636      2.00000
     63      -6.2109      2.00000
     64      -6.0778      2.00000
     65      -5.8898      2.00000
     66      -5.4825      2.00000
     67      -5.4309      2.00000
     68      -5.0939      2.00000
     69      -4.6308      2.00000
     70      -4.4675      2.00000
     71      -4.0895      2.00000
     72      -3.6291      2.00000
     73      -3.5386      2.00000
     74      -2.9967      0.00434
     75      -2.9636      0.00015
     76      -2.9284      0.00000
     77      -2.9014      0.00000
     78      -2.6380      0.00000
     79      -2.3217      0.00000
     80      -2.2325      0.00000
     81      -1.9036      0.00000
     82      -1.8145      0.00000
     83      -1.6331      0.00000
     84      -1.1670      0.00000
     85      -0.9497      0.00000
     86      -0.7398      0.00000
     87      -0.5190      0.00000
     88      -0.4614      0.00000
     89      -0.4590      0.00000
     90      -0.3961      0.00000
     91      -0.2489      0.00000
     92      -0.1921      0.00000
     93       0.0614      0.00000
     94       0.2193      0.00000
     95       0.2280      0.00000
     96       0.2382      0.00000
     97       0.2434      0.00000
     98       0.2841      0.00000
     99       0.3829      0.00000
    100       0.4092      0.00000
    101       0.5196      0.00000
    102       0.5304      0.00000
    103       0.6622      0.00000
    104       0.8198      0.00000
    105       0.8255      0.00000
    106       0.9392      0.00000
    107       1.0434      0.00000
    108       1.2052      0.00000
    109       1.2098      0.00000
    110       1.2138      0.00000
    111       1.2238      0.00000
    112       1.2428      0.00000
    113       1.2744      0.00000
    114       1.3606      0.00000
    115       1.3637      0.00000
    116       1.4264      0.00000
    117       1.4601      0.00000
    118       1.5561      0.00000
    119       1.6124      0.00000
    120       1.6142      0.00000
    121       1.6177      0.00000
    122       1.7443      0.00000
    123       1.7821      0.00000
    124       1.9050      0.00000
    125       1.9371      0.00000
    126       1.9377      0.00000

 k-point    59 :      -0.0769    0.3077    0.0000
  band No.  band energies     occupation 
      1     -13.5678      2.00000
      2     -13.0533      2.00000
      3     -12.9943      2.00000
      4     -12.6749      2.00000
      5     -12.4126      2.00000
      6     -12.1156      2.00000
      7     -12.0741      2.00000
      8     -11.8052      2.00000
      9     -11.6598      2.00000
     10     -11.5791      2.00000
     11     -11.4698      2.00000
     12     -11.1647      2.00000
     13     -10.9778      2.00000
     14     -10.8943      2.00000
     15     -10.8171      2.00000
     16     -10.7198      2.00000
     17     -10.7076      2.00000
     18     -10.5544      2.00000
     19     -10.2644      2.00000
     20     -10.2616      2.00000
     21     -10.2243      2.00000
     22      -9.9146      2.00000
     23      -9.7138      2.00000
     24      -9.6955      2.00000
     25      -9.6552      2.00000
     26      -9.4111      2.00000
     27      -9.3728      2.00000
     28      -9.2431      2.00000
     29      -9.1532      2.00000
     30      -8.9417      2.00000
     31      -8.8837      2.00000
     32      -8.8468      2.00000
     33      -8.8359      2.00000
     34      -8.7743      2.00000
     35      -8.6209      2.00000
     36      -8.6072      2.00000
     37      -8.5002      2.00000
     38      -8.3817      2.00000
     39      -8.3295      2.00000
     40      -8.2836      2.00000
     41      -8.2137      2.00000
     42      -8.0894      2.00000
     43      -8.0300      2.00000
     44      -7.8692      2.00000
     45      -7.8612      2.00000
     46      -7.8140      2.00000
     47      -7.7972      2.00000
     48      -7.7081      2.00000
     49      -7.6941      2.00000
     50      -7.6811      2.00000
     51      -7.5384      2.00000
     52      -7.4711      2.00000
     53      -7.2113      2.00000
     54      -7.1017      2.00000
     55      -7.0484      2.00000
     56      -7.0265      2.00000
     57      -7.0039      2.00000
     58      -6.9826      2.00000
     59      -6.8753      2.00000
     60      -6.5870      2.00000
     61      -6.4959      2.00000
     62      -6.4624      2.00000
     63      -6.4008      2.00000
     64      -6.1412      2.00000
     65      -5.7856      2.00000
     66      -5.2890      2.00000
     67      -5.2244      2.00000
     68      -4.9339      2.00000
     69      -4.8315      2.00000
     70      -4.7889      2.00000
     71      -4.3945      2.00000
     72      -3.9205      2.00000
     73      -3.5749      2.00000
     74      -3.2753      2.00000
     75      -3.2161      1.99920
     76      -2.5976      0.00000
     77      -2.5854      0.00000
     78      -2.5310      0.00000
     79      -2.2551      0.00000
     80      -1.9861      0.00000
     81      -1.6819      0.00000
     82      -1.5873      0.00000
     83      -1.5191      0.00000
     84      -1.3984      0.00000
     85      -1.3649      0.00000
     86      -0.4962      0.00000
     87      -0.4698      0.00000
     88      -0.4252      0.00000
     89      -0.3873      0.00000
     90      -0.3257      0.00000
     91      -0.2544      0.00000
     92      -0.1404      0.00000
     93      -0.0206      0.00000
     94      -0.0052      0.00000
     95       0.1135      0.00000
     96       0.1315      0.00000
     97       0.1381      0.00000
     98       0.2687      0.00000
     99       0.4262      0.00000
    100       0.5610      0.00000
    101       0.6767      0.00000
    102       0.6854      0.00000
    103       0.8329      0.00000
    104       0.9577      0.00000
    105       1.0009      0.00000
    106       1.0024      0.00000
    107       1.1926      0.00000
    108       1.1948      0.00000
    109       1.2267      0.00000
    110       1.2335      0.00000
    111       1.2986      0.00000
    112       1.3143      0.00000
    113       1.3651      0.00000
    114       1.3730      0.00000
    115       1.4109      0.00000
    116       1.4704      0.00000
    117       1.5401      0.00000
    118       1.5544      0.00000
    119       1.5644      0.00000
    120       1.5798      0.00000
    121       1.6015      0.00000
    122       1.6429      0.00000
    123       1.7926      0.00000
    124       1.8638      0.00000
    125       1.9058      0.00000
    126       1.9127      0.00000

 k-point    60 :       0.0000    0.3846    0.0000
  band No.  band energies     occupation 
      1     -13.4747      2.00000
      2     -13.2010      2.00000
      3     -12.9608      2.00000
      4     -12.8806      2.00000
      5     -12.3210      2.00000
      6     -11.9749      2.00000
      7     -11.8611      2.00000
      8     -11.7428      2.00000
      9     -11.6885      2.00000
     10     -11.4810      2.00000
     11     -11.4378      2.00000
     12     -11.3811      2.00000
     13     -11.1626      2.00000
     14     -10.9161      2.00000
     15     -10.8816      2.00000
     16     -10.8052      2.00000
     17     -10.6952      2.00000
     18     -10.4690      2.00000
     19     -10.4327      2.00000
     20     -10.1744      2.00000
     21     -10.1170      2.00000
     22      -9.8934      2.00000
     23      -9.6115      2.00000
     24      -9.6102      2.00000
     25      -9.5926      2.00000
     26      -9.5900      2.00000
     27      -9.5640      2.00000
     28      -9.1782      2.00000
     29      -9.0564      2.00000
     30      -9.0343      2.00000
     31      -8.8069      2.00000
     32      -8.7626      2.00000
     33      -8.7540      2.00000
     34      -8.7214      2.00000
     35      -8.6851      2.00000
     36      -8.5655      2.00000
     37      -8.4446      2.00000
     38      -8.3789      2.00000
     39      -8.3709      2.00000
     40      -8.3200      2.00000
     41      -8.2564      2.00000
     42      -8.1622      2.00000
     43      -8.1226      2.00000
     44      -8.0783      2.00000
     45      -7.9716      2.00000
     46      -7.8855      2.00000
     47      -7.7366      2.00000
     48      -7.6949      2.00000
     49      -7.5153      2.00000
     50      -7.4788      2.00000
     51      -7.4738      2.00000
     52      -7.4310      2.00000
     53      -7.2620      2.00000
     54      -7.2611      2.00000
     55      -7.2389      2.00000
     56      -7.1500      2.00000
     57      -6.9261      2.00000
     58      -6.8828      2.00000
     59      -6.7372      2.00000
     60      -6.6743      2.00000
     61      -6.4193      2.00000
     62      -6.3774      2.00000
     63      -6.3501      2.00000
     64      -6.0638      2.00000
     65      -5.4977      2.00000
     66      -5.2717      2.00000
     67      -5.0514      2.00000
     68      -4.7882      2.00000
     69      -4.7176      2.00000
     70      -4.6775      2.00000
     71      -4.5613      2.00000
     72      -4.4064      2.00000
     73      -3.8662      2.00000
     74      -3.8242      2.00000
     75      -3.8219      2.00000
     76      -3.2625      2.00000
     77      -2.0962      0.00000
     78      -1.9037      0.00000
     79      -1.8313      0.00000
     80      -1.7747      0.00000
     81      -1.6718      0.00000
     82      -1.6286      0.00000
     83      -1.4686      0.00000
     84      -1.4192      0.00000
     85      -1.1318      0.00000
     86      -0.3930      0.00000
     87      -0.3285      0.00000
     88      -0.3231      0.00000
     89      -0.2732      0.00000
     90      -0.2717      0.00000
     91      -0.1739      0.00000
     92      -0.1106      0.00000
     93      -0.0846      0.00000
     94      -0.0810      0.00000
     95      -0.0545      0.00000
     96       0.0316      0.00000
     97       0.2263      0.00000
     98       0.6655      0.00000
     99       0.7104      0.00000
    100       0.7785      0.00000
    101       0.8135      0.00000
    102       0.8947      0.00000
    103       0.9632      0.00000
    104       1.0315      0.00000
    105       1.0408      0.00000
    106       1.1190      0.00000
    107       1.1842      0.00000
    108       1.2859      0.00000
    109       1.3288      0.00000
    110       1.3648      0.00000
    111       1.3656      0.00000
    112       1.3908      0.00000
    113       1.4287      0.00000
    114       1.4412      0.00000
    115       1.4553      0.00000
    116       1.4870      0.00000
    117       1.4978      0.00000
    118       1.5071      0.00000
    119       1.5335      0.00000
    120       1.5767      0.00000
    121       1.7107      0.00000
    122       1.7141      0.00000
    123       1.7371      0.00000
    124       1.7413      0.00000
    125       1.7526      0.00000
    126       1.7844      0.00000

 k-point    61 :       0.0769    0.3846    0.0000
  band No.  band energies     occupation 
      1     -13.4220      2.00000
      2     -13.2666      2.00000
      3     -13.0099      2.00000
      4     -12.8444      2.00000
      5     -12.3331      2.00000
      6     -11.9177      2.00000
      7     -11.8614      2.00000
      8     -11.7601      2.00000
      9     -11.5231      2.00000
     10     -11.5134      2.00000
     11     -11.3899      2.00000
     12     -11.3636      2.00000
     13     -11.2820      2.00000
     14     -11.1036      2.00000
     15     -10.8848      2.00000
     16     -10.8549      2.00000
     17     -10.6314      2.00000
     18     -10.4445      2.00000
     19     -10.3828      2.00000
     20     -10.2073      2.00000
     21      -9.9549      2.00000
     22      -9.8160      2.00000
     23      -9.7824      2.00000
     24      -9.7348      2.00000
     25      -9.6766      2.00000
     26      -9.5161      2.00000
     27      -9.4129      2.00000
     28      -9.3354      2.00000
     29      -9.0174      2.00000
     30      -8.9253      2.00000
     31      -8.8715      2.00000
     32      -8.7944      2.00000
     33      -8.7606      2.00000
     34      -8.6456      2.00000
     35      -8.5375      2.00000
     36      -8.5023      2.00000
     37      -8.4688      2.00000
     38      -8.3981      2.00000
     39      -8.3254      2.00000
     40      -8.3104      2.00000
     41      -8.2877      2.00000
     42      -8.2408      2.00000
     43      -8.2341      2.00000
     44      -8.1245      2.00000
     45      -8.0941      2.00000
     46      -7.7736      2.00000
     47      -7.7598      2.00000
     48      -7.7077      2.00000
     49      -7.4082      2.00000
     50      -7.4000      2.00000
     51      -7.3799      2.00000
     52      -7.3639      2.00000
     53      -7.3539      2.00000
     54      -7.3200      2.00000
     55      -7.3073      2.00000
     56      -7.2530      2.00000
     57      -6.8955      2.00000
     58      -6.8243      2.00000
     59      -6.8140      2.00000
     60      -6.7797      2.00000
     61      -6.6111      2.00000
     62      -6.1557      2.00000
     63      -6.0464      2.00000
     64      -5.8211      2.00000
     65      -5.8180      2.00000
     66      -5.3171      2.00000
     67      -4.9408      2.00000
     68      -4.9187      2.00000
     69      -4.7910      2.00000
     70      -4.5573      2.00000
     71      -4.4620      2.00000
     72      -4.1769      2.00000
     73      -4.1303      2.00000
     74      -4.1028      2.00000
     75      -3.7257      2.00000
     76      -3.4675      2.00000
     77      -2.3317      0.00000
     78      -2.0858      0.00000
     79      -1.6760      0.00000
     80      -1.5634      0.00000
     81      -1.5117      0.00000
     82      -1.4949      0.00000
     83      -1.3765      0.00000
     84      -1.2504      0.00000
     85      -1.2023      0.00000
     86      -0.3307      0.00000
     87      -0.2960      0.00000
     88      -0.2785      0.00000
     89      -0.2509      0.00000
     90      -0.2331      0.00000
     91      -0.2207      0.00000
     92      -0.1913      0.00000
     93      -0.1638      0.00000
     94      -0.0738      0.00000
     95      -0.0588      0.00000
     96      -0.0189      0.00000
     97       0.1875      0.00000
     98       0.5282      0.00000
     99       0.8309      0.00000
    100       0.8878      0.00000
    101       1.0068      0.00000
    102       1.0905      0.00000
    103       1.1228      0.00000
    104       1.1381      0.00000
    105       1.1498      0.00000
    106       1.1702      0.00000
    107       1.1821      0.00000
    108       1.2008      0.00000
    109       1.2023      0.00000
    110       1.3061      0.00000
    111       1.3968      0.00000
    112       1.4054      0.00000
    113       1.4410      0.00000
    114       1.4687      0.00000
    115       1.4933      0.00000
    116       1.5046      0.00000
    117       1.5057      0.00000
    118       1.5892      0.00000
    119       1.6014      0.00000
    120       1.6054      0.00000
    121       1.6317      0.00000
    122       1.6498      0.00000
    123       1.6860      0.00000
    124       1.7109      0.00000
    125       1.7135      0.00000
    126       1.7299      0.00000

 k-point    62 :       0.1538    0.3846    0.0000
  band No.  band energies     occupation 
      1     -13.3554      2.00000
      2     -13.3183      2.00000
      3     -13.1256      2.00000
      4     -12.7143      2.00000
      5     -12.3314      2.00000
      6     -11.8483      2.00000
      7     -11.8459      2.00000
      8     -11.8173      2.00000
      9     -11.6318      2.00000
     10     -11.6071      2.00000
     11     -11.2932      2.00000
     12     -11.2786      2.00000
     13     -11.2324      2.00000
     14     -11.1150      2.00000
     15     -11.0043      2.00000
     16     -10.8742      2.00000
     17     -10.6442      2.00000
     18     -10.4458      2.00000
     19     -10.4431      2.00000
     20     -10.0323      2.00000
     21      -9.9440      2.00000
     22      -9.9414      2.00000
     23      -9.7309      2.00000
     24      -9.7280      2.00000
     25      -9.5672      2.00000
     26      -9.4850      2.00000
     27      -9.4341      2.00000
     28      -9.2526      2.00000
     29      -9.1675      2.00000
     30      -8.9731      2.00000
     31      -8.9309      2.00000
     32      -8.7628      2.00000
     33      -8.5679      2.00000
     34      -8.5570      2.00000
     35      -8.5520      2.00000
     36      -8.5487      2.00000
     37      -8.5087      2.00000
     38      -8.4584      2.00000
     39      -8.3725      2.00000
     40      -8.3224      2.00000
     41      -8.3207      2.00000
     42      -8.2907      2.00000
     43      -8.2786      2.00000
     44      -8.1581      2.00000
     45      -7.9755      2.00000
     46      -7.8258      2.00000
     47      -7.6625      2.00000
     48      -7.6004      2.00000
     49      -7.4921      2.00000
     50      -7.3920      2.00000
     51      -7.3854      2.00000
     52      -7.3726      2.00000
     53      -7.3634      2.00000
     54      -7.3541      2.00000
     55      -7.3011      2.00000
     56      -7.2303      2.00000
     57      -7.0420      2.00000
     58      -6.9599      2.00000
     59      -6.7692      2.00000
     60      -6.6922      2.00000
     61      -6.6668      2.00000
     62      -6.1280      2.00000
     63      -5.9118      2.00000
     64      -5.7265      2.00000
     65      -5.5673      2.00000
     66      -5.5561      2.00000
     67      -5.2646      2.00000
     68      -4.8872      2.00000
     69      -4.5995      2.00000
     70      -4.3879      2.00000
     71      -4.3699      2.00000
     72      -4.3162      2.00000
     73      -4.1864      2.00000
     74      -3.9160      2.00000
     75      -3.6389      2.00000
     76      -3.6143      2.00000
     77      -2.7548      0.00000
     78      -2.3834      0.00000
     79      -1.5535      0.00000
     80      -1.4837      0.00000
     81      -1.4821      0.00000
     82      -1.4800      0.00000
     83      -1.2540      0.00000
     84      -1.2083      0.00000
     85      -0.9289      0.00000
     86      -0.2594      0.00000
     87      -0.2545      0.00000
     88      -0.2503      0.00000
     89      -0.2437      0.00000
     90      -0.2313      0.00000
     91      -0.1938      0.00000
     92      -0.1896      0.00000
     93      -0.1692      0.00000
     94      -0.1541      0.00000
     95      -0.0639      0.00000
     96       0.0856      0.00000
     97       0.1697      0.00000
     98       0.3274      0.00000
     99       0.8040      0.00000
    100       0.8997      0.00000
    101       0.9810      0.00000
    102       0.9829      0.00000
    103       1.0157      0.00000
    104       1.0293      0.00000
    105       1.0611      0.00000
    106       1.1799      0.00000
    107       1.2118      0.00000
    108       1.2131      0.00000
    109       1.2523      0.00000
    110       1.3151      0.00000
    111       1.3499      0.00000
    112       1.4216      0.00000
    113       1.4496      0.00000
    114       1.5367      0.00000
    115       1.5425      0.00000
    116       1.5468      0.00000
    117       1.5730      0.00000
    118       1.5998      0.00000
    119       1.6299      0.00000
    120       1.6358      0.00000
    121       1.6554      0.00000
    122       1.6790      0.00000
    123       1.6844      0.00000
    124       1.7074      0.00000
    125       1.8065      0.00000
    126       1.8181      0.00000

 k-point    63 :       0.2308    0.3846    0.0000
  band No.  band energies     occupation 
      1     -13.3561      2.00000
      2     -13.2749      2.00000
      3     -13.2275      2.00000
      4     -12.5707      2.00000
      5     -12.3160      2.00000
      6     -11.8600      2.00000
      7     -11.8213      2.00000
      8     -11.8136      2.00000
      9     -11.7599      2.00000
     10     -11.7360      2.00000
     11     -11.4410      2.00000
     12     -11.1429      2.00000
     13     -11.0878      2.00000
     14     -11.0540      2.00000
     15     -10.9375      2.00000
     16     -10.8993      2.00000
     17     -10.8497      2.00000
     18     -10.4282      2.00000
     19     -10.2489      2.00000
     20     -10.2402      2.00000
     21     -10.0941      2.00000
     22      -9.7739      2.00000
     23      -9.6739      2.00000
     24      -9.6260      2.00000
     25      -9.4952      2.00000
     26      -9.4087      2.00000
     27      -9.3915      2.00000
     28      -9.3449      2.00000
     29      -9.0844      2.00000
     30      -8.9840      2.00000
     31      -8.9258      2.00000
     32      -8.7593      2.00000
     33      -8.7143      2.00000
     34      -8.6628      2.00000
     35      -8.6428      2.00000
     36      -8.6110      2.00000
     37      -8.5638      2.00000
     38      -8.4932      2.00000
     39      -8.4402      2.00000
     40      -8.3259      2.00000
     41      -8.2761      2.00000
     42      -8.2191      2.00000
     43      -8.1160      2.00000
     44      -8.0732      2.00000
     45      -7.8918      2.00000
     46      -7.8095      2.00000
     47      -7.6513      2.00000
     48      -7.6008      2.00000
     49      -7.5071      2.00000
     50      -7.4971      2.00000
     51      -7.4625      2.00000
     52      -7.3919      2.00000
     53      -7.3817      2.00000
     54      -7.3370      2.00000
     55      -7.2308      2.00000
     56      -7.1760      2.00000
     57      -7.1178      2.00000
     58      -7.0759      2.00000
     59      -6.8941      2.00000
     60      -6.5608      2.00000
     61      -6.5443      2.00000
     62      -6.4185      2.00000
     63      -5.8016      2.00000
     64      -5.6473      2.00000
     65      -5.5976      2.00000
     66      -5.3908      2.00000
     67      -5.2781      2.00000
     68      -4.9653      2.00000
     69      -4.6383      2.00000
     70      -4.6270      2.00000
     71      -4.2498      2.00000
     72      -4.0654      2.00000
     73      -3.8898      2.00000
     74      -3.7778      2.00000
     75      -3.6263      2.00000
     76      -3.4880      2.00000
     77      -3.1693      1.95753
     78      -2.6671      0.00000
     79      -1.7803      0.00000
     80      -1.7334      0.00000
     81      -1.5939      0.00000
     82      -1.5414      0.00000
     83      -1.0166      0.00000
     84      -0.8372      0.00000
     85      -0.6511      0.00000
     86      -0.3148      0.00000
     87      -0.2886      0.00000
     88      -0.2546      0.00000
     89      -0.2538      0.00000
     90      -0.2123      0.00000
     91      -0.1647      0.00000
     92      -0.1570      0.00000
     93      -0.0704      0.00000
     94      -0.0388      0.00000
     95      -0.0348      0.00000
     96       0.1175      0.00000
     97       0.1732      0.00000
     98       0.2124      0.00000
     99       0.3308      0.00000
    100       0.9255      0.00000
    101       0.9467      0.00000
    102       0.9491      0.00000
    103       0.9598      0.00000
    104       0.9839      0.00000
    105       1.0931      0.00000
    106       1.1178      0.00000
    107       1.1188      0.00000
    108       1.1407      0.00000
    109       1.1749      0.00000
    110       1.1796      0.00000
    111       1.2051      0.00000
    112       1.2696      0.00000
    113       1.2835      0.00000
    114       1.5157      0.00000
    115       1.5276      0.00000
    116       1.5604      0.00000
    117       1.5711      0.00000
    118       1.5997      0.00000
    119       1.6519      0.00000
    120       1.6794      0.00000
    121       1.7142      0.00000
    122       1.7144      0.00000
    123       1.7260      0.00000
    124       1.7278      0.00000
    125       1.7387      0.00000
    126       1.8324      0.00000

 k-point    64 :       0.3077    0.3846    0.0000
  band No.  band energies     occupation 
      1     -13.3799      2.00000
      2     -13.3155      2.00000
      3     -13.1806      2.00000
      4     -12.4138      2.00000
      5     -12.2871      2.00000
      6     -12.0089      2.00000
      7     -11.8882      2.00000
      8     -11.8260      2.00000
      9     -11.7808      2.00000
     10     -11.6596      2.00000
     11     -11.5903      2.00000
     12     -11.2702      2.00000
     13     -11.1466      2.00000
     14     -10.9299      2.00000
     15     -10.8117      2.00000
     16     -10.8065      2.00000
     17     -10.7498      2.00000
     18     -10.4387      2.00000
     19     -10.3999      2.00000
     20     -10.2323      2.00000
     21     -10.0414      2.00000
     22      -9.8055      2.00000
     23      -9.7578      2.00000
     24      -9.6464      2.00000
     25      -9.4077      2.00000
     26      -9.2582      2.00000
     27      -9.2495      2.00000
     28      -9.2087      2.00000
     29      -9.0301      2.00000
     30      -8.9245      2.00000
     31      -8.9098      2.00000
     32      -8.8911      2.00000
     33      -8.8794      2.00000
     34      -8.8133      2.00000
     35      -8.7490      2.00000
     36      -8.7269      2.00000
     37      -8.6553      2.00000
     38      -8.5963      2.00000
     39      -8.3107      2.00000
     40      -8.2814      2.00000
     41      -8.2274      2.00000
     42      -8.1056      2.00000
     43      -7.9876      2.00000
     44      -7.9566      2.00000
     45      -7.9278      2.00000
     46      -7.8281      2.00000
     47      -7.6541      2.00000
     48      -7.6402      2.00000
     49      -7.6266      2.00000
     50      -7.5226      2.00000
     51      -7.4056      2.00000
     52      -7.3777      2.00000
     53      -7.3740      2.00000
     54      -7.3451      2.00000
     55      -7.2971      2.00000
     56      -7.1668      2.00000
     57      -7.1578      2.00000
     58      -7.0291      2.00000
     59      -6.9875      2.00000
     60      -6.6922      2.00000
     61      -6.4203      2.00000
     62      -6.4123      2.00000
     63      -6.0200      2.00000
     64      -5.9168      2.00000
     65      -5.3635      2.00000
     66      -5.0399      2.00000
     67      -5.0244      2.00000
     68      -4.9844      2.00000
     69      -4.8810      2.00000
     70      -4.8752      2.00000
     71      -3.8941      2.00000
     72      -3.8858      2.00000
     73      -3.8054      2.00000
     74      -3.5731      2.00000
     75      -3.5726      2.00000
     76      -3.3472      2.00000
     77      -3.3097      2.00000
     78      -2.9364      0.00001
     79      -2.1130      0.00000
     80      -2.0761      0.00000
     81      -1.6853      0.00000
     82      -1.6550      0.00000
     83      -0.9928      0.00000
     84      -0.4391      0.00000
     85      -0.3723      0.00000
     86      -0.3576      0.00000
     87      -0.3373      0.00000
     88      -0.3271      0.00000
     89      -0.2758      0.00000
     90      -0.2413      0.00000
     91      -0.1965      0.00000
     92      -0.1247      0.00000
     93      -0.0794      0.00000
     94      -0.0615      0.00000
     95       0.0542      0.00000
     96       0.0948      0.00000
     97       0.1983      0.00000
     98       0.2099      0.00000
     99       0.3523      0.00000
    100       0.8570      0.00000
    101       0.8626      0.00000
    102       0.9004      0.00000
    103       0.9149      0.00000
    104       0.9229      0.00000
    105       0.9671      0.00000
    106       0.9935      0.00000
    107       1.0021      0.00000
    108       1.0662      0.00000
    109       1.0815      0.00000
    110       1.1121      0.00000
    111       1.1139      0.00000
    112       1.1173      0.00000
    113       1.2240      0.00000
    114       1.3295      0.00000
    115       1.3641      0.00000
    116       1.4780      0.00000
    117       1.5310      0.00000
    118       1.5599      0.00000
    119       1.6034      0.00000
    120       1.6800      0.00000
    121       1.7380      0.00000
    122       1.7511      0.00000
    123       1.7747      0.00000
    124       1.7868      0.00000
    125       1.8234      0.00000
    126       1.8483      0.00000

 k-point    65 :       0.3846    0.3846    0.0000
  band No.  band energies     occupation 
      1     -13.3901      2.00000
      2     -13.3891      2.00000
      3     -13.0727      2.00000
      4     -12.2450      2.00000
      5     -12.2435      2.00000
      6     -12.1924      2.00000
      7     -11.9019      2.00000
      8     -11.9012      2.00000
      9     -11.7270      2.00000
     10     -11.7259      2.00000
     11     -11.5454      2.00000
     12     -11.3862      2.00000
     13     -11.3845      2.00000
     14     -10.7602      2.00000
     15     -10.7591      2.00000
     16     -10.6268      2.00000
     17     -10.5530      2.00000
     18     -10.5517      2.00000
     19     -10.3584      2.00000
     20     -10.3578      2.00000
     21      -9.8796      2.00000
     22      -9.8783      2.00000
     23      -9.8257      2.00000
     24      -9.8244      2.00000
     25      -9.1491      2.00000
     26      -9.1467      2.00000
     27      -9.1369      2.00000
     28      -9.1355      2.00000
     29      -9.0684      2.00000
     30      -9.0664      2.00000
     31      -9.0202      2.00000
     32      -9.0192      2.00000
     33      -8.8558      2.00000
     34      -8.8009      2.00000
     35      -8.7314      2.00000
     36      -8.7306      2.00000
     37      -8.6823      2.00000
     38      -8.6812      2.00000
     39      -8.3050      2.00000
     40      -8.3027      2.00000
     41      -8.1632      2.00000
     42      -8.0195      2.00000
     43      -8.0184      2.00000
     44      -7.9029      2.00000
     45      -7.9011      2.00000
     46      -7.8115      2.00000
     47      -7.8103      2.00000
     48      -7.7607      2.00000
     49      -7.4283      2.00000
     50      -7.4266      2.00000
     51      -7.4056      2.00000
     52      -7.4039      2.00000
     53      -7.3805      2.00000
     54      -7.3787      2.00000
     55      -7.3382      2.00000
     56      -7.2287      2.00000
     57      -7.0811      2.00000
     58      -7.0504      2.00000
     59      -6.9664      2.00000
     60      -6.9488      2.00000
     61      -6.2715      2.00000
     62      -6.2702      2.00000
     63      -6.2227      2.00000
     64      -6.2208      2.00000
     65      -5.1162      2.00000
     66      -5.1149      2.00000
     67      -5.0638      2.00000
     68      -5.0610      2.00000
     69      -4.6758      2.00000
     70      -4.6744      2.00000
     71      -3.9658      2.00000
     72      -3.9627      2.00000
     73      -3.5377      2.00000
     74      -3.5354      2.00000
     75      -3.2393      1.99994
     76      -3.1932      1.99316
     77      -3.1898      1.99089
     78      -2.9672      0.00023
     79      -2.4617      0.00000
     80      -2.4601      0.00000
     81      -1.8296      0.00000
     82      -1.8262      0.00000
     83      -1.1717      0.00000
     84      -0.6185      0.00000
     85      -0.3885      0.00000
     86      -0.3878      0.00000
     87      -0.3786      0.00000
     88      -0.2856      0.00000
     89      -0.2835      0.00000
     90      -0.0991      0.00000
     91      -0.0961      0.00000
     92      -0.0933      0.00000
     93      -0.0907      0.00000
     94       0.0279      0.00000
     95       0.0546      0.00000
     96       0.2441      0.00000
     97       0.2468      0.00000
     98       0.5022      0.00000
     99       0.5069      0.00000
    100       0.7395      0.00000
    101       0.7425      0.00000
    102       0.7621      0.00000
    103       0.8102      0.00000
    104       0.8274      0.00000
    105       0.8296      0.00000
    106       0.9049      0.00000
    107       0.9051      0.00000
    108       0.9452      0.00000
    109       0.9816      0.00000
    110       0.9834      0.00000
    111       1.0188      0.00000
    112       1.0224      0.00000
    113       1.1884      0.00000
    114       1.1915      0.00000
    115       1.3737      0.00000
    116       1.4598      0.00000
    117       1.4600      0.00000
    118       1.5093      0.00000
    119       1.5095      0.00000
    120       1.7132      0.00000
    121       1.7162      0.00000
    122       1.7859      0.00000
    123       1.7870      0.00000
    124       1.8051      0.00000
    125       1.8052      0.00000
    126       1.8209      0.00000

 k-point    66 :       0.4615    0.3846    0.0000
  band No.  band energies     occupation 
      1     -13.4496      2.00000
      2     -13.3853      2.00000
      3     -12.9513      2.00000
      4     -12.3638      2.00000
      5     -12.1888      2.00000
      6     -12.0612      2.00000
      7     -11.9624      2.00000
      8     -11.9003      2.00000
      9     -11.8488      2.00000
     10     -11.6587      2.00000
     11     -11.6131      2.00000
     12     -11.4897      2.00000
     13     -11.4175      2.00000
     14     -10.8038      2.00000
     15     -10.6951      2.00000
     16     -10.5767      2.00000
     17     -10.4709      2.00000
     18     -10.3470      2.00000
     19     -10.3033      2.00000
     20     -10.2919      2.00000
     21     -10.1032      2.00000
     22      -9.9905      2.00000
     23      -9.8343      2.00000
     24      -9.5991      2.00000
     25      -9.3904      2.00000
     26      -9.3487      2.00000
     27      -9.3198      2.00000
     28      -9.0983      2.00000
     29      -9.0447      2.00000
     30      -8.9374      2.00000
     31      -8.8964      2.00000
     32      -8.8271      2.00000
     33      -8.7833      2.00000
     34      -8.7811      2.00000
     35      -8.7493      2.00000
     36      -8.7062      2.00000
     37      -8.6905      2.00000
     38      -8.5492      2.00000
     39      -8.4363      2.00000
     40      -8.3442      2.00000
     41      -8.2181      2.00000
     42      -8.0798      2.00000
     43      -8.0029      2.00000
     44      -7.9980      2.00000
     45      -7.9767      2.00000
     46      -7.8206      2.00000
     47      -7.7182      2.00000
     48      -7.6203      2.00000
     49      -7.4985      2.00000
     50      -7.4419      2.00000
     51      -7.3912      2.00000
     52      -7.3900      2.00000
     53      -7.3435      2.00000
     54      -7.3161      2.00000
     55      -7.2604      2.00000
     56      -7.2112      2.00000
     57      -7.1881      2.00000
     58      -7.0826      2.00000
     59      -7.0135      2.00000
     60      -6.9311      2.00000
     61      -6.5106      2.00000
     62      -6.4084      2.00000
     63      -6.1201      2.00000
     64      -6.1126      2.00000
     65      -5.3478      2.00000
     66      -5.3420      2.00000
     67      -5.0805      2.00000
     68      -4.7422      2.00000
     69      -4.3520      2.00000
     70      -4.3385      2.00000
     71      -4.2964      2.00000
     72      -4.0192      2.00000
     73      -3.4310      2.00000
     74      -3.2626      2.00000
     75      -3.1797      1.97985
     76      -3.0223      0.03335
     77      -2.8941      0.00000
     78      -2.8609      0.00000
     79      -2.8144      0.00000
     80      -2.5983      0.00000
     81      -2.0642      0.00000
     82      -2.0218      0.00000
     83      -1.4789      0.00000
     84      -1.0257      0.00000
     85      -0.4365      0.00000
     86      -0.4128      0.00000
     87      -0.4068      0.00000
     88      -0.2782      0.00000
     89      -0.2657      0.00000
     90      -0.1178      0.00000
     91      -0.0775      0.00000
     92       0.0835      0.00000
     93       0.1109      0.00000
     94       0.1704      0.00000
     95       0.1831      0.00000
     96       0.3137      0.00000
     97       0.4123      0.00000
     98       0.5387      0.00000
     99       0.5745      0.00000
    100       0.6607      0.00000
    101       0.6753      0.00000
    102       0.6827      0.00000
    103       0.7095      0.00000
    104       0.7810      0.00000
    105       0.7912      0.00000
    106       0.8270      0.00000
    107       0.8280      0.00000
    108       0.8297      0.00000
    109       0.8468      0.00000
    110       0.9031      0.00000
    111       0.9061      0.00000
    112       0.9085      0.00000
    113       1.0194      0.00000
    114       1.3026      0.00000
    115       1.3796      0.00000
    116       1.4334      0.00000
    117       1.4613      0.00000
    118       1.5056      0.00000
    119       1.5419      0.00000
    120       1.5519      0.00000
    121       1.6530      0.00000
    122       1.7253      0.00000
    123       1.7531      0.00000
    124       1.8041      0.00000
    125       1.8100      0.00000
    126       1.8336      0.00000

 k-point    67 :      -0.4615    0.3846    0.0000
  band No.  band energies     occupation 
      1     -13.4955      2.00000
      2     -13.3668      2.00000
      3     -12.8166      2.00000
      4     -12.5227      2.00000
      5     -12.1197      2.00000
      6     -12.0086      2.00000
      7     -11.9577      2.00000
      8     -11.8843      2.00000
      9     -11.8662      2.00000
     10     -11.8306      2.00000
     11     -11.5812      2.00000
     12     -11.5770      2.00000
     13     -11.2762      2.00000
     14     -10.9691      2.00000
     15     -10.6170      2.00000
     16     -10.5705      2.00000
     17     -10.3825      2.00000
     18     -10.3192      2.00000
     19     -10.2351      2.00000
     20     -10.1334      2.00000
     21     -10.0903      2.00000
     22     -10.0283      2.00000
     23      -9.8316      2.00000
     24      -9.6505      2.00000
     25      -9.5705      2.00000
     26      -9.5585      2.00000
     27      -9.3670      2.00000
     28      -9.1194      2.00000
     29      -9.0429      2.00000
     30      -8.9382      2.00000
     31      -8.7990      2.00000
     32      -8.7550      2.00000
     33      -8.6814      2.00000
     34      -8.6730      2.00000
     35      -8.6630      2.00000
     36      -8.6312      2.00000
     37      -8.6159      2.00000
     38      -8.5472      2.00000
     39      -8.4234      2.00000
     40      -8.3960      2.00000
     41      -8.3682      2.00000
     42      -8.2122      2.00000
     43      -8.1477      2.00000
     44      -8.1373      2.00000
     45      -7.8150      2.00000
     46      -7.7425      2.00000
     47      -7.5779      2.00000
     48      -7.5622      2.00000
     49      -7.5382      2.00000
     50      -7.5127      2.00000
     51      -7.4106      2.00000
     52      -7.4099      2.00000
     53      -7.3808      2.00000
     54      -7.3615      2.00000
     55      -7.2623      2.00000
     56      -7.1877      2.00000
     57      -7.0837      2.00000
     58      -6.9792      2.00000
     59      -6.9649      2.00000
     60      -6.9228      2.00000
     61      -6.7842      2.00000
     62      -6.5783      2.00000
     63      -5.9596      2.00000
     64      -5.9455      2.00000
     65      -5.5724      2.00000
     66      -5.5599      2.00000
     67      -5.0740      2.00000
     68      -4.6978      2.00000
     69      -4.4064      2.00000
     70      -4.0491      2.00000
     71      -4.0149      2.00000
     72      -3.9066      2.00000
     73      -3.6558      2.00000
     74      -3.2647      2.00000
     75      -3.1650      1.94368
     76      -2.9838      0.00129
     77      -2.8390      0.00000
     78      -2.8324      0.00000
     79      -2.5453      0.00000
     80      -2.3623      0.00000
     81      -2.2512      0.00000
     82      -2.2024      0.00000
     83      -1.8353      0.00000
     84      -1.4127      0.00000
     85      -0.4716      0.00000
     86      -0.4391      0.00000
     87      -0.4140      0.00000
     88      -0.2213      0.00000
     89      -0.1979      0.00000
     90      -0.1559      0.00000
     91      -0.0629      0.00000
     92       0.0774      0.00000
     93       0.1690      0.00000
     94       0.3138      0.00000
     95       0.3233      0.00000
     96       0.4034      0.00000
     97       0.4044      0.00000
     98       0.4109      0.00000
     99       0.4233      0.00000
    100       0.5358      0.00000
    101       0.5923      0.00000
    102       0.6234      0.00000
    103       0.6691      0.00000
    104       0.7680      0.00000
    105       0.7856      0.00000
    106       0.8049      0.00000
    107       0.8167      0.00000
    108       0.8257      0.00000
    109       0.8350      0.00000
    110       0.8583      0.00000
    111       0.9014      0.00000
    112       0.9261      0.00000
    113       1.1543      0.00000
    114       1.3008      0.00000
    115       1.3188      0.00000
    116       1.3759      0.00000
    117       1.4080      0.00000
    118       1.4822      0.00000
    119       1.5189      0.00000
    120       1.5623      0.00000
    121       1.6647      0.00000
    122       1.7021      0.00000
    123       1.7283      0.00000
    124       1.8078      0.00000
    125       1.8284      0.00000
    126       1.9211      0.00000

 k-point    68 :      -0.3846    0.3846    0.0000
  band No.  band energies     occupation 
      1     -13.5273      2.00000
      2     -13.3343      2.00000
      3     -12.6692      2.00000
      4     -12.6685      2.00000
      5     -12.0529      2.00000
      6     -12.0400      2.00000
      7     -12.0376      2.00000
      8     -12.0365      2.00000
      9     -11.8536      2.00000
     10     -11.6603      2.00000
     11     -11.6590      2.00000
     12     -11.4818      2.00000
     13     -11.1224      2.00000
     14     -11.1216      2.00000
     15     -10.6568      2.00000
     16     -10.5263      2.00000
     17     -10.5253      2.00000
     18     -10.1787      2.00000
     19     -10.1775      2.00000
     20     -10.1539      2.00000
     21      -9.9131      2.00000
     22      -9.9123      2.00000
     23      -9.8177      2.00000
     24      -9.8160      2.00000
     25      -9.7646      2.00000
     26      -9.7635      2.00000
     27      -9.1507      2.00000
     28      -9.1316      2.00000
     29      -9.1298      2.00000
     30      -8.8315      2.00000
     31      -8.8309      2.00000
     32      -8.8292      2.00000
     33      -8.7363      2.00000
     34      -8.6546      2.00000
     35      -8.6321      2.00000
     36      -8.6306      2.00000
     37      -8.4571      2.00000
     38      -8.4547      2.00000
     39      -8.4344      2.00000
     40      -8.4335      2.00000
     41      -8.3221      2.00000
     42      -8.3209      2.00000
     43      -8.1919      2.00000
     44      -8.1907      2.00000
     45      -7.6702      2.00000
     46      -7.6683      2.00000
     47      -7.6427      2.00000
     48      -7.6149      2.00000
     49      -7.6139      2.00000
     50      -7.4464      2.00000
     51      -7.4451      2.00000
     52      -7.4390      2.00000
     53      -7.4372      2.00000
     54      -7.3196      2.00000
     55      -7.2378      2.00000
     56      -7.0520      2.00000
     57      -7.0426      2.00000
     58      -7.0414      2.00000
     59      -6.9394      2.00000
     60      -6.9387      2.00000
     61      -6.7324      2.00000
     62      -6.7311      2.00000
     63      -5.7899      2.00000
     64      -5.7887      2.00000
     65      -5.7697      2.00000
     66      -5.7686      2.00000
     67      -5.0417      2.00000
     68      -5.0394      2.00000
     69      -4.0574      2.00000
     70      -4.0547      2.00000
     71      -3.8654      2.00000
     72      -3.6656      2.00000
     73      -3.6644      2.00000
     74      -3.5091      2.00000
     75      -3.5075      2.00000
     76      -2.7048      0.00000
     77      -2.7025      0.00000
     78      -2.6418      0.00000
     79      -2.5052      0.00000
     80      -2.5029      0.00000
     81      -2.2019      0.00000
     82      -2.2005      0.00000
     83      -1.7811      0.00000
     84      -1.7793      0.00000
     85      -0.4934      0.00000
     86      -0.4558      0.00000
     87      -0.4105      0.00000
     88      -0.2015      0.00000
     89      -0.1994      0.00000
     90      -0.0539      0.00000
     91      -0.0510      0.00000
     92      -0.0484      0.00000
     93      -0.0451      0.00000
     94       0.2732      0.00000
     95       0.2743      0.00000
     96       0.3475      0.00000
     97       0.3489      0.00000
     98       0.4741      0.00000
     99       0.4744      0.00000
    100       0.5132      0.00000
    101       0.5149      0.00000
    102       0.6561      0.00000
    103       0.6571      0.00000
    104       0.7101      0.00000
    105       0.7279      0.00000
    106       0.7815      0.00000
    107       0.7831      0.00000
    108       0.8500      0.00000
    109       0.9652      0.00000
    110       0.9801      0.00000
    111       0.9814      0.00000
    112       0.9942      0.00000
    113       0.9989      0.00000
    114       1.2776      0.00000
    115       1.3370      0.00000
    116       1.4484      0.00000
    117       1.4530      0.00000
    118       1.4836      0.00000
    119       1.5227      0.00000
    120       1.5477      0.00000
    121       1.6237      0.00000
    122       1.6684      0.00000
    123       1.8221      0.00000
    124       1.8685      0.00000
    125       1.9439      0.00000
    126       1.9544      0.00000

 k-point    69 :      -0.3077    0.3846    0.0000
  band No.  band energies     occupation 
      1     -13.5450      2.00000
      2     -13.2876      2.00000
      3     -12.8021      2.00000
      4     -12.5081      2.00000
      5     -12.2309      2.00000
      6     -12.1342      2.00000
      7     -12.0566      2.00000
      8     -11.9424      2.00000
      9     -11.8081      2.00000
     10     -11.7265      2.00000
     11     -11.4408      2.00000
     12     -11.3729      2.00000
     13     -11.2623      2.00000
     14     -10.9551      2.00000
     15     -10.7295      2.00000
     16     -10.7208      2.00000
     17     -10.4229      2.00000
     18     -10.2547      2.00000
     19     -10.1730      2.00000
     20     -10.0600      2.00000
     21     -10.0549      2.00000
     22      -9.9655      2.00000
     23      -9.9629      2.00000
     24      -9.7927      2.00000
     25      -9.6872      2.00000
     26      -9.5007      2.00000
     27      -9.2563      2.00000
     28      -9.1344      2.00000
     29      -9.0665      2.00000
     30      -8.8903      2.00000
     31      -8.8449      2.00000
     32      -8.8373      2.00000
     33      -8.7282      2.00000
     34      -8.7265      2.00000
     35      -8.6629      2.00000
     36      -8.6100      2.00000
     37      -8.5832      2.00000
     38      -8.5243      2.00000
     39      -8.4977      2.00000
     40      -8.2821      2.00000
     41      -8.2436      2.00000
     42      -8.2384      2.00000
     43      -8.1071      2.00000
     44      -8.0206      2.00000
     45      -7.8298      2.00000
     46      -7.8012      2.00000
     47      -7.6925      2.00000
     48      -7.6050      2.00000
     49      -7.5372      2.00000
     50      -7.4763      2.00000
     51      -7.4272      2.00000
     52      -7.3961      2.00000
     53      -7.3456      2.00000
     54      -7.2828      2.00000
     55      -7.2647      2.00000
     56      -7.1923      2.00000
     57      -6.9852      2.00000
     58      -6.9734      2.00000
     59      -6.9370      2.00000
     60      -6.8804      2.00000
     61      -6.8697      2.00000
     62      -6.4680      2.00000
     63      -5.9975      2.00000
     64      -5.9693      2.00000
     65      -5.6094      2.00000
     66      -5.5831      2.00000
     67      -5.3622      2.00000
     68      -4.9805      2.00000
     69      -4.0597      2.00000
     70      -4.0563      2.00000
     71      -4.0453      2.00000
     72      -3.8430      2.00000
     73      -3.6883      2.00000
     74      -3.3052      2.00000
     75      -3.1038      1.14024
     76      -3.0670      0.38801
     77      -2.7727      0.00000
     78      -2.5581      0.00000
     79      -2.4315      0.00000
     80      -2.4309      0.00000
     81      -2.2023      0.00000
     82      -2.1290      0.00000
     83      -1.8731      0.00000
     84      -1.3320      0.00000
     85      -0.5013      0.00000
     86      -0.4610      0.00000
     87      -0.4133      0.00000
     88      -0.3973      0.00000
     89      -0.3449      0.00000
     90      -0.2254      0.00000
     91      -0.1744      0.00000
     92      -0.0489      0.00000
     93       0.1617      0.00000
     94       0.1655      0.00000
     95       0.2952      0.00000
     96       0.3347      0.00000
     97       0.3601      0.00000
     98       0.3683      0.00000
     99       0.3994      0.00000
    100       0.5246      0.00000
    101       0.5775      0.00000
    102       0.6349      0.00000
    103       0.6439      0.00000
    104       0.6793      0.00000
    105       0.7069      0.00000
    106       0.7455      0.00000
    107       0.8685      0.00000
    108       0.9240      0.00000
    109       0.9784      0.00000
    110       1.0231      0.00000
    111       1.0723      0.00000
    112       1.0803      0.00000
    113       1.1617      0.00000
    114       1.2559      0.00000
    115       1.3172      0.00000
    116       1.3186      0.00000
    117       1.5113      0.00000
    118       1.5824      0.00000
    119       1.5890      0.00000
    120       1.6021      0.00000
    121       1.6525      0.00000
    122       1.6906      0.00000
    123       1.7463      0.00000
    124       1.8484      0.00000
    125       1.9211      0.00000
    126       1.9283      0.00000

 k-point    70 :      -0.2308    0.3846    0.0000
  band No.  band energies     occupation 
      1     -13.5486      2.00000
      2     -13.2269      2.00000
      3     -12.9220      2.00000
      4     -12.4127      2.00000
      5     -12.3347      2.00000
      6     -12.2017      2.00000
      7     -12.0583      2.00000
      8     -11.8347      2.00000
      9     -11.7799      2.00000
     10     -11.7480      2.00000
     11     -11.3893      2.00000
     12     -11.2507      2.00000
     13     -11.2116      2.00000
     14     -10.9047      2.00000
     15     -10.7883      2.00000
     16     -10.7763      2.00000
     17     -10.4300      2.00000
     18     -10.3184      2.00000
     19     -10.3074      2.00000
     20     -10.2854      2.00000
     21     -10.1600      2.00000
     22      -9.9536      2.00000
     23      -9.7570      2.00000
     24      -9.7397      2.00000
     25      -9.4574      2.00000
     26      -9.3571      2.00000
     27      -9.3194      2.00000
     28      -9.2437      2.00000
     29      -9.1280      2.00000
     30      -9.0404      2.00000
     31      -8.8963      2.00000
     32      -8.8409      2.00000
     33      -8.7289      2.00000
     34      -8.6729      2.00000
     35      -8.6510      2.00000
     36      -8.6258      2.00000
     37      -8.5951      2.00000
     38      -8.5479      2.00000
     39      -8.5270      2.00000
     40      -8.2934      2.00000
     41      -8.1571      2.00000
     42      -8.0460      2.00000
     43      -8.0177      2.00000
     44      -7.9703      2.00000
     45      -7.9107      2.00000
     46      -7.8609      2.00000
     47      -7.7271      2.00000
     48      -7.6528      2.00000
     49      -7.5482      2.00000
     50      -7.5219      2.00000
     51      -7.5072      2.00000
     52      -7.4656      2.00000
     53      -7.2857      2.00000
     54      -7.1975      2.00000
     55      -7.1604      2.00000
     56      -7.1316      2.00000
     57      -7.0196      2.00000
     58      -6.9914      2.00000
     59      -6.9579      2.00000
     60      -6.8819      2.00000
     61      -6.7013      2.00000
     62      -6.1971      2.00000
     63      -6.1898      2.00000
     64      -6.1602      2.00000
     65      -5.6639      2.00000
     66      -5.4195      2.00000
     67      -5.3863      2.00000
     68      -4.8883      2.00000
     69      -4.4371      2.00000
     70      -4.2380      2.00000
     71      -4.1655      2.00000
     72      -4.0151      2.00000
     73      -3.4424      2.00000
     74      -3.3078      2.00000
     75      -3.0470      0.15269
     76      -2.9368      0.00001
     77      -2.9000      0.00000
     78      -2.7011      0.00000
     79      -2.4546      0.00000
     80      -2.2082      0.00000
     81      -2.1721      0.00000
     82      -1.9402      0.00000
     83      -1.5737      0.00000
     84      -0.8634      0.00000
     85      -0.7688      0.00000
     86      -0.6662      0.00000
     87      -0.4954      0.00000
     88      -0.4525      0.00000
     89      -0.3754      0.00000
     90      -0.2743      0.00000
     91      -0.2148      0.00000
     92      -0.0475      0.00000
     93       0.0721      0.00000
     94       0.2058      0.00000
     95       0.2344      0.00000
     96       0.3688      0.00000
     97       0.3939      0.00000
     98       0.4036      0.00000
     99       0.4163      0.00000
    100       0.4269      0.00000
    101       0.4618      0.00000
    102       0.5461      0.00000
    103       0.7050      0.00000
    104       0.7267      0.00000
    105       0.7912      0.00000
    106       0.8035      0.00000
    107       1.0243      0.00000
    108       1.0575      0.00000
    109       1.0999      0.00000
    110       1.1106      0.00000
    111       1.1674      0.00000
    112       1.1717      0.00000
    113       1.1784      0.00000
    114       1.2538      0.00000
    115       1.3163      0.00000
    116       1.3222      0.00000
    117       1.5059      0.00000
    118       1.5780      0.00000
    119       1.6000      0.00000
    120       1.6347      0.00000
    121       1.6547      0.00000
    122       1.6628      0.00000
    123       1.8359      0.00000
    124       1.8647      0.00000
    125       1.8879      0.00000
    126       1.9395      0.00000

 k-point    71 :      -0.1538    0.3846    0.0000
  band No.  band energies     occupation 
      1     -13.5381      2.00000
      2     -13.1521      2.00000
      3     -13.0286      2.00000
      4     -12.5817      2.00000
      5     -12.2553      2.00000
      6     -12.1491      2.00000
      7     -12.0453      2.00000
      8     -11.8202      2.00000
      9     -11.7145      2.00000
     10     -11.6734      2.00000
     11     -11.5029      2.00000
     12     -11.1151      2.00000
     13     -11.0764      2.00000
     14     -10.9726      2.00000
     15     -10.8333      2.00000
     16     -10.6816      2.00000
     17     -10.5860      2.00000
     18     -10.5064      2.00000
     19     -10.3695      2.00000
     20     -10.3470      2.00000
     21     -10.1803      2.00000
     22      -9.8351      2.00000
     23      -9.7111      2.00000
     24      -9.5819      2.00000
     25      -9.5093      2.00000
     26      -9.4507      2.00000
     27      -9.2380      2.00000
     28      -9.2252      2.00000
     29      -9.1307      2.00000
     30      -9.1126      2.00000
     31      -8.9976      2.00000
     32      -8.8457      2.00000
     33      -8.8190      2.00000
     34      -8.7355      2.00000
     35      -8.6671      2.00000
     36      -8.5322      2.00000
     37      -8.4682      2.00000
     38      -8.4640      2.00000
     39      -8.4153      2.00000
     40      -8.3424      2.00000
     41      -8.2266      2.00000
     42      -8.1216      2.00000
     43      -8.0919      2.00000
     44      -7.8594      2.00000
     45      -7.7907      2.00000
     46      -7.7461      2.00000
     47      -7.7372      2.00000
     48      -7.7150      2.00000
     49      -7.7147      2.00000
     50      -7.5745      2.00000
     51      -7.5608      2.00000
     52      -7.5003      2.00000
     53      -7.2534      2.00000
     54      -7.1183      2.00000
     55      -7.0971      2.00000
     56      -7.0760      2.00000
     57      -7.0591      2.00000
     58      -7.0011      2.00000
     59      -6.9073      2.00000
     60      -6.7438      2.00000
     61      -6.5055      2.00000
     62      -6.3873      2.00000
     63      -6.3415      2.00000
     64      -5.9425      2.00000
     65      -5.8972      2.00000
     66      -5.2193      2.00000
     67      -5.1776      2.00000
     68      -4.8050      2.00000
     69      -4.7626      2.00000
     70      -4.4750      2.00000
     71      -4.4007      2.00000
     72      -3.9672      2.00000
     73      -3.8200      2.00000
     74      -3.3227      2.00000
     75      -3.2246      1.99967
     76      -2.9145      0.00000
     77      -2.7541      0.00000
     78      -2.5641      0.00000
     79      -2.3111      0.00000
     80      -1.9728      0.00000
     81      -1.9414      0.00000
     82      -1.7220      0.00000
     83      -1.3250      0.00000
     84      -1.1152      0.00000
     85      -1.0579      0.00000
     86      -0.4753      0.00000
     87      -0.4285      0.00000
     88      -0.3854      0.00000
     89      -0.3463      0.00000
     90      -0.3352      0.00000
     91      -0.1765      0.00000
     92      -0.0484      0.00000
     93       0.0090      0.00000
     94       0.0883      0.00000
     95       0.0896      0.00000
     96       0.1141      0.00000
     97       0.2669      0.00000
     98       0.3641      0.00000
     99       0.5403      0.00000
    100       0.5763      0.00000
    101       0.6848      0.00000
    102       0.7108      0.00000
    103       0.7221      0.00000
    104       0.7261      0.00000
    105       0.9526      0.00000
    106       0.9777      0.00000
    107       1.0309      0.00000
    108       1.0964      0.00000
    109       1.1483      0.00000
    110       1.1953      0.00000
    111       1.2248      0.00000
    112       1.2625      0.00000
    113       1.2712      0.00000
    114       1.3346      0.00000
    115       1.3487      0.00000
    116       1.4281      0.00000
    117       1.4677      0.00000
    118       1.4921      0.00000
    119       1.6174      0.00000
    120       1.6750      0.00000
    121       1.6761      0.00000
    122       1.7410      0.00000
    123       1.7619      0.00000
    124       1.8294      0.00000
    125       1.8797      0.00000
    126       1.9299      0.00000

 k-point    72 :      -0.0769    0.3846    0.0000
  band No.  band energies     occupation 
      1     -13.5134      2.00000
      2     -13.1216      2.00000
      3     -13.0634      2.00000
      4     -12.7378      2.00000
      5     -12.2951      2.00000
      6     -12.0174      2.00000
      7     -11.9517      2.00000
      8     -11.8473      2.00000
      9     -11.6027      2.00000
     10     -11.5845      2.00000
     11     -11.5819      2.00000
     12     -11.2354      2.00000
     13     -10.9665      2.00000
     14     -10.9262      2.00000
     15     -10.8644      2.00000
     16     -10.7246      2.00000
     17     -10.7169      2.00000
     18     -10.5256      2.00000
     19     -10.4076      2.00000
     20     -10.3851      2.00000
     21     -10.0421      2.00000
     22      -9.8490      2.00000
     23      -9.7050      2.00000
     24      -9.6552      2.00000
     25      -9.5359      2.00000
     26      -9.4284      2.00000
     27      -9.3635      2.00000
     28      -9.2735      2.00000
     29      -9.0885      2.00000
     30      -9.0146      2.00000
     31      -8.9928      2.00000
     32      -8.7792      2.00000
     33      -8.7688      2.00000
     34      -8.7449      2.00000
     35      -8.7383      2.00000
     36      -8.4508      2.00000
     37      -8.4488      2.00000
     38      -8.3948      2.00000
     39      -8.3921      2.00000
     40      -8.3710      2.00000
     41      -8.2552      2.00000
     42      -8.1873      2.00000
     43      -8.0940      2.00000
     44      -7.9482      2.00000
     45      -7.9051      2.00000
     46      -7.7493      2.00000
     47      -7.7045      2.00000
     48      -7.6815      2.00000
     49      -7.6326      2.00000
     50      -7.5919      2.00000
     51      -7.5855      2.00000
     52      -7.4614      2.00000
     53      -7.2453      2.00000
     54      -7.1870      2.00000
     55      -7.1472      2.00000
     56      -7.0656      2.00000
     57      -7.0276      2.00000
     58      -6.9760      2.00000
     59      -6.6372      2.00000
     60      -6.5744      2.00000
     61      -6.5675      2.00000
     62      -6.5130      2.00000
     63      -6.2930      2.00000
     64      -6.1954      2.00000
     65      -5.5908      2.00000
     66      -5.1589      2.00000
     67      -5.0089      2.00000
     68      -4.9554      2.00000
     69      -4.7705      2.00000
     70      -4.6020      2.00000
     71      -4.5473      2.00000
     72      -4.1942      2.00000
     73      -3.9026      2.00000
     74      -3.5965      2.00000
     75      -3.5321      2.00000
     76      -3.0242      0.03811
     77      -2.5100      0.00000
     78      -2.1926      0.00000
     79      -1.9550      0.00000
     80      -1.7556      0.00000
     81      -1.7259      0.00000
     82      -1.5465      0.00000
     83      -1.4762      0.00000
     84      -1.4509      0.00000
     85      -1.1624      0.00000
     86      -0.4412      0.00000
     87      -0.3875      0.00000
     88      -0.3500      0.00000
     89      -0.3115      0.00000
     90      -0.1497      0.00000
     91      -0.1344      0.00000
     92      -0.0983      0.00000
     93      -0.0509      0.00000
     94      -0.0173      0.00000
     95       0.0078      0.00000
     96       0.1456      0.00000
     97       0.1746      0.00000
     98       0.2853      0.00000
     99       0.6961      0.00000
    100       0.7434      0.00000
    101       0.7583      0.00000
    102       0.7711      0.00000
    103       0.8759      0.00000
    104       0.8829      0.00000
    105       0.9373      0.00000
    106       1.0639      0.00000
    107       1.1222      0.00000
    108       1.1545      0.00000
    109       1.2929      0.00000
    110       1.2968      0.00000
    111       1.3082      0.00000
    112       1.3093      0.00000
    113       1.3664      0.00000
    114       1.3716      0.00000
    115       1.3721      0.00000
    116       1.4832      0.00000
    117       1.4840      0.00000
    118       1.5472      0.00000
    119       1.5890      0.00000
    120       1.6450      0.00000
    121       1.6543      0.00000
    122       1.7026      0.00000
    123       1.7138      0.00000
    124       1.7658      0.00000
    125       1.7992      0.00000
    126       1.8391      0.00000

 k-point    73 :       0.0000    0.4615    0.0000
  band No.  band energies     occupation 
      1     -13.3973      2.00000
      2     -13.3061      2.00000
      3     -12.9479      2.00000
      4     -12.9211      2.00000
      5     -12.1810      2.00000
      6     -12.0276      2.00000
      7     -11.8937      2.00000
      8     -11.7982      2.00000
      9     -11.5604      2.00000
     10     -11.4620      2.00000
     11     -11.4287      2.00000
     12     -11.3668      2.00000
     13     -11.1985      2.00000
     14     -10.9506      2.00000
     15     -10.8922      2.00000
     16     -10.8553      2.00000
     17     -10.7448      2.00000
     18     -10.5950      2.00000
     19     -10.3613      2.00000
     20     -10.2438      2.00000
     21      -9.9893      2.00000
     22      -9.7950      2.00000
     23      -9.6593      2.00000
     24      -9.6066      2.00000
     25      -9.5911      2.00000
     26      -9.4325      2.00000
     27      -9.4202      2.00000
     28      -9.3260      2.00000
     29      -9.2468      2.00000
     30      -9.0636      2.00000
     31      -8.9243      2.00000
     32      -8.8075      2.00000
     33      -8.6454      2.00000
     34      -8.6224      2.00000
     35      -8.5412      2.00000
     36      -8.5305      2.00000
     37      -8.5056      2.00000
     38      -8.4187      2.00000
     39      -8.3149      2.00000
     40      -8.3111      2.00000
     41      -8.2833      2.00000
     42      -8.2145      2.00000
     43      -8.1551      2.00000
     44      -8.0991      2.00000
     45      -7.9419      2.00000
     46      -7.9129      2.00000
     47      -7.8891      2.00000
     48      -7.5937      2.00000
     49      -7.4352      2.00000
     50      -7.4052      2.00000
     51      -7.3955      2.00000
     52      -7.3828      2.00000
     53      -7.3660      2.00000
     54      -7.3232      2.00000
     55      -7.3045      2.00000
     56      -7.2431      2.00000
     57      -6.8746      2.00000
     58      -6.8246      2.00000
     59      -6.8118      2.00000
     60      -6.7554      2.00000
     61      -6.4394      2.00000
     62      -6.4242      2.00000
     63      -6.0825      2.00000
     64      -5.7983      2.00000
     65      -5.7413      2.00000
     66      -5.4036      2.00000
     67      -5.0488      2.00000
     68      -4.8119      2.00000
     69      -4.4854      2.00000
     70      -4.4260      2.00000
     71      -4.4084      2.00000
     72      -4.1775      2.00000
     73      -4.1276      2.00000
     74      -4.1231      2.00000
     75      -4.0478      2.00000
     76      -3.6656      2.00000
     77      -2.0520      0.00000
     78      -1.9887      0.00000
     79      -1.6813      0.00000
     80      -1.5789      0.00000
     81      -1.5661      0.00000
     82      -1.4983      0.00000
     83      -1.4909      0.00000
     84      -1.4144      0.00000
     85      -1.2309      0.00000
     86      -0.3127      0.00000
     87      -0.2773      0.00000
     88      -0.2670      0.00000
     89      -0.2661      0.00000
     90      -0.2351      0.00000
     91      -0.2184      0.00000
     92      -0.1844      0.00000
     93      -0.1715      0.00000
     94      -0.0706      0.00000
     95       0.0787      0.00000
     96       0.3640      0.00000
     97       0.3672      0.00000
     98       0.3939      0.00000
     99       0.5785      0.00000
    100       0.7742      0.00000
    101       0.9182      0.00000
    102       0.9909      0.00000
    103       1.0419      0.00000
    104       1.0826      0.00000
    105       1.0969      0.00000
    106       1.1727      0.00000
    107       1.2095      0.00000
    108       1.2536      0.00000
    109       1.3018      0.00000
    110       1.3675      0.00000
    111       1.3756      0.00000
    112       1.4058      0.00000
    113       1.4680      0.00000
    114       1.4724      0.00000
    115       1.4742      0.00000
    116       1.4869      0.00000
    117       1.5131      0.00000
    118       1.5347      0.00000
    119       1.5753      0.00000
    120       1.5995      0.00000
    121       1.6131      0.00000
    122       1.6520      0.00000
    123       1.6711      0.00000
    124       1.6972      0.00000
    125       1.7050      0.00000
    126       1.8220      0.00000

 k-point    74 :       0.0769    0.4615    0.0000
  band No.  band energies     occupation 
      1     -13.3628      2.00000
      2     -13.3357      2.00000
      3     -13.0417      2.00000
      4     -12.8226      2.00000
      5     -12.1843      2.00000
      6     -12.0193      2.00000
      7     -11.8603      2.00000
      8     -11.8268      2.00000
      9     -11.5884      2.00000
     10     -11.5514      2.00000
     11     -11.3352      2.00000
     12     -11.3344      2.00000
     13     -11.1060      2.00000
     14     -11.0711      2.00000
     15     -11.0373      2.00000
     16     -10.7384      2.00000
     17     -10.6728      2.00000
     18     -10.5974      2.00000
     19     -10.5071      2.00000
     20     -10.0966      2.00000
     21     -10.0151      2.00000
     22      -9.7688      2.00000
     23      -9.7656      2.00000
     24      -9.5759      2.00000
     25      -9.4975      2.00000
     26      -9.4870      2.00000
     27      -9.4293      2.00000
     28      -9.2515      2.00000
     29      -9.1948      2.00000
     30      -9.1305      2.00000
     31      -9.0488      2.00000
     32      -8.6846      2.00000
     33      -8.6339      2.00000
     34      -8.5901      2.00000
     35      -8.5749      2.00000
     36      -8.5333      2.00000
     37      -8.5208      2.00000
     38      -8.4390      2.00000
     39      -8.3183      2.00000
     40      -8.2995      2.00000
     41      -8.2973      2.00000
     42      -8.2801      2.00000
     43      -8.1269      2.00000
     44      -8.0687      2.00000
     45      -8.0226      2.00000
     46      -7.9599      2.00000
     47      -7.7458      2.00000
     48      -7.5499      2.00000
     49      -7.4784      2.00000
     50      -7.4221      2.00000
     51      -7.3998      2.00000
     52      -7.3905      2.00000
     53      -7.3690      2.00000
     54      -7.3390      2.00000
     55      -7.2861      2.00000
     56      -7.2355      2.00000
     57      -6.9516      2.00000
     58      -6.8875      2.00000
     59      -6.7430      2.00000
     60      -6.7016      2.00000
     61      -6.6353      2.00000
     62      -6.1994      2.00000
     63      -6.1097      2.00000
     64      -5.7668      2.00000
     65      -5.6575      2.00000
     66      -5.4834      2.00000
     67      -5.1573      2.00000
     68      -4.7049      2.00000
     69      -4.5110      2.00000
     70      -4.4283      2.00000
     71      -4.3934      2.00000
     72      -4.2401      2.00000
     73      -4.1575      2.00000
     74      -4.0155      2.00000
     75      -3.8661      2.00000
     76      -3.8167      2.00000
     77      -2.4124      0.00000
     78      -1.9759      0.00000
     79      -1.6287      0.00000
     80      -1.5630      0.00000
     81      -1.4876      0.00000
     82      -1.4862      0.00000
     83      -1.4507      0.00000
     84      -1.2915      0.00000
     85      -1.2171      0.00000
     86      -0.2885      0.00000
     87      -0.2572      0.00000
     88      -0.2552      0.00000
     89      -0.2427      0.00000
     90      -0.2415      0.00000
     91      -0.2398      0.00000
     92      -0.1848      0.00000
     93      -0.1567      0.00000
     94      -0.1032      0.00000
     95       0.1950      0.00000
     96       0.2166      0.00000
     97       0.3519      0.00000
     98       0.3565      0.00000
     99       0.6332      0.00000
    100       0.7940      0.00000
    101       0.9544      0.00000
    102       0.9609      0.00000
    103       0.9833      0.00000
    104       1.0053      0.00000
    105       1.0597      0.00000
    106       1.2098      0.00000
    107       1.2278      0.00000
    108       1.2387      0.00000
    109       1.2788      0.00000
    110       1.2809      0.00000
    111       1.3344      0.00000
    112       1.3546      0.00000
    113       1.4596      0.00000
    114       1.5164      0.00000
    115       1.5618      0.00000
    116       1.5766      0.00000
    117       1.5863      0.00000
    118       1.5946      0.00000
    119       1.6059      0.00000
    120       1.6121      0.00000
    121       1.6239      0.00000
    122       1.6363      0.00000
    123       1.6519      0.00000
    124       1.6617      0.00000
    125       1.6931      0.00000
    126       1.8114      0.00000

 k-point    75 :       0.1538    0.4615    0.0000
  band No.  band energies     occupation 
      1     -13.4055      2.00000
      2     -13.2601      2.00000
      3     -13.1484      2.00000
      4     -12.6838      2.00000
      5     -12.1740      2.00000
      6     -11.9973      2.00000
      7     -11.9078      2.00000
      8     -11.7994      2.00000
      9     -11.7456      2.00000
     10     -11.6602      2.00000
     11     -11.2504      2.00000
     12     -11.2375      2.00000
     13     -11.1943      2.00000
     14     -11.0992      2.00000
     15     -10.8656      2.00000
     16     -10.7646      2.00000
     17     -10.7183      2.00000
     18     -10.5862      2.00000
     19     -10.4786      2.00000
     20     -10.2270      2.00000
     21      -9.9201      2.00000
     22      -9.8291      2.00000
     23      -9.7230      2.00000
     24      -9.5356      2.00000
     25      -9.5315      2.00000
     26      -9.3278      2.00000
     27      -9.2902      2.00000
     28      -9.2583      2.00000
     29      -9.1905      2.00000
     30      -9.1703      2.00000
     31      -9.1357      2.00000
     32      -8.7342      2.00000
     33      -8.6568      2.00000
     34      -8.6329      2.00000
     35      -8.6199      2.00000
     36      -8.6138      2.00000
     37      -8.4496      2.00000
     38      -8.4263      2.00000
     39      -8.4220      2.00000
     40      -8.3575      2.00000
     41      -8.3080      2.00000
     42      -8.1968      2.00000
     43      -8.1172      2.00000
     44      -8.0293      2.00000
     45      -7.9450      2.00000
     46      -7.9058      2.00000
     47      -7.5778      2.00000
     48      -7.5609      2.00000
     49      -7.5105      2.00000
     50      -7.5062      2.00000
     51      -7.4918      2.00000
     52      -7.4897      2.00000
     53      -7.4002      2.00000
     54      -7.3129      2.00000
     55      -7.2069      2.00000
     56      -7.1245      2.00000
     57      -7.0799      2.00000
     58      -7.0082      2.00000
     59      -6.7982      2.00000
     60      -6.6013      2.00000
     61      -6.5687      2.00000
     62      -6.4047      2.00000
     63      -5.9504      2.00000
     64      -5.8954      2.00000
     65      -5.4905      2.00000
     66      -5.4351      2.00000
     67      -5.2097      2.00000
     68      -4.6711      2.00000
     69      -4.6463      2.00000
     70      -4.5966      2.00000
     71      -4.3514      2.00000
     72      -4.0326      2.00000
     73      -3.9861      2.00000
     74      -3.8923      2.00000
     75      -3.8706      2.00000
     76      -3.5539      2.00000
     77      -2.8297      0.00000
     78      -2.2579      0.00000
     79      -1.8005      0.00000
     80      -1.7107      0.00000
     81      -1.6095      0.00000
     82      -1.5074      0.00000
     83      -1.2067      0.00000
     84      -1.0417      0.00000
     85      -0.9950      0.00000
     86      -0.3453      0.00000
     87      -0.3118      0.00000
     88      -0.2784      0.00000
     89      -0.2345      0.00000
     90      -0.1966      0.00000
     91      -0.1535      0.00000
     92      -0.1331      0.00000
     93      -0.0858      0.00000
     94      -0.0326      0.00000
     95       0.0339      0.00000
     96       0.3262      0.00000
     97       0.3392      0.00000
     98       0.3632      0.00000
     99       0.4478      0.00000
    100       0.7057      0.00000
    101       0.7918      0.00000
    102       0.8989      0.00000
    103       0.9154      0.00000
    104       0.9686      0.00000
    105       1.0544      0.00000
    106       1.0651      0.00000
    107       1.1113      0.00000
    108       1.1404      0.00000
    109       1.1595      0.00000
    110       1.2145      0.00000
    111       1.2879      0.00000
    112       1.2928      0.00000
    113       1.3467      0.00000
    114       1.4528      0.00000
    115       1.5124      0.00000
    116       1.5628      0.00000
    117       1.6099      0.00000
    118       1.6234      0.00000
    119       1.6285      0.00000
    120       1.6708      0.00000
    121       1.7147      0.00000
    122       1.7323      0.00000
    123       1.7408      0.00000
    124       1.7777      0.00000
    125       1.7797      0.00000
    126       1.7840      0.00000

 k-point    76 :       0.2308    0.4615    0.0000
  band No.  band energies     occupation 
      1     -13.4343      2.00000
      2     -13.2413      2.00000
      3     -13.1708      2.00000
      4     -12.5316      2.00000
      5     -12.1501      2.00000
      6     -11.9993      2.00000
      7     -11.9617      2.00000
      8     -11.9407      2.00000
      9     -11.7547      2.00000
     10     -11.6501      2.00000
     11     -11.3911      2.00000
     12     -11.3834      2.00000
     13     -11.0404      2.00000
     14     -11.0149      2.00000
     15     -10.8552      2.00000
     16     -10.6847      2.00000
     17     -10.6838      2.00000
     18     -10.5614      2.00000
     19     -10.4297      2.00000
     20     -10.2733      2.00000
     21     -10.0600      2.00000
     22      -9.8605      2.00000
     23      -9.5653      2.00000
     24      -9.5617      2.00000
     25      -9.5288      2.00000
     26      -9.3010      2.00000
     27      -9.2428      2.00000
     28      -9.1512      2.00000
     29      -9.0836      2.00000
     30      -9.0796      2.00000
     31      -9.0711      2.00000
     32      -8.9521      2.00000
     33      -8.8543      2.00000
     34      -8.7055      2.00000
     35      -8.6607      2.00000
     36      -8.6021      2.00000
     37      -8.5989      2.00000
     38      -8.5291      2.00000
     39      -8.3357      2.00000
     40      -8.3014      2.00000
     41      -8.2236      2.00000
     42      -8.1789      2.00000
     43      -8.0963      2.00000
     44      -7.9312      2.00000
     45      -7.8676      2.00000
     46      -7.7258      2.00000
     47      -7.7189      2.00000
     48      -7.6651      2.00000
     49      -7.6256      2.00000
     50      -7.5186      2.00000
     51      -7.4481      2.00000
     52      -7.4136      2.00000
     53      -7.4070      2.00000
     54      -7.3129      2.00000
     55      -7.1960      2.00000
     56      -7.1394      2.00000
     57      -7.1142      2.00000
     58      -7.0354      2.00000
     59      -6.9263      2.00000
     60      -6.6830      2.00000
     61      -6.4499      2.00000
     62      -6.4261      2.00000
     63      -6.1171      2.00000
     64      -5.8105      2.00000
     65      -5.6795      2.00000
     66      -5.0880      2.00000
     67      -4.9204      2.00000
     68      -4.9053      2.00000
     69      -4.8879      2.00000
     70      -4.6647      2.00000
     71      -4.1660      2.00000
     72      -3.9906      2.00000
     73      -3.7537      2.00000
     74      -3.7241      2.00000
     75      -3.5639      2.00000
     76      -3.2617      2.00000
     77      -3.2376      1.99992
     78      -2.5265      0.00000
     79      -2.1445      0.00000
     80      -2.0373      0.00000
     81      -1.7092      0.00000
     82      -1.6243      0.00000
     83      -1.0289      0.00000
     84      -0.7957      0.00000
     85      -0.6914      0.00000
     86      -0.3888      0.00000
     87      -0.3557      0.00000
     88      -0.3068      0.00000
     89      -0.3027      0.00000
     90      -0.2084      0.00000
     91      -0.1665      0.00000
     92      -0.0540      0.00000
     93       0.0307      0.00000
     94       0.0380      0.00000
     95       0.0695      0.00000
     96       0.0786      0.00000
     97       0.2842      0.00000
     98       0.3425      0.00000
     99       0.5134      0.00000
    100       0.7702      0.00000
    101       0.7952      0.00000
    102       0.8094      0.00000
    103       0.8523      0.00000
    104       0.8559      0.00000
    105       0.9448      0.00000
    106       0.9484      0.00000
    107       0.9514      0.00000
    108       1.0522      0.00000
    109       1.0840      0.00000
    110       1.0930      0.00000
    111       1.1207      0.00000
    112       1.2053      0.00000
    113       1.2362      0.00000
    114       1.4031      0.00000
    115       1.4088      0.00000
    116       1.4672      0.00000
    117       1.5612      0.00000
    118       1.6542      0.00000
    119       1.6779      0.00000
    120       1.6808      0.00000
    121       1.6962      0.00000
    122       1.7545      0.00000
    123       1.7971      0.00000
    124       1.7996      0.00000
    125       1.8022      0.00000
    126       1.8602      0.00000

 k-point    77 :       0.3077    0.4615    0.0000
  band No.  band energies     occupation 
      1     -13.4490      2.00000
      2     -13.3203      2.00000
      3     -13.0679      2.00000
      4     -12.3662      2.00000
      5     -12.1876      2.00000
      6     -12.1127      2.00000
      7     -11.9590      2.00000
      8     -11.9122      2.00000
      9     -11.8347      2.00000
     10     -11.5407      2.00000
     11     -11.5315      2.00000
     12     -11.5048      2.00000
     13     -11.2566      2.00000
     14     -10.8736      2.00000
     15     -10.6377      2.00000
     16     -10.6222      2.00000
     17     -10.6037      2.00000
     18     -10.5230      2.00000
     19     -10.4926      2.00000
     20     -10.1878      2.00000
     21     -10.0577      2.00000
     22      -9.9877      2.00000
     23      -9.7625      2.00000
     24      -9.5883      2.00000
     25      -9.2980      2.00000
     26      -9.2866      2.00000
     27      -9.1719      2.00000
     28      -9.0948      2.00000
     29      -9.0637      2.00000
     30      -9.0037      2.00000
     31      -8.9926      2.00000
     32      -8.9688      2.00000
     33      -8.8946      2.00000
     34      -8.8466      2.00000
     35      -8.7364      2.00000
     36      -8.7173      2.00000
     37      -8.6186      2.00000
     38      -8.5790      2.00000
     39      -8.3802      2.00000
     40      -8.2293      2.00000
     41      -8.1599      2.00000
     42      -8.1585      2.00000
     43      -8.0115      2.00000
     44      -7.8928      2.00000
     45      -7.8304      2.00000
     46      -7.7921      2.00000
     47      -7.7885      2.00000
     48      -7.7641      2.00000
     49      -7.5290      2.00000
     50      -7.5159      2.00000
     51      -7.4212      2.00000
     52      -7.3687      2.00000
     53      -7.3374      2.00000
     54      -7.3210      2.00000
     55      -7.2995      2.00000
     56      -7.2001      2.00000
     57      -7.0753      2.00000
     58      -7.0205      2.00000
     59      -6.9704      2.00000
     60      -6.9441      2.00000
     61      -6.3225      2.00000
     62      -6.2893      2.00000
     63      -6.2740      2.00000
     64      -6.1164      2.00000
     65      -5.3885      2.00000
     66      -5.1311      2.00000
     67      -5.1194      2.00000
     68      -4.7264      2.00000
     69      -4.7143      2.00000
     70      -4.6160      2.00000
     71      -4.2680      2.00000
     72      -3.6338      2.00000
     73      -3.6256      2.00000
     74      -3.5999      2.00000
     75      -3.4552      2.00000
     76      -3.2375      1.99992
     77      -2.9428      0.00001
     78      -2.7813      0.00000
     79      -2.5017      0.00000
     80      -2.4147      0.00000
     81      -1.8640      0.00000
     82      -1.7927      0.00000
     83      -1.1957      0.00000
     84      -0.5853      0.00000
     85      -0.4192      0.00000
     86      -0.4149      0.00000
     87      -0.3889      0.00000
     88      -0.3836      0.00000
     89      -0.3604      0.00000
     90      -0.3124      0.00000
     91      -0.2504      0.00000
     92       0.0257      0.00000
     93       0.0584      0.00000
     94       0.1060      0.00000
     95       0.1645      0.00000
     96       0.2158      0.00000
     97       0.3541      0.00000
     98       0.3666      0.00000
     99       0.6626      0.00000
    100       0.6675      0.00000
    101       0.7301      0.00000
    102       0.7396      0.00000
    103       0.7561      0.00000
    104       0.8319      0.00000
    105       0.8519      0.00000
    106       0.8533      0.00000
    107       0.9002      0.00000
    108       0.9150      0.00000
    109       0.9370      0.00000
    110       0.9489      0.00000
    111       0.9901      0.00000
    112       1.0671      0.00000
    113       1.1823      0.00000
    114       1.3797      0.00000
    115       1.3844      0.00000
    116       1.4409      0.00000
    117       1.4484      0.00000
    118       1.5480      0.00000
    119       1.5841      0.00000
    120       1.6390      0.00000
    121       1.7301      0.00000
    122       1.7455      0.00000
    123       1.7664      0.00000
    124       1.7809      0.00000
    125       1.8729      0.00000
    126       1.8939      0.00000

 k-point    78 :       0.3846    0.4615    0.0000
  band No.  band energies     occupation 
      1     -13.4496      2.00000
      2     -13.3852      2.00000
      3     -12.9514      2.00000
      4     -12.3638      2.00000
      5     -12.1880      2.00000
      6     -12.0620      2.00000
      7     -11.9625      2.00000
      8     -11.9003      2.00000
      9     -11.8490      2.00000
     10     -11.6585      2.00000
     11     -11.6141      2.00000
     12     -11.4886      2.00000
     13     -11.4175      2.00000
     14     -10.8038      2.00000
     15     -10.6944      2.00000
     16     -10.5774      2.00000
     17     -10.4710      2.00000
     18     -10.3462      2.00000
     19     -10.3031      2.00000
     20     -10.2928      2.00000
     21     -10.1041      2.00000
     22      -9.9895      2.00000
     23      -9.8330      2.00000
     24      -9.6005      2.00000
     25      -9.3913      2.00000
     26      -9.3476      2.00000
     27      -9.3216      2.00000
     28      -9.0965      2.00000
     29      -9.0426      2.00000
     30      -8.9376      2.00000
     31      -8.8986      2.00000
     32      -8.8263      2.00000
     33      -8.7831      2.00000
     34      -8.7821      2.00000
     35      -8.7493      2.00000
     36      -8.7052      2.00000
     37      -8.6904      2.00000
     38      -8.5501      2.00000
     39      -8.4386      2.00000
     40      -8.3420      2.00000
     41      -8.2193      2.00000
     42      -8.0788      2.00000
     43      -8.0037      2.00000
     44      -7.9980      2.00000
     45      -7.9757      2.00000
     46      -7.8189      2.00000
     47      -7.7199      2.00000
     48      -7.6205      2.00000
     49      -7.4986      2.00000
     50      -7.4436      2.00000
     51      -7.3901      2.00000
     52      -7.3893      2.00000
     53      -7.3432      2.00000
     54      -7.3155      2.00000
     55      -7.2603      2.00000
     56      -7.2119      2.00000
     57      -7.1880      2.00000
     58      -7.0826      2.00000
     59      -7.0135      2.00000
     60      -6.9312      2.00000
     61      -6.5115      2.00000
     62      -6.4075      2.00000
     63      -6.1199      2.00000
     64      -6.1126      2.00000
     65      -5.3481      2.00000
     66      -5.3419      2.00000
     67      -5.0786      2.00000
     68      -4.7442      2.00000
     69      -4.3513      2.00000
     70      -4.3409      2.00000
     71      -4.2972      2.00000
     72      -4.0166      2.00000
     73      -3.4315      2.00000
     74      -3.2610      2.00000
     75      -3.1813      1.98215
     76      -3.0219      0.03230
     77      -2.8940      0.00000
     78      -2.8619      0.00000
     79      -2.8133      0.00000
     80      -2.5987      0.00000
     81      -2.0668      0.00000
     82      -2.0191      0.00000
     83      -1.4795      0.00000
     84      -1.0252      0.00000
     85      -0.4365      0.00000
     86      -0.4128      0.00000
     87      -0.4067      0.00000
     88      -0.2807      0.00000
     89      -0.2635      0.00000
     90      -0.1164      0.00000
     91      -0.0757      0.00000
     92       0.0835      0.00000
     93       0.1110      0.00000
     94       0.1692      0.00000
     95       0.1831      0.00000
     96       0.3141      0.00000
     97       0.4116      0.00000
     98       0.5371      0.00000
     99       0.5747      0.00000
    100       0.6654      0.00000
    101       0.6728      0.00000
    102       0.6831      0.00000
    103       0.7103      0.00000
    104       0.7810      0.00000
    105       0.7912      0.00000
    106       0.8246      0.00000
    107       0.8269      0.00000
    108       0.8282      0.00000
    109       0.8454      0.00000
    110       0.9035      0.00000
    111       0.9062      0.00000
    112       0.9100      0.00000
    113       1.0190      0.00000
    114       1.3029      0.00000
    115       1.3795      0.00000
    116       1.4334      0.00000
    117       1.4614      0.00000
    118       1.5057      0.00000
    119       1.5418      0.00000
    120       1.5481      0.00000
    121       1.6564      0.00000
    122       1.7252      0.00000
    123       1.7530      0.00000
    124       1.8042      0.00000
    125       1.8101      0.00000
    126       1.8337      0.00000

 k-point    79 :       0.4615    0.4615    0.0000
  band No.  band energies     occupation 
      1     -13.4366      2.00000
      2     -13.4356      2.00000
      3     -12.8216      2.00000
      4     -12.5275      2.00000
      5     -11.9985      2.00000
      6     -11.9969      2.00000
      7     -11.9515      2.00000
      8     -11.9508      2.00000
      9     -11.7725      2.00000
     10     -11.7714      2.00000
     11     -11.7114      2.00000
     12     -11.7097      2.00000
     13     -11.2809      2.00000
     14     -10.9737      2.00000
     15     -10.5044      2.00000
     16     -10.5032      2.00000
     17     -10.4059      2.00000
     18     -10.4053      2.00000
     19     -10.2093      2.00000
     20     -10.2081      2.00000
     21     -10.0855      2.00000
     22     -10.0842      2.00000
     23      -9.6086      2.00000
     24      -9.6073      2.00000
     25      -9.6017      2.00000
     26      -9.6002      2.00000
     27      -9.3470      2.00000
     28      -9.3453      2.00000
     29      -8.8949      2.00000
     30      -8.8381      2.00000
     31      -8.8036      2.00000
     32      -8.8012      2.00000
     33      -8.7450      2.00000
     34      -8.7439      2.00000
     35      -8.5928      2.00000
     36      -8.5917      2.00000
     37      -8.5148      2.00000
     38      -8.5138      2.00000
     39      -8.5077      2.00000
     40      -8.5052      2.00000
     41      -8.2741      2.00000
     42      -8.2730      2.00000
     43      -8.1827      2.00000
     44      -8.1816      2.00000
     45      -7.8197      2.00000
     46      -7.6530      2.00000
     47      -7.6512      2.00000
     48      -7.5048      2.00000
     49      -7.4750      2.00000
     50      -7.4732      2.00000
     51      -7.4676      2.00000
     52      -7.4659      2.00000
     53      -7.4146      2.00000
     54      -7.3642      2.00000
     55      -7.2912      2.00000
     56      -7.1138      2.00000
     57      -7.0867      2.00000
     58      -7.0850      2.00000
     59      -6.9624      2.00000
     60      -6.9183      2.00000
     61      -6.6845      2.00000
     62      -6.6827      2.00000
     63      -5.9425      2.00000
     64      -5.9413      2.00000
     65      -5.5567      2.00000
     66      -5.5554      2.00000
     67      -4.7535      2.00000
     68      -4.7506      2.00000
     69      -4.3874      2.00000
     70      -4.3844      2.00000
     71      -3.9653      2.00000
     72      -3.9639      2.00000
     73      -3.2498      1.99998
     74      -3.2465      1.99997
     75      -3.2190      1.99940
     76      -3.2175      1.99931
     77      -2.9053      0.00000
     78      -2.9029      0.00000
     79      -2.5391      0.00000
     80      -2.3047      0.00000
     81      -2.3020      0.00000
     82      -2.2295      0.00000
     83      -1.8199      0.00000
     84      -1.4425      0.00000
     85      -0.4415      0.00000
     86      -0.4407      0.00000
     87      -0.4291      0.00000
     88      -0.2154      0.00000
     89      -0.2124      0.00000
     90      -0.0210      0.00000
     91      -0.0189      0.00000
     92       0.1714      0.00000
     93       0.2245      0.00000
     94       0.2279      0.00000
     95       0.3194      0.00000
     96       0.4151      0.00000
     97       0.4764      0.00000
     98       0.4790      0.00000
     99       0.5831      0.00000
    100       0.5848      0.00000
    101       0.5998      0.00000
    102       0.6033      0.00000
    103       0.6196      0.00000
    104       0.7180      0.00000
    105       0.7187      0.00000
    106       0.7312      0.00000
    107       0.7334      0.00000
    108       0.7626      0.00000
    109       0.8410      0.00000
    110       0.8411      0.00000
    111       0.9844      0.00000
    112       0.9893      0.00000
    113       1.1469      0.00000
    114       1.1499      0.00000
    115       1.3942      0.00000
    116       1.3943      0.00000
    117       1.4309      0.00000
    118       1.4352      0.00000
    119       1.4442      0.00000
    120       1.4443      0.00000
    121       1.7223      0.00000
    122       1.7396      0.00000
    123       1.7397      0.00000
    124       1.7564      0.00000
    125       1.7566      0.00000
    126       1.9449      0.00000

 k-point    80 :      -0.4615    0.4615    0.0000
  band No.  band energies     occupation 
      1     -13.4729      2.00000
      2     -13.4085      2.00000
      3     -12.6790      2.00000
      4     -12.6782      2.00000
      5     -11.9873      2.00000
      6     -11.9252      2.00000
      7     -11.9213      2.00000
      8     -11.9202      2.00000
      9     -11.8717      2.00000
     10     -11.7956      2.00000
     11     -11.7944      2.00000
     12     -11.6813      2.00000
     13     -11.1317      2.00000
     14     -11.1309      2.00000
     15     -10.4948      2.00000
     16     -10.4185      2.00000
     17     -10.4174      2.00000
     18     -10.3269      2.00000
     19     -10.3025      2.00000
     20     -10.3013      2.00000
     21      -9.8711      2.00000
     22      -9.8702      2.00000
     23      -9.8215      2.00000
     24      -9.8205      2.00000
     25      -9.5923      2.00000
     26      -9.5905      2.00000
     27      -9.3629      2.00000
     28      -9.3611      2.00000
     29      -8.9570      2.00000
     30      -8.8019      2.00000
     31      -8.7807      2.00000
     32      -8.7218      2.00000
     33      -8.7093      2.00000
     34      -8.7070      2.00000
     35      -8.5842      2.00000
     36      -8.5818      2.00000
     37      -8.4731      2.00000
     38      -8.4717      2.00000
     39      -8.4024      2.00000
     40      -8.4014      2.00000
     41      -8.3649      2.00000
     42      -8.3638      2.00000
     43      -8.3242      2.00000
     44      -8.3229      2.00000
     45      -7.6242      2.00000
     46      -7.6232      2.00000
     47      -7.5926      2.00000
     48      -7.5907      2.00000
     49      -7.5296      2.00000
     50      -7.5152      2.00000
     51      -7.5134      2.00000
     52      -7.4232      2.00000
     53      -7.4220      2.00000
     54      -7.4209      2.00000
     55      -7.2915      2.00000
     56      -7.1143      2.00000
     57      -6.9442      2.00000
     58      -6.9429      2.00000
     59      -6.9311      2.00000
     60      -6.9304      2.00000
     61      -6.8404      2.00000
     62      -6.8391      2.00000
     63      -5.7625      2.00000
     64      -5.7614      2.00000
     65      -5.7558      2.00000
     66      -5.7546      2.00000
     67      -4.7392      2.00000
     68      -4.7368      2.00000
     69      -4.4091      2.00000
     70      -4.4065      2.00000
     71      -3.6208      2.00000
     72      -3.6194      2.00000
     73      -3.5684      2.00000
     74      -3.5670      2.00000
     75      -3.4595      2.00000
     76      -3.0506      0.18388
     77      -2.6308      0.00000
     78      -2.6285      0.00000
     79      -2.5639      0.00000
     80      -2.5616      0.00000
     81      -2.1827      0.00000
     82      -2.1815      0.00000
     83      -1.8351      0.00000
     84      -1.8336      0.00000
     85      -0.4629      0.00000
     86      -0.4381      0.00000
     87      -0.4334      0.00000
     88      -0.1425      0.00000
     89      -0.1398      0.00000
     90      -0.0965      0.00000
     91      -0.0935      0.00000
     92       0.2729      0.00000
     93       0.2752      0.00000
     94       0.2796      0.00000
     95       0.2807      0.00000
     96       0.4664      0.00000
     97       0.4667      0.00000
     98       0.5157      0.00000
     99       0.5174      0.00000
    100       0.5387      0.00000
    101       0.5401      0.00000
    102       0.5629      0.00000
    103       0.5645      0.00000
    104       0.6522      0.00000
    105       0.6537      0.00000
    106       0.7554      0.00000
    107       0.7567      0.00000
    108       0.7674      0.00000
    109       0.7950      0.00000
    110       0.8741      0.00000
    111       0.9981      0.00000
    112       1.1433      0.00000
    113       1.1481      0.00000
    114       1.2821      0.00000
    115       1.2956      0.00000
    116       1.3003      0.00000
    117       1.3467      0.00000
    118       1.4008      0.00000
    119       1.4285      0.00000
    120       1.4731      0.00000
    121       1.6925      0.00000
    122       1.7209      0.00000
    123       1.7716      0.00000
    124       1.7776      0.00000
    125       1.9208      0.00000
    126       1.9749      0.00000

 k-point    81 :      -0.3846    0.4615    0.0000
  band No.  band energies     occupation 
      1     -13.4955      2.00000
      2     -13.3668      2.00000
      3     -12.8167      2.00000
      4     -12.5227      2.00000
      5     -12.1189      2.00000
      6     -12.0086      2.00000
      7     -11.9578      2.00000
      8     -11.8843      2.00000
      9     -11.8671      2.00000
     10     -11.8315      2.00000
     11     -11.5802      2.00000
     12     -11.5768      2.00000
     13     -11.2763      2.00000
     14     -10.9690      2.00000
     15     -10.6163      2.00000
     16     -10.5706      2.00000
     17     -10.3833      2.00000
     18     -10.3201      2.00000
     19     -10.2350      2.00000
     20     -10.1327      2.00000
     21     -10.0894      2.00000
     22     -10.0293      2.00000
     23      -9.8301      2.00000
     24      -9.6513      2.00000
     25      -9.5721      2.00000
     26      -9.5574      2.00000
     27      -9.3685      2.00000
     28      -9.1177      2.00000
     29      -9.0431      2.00000
     30      -8.9361      2.00000
     31      -8.7991      2.00000
     32      -8.7550      2.00000
     33      -8.6813      2.00000
     34      -8.6719      2.00000
     35      -8.6652      2.00000
     36      -8.6305      2.00000
     37      -8.6181      2.00000
     38      -8.5481      2.00000
     39      -8.4246      2.00000
     40      -8.3937      2.00000
     41      -8.3691      2.00000
     42      -8.2130      2.00000
     43      -8.1467      2.00000
     44      -8.1363      2.00000
     45      -7.8151      2.00000
     46      -7.7407      2.00000
     47      -7.5780      2.00000
     48      -7.5639      2.00000
     49      -7.5400      2.00000
     50      -7.5131      2.00000
     51      -7.4100      2.00000
     52      -7.4088      2.00000
     53      -7.3803      2.00000
     54      -7.3614      2.00000
     55      -7.2623      2.00000
     56      -7.1870      2.00000
     57      -7.0837      2.00000
     58      -6.9799      2.00000
     59      -6.9648      2.00000
     60      -6.9230      2.00000
     61      -6.7850      2.00000
     62      -6.5775      2.00000
     63      -5.9593      2.00000
     64      -5.9455      2.00000
     65      -5.5727      2.00000
     66      -5.5599      2.00000
     67      -5.0721      2.00000
     68      -4.7000      2.00000
     69      -4.4086      2.00000
     70      -4.0465      2.00000
     71      -4.0142      2.00000
     72      -3.9075      2.00000
     73      -3.6560      2.00000
     74      -3.2656      2.00000
     75      -3.1639      1.93949
     76      -2.9820      0.00108
     77      -2.8387      0.00000
     78      -2.8342      0.00000
     79      -2.5450      0.00000
     80      -2.3646      0.00000
     81      -2.2489      0.00000
     82      -2.2031      0.00000
     83      -1.8361      0.00000
     84      -1.4118      0.00000
     85      -0.4717      0.00000
     86      -0.4391      0.00000
     87      -0.4140      0.00000
     88      -0.2191      0.00000
     89      -0.2008      0.00000
     90      -0.1560      0.00000
     91      -0.0607      0.00000
     92       0.0798      0.00000
     93       0.1689      0.00000
     94       0.3112      0.00000
     95       0.3232      0.00000
     96       0.4035      0.00000
     97       0.4040      0.00000
     98       0.4112      0.00000
     99       0.4223      0.00000
    100       0.5355      0.00000
    101       0.5916      0.00000
    102       0.6235      0.00000
    103       0.6689      0.00000
    104       0.7679      0.00000
    105       0.7866      0.00000
    106       0.8049      0.00000
    107       0.8158      0.00000
    108       0.8304      0.00000
    109       0.8357      0.00000
    110       0.8581      0.00000
    111       0.9009      0.00000
    112       0.9262      0.00000
    113       1.1495      0.00000
    114       1.2966      0.00000
    115       1.3188      0.00000
    116       1.3758      0.00000
    117       1.4081      0.00000
    118       1.4823      0.00000
    119       1.5190      0.00000
    120       1.5663      0.00000
    121       1.6647      0.00000
    122       1.7020      0.00000
    123       1.7283      0.00000
    124       1.8078      0.00000
    125       1.8284      0.00000
    126       1.8910      0.00000

 k-point    82 :      -0.3077    0.4615    0.0000
  band No.  band energies     occupation 
      1     -13.5041      2.00000
      2     -13.3110      2.00000
      3     -12.9416      2.00000
      4     -12.3541      2.00000
      5     -12.3052      2.00000
      6     -12.0301      2.00000
      7     -12.0151      2.00000
      8     -11.9257      2.00000
      9     -11.8288      2.00000
     10     -11.7291      2.00000
     11     -11.4590      2.00000
     12     -11.4081      2.00000
     13     -11.3547      2.00000
     14     -10.8038      2.00000
     15     -10.7946      2.00000
     16     -10.6329      2.00000
     17     -10.4518      2.00000
     18     -10.3923      2.00000
     19     -10.2305      2.00000
     20     -10.2098      2.00000
     21     -10.1303      2.00000
     22     -10.0622      2.00000
     23      -9.8682      2.00000
     24      -9.5417      2.00000
     25      -9.4275      2.00000
     26      -9.3640      2.00000
     27      -9.2986      2.00000
     28      -9.1838      2.00000
     29      -9.1308      2.00000
     30      -8.8726      2.00000
     31      -8.8703      2.00000
     32      -8.8646      2.00000
     33      -8.7996      2.00000
     34      -8.7485      2.00000
     35      -8.7306      2.00000
     36      -8.7173      2.00000
     37      -8.6232      2.00000
     38      -8.5328      2.00000
     39      -8.4095      2.00000
     40      -8.3699      2.00000
     41      -8.2485      2.00000
     42      -8.0269      2.00000
     43      -7.9888      2.00000
     44      -7.9570      2.00000
     45      -7.9449      2.00000
     46      -7.9190      2.00000
     47      -7.6313      2.00000
     48      -7.6200      2.00000
     49      -7.6117      2.00000
     50      -7.4961      2.00000
     51      -7.4144      2.00000
     52      -7.3868      2.00000
     53      -7.3372      2.00000
     54      -7.2886      2.00000
     55      -7.2069      2.00000
     56      -7.1788      2.00000
     57      -7.1033      2.00000
     58      -7.0206      2.00000
     59      -7.0133      2.00000
     60      -6.9403      2.00000
     61      -6.6094      2.00000
     62      -6.3002      2.00000
     63      -6.1484      2.00000
     64      -6.1265      2.00000
     65      -5.3889      2.00000
     66      -5.3741      2.00000
     67      -5.3555      2.00000
     68      -4.6334      2.00000
     69      -4.3983      2.00000
     70      -4.3877      2.00000
     71      -4.2349      2.00000
     72      -3.8375      2.00000
     73      -3.6716      2.00000
     74      -3.3492      2.00000
     75      -3.1089      1.25157
     76      -2.9028      0.00000
     77      -2.8971      0.00000
     78      -2.7598      0.00000
     79      -2.6128      0.00000
     80      -2.5489      0.00000
     81      -2.1168      0.00000
     82      -1.9783      0.00000
     83      -1.5177      0.00000
     84      -0.9641      0.00000
     85      -0.4672      0.00000
     86      -0.4308      0.00000
     87      -0.3978      0.00000
     88      -0.3836      0.00000
     89      -0.3832      0.00000
     90      -0.2844      0.00000
     91      -0.2408      0.00000
     92       0.0796      0.00000
     93       0.1907      0.00000
     94       0.2558      0.00000
     95       0.2843      0.00000
     96       0.3229      0.00000
     97       0.3399      0.00000
     98       0.4509      0.00000
     99       0.5115      0.00000
    100       0.5497      0.00000
    101       0.5650      0.00000
    102       0.5703      0.00000
    103       0.7314      0.00000
    104       0.7599      0.00000
    105       0.7885      0.00000
    106       0.7917      0.00000
    107       0.8739      0.00000
    108       0.8989      0.00000
    109       0.9786      0.00000
    110       0.9971      0.00000
    111       0.9979      0.00000
    112       1.0185      0.00000
    113       1.0269      0.00000
    114       1.3104      0.00000
    115       1.3696      0.00000
    116       1.4371      0.00000
    117       1.5032      0.00000
    118       1.5539      0.00000
    119       1.5556      0.00000
    120       1.5803      0.00000
    121       1.6564      0.00000
    122       1.7005      0.00000
    123       1.7520      0.00000
    124       1.8223      0.00000
    125       1.8545      0.00000
    126       1.9013      0.00000

 k-point    83 :      -0.2308    0.4615    0.0000
  band No.  band energies     occupation 
      1     -13.4985      2.00000
      2     -13.2411      2.00000
      3     -13.0531      2.00000
      4     -12.4788      2.00000
      5     -12.1732      2.00000
      6     -12.0885      2.00000
      7     -12.0069      2.00000
      8     -11.9712      2.00000
      9     -11.7587      2.00000
     10     -11.6143      2.00000
     11     -11.5265      2.00000
     12     -11.3276      2.00000
     13     -11.1191      2.00000
     14     -10.9793      2.00000
     15     -10.6816      2.00000
     16     -10.6470      2.00000
     17     -10.6087      2.00000
     18     -10.5074      2.00000
     19     -10.4240      2.00000
     20     -10.2854      2.00000
     21     -10.0881      2.00000
     22     -10.0131      2.00000
     23      -9.6394      2.00000
     24      -9.5014      2.00000
     25      -9.4432      2.00000
     26      -9.3494      2.00000
     27      -9.2159      2.00000
     28      -9.2014      2.00000
     29      -9.1009      2.00000
     30      -9.0649      2.00000
     31      -9.0487      2.00000
     32      -8.9106      2.00000
     33      -8.8316      2.00000
     34      -8.7822      2.00000
     35      -8.6898      2.00000
     36      -8.6282      2.00000
     37      -8.5473      2.00000
     38      -8.4563      2.00000
     39      -8.4457      2.00000
     40      -8.3093      2.00000
     41      -8.1587      2.00000
     42      -8.1447      2.00000
     43      -8.1203      2.00000
     44      -7.8464      2.00000
     45      -7.7888      2.00000
     46      -7.7741      2.00000
     47      -7.7641      2.00000
     48      -7.6821      2.00000
     49      -7.6304      2.00000
     50      -7.6250      2.00000
     51      -7.4612      2.00000
     52      -7.4488      2.00000
     53      -7.2956      2.00000
     54      -7.2104      2.00000
     55      -7.2031      2.00000
     56      -7.1309      2.00000
     57      -7.0690      2.00000
     58      -6.9822      2.00000
     59      -6.9303      2.00000
     60      -6.9228      2.00000
     61      -6.4171      2.00000
     62      -6.3287      2.00000
     63      -6.2983      2.00000
     64      -6.0079      2.00000
     65      -5.6860      2.00000
     66      -5.1660      2.00000
     67      -5.1411      2.00000
     68      -4.7699      2.00000
     69      -4.5490      2.00000
     70      -4.5369      2.00000
     71      -4.3478      2.00000
     72      -4.0037      2.00000
     73      -3.7210      2.00000
     74      -3.3831      2.00000
     75      -3.2830      2.00000
     76      -3.2324      1.99986
     77      -2.8706      0.00000
     78      -2.5360      0.00000
     79      -2.3734      0.00000
     80      -2.3646      0.00000
     81      -1.9009      0.00000
     82      -1.7584      0.00000
     83      -1.2535      0.00000
     84      -0.7397      0.00000
     85      -0.7310      0.00000
     86      -0.5005      0.00000
     87      -0.4491      0.00000
     88      -0.4112      0.00000
     89      -0.3428      0.00000
     90      -0.3300      0.00000
     91      -0.2139      0.00000
     92       0.0194      0.00000
     93       0.0697      0.00000
     94       0.1221      0.00000
     95       0.2148      0.00000
     96       0.2214      0.00000
     97       0.3592      0.00000
     98       0.4836      0.00000
     99       0.5277      0.00000
    100       0.6096      0.00000
    101       0.6206      0.00000
    102       0.6442      0.00000
    103       0.7383      0.00000
    104       0.7709      0.00000
    105       0.8439      0.00000
    106       0.9285      0.00000
    107       0.9598      0.00000
    108       0.9714      0.00000
    109       1.0037      0.00000
    110       1.0192      0.00000
    111       1.0870      0.00000
    112       1.1899      0.00000
    113       1.2325      0.00000
    114       1.3215      0.00000
    115       1.3822      0.00000
    116       1.3979      0.00000
    117       1.5493      0.00000
    118       1.5568      0.00000
    119       1.6481      0.00000
    120       1.6539      0.00000
    121       1.6675      0.00000
    122       1.7167      0.00000
    123       1.7674      0.00000
    124       1.8356      0.00000
    125       1.9128      0.00000
    126       1.9511      0.00000

 k-point    84 :      -0.1538    0.4615    0.0000
  band No.  band energies     occupation 
      1     -13.4788      2.00000
      2     -13.1573      2.00000
      3     -13.1511      2.00000
      4     -12.6396      2.00000
      5     -12.1331      2.00000
      6     -12.0035      2.00000
      7     -11.9838      2.00000
      8     -11.9802      2.00000
      9     -11.6741      2.00000
     10     -11.6312      2.00000
     11     -11.4874      2.00000
     12     -11.1831      2.00000
     13     -11.1423      2.00000
     14     -10.8951      2.00000
     15     -10.8742      2.00000
     16     -10.7164      2.00000
     17     -10.6090      2.00000
     18     -10.5499      2.00000
     19     -10.4987      2.00000
     20     -10.4119      2.00000
     21      -9.9553      2.00000
     22      -9.8838      2.00000
     23      -9.7089      2.00000
     24      -9.4516      2.00000
     25      -9.4044      2.00000
     26      -9.3361      2.00000
     27      -9.3247      2.00000
     28      -9.2957      2.00000
     29      -9.2535      2.00000
     30      -9.0864      2.00000
     31      -8.9749      2.00000
     32      -8.9129      2.00000
     33      -8.8134      2.00000
     34      -8.7469      2.00000
     35      -8.6705      2.00000
     36      -8.4787      2.00000
     37      -8.4539      2.00000
     38      -8.3919      2.00000
     39      -8.3886      2.00000
     40      -8.3389      2.00000
     41      -8.2829      2.00000
     42      -8.2435      2.00000
     43      -8.1343      2.00000
     44      -7.9380      2.00000
     45      -7.8189      2.00000
     46      -7.7487      2.00000
     47      -7.6743      2.00000
     48      -7.6352      2.00000
     49      -7.6338      2.00000
     50      -7.6094      2.00000
     51      -7.5640      2.00000
     52      -7.4349      2.00000
     53      -7.3013      2.00000
     54      -7.2795      2.00000
     55      -7.1319      2.00000
     56      -7.1052      2.00000
     57      -7.0477      2.00000
     58      -7.0400      2.00000
     59      -6.7895      2.00000
     60      -6.6646      2.00000
     61      -6.4998      2.00000
     62      -6.4605      2.00000
     63      -6.2083      2.00000
     64      -5.9617      2.00000
     65      -5.7014      2.00000
     66      -5.1277      2.00000
     67      -4.9485      2.00000
     68      -4.9158      2.00000
     69      -4.8489      2.00000
     70      -4.4080      2.00000
     71      -4.2898      2.00000
     72      -4.1544      2.00000
     73      -4.0913      2.00000
     74      -3.6538      2.00000
     75      -3.5489      2.00000
     76      -3.1658      1.94628
     77      -2.8823      0.00000
     78      -2.1712      0.00000
     79      -2.1208      0.00000
     80      -1.9965      0.00000
     81      -1.7322      0.00000
     82      -1.5885      0.00000
     83      -1.1424      0.00000
     84      -1.0896      0.00000
     85      -1.0575      0.00000
     86      -0.4174      0.00000
     87      -0.3783      0.00000
     88      -0.3326      0.00000
     89      -0.2930      0.00000
     90      -0.1774      0.00000
     91      -0.1267      0.00000
     92      -0.0390      0.00000
     93      -0.0364      0.00000
     94       0.0039      0.00000
     95       0.1075      0.00000
     96       0.1204      0.00000
     97       0.3698      0.00000
     98       0.5241      0.00000
     99       0.5278      0.00000
    100       0.6351      0.00000
    101       0.6883      0.00000
    102       0.7566      0.00000
    103       0.8010      0.00000
    104       0.8039      0.00000
    105       0.9213      0.00000
    106       1.0024      0.00000
    107       1.0727      0.00000
    108       1.0948      0.00000
    109       1.1343      0.00000
    110       1.1955      0.00000
    111       1.1977      0.00000
    112       1.2604      0.00000
    113       1.3288      0.00000
    114       1.3523      0.00000
    115       1.4017      0.00000
    116       1.4140      0.00000
    117       1.5620      0.00000
    118       1.6466      0.00000
    119       1.6982      0.00000
    120       1.7251      0.00000
    121       1.7311      0.00000
    122       1.7509      0.00000
    123       1.7519      0.00000
    124       1.7613      0.00000
    125       1.7733      0.00000
    126       1.8235      0.00000

 k-point    85 :      -0.0769    0.4615    0.0000
  band No.  band energies     occupation 
      1     -13.4451      2.00000
      2     -13.2355      2.00000
      3     -13.0595      2.00000
      4     -12.7871      2.00000
      5     -12.1639      2.00000
      6     -12.0223      2.00000
      7     -11.9461      2.00000
      8     -11.7758      2.00000
      9     -11.7218      2.00000
     10     -11.5751      2.00000
     11     -11.3487      2.00000
     12     -11.2922      2.00000
     13     -11.1354      2.00000
     14     -11.0255      2.00000
     15     -10.7848      2.00000
     16     -10.7375      2.00000
     17     -10.7012      2.00000
     18     -10.6212      2.00000
     19     -10.5792      2.00000
     20     -10.2051      2.00000
     21      -9.9769      2.00000
     22      -9.8122      2.00000
     23      -9.7429      2.00000
     24      -9.5681      2.00000
     25      -9.4345      2.00000
     26      -9.3929      2.00000
     27      -9.3684      2.00000
     28      -9.2904      2.00000
     29      -9.2566      2.00000
     30      -9.1652      2.00000
     31      -8.9906      2.00000
     32      -8.7504      2.00000
     33      -8.6936      2.00000
     34      -8.6568      2.00000
     35      -8.6003      2.00000
     36      -8.5696      2.00000
     37      -8.5099      2.00000
     38      -8.4032      2.00000
     39      -8.3429      2.00000
     40      -8.3425      2.00000
     41      -8.1779      2.00000
     42      -8.1731      2.00000
     43      -8.1582      2.00000
     44      -8.1194      2.00000
     45      -7.9956      2.00000
     46      -7.8182      2.00000
     47      -7.7224      2.00000
     48      -7.6216      2.00000
     49      -7.5132      2.00000
     50      -7.4993      2.00000
     51      -7.4856      2.00000
     52      -7.4166      2.00000
     53      -7.3762      2.00000
     54      -7.2877      2.00000
     55      -7.2086      2.00000
     56      -7.1353      2.00000
     57      -6.9955      2.00000
     58      -6.9375      2.00000
     59      -6.6610      2.00000
     60      -6.6221      2.00000
     61      -6.6129      2.00000
     62      -6.3819      2.00000
     63      -6.2138      2.00000
     64      -5.9830      2.00000
     65      -5.4708      2.00000
     66      -5.3814      2.00000
     67      -5.1339      2.00000
     68      -4.7216      2.00000
     69      -4.6780      2.00000
     70      -4.4559      2.00000
     71      -4.2895      2.00000
     72      -4.2452      2.00000
     73      -4.2146      2.00000
     74      -3.9190      2.00000
     75      -3.8467      2.00000
     76      -3.4316      2.00000
     77      -2.4711      0.00000
     78      -1.8557      0.00000
     79      -1.8178      0.00000
     80      -1.6898      0.00000
     81      -1.6206      0.00000
     82      -1.5630      0.00000
     83      -1.4666      0.00000
     84      -1.3747      0.00000
     85      -1.0812      0.00000
     86      -0.3719      0.00000
     87      -0.3304      0.00000
     88      -0.3021      0.00000
     89      -0.2354      0.00000
     90      -0.2122      0.00000
     91      -0.1841      0.00000
     92      -0.1352      0.00000
     93      -0.0982      0.00000
     94      -0.0321      0.00000
     95       0.0223      0.00000
     96       0.3722      0.00000
     97       0.4508      0.00000
     98       0.5295      0.00000
     99       0.5423      0.00000
    100       0.5623      0.00000
    101       0.7261      0.00000
    102       0.8501      0.00000
    103       0.9057      0.00000
    104       0.9952      0.00000
    105       1.0016      0.00000
    106       1.0923      0.00000
    107       1.1417      0.00000
    108       1.2097      0.00000
    109       1.2407      0.00000
    110       1.3079      0.00000
    111       1.3226      0.00000
    112       1.3997      0.00000
    113       1.4025      0.00000
    114       1.4238      0.00000
    115       1.4648      0.00000
    116       1.4958      0.00000
    117       1.5350      0.00000
    118       1.5580      0.00000
    119       1.5661      0.00000
    120       1.6893      0.00000
    121       1.6938      0.00000
    122       1.6982      0.00000
    123       1.7022      0.00000
    124       1.7407      0.00000
    125       1.7483      0.00000
    126       1.7624      0.00000


--------------------------------------------------------------------------------------------------------


 soft charge-density along one line, spin component           1
         0         1         2         3         4         5         6         7         8         9
 total charge-density along one line
 
 pseudopotential strength for first ion, spin component:           1
  5.210 -13.240  -0.000   0.001  -0.001   0.000  -0.002   0.002
-13.240  34.525   0.000  -0.002   0.001  -0.001   0.004  -0.003
 -0.000   0.000  -0.363  -0.000   0.000   0.817   0.000  -0.000
  0.001  -0.002  -0.000  -0.362  -0.000   0.000   0.813   0.001
 -0.001   0.001   0.000  -0.000  -0.365  -0.000   0.001   0.819
  0.000  -0.001   0.817   0.000  -0.000  -0.134  -0.000  -0.000
 -0.002   0.004   0.000   0.813   0.001  -0.000  -0.120  -0.003
  0.002  -0.003  -0.000   0.001   0.819  -0.000  -0.003  -0.136
 total augmentation occupancy for first ion, spin component:           1
  1.503   0.100  -0.008   0.114   0.012  -0.001   0.013   0.000
  0.100   0.007  -0.000   0.014  -0.000  -0.000   0.001  -0.000
 -0.008  -0.000   1.507  -0.005   0.004   0.102  -0.000   0.000
  0.114   0.014  -0.005   1.376  -0.057  -0.000   0.083  -0.004
  0.012  -0.000   0.004  -0.057   0.805   0.000  -0.004   0.045
 -0.001  -0.000   0.102  -0.000   0.000   0.007  -0.000   0.000
  0.013   0.001  -0.000   0.083  -0.004  -0.000   0.005  -0.000
  0.000  -0.000   0.000  -0.004   0.045   0.000  -0.000   0.003


------------------------ aborting loop because EDIFF is reached ----------------------------------------


    CHARGE:  cpu time     41.8643: real time     42.1253
    FORLOC:  cpu time      2.9405: real time      2.9577
    FORNL :  cpu time    275.7051: real time    277.3077
    STRESS:  cpu time    504.1882: real time    506.9854
    FORCOR:  cpu time      6.1055: real time      6.1418
    FORHAR:  cpu time      4.2290: real time      4.2533
    MIXING:  cpu time      0.9509: real time      0.9554
    OFIELD:  cpu time      0.0001: real time      0.0001

  FORCE on cell =-STRESS in cart. coord.  units (eV):
  Direction    XX          YY          ZZ          XY          YZ          ZX
  --------------------------------------------------------------------------------------
  Alpha Z    16.91954    16.91954    16.91954
  Ewald   41641.87329 42499.99813-43692.60599     4.41535     0.04093   -34.05143
  Hartree 41731.31611 41820.67278-41667.03595     0.45855     0.02390    -4.28131
  E(xc)    -405.80187  -404.02390  -410.54244     0.00850     0.00091     0.08119
  Local  -84224.46040-85061.44565 84529.75958    -4.29942    -0.11275    40.93919
  n-local    39.60111    96.19104    69.56769     0.29142    -0.00498    -1.88512
  augment    -4.43700    -2.96327    -3.10951     0.00788    -0.00010    -0.12598
  Kinetic  1207.61799  1034.86592  1156.20167    -0.83886    -0.02405    -0.31327
  Fock        0.00000     0.00000     0.00000     0.00000     0.00000     0.00000
  -------------------------------------------------------------------------------------
  Total       2.62878     0.21459    -0.84541     0.04341    -0.07614     0.36327
  in kB       0.85057     0.06943    -0.27354     0.01404    -0.02464     0.11754
  external pressure =        0.22 kB  Pullay stress =        0.00 kB


 VOLUME and BASIS-vectors are now :
 -----------------------------------------------------------------------------
  energy-cutoff  :      600.00
  volume of cell :     4951.70
      direct lattice vectors                 reciprocal lattice vectors
    11.918670677  5.141046359  0.000000000     0.042557835  0.095849589  0.000000000
   -11.865449406  5.268335966  0.000000000    -0.041529584  0.096279513  0.000000000
     0.000000000  0.000000000 40.000000000     0.000000000  0.000000000  0.025000000

  length of vectors
    12.980179828 12.982459453 40.000000000     0.104872842  0.104854427  0.025000000


 FORCES acting on ions
    electron-ion (+dipol)            ewald-force                    non-local-force                 convergence-correction
 -----------------------------------------------------------------------------------------------
   0.167E+00 -.209E+00 -.618E+02   0.389E-01 0.185E+00 0.625E+02   -.227E+00 0.879E-01 -.678E+00   0.198E-07 0.483E-07 0.407E-06
   0.492E-01 -.360E-01 -.618E+02   0.159E+00 0.390E-01 0.625E+02   -.209E+00 -.232E-02 -.686E+00   -.399E-07 0.246E-07 0.399E-06
   0.758E-01 -.545E-02 -.618E+02   0.133E+00 0.423E-02 0.625E+02   -.208E+00 0.153E-02 -.687E+00   0.131E-08 0.431E-07 0.412E-06
   0.760E-01 -.528E-02 -.618E+02   0.133E+00 0.421E-02 0.625E+02   -.208E+00 0.147E-02 -.688E+00   -.894E-09 -.215E-08 0.399E-06
   0.490E-01 -.364E-01 -.618E+02   0.159E+00 0.385E-01 0.625E+02   -.209E+00 -.336E-02 -.687E+00   -.197E-07 -.585E-08 0.432E-06
   0.188E-01 0.238E-01 -.618E+02   0.188E+00 -.274E-01 0.625E+02   -.207E+00 0.453E-02 -.686E+00   -.881E-09 0.853E-08 0.448E-06
   0.138E+00 0.484E-01 -.618E+02   0.689E-01 -.524E-01 0.625E+02   -.208E+00 -.129E-01 -.691E+00   0.104E-07 0.159E-07 0.477E-06
   0.844E-01 -.798E-02 -.618E+02   0.124E+00 0.709E-02 0.625E+02   -.209E+00 0.119E-02 -.687E+00   -.157E-07 0.167E-07 0.422E-06
   0.774E-01 -.242E-02 -.618E+02   0.131E+00 0.114E-02 0.625E+02   -.207E+00 0.124E-02 -.687E+00   -.129E-07 -.102E-07 0.400E-06
   0.702E-01 -.232E-02 -.618E+02   0.138E+00 0.117E-02 0.625E+02   -.210E+00 0.145E-02 -.687E+00   -.147E-08 -.848E-09 0.402E-06
   0.727E-01 0.253E-02 -.618E+02   0.137E+00 -.413E-02 0.625E+02   -.208E+00 0.142E-02 -.688E+00   0.133E-07 -.720E-08 0.410E-06
   0.738E-01 0.147E-01 -.618E+02   0.134E+00 -.164E-01 0.625E+02   -.208E+00 0.108E-02 -.688E+00   0.137E-07 -.821E-08 0.411E-06
   0.895E-01 0.861E-02 -.618E+02   0.119E+00 -.864E-02 0.625E+02   -.208E+00 0.173E-02 -.687E+00   0.896E-08 -.713E-07 0.435E-06
   0.818E-01 0.300E-02 -.618E+02   0.126E+00 -.398E-02 0.625E+02   -.208E+00 0.143E-02 -.687E+00   0.135E-07 -.328E-07 0.426E-06
   0.754E-01 0.162E-02 -.618E+02   0.132E+00 -.285E-02 0.625E+02   -.207E+00 0.155E-02 -.687E+00   -.682E-08 -.237E-07 0.417E-06
   0.722E-01 0.274E-02 -.618E+02   0.137E+00 -.415E-02 0.625E+02   -.208E+00 0.132E-02 -.687E+00   -.524E-09 -.144E-07 0.428E-06
   0.755E-01 0.169E-02 -.618E+02   0.132E+00 -.283E-02 0.625E+02   -.207E+00 0.156E-02 -.687E+00   0.190E-07 -.704E-08 0.403E-06
   0.815E-01 0.292E-02 -.618E+02   0.126E+00 -.394E-02 0.625E+02   -.208E+00 0.148E-02 -.688E+00   -.120E-07 -.121E-07 0.387E-06
   0.898E-01 0.893E-02 -.618E+02   0.119E+00 -.862E-02 0.625E+02   -.208E+00 0.177E-02 -.688E+00   0.383E-08 -.362E-07 0.379E-06
   0.734E-01 0.148E-01 -.618E+02   0.134E+00 -.165E-01 0.625E+02   -.207E+00 0.809E-03 -.687E+00   0.296E-08 -.895E-08 0.402E-06
   0.170E-01 0.229E-01 -.618E+02   0.188E+00 -.277E-01 0.625E+02   -.206E+00 0.389E-02 -.688E+00   -.356E-07 0.760E-09 0.360E-06
   0.694E-01 -.239E-02 -.618E+02   0.138E+00 0.120E-02 0.625E+02   -.209E+00 0.151E-02 -.687E+00   0.264E-08 0.528E-08 0.416E-06
   0.774E-01 -.252E-02 -.618E+02   0.131E+00 0.115E-02 0.625E+02   -.208E+00 0.124E-02 -.688E+00   0.152E-07 0.170E-07 0.401E-06
   0.839E-01 -.829E-02 -.618E+02   0.124E+00 0.712E-02 0.625E+02   -.208E+00 0.126E-02 -.688E+00   -.338E-07 0.179E-07 0.394E-06
   0.141E+00 0.493E-01 -.618E+02   0.683E-01 -.519E-01 0.625E+02   -.208E+00 -.113E-01 -.687E+00   0.112E-07 0.429E-07 0.331E-06
   -.543E-01 -.296E-01 0.618E+02   -.154E+00 0.323E-01 -.625E+02   0.210E+00 -.148E-02 0.686E+00   0.161E-08 -.778E-08 -.372E-06
   -.856E-01 -.515E-02 0.618E+02   -.122E+00 0.681E-02 -.625E+02   0.209E+00 -.169E-02 0.688E+00   -.572E-08 0.477E-07 -.428E-06
   -.860E-01 -.972E-03 0.618E+02   -.122E+00 0.217E-02 -.625E+02   0.207E+00 -.149E-02 0.688E+00   -.118E-07 0.217E-07 -.432E-06
   -.907E-01 -.478E-02 0.618E+02   -.118E+00 0.589E-02 -.624E+02   0.209E+00 -.157E-02 0.687E+00   -.179E-07 -.452E-08 -.412E-06
   -.932E-01 -.184E-01 0.617E+02   -.120E+00 0.195E-01 -.624E+02   0.219E+00 -.214E-02 0.700E+00   0.154E-07 0.139E-08 -.431E-06
   -.807E-01 0.184E-01 0.617E+02   -.126E+00 -.205E-01 -.624E+02   0.206E+00 0.192E-02 0.682E+00   0.198E-08 0.115E-07 -.415E-06
   -.712E-01 0.478E-03 0.618E+02   -.136E+00 0.457E-03 -.625E+02   0.207E+00 -.175E-02 0.689E+00   0.135E-07 0.108E-07 -.387E-06
   -.827E-01 0.124E-03 0.618E+02   -.125E+00 0.765E-03 -.625E+02   0.208E+00 -.140E-02 0.688E+00   0.883E-08 -.193E-07 -.431E-06
   -.869E-01 0.105E-02 0.618E+02   -.121E+00 -.271E-04 -.625E+02   0.207E+00 -.142E-02 0.687E+00   -.580E-08 -.386E-07 -.420E-06
   -.945E-01 0.370E-02 0.618E+02   -.114E+00 -.261E-02 -.624E+02   0.209E+00 -.137E-02 0.687E+00   -.447E-09 0.499E-08 -.405E-06
   -.870E-01 0.633E-02 0.618E+02   -.120E+00 -.514E-02 -.625E+02   0.208E+00 -.137E-02 0.687E+00   0.269E-07 -.890E-08 -.382E-06
   -.787E-01 0.855E-02 0.618E+02   -.129E+00 -.723E-02 -.625E+02   0.208E+00 -.865E-03 0.686E+00   -.138E-08 -.205E-07 -.398E-06
   -.780E-01 0.442E-02 0.618E+02   -.130E+00 -.445E-02 -.625E+02   0.208E+00 -.151E-02 0.687E+00   0.219E-07 -.365E-07 -.420E-06
   -.850E-01 0.501E-02 0.618E+02   -.123E+00 -.412E-02 -.625E+02   0.209E+00 -.143E-02 0.687E+00   0.631E-08 -.503E-07 -.413E-06
   -.877E-01 0.354E-02 0.618E+02   -.120E+00 -.231E-02 -.625E+02   0.207E+00 -.131E-02 0.687E+00   0.222E-07 -.418E-07 -.383E-06
   -.884E-01 0.264E-02 0.618E+02   -.120E+00 -.131E-02 -.625E+02   0.207E+00 -.142E-02 0.687E+00   0.202E-07 0.187E-07 -.389E-06
   -.838E-01 0.298E-02 0.618E+02   -.124E+00 -.145E-02 -.625E+02   0.208E+00 -.138E-02 0.687E+00   0.127E-07 0.853E-08 -.397E-06
   -.770E-01 0.366E-02 0.618E+02   -.131E+00 -.165E-02 -.625E+02   0.208E+00 -.114E-02 0.687E+00   -.229E-07 0.215E-08 -.424E-06
   -.769E-01 0.114E-01 0.618E+02   -.131E+00 -.126E-01 -.625E+02   0.208E+00 -.944E-03 0.685E+00   0.637E-08 0.401E-07 -.420E-06
   -.920E-01 0.776E-02 0.618E+02   -.117E+00 -.665E-02 -.625E+02   0.210E+00 -.136E-02 0.687E+00   -.347E-07 0.152E-07 -.400E-06
   -.957E-01 -.147E-02 0.618E+02   -.112E+00 0.326E-02 -.625E+02   0.211E+00 -.141E-02 0.686E+00   -.334E-07 0.697E-08 -.413E-06
   -.872E-01 -.145E-04 0.618E+02   -.121E+00 0.156E-02 -.625E+02   0.207E+00 -.146E-02 0.688E+00   0.134E-07 0.399E-07 -.424E-06
   -.838E-01 -.198E-02 0.618E+02   -.124E+00 0.337E-02 -.625E+02   0.208E+00 -.138E-02 0.687E+00   -.533E-08 -.191E-09 -.410E-06
   -.700E-01 -.949E-02 0.618E+02   -.140E+00 0.124E-01 -.624E+02   0.210E+00 -.233E-02 0.688E+00   0.628E-08 0.541E-08 -.423E-06
   -.808E-01 0.244E-01 0.618E+02   -.132E+00 -.193E-01 -.625E+02   0.215E+00 -.598E-02 0.678E+00   0.369E-08 -.689E-08 -.382E-06
   0.418E+00 0.493E-02 -.781E+02   -.501E+00 -.262E-01 0.803E+02   0.894E-01 0.492E-02 -.226E+01   0.317E-08 0.402E-07 0.255E-06
   0.342E+00 -.978E-02 -.781E+02   -.417E+00 0.972E-02 0.804E+02   0.795E-01 -.262E-03 -.227E+01   -.186E-07 0.259E-07 0.266E-06
   0.340E+00 -.274E-02 -.781E+02   -.415E+00 0.246E-02 0.804E+02   0.792E-01 -.257E-03 -.227E+01   -.385E-08 0.585E-08 0.254E-06
   0.338E+00 -.303E-02 -.781E+02   -.413E+00 0.269E-02 0.804E+02   0.793E-01 -.187E-03 -.227E+01   0.324E-08 -.419E-08 0.254E-06
   0.321E+00 -.730E-02 -.781E+02   -.394E+00 0.681E-02 0.804E+02   0.791E-01 -.254E-03 -.227E+01   -.351E-08 -.336E-09 0.270E-06
   0.333E+00 0.872E-02 -.781E+02   -.408E+00 -.927E-02 0.804E+02   0.794E-01 -.245E-03 -.227E+01   0.117E-07 -.398E-08 0.275E-06
   0.349E+00 0.468E-02 -.781E+02   -.424E+00 -.558E-02 0.804E+02   0.793E-01 -.853E-04 -.227E+01   0.875E-08 -.254E-07 0.250E-06
   0.343E+00 -.148E-02 -.781E+02   -.418E+00 0.112E-02 0.804E+02   0.794E-01 -.259E-03 -.227E+01   -.280E-08 -.817E-08 0.254E-06
   0.339E+00 -.963E-03 -.781E+02   -.415E+00 0.602E-03 0.804E+02   0.792E-01 -.261E-03 -.227E+01   -.881E-08 -.749E-08 0.257E-06
   0.337E+00 -.443E-03 -.781E+02   -.412E+00 0.107E-03 0.804E+02   0.793E-01 -.276E-03 -.227E+01   0.426E-08 0.372E-08 0.259E-06
   0.338E+00 0.340E-03 -.781E+02   -.414E+00 -.818E-03 0.804E+02   0.792E-01 -.199E-03 -.227E+01   0.457E-08 -.104E-07 0.260E-06
   0.341E+00 0.220E-02 -.781E+02   -.416E+00 -.278E-02 0.804E+02   0.794E-01 -.330E-03 -.227E+01   0.815E-08 -.165E-07 0.259E-06
   0.345E+00 0.917E-03 -.781E+02   -.420E+00 -.205E-02 0.804E+02   0.793E-01 -.503E-03 -.227E+01   0.707E-08 -.513E-07 0.259E-06
   0.341E+00 0.235E-02 -.781E+02   -.416E+00 -.291E-02 0.804E+02   0.794E-01 -.317E-03 -.227E+01   0.924E-08 -.181E-07 0.249E-06
   0.338E+00 0.434E-03 -.781E+02   -.413E+00 -.901E-03 0.804E+02   0.792E-01 -.187E-03 -.227E+01   -.871E-09 -.103E-07 0.263E-06
   0.337E+00 -.370E-03 -.781E+02   -.412E+00 0.715E-04 0.804E+02   0.793E-01 -.244E-03 -.227E+01   0.379E-08 -.562E-08 0.268E-06
   0.339E+00 -.988E-03 -.781E+02   -.415E+00 0.642E-03 0.804E+02   0.792E-01 -.245E-03 -.227E+01   0.345E-08 0.492E-08 0.258E-06
   0.343E+00 -.155E-02 -.781E+02   -.418E+00 0.119E-02 0.804E+02   0.794E-01 -.229E-03 -.227E+01   -.136E-07 0.935E-08 0.247E-06
   0.349E+00 0.416E-02 -.781E+02   -.424E+00 -.502E-02 0.804E+02   0.793E-01 -.145E-03 -.227E+01   -.137E-08 -.519E-08 0.260E-06
   0.334E+00 0.943E-02 -.781E+02   -.408E+00 -.101E-01 0.804E+02   0.795E-01 -.186E-03 -.227E+01   -.981E-09 -.756E-08 0.241E-06
   0.317E+00 -.800E-02 -.782E+02   -.392E+00 0.753E-02 0.804E+02   0.782E-01 -.257E-03 -.227E+01   -.178E-07 0.838E-08 0.255E-06
   0.338E+00 -.316E-02 -.781E+02   -.413E+00 0.281E-02 0.804E+02   0.793E-01 -.191E-03 -.227E+01   0.643E-08 0.177E-07 0.270E-06
   0.340E+00 -.268E-02 -.781E+02   -.415E+00 0.243E-02 0.804E+02   0.793E-01 -.232E-03 -.227E+01   0.258E-08 0.589E-08 0.249E-06
   0.341E+00 -.948E-02 -.781E+02   -.416E+00 0.934E-02 0.804E+02   0.795E-01 -.206E-03 -.227E+01   -.174E-07 0.115E-07 0.242E-06
   0.421E+00 -.304E-02 -.782E+02   -.506E+00 -.141E-01 0.804E+02   0.900E-01 0.330E-02 -.228E+01   -.110E-08 0.421E-07 0.252E-06
   -.336E+00 -.242E-02 0.781E+02   0.412E+00 0.294E-02 -.804E+02   -.791E-01 0.173E-03 0.227E+01   -.477E-09 -.198E-07 -.254E-06
   -.344E+00 -.852E-03 0.781E+02   0.419E+00 0.104E-02 -.804E+02   -.794E-01 0.144E-03 0.227E+01   -.492E-08 0.168E-07 -.272E-06
   -.343E+00 0.473E-03 0.781E+02   0.419E+00 -.213E-03 -.804E+02   -.792E-01 0.225E-03 0.227E+01   -.247E-08 0.248E-07 -.275E-06
   -.343E+00 -.458E-03 0.781E+02   0.418E+00 0.732E-03 -.804E+02   -.793E-01 0.237E-03 0.227E+01   -.691E-08 -.654E-08 -.280E-06
   -.337E+00 -.290E-02 0.781E+02   0.413E+00 0.382E-02 -.804E+02   -.792E-01 0.397E-03 0.227E+01   0.548E-08 -.405E-08 -.278E-06
   -.339E+00 0.240E-02 0.781E+02   0.415E+00 -.205E-02 -.804E+02   -.791E-01 0.701E-04 0.227E+01   -.273E-08 0.780E-08 -.271E-06
   -.337E+00 -.814E-03 0.781E+02   0.412E+00 0.123E-02 -.804E+02   -.792E-01 0.264E-03 0.227E+01   0.468E-08 0.174E-07 -.265E-06
   -.342E+00 0.234E-03 0.781E+02   0.418E+00 0.123E-03 -.804E+02   -.794E-01 0.260E-03 0.227E+01   0.297E-09 0.158E-07 -.256E-06
   -.344E+00 0.926E-03 0.781E+02   0.419E+00 -.548E-03 -.804E+02   -.792E-01 0.260E-03 0.227E+01   -.110E-07 -.915E-08 -.263E-06
   -.345E+00 0.708E-03 0.781E+02   0.420E+00 -.240E-03 -.804E+02   -.792E-01 0.253E-03 0.227E+01   -.236E-08 0.485E-08 -.270E-06
   -.345E+00 0.309E-02 0.781E+02   0.420E+00 -.262E-02 -.804E+02   -.794E-01 0.226E-03 0.227E+01   0.161E-07 -.104E-07 -.252E-06
   -.341E+00 0.420E-02 0.781E+02   0.416E+00 -.404E-02 -.804E+02   -.793E-01 0.261E-03 0.227E+01   0.135E-08 -.111E-07 -.259E-06
   -.340E+00 0.247E-02 0.781E+02   0.415E+00 -.184E-02 -.804E+02   -.793E-01 0.406E-03 0.227E+01   0.134E-07 -.102E-07 -.269E-06
   -.343E+00 0.221E-02 0.781E+02   0.418E+00 -.167E-02 -.804E+02   -.794E-01 0.330E-03 0.227E+01   0.543E-08 -.297E-07 -.267E-06
   -.344E+00 0.203E-02 0.781E+02   0.419E+00 -.157E-02 -.804E+02   -.792E-01 0.260E-03 0.227E+01   0.291E-08 -.353E-07 -.270E-06
   -.344E+00 0.226E-02 0.781E+02   0.420E+00 -.188E-02 -.804E+02   -.793E-01 0.208E-03 0.227E+01   0.852E-08 -.144E-08 -.282E-06
   -.343E+00 0.258E-02 0.781E+02   0.418E+00 -.228E-02 -.804E+02   -.793E-01 0.225E-03 0.227E+01   0.122E-07 0.501E-08 -.259E-06
   -.341E+00 0.260E-02 0.781E+02   0.416E+00 -.244E-02 -.804E+02   -.793E-01 0.197E-03 0.227E+01   -.470E-08 -.484E-08 -.277E-06
   -.341E+00 0.403E-02 0.781E+02   0.416E+00 -.320E-02 -.804E+02   -.793E-01 0.407E-03 0.227E+01   0.731E-08 -.482E-08 -.293E-06
   -.344E+00 0.333E-02 0.781E+02   0.419E+00 -.291E-02 -.804E+02   -.794E-01 0.254E-03 0.227E+01   -.341E-08 -.173E-07 -.286E-06
   -.345E+00 0.201E-02 0.781E+02   0.420E+00 -.177E-02 -.804E+02   -.794E-01 0.152E-03 0.227E+01   -.145E-07 0.143E-07 -.274E-06
   -.344E+00 0.125E-02 0.781E+02   0.419E+00 -.989E-03 -.804E+02   -.792E-01 0.185E-03 0.227E+01   0.495E-08 0.210E-07 -.281E-06
   -.343E+00 0.986E-03 0.781E+02   0.418E+00 -.781E-03 -.804E+02   -.793E-01 0.189E-03 0.227E+01   -.787E-09 0.672E-08 -.271E-06
   -.339E+00 0.502E-03 0.781E+02   0.414E+00 -.451E-03 -.804E+02   -.793E-01 0.164E-03 0.227E+01   -.687E-08 0.121E-07 -.283E-06
   -.339E+00 0.359E-02 0.781E+02   0.415E+00 -.409E-02 -.804E+02   -.794E-01 -.429E-04 0.227E+01   -.443E-08 0.172E-07 -.259E-06
 -----------------------------------------------------------------------------------------------
   -.225E-01 -.622E-01 -.403E-02   -.227E-13 0.198E-13 -.909E-12   0.225E-01 0.622E-01 0.403E-02   0.681E-10 0.204E-09 -.353E-06
 
 
 POSITION                                       TOTAL-FORCE (eV/Angst)
 -----------------------------------------------------------------------------------
     -0.50027      0.51928      4.89290        -0.021130      0.064024      0.003813
      1.87433      1.55155      4.89290        -0.000064      0.000628     -0.001997
      4.25806      2.57976      4.89290         0.000672      0.000306     -0.000348
      6.64179      3.60797      4.89290         0.000733      0.000398     -0.000691
      9.02553      4.63618      4.89290        -0.000944     -0.001166      0.000555
     -2.88250      1.57701      4.89290        -0.000371      0.000984      0.001057
     -0.49876      2.60522      4.89290        -0.000657     -0.016912     -0.002571
      1.88497      3.63343      4.89290        -0.000615      0.000303     -0.000336
      4.26870      4.66163      4.89290         0.000717     -0.000034     -0.000457
      6.65244      5.68984      4.89290        -0.001164      0.000310     -0.000970
     -5.25559      2.63067      4.89290         0.000907     -0.000182     -0.000791
     -2.87185      3.65888      4.89290        -0.000194     -0.000695     -0.001050
     -0.48812      4.68709      4.89290         0.000704      0.001690     -0.001046
      1.89561      5.71530      4.89290        -0.000579      0.000455     -0.000422
      4.27935      6.74351      4.89290         0.000473      0.000320     -0.000530
     -7.62868      3.68434      4.89290         0.000919     -0.000090     -0.000404
     -5.24494      4.71255      4.89290         0.000534      0.000422     -0.000560
     -2.86121      5.74076      4.89290        -0.000582      0.000455     -0.000862
     -0.47748      6.76897      4.89290         0.000875      0.002077     -0.001067
      1.90626      7.79718      4.89290        -0.000279     -0.000913     -0.000519
    -10.00177      4.73801      4.89290        -0.000960     -0.000868     -0.003249
     -7.61803      5.76622      4.89290        -0.001203      0.000315     -0.000276
     -5.23430      6.79443      4.89290         0.000684     -0.000132     -0.000542
     -2.85057      7.82264      4.89290        -0.000716      0.000092     -0.000494
     -0.46683      8.85085      4.89290         0.000584     -0.013922     -0.000349
      0.52005      1.55854      3.10710         0.001526      0.001155     -0.002187
      2.90379      2.58675      3.10710         0.000869     -0.000028      0.000181
      5.28752      3.61496      3.10710        -0.000883     -0.000287      0.000500
      7.67125      4.64316      3.10710         0.000721     -0.000458      0.000759
     10.05499      5.67137      3.10710         0.005840     -0.001041      0.007455
     -1.85304      2.61220      3.10710        -0.000147     -0.000183      0.000247
      0.53070      3.64041      3.10710        -0.000614     -0.000814      0.000672
      2.91443      4.66862      3.10710         0.000481     -0.000513      0.000585
      5.29817      5.69683      3.10710        -0.001107     -0.000400      0.000674
      7.68190      6.72504      3.10710         0.000645     -0.000286      0.000944
     -4.22613      3.66587      3.10710         0.000229     -0.000180      0.000714
     -1.84239      4.69408      3.10710         0.000309      0.000449      0.000898
      0.54134      5.72229      3.10710        -0.000185     -0.001535      0.000660
      2.92508      6.75050      3.10710         0.000489     -0.000538      0.000600
      5.30881      7.77871      3.10710        -0.000968     -0.000086      0.000560
     -6.59922      4.71954      3.10710        -0.000857     -0.000092      0.000493
     -4.21548      5.74775      3.10710         0.000082      0.000146      0.000546
     -1.83175      6.77596      3.10710         0.000120      0.000878      0.000684
      0.55199      7.80417      3.10710        -0.000053     -0.002124     -0.000075
      2.93572      8.83238      3.10710         0.000963     -0.000249      0.000384
     -8.97231      5.77321      3.10710         0.002830      0.000384     -0.000064
     -6.58857      6.80142      3.10710        -0.000929      0.000079      0.000413
     -4.20484      7.82962      3.10710         0.000147     -0.000002      0.000533
     -1.82110      8.85783      3.10710        -0.000462      0.000566      0.001275
      0.56263      9.88604      3.10710         0.002395     -0.000858     -0.001294
     -0.54573      1.56457      5.89642         0.006660     -0.016370     -0.017705
      1.83800      2.59278      5.89642         0.004395     -0.000326     -0.006939
      4.22174      3.62099      5.89642         0.003941     -0.000537     -0.006887
      6.60547      4.64919      5.89642         0.004258     -0.000528     -0.006951
      8.98920      5.67740      5.89642         0.006109     -0.000739     -0.009192
     -2.91882      2.61823      5.89642         0.004336     -0.000795     -0.006901
     -0.53509      3.64644      5.89642         0.004205     -0.000993     -0.007030
      1.84865      4.67465      5.89642         0.004258     -0.000612     -0.007013
      4.23238      5.70286      5.89642         0.003737     -0.000622     -0.006845
      6.61611      6.73107      5.89642         0.004186     -0.000612     -0.006910
     -5.29191      3.67190      5.89642         0.003893     -0.000677     -0.006919
     -2.90818      4.70011      5.89642         0.004356     -0.000905     -0.006706
     -0.52444      5.72832      5.89642         0.004109     -0.001637     -0.006834
      1.85929      6.75653      5.89642         0.004322     -0.000875     -0.007044
      4.24302      7.78474      5.89642         0.003899     -0.000655     -0.006893
     -7.66500      4.72557      5.89642         0.004234     -0.000542     -0.006846
     -5.28127      5.75378      5.89642         0.003666     -0.000592     -0.006976
     -2.89753      6.78199      5.89642         0.004191     -0.000582     -0.006780
     -0.51380      7.81020      5.89642         0.004092     -0.001002     -0.006448
      1.86993      8.83841      5.89642         0.004640     -0.000826     -0.006913
    -10.03809      5.77924      5.89642         0.003866     -0.000720     -0.005138
     -7.65436      6.80744      5.89642         0.004332     -0.000541     -0.006801
     -5.27062      7.83565      5.89642         0.003963     -0.000485     -0.006904
     -2.88689      8.86386      5.89642         0.004190     -0.000351     -0.006969
     -0.50315      9.89207      5.89642         0.004742     -0.013803      0.002790
      0.55638      0.51731      2.10358        -0.003382      0.000695      0.006473
      2.94011      1.54552      2.10358        -0.004090      0.000329      0.006934
      5.32384      2.57373      2.10358        -0.003763      0.000485      0.006894
      7.70758      3.60194      2.10358        -0.004166      0.000511      0.006791
     10.09131      4.63015      2.10358        -0.003787      0.001324      0.006397
     -1.81671      1.57098      2.10358        -0.003107      0.000419      0.006202
      0.56702      2.59919      2.10358        -0.003478      0.000676      0.006619
      2.95075      3.62740      2.10358        -0.004171      0.000617      0.006850
      5.33449      4.65560      2.10358        -0.003715      0.000638      0.006880
      7.71822      5.68381      2.10358        -0.003611      0.000722      0.006866
     -4.18980      2.62464      2.10358        -0.004193      0.000696      0.006822
     -1.80607      3.65285      2.10358        -0.004181      0.000420      0.007160
      0.57766      4.68106      2.10358        -0.004021      0.001043      0.006770
      2.96140      5.70927      2.10358        -0.004227      0.000868      0.006880
      5.34513      6.73748      2.10358        -0.003761      0.000726      0.006883
     -6.56289      3.67831      2.10358        -0.003840      0.000589      0.006948
     -4.17916      4.70652      2.10358        -0.004042      0.000533      0.006900
     -1.79543      5.73473      2.10358        -0.004029      0.000365      0.007004
      0.58831      6.76294      2.10358        -0.004020      0.001236      0.007044
      2.97204      7.79115      2.10358        -0.004348      0.000680      0.006943
     -8.93598      4.73198      2.10358        -0.004160      0.000394      0.007002
     -6.55225      5.76019      2.10358        -0.003746      0.000447      0.006914
     -4.16852      6.78840      2.10358        -0.004134      0.000394      0.006847
     -1.78478      7.81661      2.10358        -0.004185      0.000215      0.006839
      0.59895      8.84482      2.10358        -0.004207     -0.000539      0.007845
 -----------------------------------------------------------------------------------
    total drift:                               -0.000000     -0.000000      0.000000


--------------------------------------------------------------------------------------------------------



  FREE ENERGIE OF THE ION-ELECTRON SYSTEM (eV)
  ---------------------------------------------------
  free  energy   TOTEN  =      -344.54292621 eV

  energy  without entropy=     -344.53705281  energy(sigma->0) =     -344.53998951
 


--------------------------------------------------------------------------------------------------------


    POTLOK:  cpu time      5.1630: real time      5.1963


--------------------------------------------------------------------------------------------------------


     LOOP+:  cpu time  24772.3370: real time  24916.7552
 vacuum level on the upper side and lower side of the slab         1.078         1.078
    4ORBIT:  cpu time      0.0000: real time      0.0000

 total amount of memory used by VASP MPI-rank0  5607754. kBytes
=======================================================================

   base                                    :      30000. kBytes
   nonl-proj                               :     344086. kBytes
   fftplans                                :     185630. kBytes
   grid                                    :     304228. kBytes
   one-center                              :         52. kBytes
   wavefun                                 :    4743758. kBytes
 
  
  
 General timing and accounting informations for this job:
 ========================================================
  
                  Total CPU time used (sec):    24890.643
                            User time (sec):    24009.849
                          System time (sec):      880.794
                         Elapsed time (sec):    25036.193
  
                   Maximum memory used (kb):     6224392.
                   Average memory used (kb):          N/A
  
                          Minor page faults:       546552
                          Major page faults:           64
                 Voluntary context switches:         1397
