generated by phonopy
   1.0
     9.2188989180618979    5.3222262951985879    0.0000000000000000
    -9.2188989180618979    5.3222262951985879    0.0000000000000000
     0.0000000000000000    0.0000000000000000   40.0000000000000000
Be
  25
Direct
  0.0000000000000000  0.0000000000000000  0.1000000000000014
  0.2000000000000000  0.0000000000000000  0.1000000000000014
  0.4000000000000000  0.0000000000000000  0.1000000000000014
  0.6000000000000001  0.0000000000000000  0.1000000000000014
  0.8000000000000000  0.0000000000000000  0.1000000000000014
  0.0000000000000000  0.2000000000000000  0.1000000000000014
  0.2000000000000000  0.2000000000000000  0.1000000000000014
  0.4000000000000000  0.2000000000000000  0.1000000000000014
  0.6000000000000001  0.2000000000000000  0.1000000000000014
  0.8000000000000000  0.2000000000000000  0.1000000000000014
  0.0000000000000000  0.4000000000000000  0.1000000000000014
  0.2000000000000000  0.4000000000000000  0.1000000000000014
  0.4000000000000000  0.4000000000000000  0.1000000000000014
  0.6000000000000001  0.4000000000000000  0.1000000000000014
  0.8000000000000000  0.4000000000000000  0.1000000000000014
  0.0000000000000000  0.6000000000000001  0.1000000000000014
  0.2000000000000000  0.6000000000000001  0.1000000000000014
  0.4000000000000000  0.6000000000000001  0.1000000000000014
  0.6000000000000001  0.6000000000000001  0.1000000000000014
  0.8000000000000000  0.6000000000000001  0.1000000000000014
  0.0000000000000000  0.8000000000000000  0.1000000000000014
  0.2000000000000000  0.8000000000000000  0.1000000000000014
  0.4000000000000000  0.8000000000000000  0.1000000000000014
  0.6000000000000001  0.8000000000000000  0.1000000000000014
  0.8000000000000000  0.8000000000000000  0.1000000000000014
