       N       E                     dE             d eps       ncg     rms          rms(c)
DAV:   1     0.197600616469E+01    0.19760E+01   -0.24831E+03 19404   0.104E+02
DAV:   2    -0.109434687836E+02   -0.12919E+02   -0.12424E+02 28938   0.164E+01
DAV:   3    -0.109897356538E+02   -0.46267E-01   -0.46249E-01 20664   0.109E+00
DAV:   4    -0.109898644613E+02   -0.12881E-03   -0.12881E-03 36456   0.628E-02
DAV:   5    -0.109898644718E+02   -0.10469E-07   -0.95050E-08 20706   0.456E-04    0.298E+00
DAV:   6    -0.984628587772E+01    0.11436E+01   -0.33340E+00 25704   0.117E+00    0.124E+00
DAV:   7    -0.963937408279E+01    0.20691E+00   -0.80394E-01 31248   0.524E-01    0.502E-01
DAV:   8    -0.960651018852E+01    0.32864E-01   -0.35297E-02 31710   0.168E-01    0.144E-01
DAV:   9    -0.959877437141E+01    0.77358E-02   -0.12980E-02 32592   0.646E-02    0.999E-02
DAV:  10    -0.959826267076E+01    0.51170E-03   -0.18571E-03 32172   0.351E-02    0.382E-02
DAV:  11    -0.959963568289E+01   -0.13730E-02   -0.16095E-03 27510   0.259E-02    0.159E-02
DAV:  12    -0.960011456891E+01   -0.47889E-03   -0.11481E-04 26880   0.997E-03    0.101E-02
DAV:  13    -0.960064689911E+01   -0.53233E-03   -0.87474E-05 26250   0.657E-03    0.395E-03
DAV:  14    -0.960090134635E+01   -0.25445E-03   -0.24465E-05 25956   0.303E-03    0.164E-03
DAV:  15    -0.960091489086E+01   -0.13545E-04   -0.75762E-07 22218   0.673E-04    0.110E-03
DAV:  16    -0.960097349308E+01   -0.58602E-04   -0.75063E-06 25326   0.114E-03    0.451E-04
DAV:  17    -0.960098697104E+01   -0.13478E-04   -0.23323E-06 27342   0.809E-04    0.339E-04
DAV:  18    -0.960098920587E+01   -0.22348E-05   -0.50539E-07 24360   0.406E-04    0.126E-04
DAV:  19    -0.960099108356E+01   -0.18777E-05   -0.54609E-07 24318   0.430E-04    0.494E-05
DAV:  20    -0.960099133435E+01   -0.25079E-06   -0.14161E-08 29358   0.101E-04
   1 F= -.96009913E+01 E0= -.96006119E+01  d E =-.758966E-03
