G-Beryllene trilayer AAB 0.094740       
   1.00000000000000     
     2.9028936874003186    1.6759864518494398    0.0000000000000000
    -2.9028936874003186    1.6759864518494398    0.0000000000000000
     0.0000000000000000    0.0000000000000000   40.0000000000000000
  Be            
     6
Direct
     0.0000000000000000    0.0000000000000000    0.1185668658662422
     0.6666666666666643    0.3333333333333357    0.1468682686058713
     0.3333333333333357    0.6666666666666643    0.1245274488012527
     0.6666666666666643    0.3333333333333357    0.0968448483522479
     0.3333333333333357    0.6666666666666643    0.0705809559121420
     0.6666666666666643    0.3333333333333357    0.0426116124622453
 
  0.00000000E+00  0.00000000E+00  0.00000000E+00
  0.00000000E+00  0.00000000E+00  0.00000000E+00
  0.00000000E+00  0.00000000E+00  0.00000000E+00
  0.00000000E+00  0.00000000E+00  0.00000000E+00
  0.00000000E+00  0.00000000E+00  0.00000000E+00
  0.00000000E+00  0.00000000E+00  0.00000000E+00
