 vasp.6.5.0 16Dec24 (build Jan 08 2025 16:17:04) complex                        
  
 executed on             LinuxIFC date 2025.07.23  11:07:40
 running   42 mpi-ranks, on    1 nodes
 distrk:  each k-point on   42 cores,    1 groups
 distr:  one band on NCORE=   1 cores,   42 groups


--------------------------------------------------------------------------------------------------------


 INCAR:
   SYSTEM = Convergence
   ISTART = 0
   ICHARG = 2
   PREC = Accurate
   ENCUT = 600
   LCHARG = .FALSE.
   LWAVE = .FALSE.
   ALGO = Normal
   NELM = 100
   EDIFF = 1E-6
   EDIFFG = -1E-3
   SIGMA = 0.05
   ISMEAR = 0
   ISPIN = 1
   NSW = 0
   IBRION = -1
   POTIM = .5
   ISIF = 2
   GGA = PE
   LDIPOL = .TRUE.
   IDIPOL = 3
   DIPOL = 0.5 0.5 0.1

 POTCAR:    PAW_PBE Be 06Sep2000                  
 -----------------------------------------------------------------------------
|                                                                             |
|           W    W    AA    RRRRR   N    N  II  N    N   GGGG   !!!           |
|           W    W   A  A   R    R  NN   N  II  NN   N  G    G  !!!           |
|           W    W  A    A  R    R  N N  N  II  N N  N  G       !!!           |
|           W WW W  AAAAAA  RRRRR   N  N N  II  N  N N  G  GGG   !            |
|           WW  WW  A    A  R   R   N   NN  II  N   NN  G    G                |
|           W    W  A    A  R    R  N    N  II  N    N   GGGG   !!!           |
|                                                                             |
|     For optimal performance we recommend to set                             |
|       NCORE = 2 up to number-of-cores-per-socket                            |
|     NCORE specifies how many cores store one orbital (NPAR=cpu/NCORE).      |
|     This setting can greatly improve the performance of VASP for DFT.       |
|     The default, NCORE=1 might be grossly inefficient on modern             |
|     multi-core architectures or massively parallel machines. Do your        |
|     own testing! More info at https://www.vasp.at/wiki/index.php/NCORE      |
|     Unfortunately you need to use the default for GW and RPA                |
|     calculations (for HF NCORE is supported but not extensively tested      |
|     yet).                                                                   |
|                                                                             |
 -----------------------------------------------------------------------------

 POTCAR:    PAW_PBE Be 06Sep2000                  
   SHA256 =  98a2d1e63100a984719ed1fa4aa623d62d7fd86152f07ada9bb3796889d1bbc8 Be/POTCAR             
   COPYR  = (c) Copyright 06Sep2000 Georg Kresse                                                    
   COPYR  = This file is part of the software VASP. Any use, copying, and all other rights are regul
   COPYR  = If you do not have a valid VASP license, you may not use, copy or distribute this file. 
   VRHFIN =Be: s2p0                                                                                 
   LEXCH  = PE                                                                                      
   EATOM  =    27.4793 eV,    2.0197 Ry                                                             
                                                                                                    
   TITEL  = PAW_PBE Be 06Sep2000                                                                    
   LULTRA =        F    use ultrasoft PP ?                                                          
   IUNSCR =        1    unscreen: 0-lin 1-nonlin 2-no                                               
   RPACOR =    1.580    partial core radius                                                         
   POMASS =    9.013; ZVAL   =    2.000    mass and valenz                                          
   RCORE  =    1.900    outmost cutoff radius                                                       
   RWIGS  =    1.880; RWIGS  =    0.995    wigner-seitz radius (au A)                               
   ENMAX  =  247.543; ENMIN  =  185.658 eV                                                          
   ICORE  =        2    local potential                                                             
   LCOR   =        T    correct aug charges                                                         
   LPAW   =        T    paw PP                                                                      
   EAUG   =  318.781                                                                                
   DEXC   =    0.000                                                                                
   RMAX   =    1.944    core radius for proj-oper                                                   
   RAUG   =    1.300    factor for augmentation sphere                                              
   RDEP   =    2.003    radius for radial grids                                                     
   RDEPT  =    1.802    core radius for aug-charge                                                  
                                                                                                    
   Atomic configuration                                                                             
    4 entries                                                                                       
     n  l   j            E        occ.                                                              
     1  0  0.50      -106.2287   2.0000                                                             
     2  0  0.50        -5.6162   1.9900                                                             
     2  1  0.50        -2.0244   0.0100                                                             
     3  2  1.50        -1.3606   0.0000                                                             
   Description                                                                                      
     l       E           TYP  RCUT    TYP  RCUT                                                     
     0     -5.6161739     23  1.900                                                                 
     0     27.2116520     23  1.900                                                                 
     1     -2.0243505     23  1.900                                                                 
     1     27.2116520     23  1.900                                                                 
     2     -1.3605826     15  1.500                                                                 
  local pseudopotential read in
  partial core-charges read in
  partial kinetic energy density read in
  atomic valenz-charges read in
  non local Contribution for L=           0  read in
    real space projection operators read in
  non local Contribution for L=           0  read in
    real space projection operators read in
  non local Contribution for L=           1  read in
    real space projection operators read in
  non local Contribution for L=           1  read in
    real space projection operators read in
    PAW grid and wavefunctions read in
 
   number of l-projection  operators is LMAX  =           4
   number of lm-projection operators is LMMAX =           8
 
  PAW_PBE Be 06Sep2000                  :
 energy of atom  1       EATOM=  -27.4793
 kinetic energy error for atom=    0.0000 (will be added to EATOM!!)
 
 
 POSCAR: G-Beryllene with a=3.9837168574084174
  positions in direct lattice
  No initial velocities read in


 exchange-correlation table for PE
   RHO(1)=    0.500       N(1)  =     2000
   RHO(2)=  100.500       N(2)  =     4000
 


--------------------------------------------------------------------------------------------------------


 ion  position               nearest neighbor table
   1  0.333  0.667  0.100-   2 2.30   2 2.30   2 2.30
   2  0.667  0.333  0.100-   1 2.30   1 2.30   1 2.30
 
  LATTYP: Found a hexagonal cell.
 ALAT       =     3.9837168574
 C/A-ratio  =    10.0408742468
  
  Lattice vectors:
  
 A1 = (   3.4500000000,   1.9918584287,   0.0000000000)
 A2 = (  -3.4500000000,   1.9918584287,   0.0000000000)
 A3 = (   0.0000000000,   0.0000000000,  40.0000000000)


Analysis of symmetry for initial positions (statically):
=====================================================================
 Subroutine PRICEL returns:
 Original cell was already a primitive cell.
 

 Routine SETGRP: Setting up the symmetry group for a 
 hexagonal supercell.


 Subroutine GETGRP returns: Found 24 space group operations
 (whereof 12 operations were pure point group operations)
 out of a pool of 24 trial point group operations.


The static configuration has the point symmetry C_6v.
 The point group associated with its full space group is D_6h.


Analysis of symmetry for dynamics (positions and initial velocities):
=====================================================================
 Subroutine PRICEL returns:
 Original cell was already a primitive cell.
 

 Routine SETGRP: Setting up the symmetry group for a 
 hexagonal supercell.


 Subroutine GETGRP returns: Found 24 space group operations
 (whereof 12 operations were pure point group operations)
 out of a pool of 24 trial point group operations.


The dynamic configuration has the point symmetry C_6v.
 The point group associated with its full space group is D_6h.


 Subroutine INISYM returns: Found 24 space group operations
 (whereof 12 operations are pure point group operations),
 and found     1 'primitive' translations


----------------------------------------------------------------------------------------

                                     Primitive cell                                     

  volume of cell :     549.7529

  direct lattice vectors                    reciprocal lattice vectors
     3.450000000  1.991858429  0.000000000     0.144927536  0.251021856  0.000000000
    -3.450000000  1.991858429  0.000000000    -0.144927536  0.251021856  0.000000000
     0.000000000  0.000000000 40.000000000     0.000000000  0.000000000  0.025000000

  length of vectors
     3.983716857  3.983716857 40.000000000     0.289855072  0.289855072  0.025000000

  position of ions in fractional coordinates (direct lattice)
     0.333333333  0.666666667  0.100000000
     0.666666667  0.333333333  0.100000000

  ion indices of the primitive-cell ions
   primitive index   ion index
                 1           1
                 2           2

----------------------------------------------------------------------------------------

 
 
 KPOINTS: k-points                                

Automatic generation of k-mesh.
 Grid dimensions read from file:
 generate k-points for:    5    5    1

 Generating k-lattice:

  Cartesian coordinates                     Fractional coordinates (reciprocal lattice)
     0.028985507  0.050204371  0.000000000     0.200000000  0.000000000  0.000000000
    -0.028985507  0.050204371  0.000000000     0.000000000  0.200000000  0.000000000
     0.000000000  0.000000000  0.025000000     0.000000000  0.000000000  1.000000000

  Length of vectors
     0.057971014  0.057971014  0.025000000

  Shift w.r.t. Gamma in fractional coordinates (k-lattice)
     0.000000000  0.000000000  0.000000000

 
 Subroutine IBZKPT returns following result:
 ===========================================
 
 Found      5 irreducible k-points:
 
 Following reciprocal coordinates:
            Coordinates               Weight
  0.000000  0.000000  0.000000      1.000000
  0.200000  0.000000  0.000000      6.000000
  0.400000  0.000000  0.000000      6.000000
  0.200000  0.200000  0.000000      6.000000
  0.400000  0.200000  0.000000      6.000000
 
 Following cartesian coordinates:
            Coordinates               Weight
  0.000000  0.000000  0.000000      1.000000
  0.028986  0.050204  0.000000      6.000000
  0.057971  0.100409  0.000000      6.000000
  0.000000  0.100409  0.000000      6.000000
  0.028986  0.150613  0.000000      6.000000
 


--------------------------------------------------------------------------------------------------------




 Dimension of arrays:
   k-points           NKPTS =      5   k-points in BZ     NKDIM =      5   number of bands    NBANDS=     42
   number of dos      NEDOS =    301   number of ions     NIONS =      2
   non local maximal  LDIM  =      4   non local SUM 2l+1 LMDIM =      8
   total plane-waves  NPLWV = 327680
   max r-space proj   IRMAX =      1   max aug-charges    IRDMAX=  20435
   dimension x,y,z NGX =    32 NGY =   32 NGZ =  320
   dimension x,y,z NGXF=    64 NGYF=   64 NGZF=  640
   support grid    NGXF=    64 NGYF=   64 NGZF=  640
   ions per type =               2
   NGX,Y,Z   is equivalent  to a cutoff of  13.35, 13.35, 13.30 a.u.
   NGXF,Y,Z  is equivalent  to a cutoff of  26.71, 26.71, 26.60 a.u.

 SYSTEM =  Convergence                             
 POSCAR =  G-Beryllene with a=3.9837168574084174   

 Startparameter for this run:
   NWRITE =      2    write-flag & timer
   PREC   = accura    normal or accurate (medium, high low for compatibility)
   ISTART =      0    job   : 0-new  1-cont  2-samecut
   ICHARG =      2    charge: 1-file 2-atom 10-const
   ISPIN  =      1    spin polarized calculation?
   LNONCOLLINEAR =      F non collinear calculations
   LSORBIT =      F    spin-orbit coupling
   INIWAV =      1    electr: 0-lowe 1-rand  2-diag
   LASPH  =      F    aspherical Exc in radial PAW
 Electronic Relaxation 1
   ENCUT  =  600.0 eV  44.10 Ry    6.64 a.u.   7.96  7.96 79.89*2*pi/ulx,y,z
   ENINI  =  600.0     initial cutoff
   ENAUG  =  318.8 eV  augmentation charge cutoff
   NELM   =    100;   NELMIN=  2; NELMDL= -5     # of ELM steps 
   EDIFF  = 0.1E-05   stopping-criterion for ELM
   LREAL  =      F    real-space projection
   NLSPLINE    = F    spline interpolate recip. space projectors
   LCOMPAT=      F    compatible to vasp.4.4
   GGA_COMPAT  = T    GGA compatible to vasp.4.4-vasp.4.6
   LMAXPAW     = -100 max onsite density
   LMAXMIX     =    2 max onsite mixed and CHGCAR
   VOSKOWN=      0    Vosko Wilk Nusair interpolation
   ROPT   =    0.00000
 Ionic relaxation
   EDIFFG = -.1E-02   stopping-criterion for IOM
   NSW    =      0    number of steps for IOM
   NBLOCK =      1;   KBLOCK =      1    inner block; outer block 
   IBRION =     -1    ionic relax: 0-MD 1-quasi-New 2-CG
   NFREE  =      0    steps in history (QN), initial steepest desc. (CG)
   ISIF   =      2    stress and relaxation
   IWAVPR =     10    prediction:  0-non 1-charg 2-wave 3-comb
   ISYM   =      2    0-nonsym 1-usesym 2-fastsym
   LCORR  =      T    Harris-Foulkes like correction to forces

   POTIM  = 0.5000    time-step for ionic-motion
   TEIN   =    0.0    initial temperature
   TEBEG  =    0.0;   TEEND  =   0.0 temperature during run
   SMASS  =  -3.00    Nose mass-parameter (am)
   estimated Nose-frequenzy (Omega)   =  0.10E-29 period in steps = 0.13E+47 mass=  -0.363E-27a.u.
   SCALEE = 1.0000    scale energy and forces
   NPACO  =    256;   APACO  = 10.0  distance and # of slots for P.C.
   PSTRESS=    0.0 pullay stress

  Mass of Ions in am
   POMASS =   9.01
  Ionic Valenz
   ZVAL   =   2.00
  Atomic Wigner-Seitz radii
   RWIGS  =  -1.00
  virtual crystal weights 
   VCA    =   1.00
   NELECT =       4.0000    total number of electrons
   NUPDOWN=      -1.0000    fix difference up-down

 DOS related values:
   EMIN   =  10.00;   EMAX   =-10.00  energy-range for DOS
   EFERMI =   0.00;   METHOD = LEGACY      
   ISMEAR =     0;   SIGMA  =   0.05  broadening in eV -4-tet -1-fermi 0-gaus
   EFERMI_NEDOS =   21; number of points for ismear=-14 and -15

 Electronic relaxation 2 (details)
   IALGO  =     38    algorithm
   LDIAG  =      T    sub-space diagonalisation (order eigenvalues)
   LSUBROT=      F    optimize rotation matrix (better conditioning)
   TURBO    =      0    0=normal 1=particle mesh
   IRESTART =      0    0=no restart 2=restart with 2 vectors
   NREBOOT  =      0    no. of reboots
   NMIN     =      0    reboot dimension
   EREF     =   0.00    reference energy to select bands
   IMIX   =      4    mixing-type and parameters
     AMIX     =   0.40;   BMIX     =  1.00
     AMIX_MAG =   1.60;   BMIX_MAG =  1.00
     AMIN     =   0.10
     WC   =   100.;   INIMIX=   1;  MIXPRE=   1;  MAXMIX= -45

 Intra band minimization:
   WEIMIN = 0.0000     energy-eigenvalue tresh-hold
   EBREAK =  0.60E-08  absolut break condition
   DEPER  =   0.30     relativ break condition  

   TIME   =   0.40     timestep for ELM

  volume/ion in A,a.u.               =     274.88      1854.96
  Fermi-wavevector in a.u.,A,eV,Ry     =   0.317229  0.599475  1.369208  0.100634
  Thomas-Fermi vector in A             =   1.200992
 
 Write flags
   LWAVE        =      F    write WAVECAR
   LDOWNSAMPLE  =      F    k-point downsampling of WAVECAR
   LCHARG       =      F    write CHGCAR
   LVTOT        =      F    write LOCPOT, total local potential
   LVHAR        =      F    write LOCPOT, Hartree potential only
   WRT_POTENTIAL= false  ! write potential to hdf5 file
   LELF         =      F    write electronic localiz. function (ELF)
   LORBIT       =      0    0 simple, 1 ext, 2 COOP (PROOUT), +10 PAW based schemes


 Python interface
   PLUGINS active      =      F    recompile with -DPLUGINS to activate
 
 Dipole corrections
   LMONO      =      F    monopole corrections only (constant potential shift)
   LDIPOL     =      T    correct potential (dipole corrections)
   IDIPOL     =      3    1-x, 2-y, 3-z, 4-all directions 
   EPSILON    =  1.0000000 bulk dielectric constant
   LVACPOTAV  =      F  vacuum potentials using an averaging scheme for the charge density
   VACPOTFLAT =  0.1000000 required flatness to determine vacuum potential
 
Coulomb truncation method
  LTRUNCATE          =      F  Coulomb kernel truncation to be used
  IDIMENSIONALITY    =      3  Dimensionality of cutoff (0 molecules / 2 surfaces)
  ISURFACE           =     -1  Direction of surface normal
  LCOARSEN           =      F  Coarsen the charge grid before padding, preferred

 
 Exchange correlation treatment:
   GGA     = PE    functional components
   XC_C    = 1    coefficients multiplying the functional components
   LIBXC   =     F    Libxc                    
   VOSKOWN =     0    Vosko Wilk Nusair interpolation
   LHFCALC =     F    Hartree Fock is set to
   LHFONE  =     F    Hartree Fock one center treatment
   AEXX    =    0.0000 exact exchange contribution

 Parameters of functionals:
   PE:
     No parameter
 
 Van der Waals corrections
   IVDW    =     0    specifies the selected vdW correction

 Linear response parameters
   LEPSILON=     F    determine dielectric tensor
   LRPA    =     F    only Hartree local field effects (RPA)
   LNABLA  =     F    use nabla operator in PAW spheres
   LVEL    =     F    velocity operator in full k-point grid
   CSHIFT  =0.1000    complex shift for real part using Kramers Kronig
   OMEGAMAX=  -1.0    maximum frequency
   DEG_THRESHOLD= 0.2000000E-02 threshold for treating states as degnerate
   RTIME   =   -0.100 relaxation time in fs
  (WPLASMAI=    0.000 imaginary part of plasma frequency in eV, 0.658/RTIME)
   DFIELD  = 0.0000000 0.0000000 0.0000000 field for delta impulse in time
 
  Optional k-point grid parameters
   LKPOINTS_OPT  =     F    use optional k-point grid
   KPOINTS_OPT_MODE=     1    mode for optional k-point grid
 
 Orbital magnetization related:
   ORBITALMAG=     F  switch on orbital magnetization
   LCHIMAG   =     F  perturbation theory with respect to B field
   DQ        =  0.001000  dq finite difference perturbation B field
   LLRAUG    =     F  two centre corrections for induced B field
   LBONE     =     F  B-component reconstruction in AE one-centre
   LVGVCALC  =     T  calculate vGv susceptibility
   LVGVAPPL  =     F  apply vGv susceptibility instead of pGv for G=0

 Random number generation:
   RANDOM_GENERATOR = DEFAULT
   PCG_SEED         = not used


--------------------------------------------------------------------------------------------------------


 Static calculation
 charge density and potential will be updated during run
 non-spin polarized calculation
 Variant of blocked Davidson
 Davidson routine will perform the subspace rotation
 perform sub-space diagonalisation
    after iterative eigenvector-optimisation
 modified Broyden-mixing scheme, WC =      100.0
 initial mixing is a Kerker type mixing with AMIX =  0.4000 and BMIX =      1.0000
 Hartree-type preconditioning will be used
 using additional bands           40
 reciprocal scheme for non local part
 use partial core corrections
 calculate Harris-corrections to forces 
   (improved forces if not selfconsistent)
 use gradient corrections 
 use of overlap-Matrix (Vanderbilt PP)
 Gauss-broadening in eV      SIGMA  =   0.05


--------------------------------------------------------------------------------------------------------


  energy-cutoff  :      600.00
  volume of cell :      549.75
      direct lattice vectors                 reciprocal lattice vectors
     3.450000000  1.991858429  0.000000000     0.144927536  0.251021856  0.000000000
    -3.450000000  1.991858429  0.000000000    -0.144927536  0.251021856  0.000000000
     0.000000000  0.000000000 40.000000000     0.000000000  0.000000000  0.025000000

  length of vectors
     3.983716857  3.983716857 40.000000000     0.289855072  0.289855072  0.025000000


 
 k-points in units of 2pi/SCALE and weight: k-points                                
   0.00000000  0.00000000  0.00000000       0.040
   0.02898551  0.05020437  0.00000000       0.240
   0.05797101  0.10040874  0.00000000       0.240
   0.00000000  0.10040874  0.00000000       0.240
   0.02898551  0.15061311  0.00000000       0.240
 
 k-points in reciprocal lattice and weights: k-points                                
   0.00000000  0.00000000  0.00000000       0.040
   0.20000000  0.00000000  0.00000000       0.240
   0.40000000  0.00000000  0.00000000       0.240
   0.20000000  0.20000000  0.00000000       0.240
   0.40000000  0.20000000  0.00000000       0.240
 
 position of ions in fractional coordinates (direct lattice) 
   0.33333333  0.66666667  0.10000000
   0.66666667  0.33333333  0.10000000
 
 position of ions in cartesian coordinates  (Angst):
  -1.15000000  1.99185843  4.00000000
   1.15000000  1.99185843  4.00000000
 


--------------------------------------------------------------------------------------------------------


 k-point     1 :   0.0000 0.0000 0.0000  plane waves:   18177
 k-point     2 :   0.2000 0.0000 0.0000  plane waves:   18292
 k-point     3 :   0.4000 0.0000 0.0000  plane waves:   18374
 k-point     4 :   0.2000 0.2000 0.0000  plane waves:   18368
 k-point     5 :   0.4000 0.2000 0.0000  plane waves:   18386

 maximum and minimum number of plane-waves per node :     18386    18177

 maximum number of plane-waves:     18386
 maximum index in each direction: 
   IXMAX=    7   IYMAX=    7   IZMAX=   79
   IXMIN=   -8   IYMIN=   -8   IZMIN=  -79


 serial   3D FFT for wavefunctions
 parallel 3D FFT for charge:
    minimum data exchange during FFTs selected (reduces bandwidth)


 total amount of memory used by VASP MPI-rank0    58928. kBytes
=======================================================================

   base                                    :      30000. kBytes
   nonl-proj                               :       6475. kBytes
   fftplans                                :       3909. kBytes
   grid                                    :      17063. kBytes
   one-center                              :          6. kBytes
   wavefun                                 :       1475. kBytes
 
     INWAV:  cpu time      0.0000: real time      0.0000
 Broyden mixing: mesh for mixing (old mesh)
   NGX = 15   NGY = 15   NGZ =159
  (NGX  = 64   NGY  = 64   NGZ  =640)
  gives a total of  35775 points

 initial charge density was supplied:
 charge density of overlapping atoms calculated
 number of electron       4.0000000 magnetization 
 keeping initial charge density in first step


--------------------------------------------------------------------------------------------------------


 Maximum index for augmentation-charges          793 (set IRDMAX)


--------------------------------------------------------------------------------------------------------


 First call to EWALD:  gamma=   0.216
 Maximum number of real-space cells   6x   6x   1
 Maximum number of reciprocal cells   2x   2x  12

    FEWALD:  cpu time      0.0006: real time      0.0006


--------------------------------------- Ionic step        1  -------------------------------------------




--------------------------------------- Iteration      1(   1)  ---------------------------------------


    POTLOK:  cpu time      0.0604: real time      0.0608
    SETDIJ:  cpu time      0.0011: real time      0.0011
     EDDAV:  cpu time      0.3023: real time      0.3050
       DOS:  cpu time      0.0005: real time      0.0005
    --------------------------------------------
      LOOP:  cpu time      0.3646: real time      0.3677

 eigenvalue-minimisations  :   420
 total energy-change (2. order) : 0.4399344E+01  (-0.1215367E+03)
 number of electron       4.0000000 magnetization 
 augmentation part        4.0000000 magnetization 

 DIPCOR: dipole corrections for dipol
 direction  3 min pos   385,
 dipolmoment           0.000000      0.000000      0.000000 electrons x Angstroem
 Tr[quadrupol]       -11.629474

 energy correction for charged system         0.000000 eV
 dipol+quadrupol energy correction           -0.000000 eV
 added-field ion interaction         -0.000000 eV  (added to PSCEN)


 Free energy of the ion-electron system (eV)
  ---------------------------------------------------
  alpha Z        PSCENC =         0.12710513
  Ewald energy   TEWEN  =       267.87820229
  -Hartree energ DENC   =      -302.84367504
  -exchange      EXHF   =         0.00000000
  -V(xc)+E(xc)   XCENC  =         5.20344317
  PAW double counting   =        30.51246266      -29.24515235
  entropy T*S    EENTRO =        -0.00062805
  eigenvalues    EBANDS =       -22.19092077
  atomic energy  EATOM  =        54.95850721
  Solvation  Ediel_sol  =         0.00000000
  ---------------------------------------------------
  free energy    TOTEN  =         4.39934426 eV

  energy without entropy =        4.39997231  energy(sigma->0) =        4.39965829


--------------------------------------------------------------------------------------------------------




--------------------------------------- Iteration      1(   2)  ---------------------------------------


     EDDAV:  cpu time      0.4128: real time      0.4150
       DOS:  cpu time      0.0003: real time      0.0003
    --------------------------------------------
      LOOP:  cpu time      0.4132: real time      0.4154

 eigenvalue-minimisations  :   588
 total energy-change (2. order) :-0.7650706E+01  (-0.7222541E+01)
 number of electron       4.0000000 magnetization 
 augmentation part        4.0000000 magnetization 

 DIPCOR: dipole corrections for dipol
 direction  3 min pos   385,
 dipolmoment           0.000000      0.000000      0.000000 electrons x Angstroem
 Tr[quadrupol]       -11.629474

 energy correction for charged system         0.000000 eV
 dipol+quadrupol energy correction           -0.000000 eV
 added-field ion interaction         -0.000000 eV  (added to PSCEN)


 Free energy of the ion-electron system (eV)
  ---------------------------------------------------
  alpha Z        PSCENC =         0.12710513
  Ewald energy   TEWEN  =       267.87820229
  -Hartree energ DENC   =      -302.84367504
  -exchange      EXHF   =         0.00000000
  -V(xc)+E(xc)   XCENC  =         5.20344317
  PAW double counting   =        30.51246266      -29.24515235
  entropy T*S    EENTRO =        -0.00086450
  eigenvalues    EBANDS =       -29.84139006
  atomic energy  EATOM  =        54.95850721
  Solvation  Ediel_sol  =         0.00000000
  ---------------------------------------------------
  free energy    TOTEN  =        -3.25136149 eV

  energy without entropy =       -3.25049699  energy(sigma->0) =       -3.25092924


--------------------------------------------------------------------------------------------------------




--------------------------------------- Iteration      1(   3)  ---------------------------------------


     EDDAV:  cpu time      0.3722: real time      0.3739
       DOS:  cpu time      0.0005: real time      0.0005
    --------------------------------------------
      LOOP:  cpu time      0.3727: real time      0.3744

 eigenvalue-minimisations  :   588
 total energy-change (2. order) :-0.7255987E-01  (-0.7248110E-01)
 number of electron       4.0000000 magnetization 
 augmentation part        4.0000000 magnetization 

 DIPCOR: dipole corrections for dipol
 direction  3 min pos   385,
 dipolmoment           0.000000      0.000000      0.000000 electrons x Angstroem
 Tr[quadrupol]       -11.629474

 energy correction for charged system         0.000000 eV
 dipol+quadrupol energy correction           -0.000000 eV
 added-field ion interaction         -0.000000 eV  (added to PSCEN)


 Free energy of the ion-electron system (eV)
  ---------------------------------------------------
  alpha Z        PSCENC =         0.12710513
  Ewald energy   TEWEN  =       267.87820229
  -Hartree energ DENC   =      -302.84367504
  -exchange      EXHF   =         0.00000000
  -V(xc)+E(xc)   XCENC  =         5.20344317
  PAW double counting   =        30.51246266      -29.24515235
  entropy T*S    EENTRO =        -0.00163012
  eigenvalues    EBANDS =       -29.91318431
  atomic energy  EATOM  =        54.95850721
  Solvation  Ediel_sol  =         0.00000000
  ---------------------------------------------------
  free energy    TOTEN  =        -3.32392136 eV

  energy without entropy =       -3.32229124  energy(sigma->0) =       -3.32310630


--------------------------------------------------------------------------------------------------------




--------------------------------------- Iteration      1(   4)  ---------------------------------------


     EDDAV:  cpu time      0.5005: real time      0.5029
       DOS:  cpu time      0.0004: real time      0.0004
    --------------------------------------------
      LOOP:  cpu time      0.5010: real time      0.5034

 eigenvalue-minimisations  :   756
 total energy-change (2. order) :-0.2012856E-03  (-0.2012828E-03)
 number of electron       4.0000000 magnetization 
 augmentation part        4.0000000 magnetization 

 DIPCOR: dipole corrections for dipol
 direction  3 min pos   385,
 dipolmoment           0.000000      0.000000      0.000000 electrons x Angstroem
 Tr[quadrupol]       -11.629474

 energy correction for charged system         0.000000 eV
 dipol+quadrupol energy correction           -0.000000 eV
 added-field ion interaction         -0.000000 eV  (added to PSCEN)


 Free energy of the ion-electron system (eV)
  ---------------------------------------------------
  alpha Z        PSCENC =         0.12710513
  Ewald energy   TEWEN  =       267.87820229
  -Hartree energ DENC   =      -302.84367504
  -exchange      EXHF   =         0.00000000
  -V(xc)+E(xc)   XCENC  =         5.20344317
  PAW double counting   =        30.51246266      -29.24515235
  entropy T*S    EENTRO =        -0.00163450
  eigenvalues    EBANDS =       -29.91338122
  atomic energy  EATOM  =        54.95850721
  Solvation  Ediel_sol  =         0.00000000
  ---------------------------------------------------
  free energy    TOTEN  =        -3.32412265 eV

  energy without entropy =       -3.32248814  energy(sigma->0) =       -3.32330539


--------------------------------------------------------------------------------------------------------




--------------------------------------- Iteration      1(   5)  ---------------------------------------


     EDDAV:  cpu time      0.3747: real time      0.3766
       DOS:  cpu time      0.0004: real time      0.0004
    CHARGE:  cpu time      0.0401: real time      0.0404
    MIXING:  cpu time      0.0008: real time      0.0008
    --------------------------------------------
      LOOP:  cpu time      0.4158: real time      0.4179

 eigenvalue-minimisations  :   588
 total energy-change (2. order) :-0.1481401E-07  (-0.1464302E-07)
 number of electron       4.0000000 magnetization 
 augmentation part       -0.1062397 magnetization 

 DIPCOR: dipole corrections for dipol
 direction  3 min pos   385,
 dipolmoment           0.000000      0.000000      0.000000 electrons x Angstroem
 Tr[quadrupol]       -11.629474

 energy correction for charged system         0.000000 eV
 dipol+quadrupol energy correction           -0.000000 eV
 added-field ion interaction         -0.000000 eV  (added to PSCEN)


 Broyden mixing:
  rms(total) = 0.17153E+00    rms(broyden)= 0.17153E+00
  rms(prec ) = 0.17973E+00
  weight for this iteration     100.00

 Free energy of the ion-electron system (eV)
  ---------------------------------------------------
  alpha Z        PSCENC =         0.12710513
  Ewald energy   TEWEN  =       267.87820229
  -Hartree energ DENC   =      -302.84367504
  -exchange      EXHF   =         0.00000000
  -V(xc)+E(xc)   XCENC  =         5.20344317
  PAW double counting   =        30.51246266      -29.24515235
  entropy T*S    EENTRO =        -0.00163450
  eigenvalues    EBANDS =       -29.91338123
  atomic energy  EATOM  =        54.95850721
  Solvation  Ediel_sol  =         0.00000000
  ---------------------------------------------------
  free energy    TOTEN  =        -3.32412266 eV

  energy without entropy =       -3.32248816  energy(sigma->0) =       -3.32330541


--------------------------------------------------------------------------------------------------------




--------------------------------------- Iteration      1(   6)  ---------------------------------------


    POTLOK:  cpu time      0.0365: real time      0.0367
    SETDIJ:  cpu time      0.0012: real time      0.0012
     EDDAV:  cpu time      0.4146: real time      0.4166
       DOS:  cpu time      0.0004: real time      0.0004
    CHARGE:  cpu time      0.0366: real time      0.0368
    MIXING:  cpu time      0.0008: real time      0.0008
    --------------------------------------------
      LOOP:  cpu time      0.4902: real time      0.4926

 eigenvalue-minimisations  :   630
 total energy-change (2. order) : 0.9625731E-01  (-0.3706006E-02)
 number of electron       4.0000000 magnetization 
 augmentation part       -0.1054368 magnetization 

 DIPCOR: dipole corrections for dipol
 direction  3 min pos   385,
 dipolmoment           0.000000      0.000000      0.000000 electrons x Angstroem
 Tr[quadrupol]       -11.726605

 energy correction for charged system         0.000000 eV
 dipol+quadrupol energy correction           -0.000000 eV
 added-field ion interaction         -0.000000 eV  (added to PSCEN)


 Broyden mixing:
  rms(total) = 0.10475E+00    rms(broyden)= 0.10475E+00
  rms(prec ) = 0.11060E+00
  weight for this iteration     100.00

 eigenvalues of (default mixing * dielectric matrix)
  average eigenvalue GAMMA=   2.5121
  2.5121

 Free energy of the ion-electron system (eV)
  ---------------------------------------------------
  alpha Z        PSCENC =         0.12710513
  Ewald energy   TEWEN  =       267.87820229
  -Hartree energ DENC   =      -304.13635769
  -exchange      EXHF   =         0.00000000
  -V(xc)+E(xc)   XCENC  =         5.26082443
  PAW double counting   =        40.27059074      -39.03133850
  entropy T*S    EENTRO =        -0.00000780
  eigenvalues    EBANDS =       -28.55539116
  atomic energy  EATOM  =        54.95850721
  Solvation  Ediel_sol  =         0.00000000
  ---------------------------------------------------
  free energy    TOTEN  =        -3.22786535 eV

  energy without entropy =       -3.22785755  energy(sigma->0) =       -3.22786145


--------------------------------------------------------------------------------------------------------




--------------------------------------- Iteration      1(   7)  ---------------------------------------


    POTLOK:  cpu time      0.0396: real time      0.0398
    SETDIJ:  cpu time      0.0014: real time      0.0014
     EDDAV:  cpu time      0.4354: real time      0.4376
       DOS:  cpu time      0.0002: real time      0.0002
    CHARGE:  cpu time      0.0398: real time      0.0400
    MIXING:  cpu time      0.0011: real time      0.0011
    --------------------------------------------
      LOOP:  cpu time      0.5175: real time      0.5201

 eigenvalue-minimisations  :   630
 total energy-change (2. order) : 0.8185046E-01  (-0.9898250E-02)
 number of electron       4.0000000 magnetization 
 augmentation part       -0.1039307 magnetization 

 DIPCOR: dipole corrections for dipol
 direction  3 min pos   385,
 dipolmoment           0.000000      0.000000     -0.000000 electrons x Angstroem
 Tr[quadrupol]       -11.929428

 energy correction for charged system         0.000000 eV
 dipol+quadrupol energy correction           -0.000000 eV
 added-field ion interaction          0.000000 eV  (added to PSCEN)


 Broyden mixing:
  rms(total) = 0.13931E-01    rms(broyden)= 0.13931E-01
  rms(prec ) = 0.17536E-01
  weight for this iteration     100.00

 eigenvalues of (default mixing * dielectric matrix)
  average eigenvalue GAMMA=   2.7670
  2.1305  3.4035

 Free energy of the ion-electron system (eV)
  ---------------------------------------------------
  alpha Z        PSCENC =         0.12710513
  Ewald energy   TEWEN  =       267.87820229
  -Hartree energ DENC   =      -306.72178400
  -exchange      EXHF   =         0.00000000
  -V(xc)+E(xc)   XCENC  =         5.40116982
  PAW double counting   =        57.44305220      -56.24004827
  entropy T*S    EENTRO =        -0.00000000
  eigenvalues    EBANDS =       -25.99221926
  atomic energy  EATOM  =        54.95850721
  Solvation  Ediel_sol  =         0.00000000
  ---------------------------------------------------
  free energy    TOTEN  =        -3.14601489 eV

  energy without entropy =       -3.14601489  energy(sigma->0) =       -3.14601489


--------------------------------------------------------------------------------------------------------




--------------------------------------- Iteration      1(   8)  ---------------------------------------


    POTLOK:  cpu time      0.0419: real time      0.0421
    SETDIJ:  cpu time      0.0018: real time      0.0018
     EDDAV:  cpu time      0.4733: real time      0.4757
       DOS:  cpu time      0.0003: real time      0.0003
    CHARGE:  cpu time      0.0486: real time      0.0488
    MIXING:  cpu time      0.0013: real time      0.0013
    --------------------------------------------
      LOOP:  cpu time      0.5671: real time      0.5700

 eigenvalue-minimisations  :   672
 total energy-change (2. order) : 0.9604787E-02  (-0.1191113E-02)
 number of electron       4.0000000 magnetization 
 augmentation part       -0.1035176 magnetization 

 DIPCOR: dipole corrections for dipol
 direction  3 min pos   385,
 dipolmoment           0.000000      0.000000     -0.000000 electrons x Angstroem
 Tr[quadrupol]       -12.106240

 energy correction for charged system         0.000000 eV
 dipol+quadrupol energy correction           -0.000000 eV
 added-field ion interaction          0.000000 eV  (added to PSCEN)


 Broyden mixing:
  rms(total) = 0.10849E-01    rms(broyden)= 0.10849E-01
  rms(prec ) = 0.12028E-01
  weight for this iteration     100.00

 eigenvalues of (default mixing * dielectric matrix)
  average eigenvalue GAMMA=   2.3643
  0.9885  2.7681  3.3363

 Free energy of the ion-electron system (eV)
  ---------------------------------------------------
  alpha Z        PSCENC =         0.12710513
  Ewald energy   TEWEN  =       267.87820229
  -Hartree energ DENC   =      -308.16337568
  -exchange      EXHF   =         0.00000000
  -V(xc)+E(xc)   XCENC  =         5.46838609
  PAW double counting   =        56.55952905      -55.34735987
  entropy T*S    EENTRO =        -0.00000000
  eigenvalues    EBANDS =       -24.61740431
  atomic energy  EATOM  =        54.95850721
  Solvation  Ediel_sol  =         0.00000000
  ---------------------------------------------------
  free energy    TOTEN  =        -3.13641010 eV

  energy without entropy =       -3.13641010  energy(sigma->0) =       -3.13641010


--------------------------------------------------------------------------------------------------------




--------------------------------------- Iteration      1(   9)  ---------------------------------------


    POTLOK:  cpu time      0.0429: real time      0.0431
    SETDIJ:  cpu time      0.0010: real time      0.0010
     EDDAV:  cpu time      0.4106: real time      0.4127
       DOS:  cpu time      0.0003: real time      0.0003
    CHARGE:  cpu time      0.0491: real time      0.0493
    MIXING:  cpu time      0.0011: real time      0.0011
    --------------------------------------------
      LOOP:  cpu time      0.5050: real time      0.5076

 eigenvalue-minimisations  :   588
 total energy-change (2. order) :-0.1105473E-02  (-0.2425589E-04)
 number of electron       4.0000000 magnetization 
 augmentation part       -0.1036052 magnetization 

 DIPCOR: dipole corrections for dipol
 direction  3 min pos   385,
 dipolmoment           0.000000      0.000000     -0.000000 electrons x Angstroem
 Tr[quadrupol]       -12.150974

 energy correction for charged system         0.000000 eV
 dipol+quadrupol energy correction           -0.000000 eV
 added-field ion interaction          0.000000 eV  (added to PSCEN)


 Broyden mixing:
  rms(total) = 0.35885E-02    rms(broyden)= 0.35885E-02
  rms(prec ) = 0.50794E-02
  weight for this iteration     100.00

 eigenvalues of (default mixing * dielectric matrix)
  average eigenvalue GAMMA=   2.8432
  4.5643  1.0149  3.1594  2.6341

 Free energy of the ion-electron system (eV)
  ---------------------------------------------------
  alpha Z        PSCENC =         0.12710513
  Ewald energy   TEWEN  =       267.87820229
  -Hartree energ DENC   =      -308.30982543
  -exchange      EXHF   =         0.00000000
  -V(xc)+E(xc)   XCENC  =         5.46700875
  PAW double counting   =        54.33412385      -53.11736549
  entropy T*S    EENTRO =        -0.00000000
  eigenvalues    EBANDS =       -24.47527188
  atomic energy  EATOM  =        54.95850721
  Solvation  Ediel_sol  =         0.00000000
  ---------------------------------------------------
  free energy    TOTEN  =        -3.13751557 eV

  energy without entropy =       -3.13751557  energy(sigma->0) =       -3.13751557


--------------------------------------------------------------------------------------------------------




--------------------------------------- Iteration      1(  10)  ---------------------------------------


    POTLOK:  cpu time      0.0367: real time      0.0369
    SETDIJ:  cpu time      0.0010: real time      0.0010
     EDDAV:  cpu time      0.4066: real time      0.4085
       DOS:  cpu time      0.0002: real time      0.0002
    CHARGE:  cpu time      0.0486: real time      0.0488
    MIXING:  cpu time      0.0014: real time      0.0014
    --------------------------------------------
      LOOP:  cpu time      0.4944: real time      0.4968

 eigenvalue-minimisations  :   588
 total energy-change (2. order) :-0.1289304E-02  (-0.1380855E-03)
 number of electron       4.0000000 magnetization 
 augmentation part       -0.1034737 magnetization 

 DIPCOR: dipole corrections for dipol
 direction  3 min pos   385,
 dipolmoment           0.000000      0.000000     -0.000000 electrons x Angstroem
 Tr[quadrupol]       -12.266313

 energy correction for charged system         0.000000 eV
 dipol+quadrupol energy correction           -0.000000 eV
 added-field ion interaction          0.000000 eV  (added to PSCEN)


 Broyden mixing:
  rms(total) = 0.14550E-02    rms(broyden)= 0.14550E-02
  rms(prec ) = 0.20200E-02
  weight for this iteration     100.00

 eigenvalues of (default mixing * dielectric matrix)
  average eigenvalue GAMMA=   2.8945
  5.3162  3.6388  1.0210  2.4088  2.0879

 Free energy of the ion-electron system (eV)
  ---------------------------------------------------
  alpha Z        PSCENC =         0.12710513
  Ewald energy   TEWEN  =       267.87820229
  -Hartree energ DENC   =      -308.90289058
  -exchange      EXHF   =         0.00000000
  -V(xc)+E(xc)   XCENC  =         5.47992764
  PAW double counting   =        55.17072855      -53.95945759
  entropy T*S    EENTRO =        -0.00000000
  eigenvalues    EBANDS =       -23.89092751
  atomic energy  EATOM  =        54.95850721
  Solvation  Ediel_sol  =         0.00000000
  ---------------------------------------------------
  free energy    TOTEN  =        -3.13880487 eV

  energy without entropy =       -3.13880487  energy(sigma->0) =       -3.13880487


--------------------------------------------------------------------------------------------------------




--------------------------------------- Iteration      1(  11)  ---------------------------------------


    POTLOK:  cpu time      0.0364: real time      0.0366
    SETDIJ:  cpu time      0.0010: real time      0.0010
     EDDAV:  cpu time      0.4246: real time      0.4268
       DOS:  cpu time      0.0003: real time      0.0003
    CHARGE:  cpu time      0.0427: real time      0.0429
    MIXING:  cpu time      0.0010: real time      0.0010
    --------------------------------------------
      LOOP:  cpu time      0.5060: real time      0.5087

 eigenvalue-minimisations  :   672
 total energy-change (2. order) :-0.5720726E-03  (-0.5303443E-05)
 number of electron       4.0000000 magnetization 
 augmentation part       -0.1034624 magnetization 

 DIPCOR: dipole corrections for dipol
 direction  3 min pos   385,
 dipolmoment           0.000000      0.000000     -0.000000 electrons x Angstroem
 Tr[quadrupol]       -12.296853

 energy correction for charged system         0.000000 eV
 dipol+quadrupol energy correction           -0.000000 eV
 added-field ion interaction          0.000000 eV  (added to PSCEN)


 Broyden mixing:
  rms(total) = 0.93786E-03    rms(broyden)= 0.93786E-03
  rms(prec ) = 0.13112E-02
  weight for this iteration     100.00

 eigenvalues of (default mixing * dielectric matrix)
  average eigenvalue GAMMA=   2.9638
  6.3597  3.9444  2.8631  2.5720  1.0236  1.0199

 Free energy of the ion-electron system (eV)
  ---------------------------------------------------
  alpha Z        PSCENC =         0.12710513
  Ewald energy   TEWEN  =       267.87820229
  -Hartree energ DENC   =      -309.03778407
  -exchange      EXHF   =         0.00000000
  -V(xc)+E(xc)   XCENC  =         5.48171035
  PAW double counting   =        55.04381522      -53.83110183
  entropy T*S    EENTRO =        -0.00000000
  eigenvalues    EBANDS =       -23.75983124
  atomic energy  EATOM  =        54.95850721
  Solvation  Ediel_sol  =         0.00000000
  ---------------------------------------------------
  free energy    TOTEN  =        -3.13937695 eV

  energy without entropy =       -3.13937695  energy(sigma->0) =       -3.13937695


--------------------------------------------------------------------------------------------------------




--------------------------------------- Iteration      1(  12)  ---------------------------------------


    POTLOK:  cpu time      0.0345: real time      0.0347
    SETDIJ:  cpu time      0.0008: real time      0.0008
     EDDAV:  cpu time      0.3341: real time      0.3356
       DOS:  cpu time      0.0002: real time      0.0002
    CHARGE:  cpu time      0.0379: real time      0.0381
    MIXING:  cpu time      0.0014: real time      0.0014
    --------------------------------------------
      LOOP:  cpu time      0.4089: real time      0.4108

 eigenvalue-minimisations  :   588
 total energy-change (2. order) :-0.5898960E-03  (-0.1370995E-04)
 number of electron       4.0000000 magnetization 
 augmentation part       -0.1034541 magnetization 

 DIPCOR: dipole corrections for dipol
 direction  3 min pos   385,
 dipolmoment           0.000000      0.000000     -0.000000 electrons x Angstroem
 Tr[quadrupol]       -12.333166

 energy correction for charged system         0.000000 eV
 dipol+quadrupol energy correction           -0.000000 eV
 added-field ion interaction          0.000000 eV  (added to PSCEN)


 Broyden mixing:
  rms(total) = 0.41366E-03    rms(broyden)= 0.41366E-03
  rms(prec ) = 0.55949E-03
  weight for this iteration     100.00

 eigenvalues of (default mixing * dielectric matrix)
  average eigenvalue GAMMA=   3.3021
  7.8786  4.5045  0.9972  1.0075  3.0901  3.0901  2.5467

 Free energy of the ion-electron system (eV)
  ---------------------------------------------------
  alpha Z        PSCENC =         0.12710513
  Ewald energy   TEWEN  =       267.87820229
  -Hartree energ DENC   =      -309.18208024
  -exchange      EXHF   =         0.00000000
  -V(xc)+E(xc)   XCENC  =         5.48277888
  PAW double counting   =        54.84528383      -53.63069367
  entropy T*S    EENTRO =        -0.00000000
  eigenvalues    EBANDS =       -23.61907025
  atomic energy  EATOM  =        54.95850721
  Solvation  Ediel_sol  =         0.00000000
  ---------------------------------------------------
  free energy    TOTEN  =        -3.13996684 eV

  energy without entropy =       -3.13996684  energy(sigma->0) =       -3.13996684


--------------------------------------------------------------------------------------------------------




--------------------------------------- Iteration      1(  13)  ---------------------------------------


    POTLOK:  cpu time      0.0339: real time      0.0341
    SETDIJ:  cpu time      0.0009: real time      0.0009
     EDDAV:  cpu time      0.3017: real time      0.3031
       DOS:  cpu time      0.0002: real time      0.0002
    CHARGE:  cpu time      0.0371: real time      0.0373
    MIXING:  cpu time      0.0011: real time      0.0011
    --------------------------------------------
      LOOP:  cpu time      0.3749: real time      0.3767

 eigenvalue-minimisations  :   546
 total energy-change (2. order) :-0.4690928E-03  (-0.8522057E-05)
 number of electron       4.0000000 magnetization 
 augmentation part       -0.1034415 magnetization 

 DIPCOR: dipole corrections for dipol
 direction  3 min pos   385,
 dipolmoment           0.000000      0.000000     -0.000000 electrons x Angstroem
 Tr[quadrupol]       -12.353131

 energy correction for charged system         0.000000 eV
 dipol+quadrupol energy correction           -0.000000 eV
 added-field ion interaction          0.000000 eV  (added to PSCEN)


 Broyden mixing:
  rms(total) = 0.18649E-03    rms(broyden)= 0.18649E-03
  rms(prec ) = 0.22343E-03
  weight for this iteration     100.00

 eigenvalues of (default mixing * dielectric matrix)
  average eigenvalue GAMMA=   3.0026
  7.9661  4.5971  3.3771  2.6987  2.4989  1.0265  0.9600  0.8966

 Free energy of the ion-electron system (eV)
  ---------------------------------------------------
  alpha Z        PSCENC =         0.12710513
  Ewald energy   TEWEN  =       267.87820229
  -Hartree energ DENC   =      -309.25369704
  -exchange      EXHF   =         0.00000000
  -V(xc)+E(xc)   XCENC  =         5.48328007
  PAW double counting   =        54.86714783      -53.65390384
  entropy T*S    EENTRO =        -0.00000000
  eigenvalues    EBANDS =       -23.54707758
  atomic energy  EATOM  =        54.95850721
  Solvation  Ediel_sol  =         0.00000000
  ---------------------------------------------------
  free energy    TOTEN  =        -3.14043594 eV

  energy without entropy =       -3.14043594  energy(sigma->0) =       -3.14043594


--------------------------------------------------------------------------------------------------------




--------------------------------------- Iteration      1(  14)  ---------------------------------------


    POTLOK:  cpu time      0.0320: real time      0.0321
    SETDIJ:  cpu time      0.0008: real time      0.0008
     EDDAV:  cpu time      0.3900: real time      0.3921
       DOS:  cpu time      0.0002: real time      0.0002
    CHARGE:  cpu time      0.0398: real time      0.0400
    MIXING:  cpu time      0.0010: real time      0.0010
    --------------------------------------------
      LOOP:  cpu time      0.4639: real time      0.4663

 eigenvalue-minimisations  :   672
 total energy-change (2. order) :-0.3854186E-04  (-0.2869343E-06)
 number of electron       4.0000000 magnetization 
 augmentation part       -0.1034452 magnetization 

 DIPCOR: dipole corrections for dipol
 direction  3 min pos   385,
 dipolmoment           0.000000      0.000000     -0.000000 electrons x Angstroem
 Tr[quadrupol]       -12.352320

 energy correction for charged system         0.000000 eV
 dipol+quadrupol energy correction           -0.000000 eV
 added-field ion interaction          0.000000 eV  (added to PSCEN)


 Broyden mixing:
  rms(total) = 0.12450E-03    rms(broyden)= 0.12450E-03
  rms(prec ) = 0.16006E-03
  weight for this iteration     100.00

 eigenvalues of (default mixing * dielectric matrix)
  average eigenvalue GAMMA=   3.1872
  8.2193  5.8208  3.3236  3.3236  2.5090  2.4471  0.9937  0.9937  1.0538

 Free energy of the ion-electron system (eV)
  ---------------------------------------------------
  alpha Z        PSCENC =         0.12710513
  Ewald energy   TEWEN  =       267.87820229
  -Hartree energ DENC   =      -309.24629078
  -exchange      EXHF   =         0.00000000
  -V(xc)+E(xc)   XCENC  =         5.48305041
  PAW double counting   =        54.85419125      -53.64053910
  entropy T*S    EENTRO =        -0.00000000
  eigenvalues    EBANDS =       -23.55470088
  atomic energy  EATOM  =        54.95850721
  Solvation  Ediel_sol  =         0.00000000
  ---------------------------------------------------
  free energy    TOTEN  =        -3.14047448 eV

  energy without entropy =       -3.14047448  energy(sigma->0) =       -3.14047448


--------------------------------------------------------------------------------------------------------




--------------------------------------- Iteration      1(  15)  ---------------------------------------


    POTLOK:  cpu time      0.0326: real time      0.0328
    SETDIJ:  cpu time      0.0008: real time      0.0008
     EDDAV:  cpu time      0.3439: real time      0.3459
       DOS:  cpu time      0.0002: real time      0.0002
    CHARGE:  cpu time      0.0418: real time      0.0420
    MIXING:  cpu time      0.0012: real time      0.0012
    --------------------------------------------
      LOOP:  cpu time      0.4206: real time      0.4231

 eigenvalue-minimisations  :   630
 total energy-change (2. order) :-0.9407959E-04  (-0.1730090E-05)
 number of electron       4.0000000 magnetization 
 augmentation part       -0.1034495 magnetization 

 DIPCOR: dipole corrections for dipol
 direction  3 min pos   385,
 dipolmoment           0.000000      0.000000     -0.000000 electrons x Angstroem
 Tr[quadrupol]       -12.355866

 energy correction for charged system         0.000000 eV
 dipol+quadrupol energy correction           -0.000000 eV
 added-field ion interaction          0.000000 eV  (added to PSCEN)


 Broyden mixing:
  rms(total) = 0.52915E-04    rms(broyden)= 0.52915E-04
  rms(prec ) = 0.66763E-04
  weight for this iteration     100.00

 eigenvalues of (default mixing * dielectric matrix)
  average eigenvalue GAMMA=   3.2666
  8.6341  5.7906  4.6483  3.0367  3.0367  2.4029  2.0663  1.0000  1.0000  1.0504

 Free energy of the ion-electron system (eV)
  ---------------------------------------------------
  alpha Z        PSCENC =         0.12710513
  Ewald energy   TEWEN  =       267.87820229
  -Hartree energ DENC   =      -309.24749992
  -exchange      EXHF   =         0.00000000
  -V(xc)+E(xc)   XCENC  =         5.48273368
  PAW double counting   =        54.87857767      -53.66470949
  entropy T*S    EENTRO =        -0.00000000
  eigenvalues    EBANDS =       -23.55348512
  atomic energy  EATOM  =        54.95850721
  Solvation  Ediel_sol  =         0.00000000
  ---------------------------------------------------
  free energy    TOTEN  =        -3.14056856 eV

  energy without entropy =       -3.14056856  energy(sigma->0) =       -3.14056856


--------------------------------------------------------------------------------------------------------




--------------------------------------- Iteration      1(  16)  ---------------------------------------


    POTLOK:  cpu time      0.0359: real time      0.0361
    SETDIJ:  cpu time      0.0009: real time      0.0009
     EDDAV:  cpu time      0.4385: real time      0.4410
       DOS:  cpu time      0.0002: real time      0.0003
    CHARGE:  cpu time      0.0391: real time      0.0393
    MIXING:  cpu time      0.0012: real time      0.0012
    --------------------------------------------
      LOOP:  cpu time      0.5160: real time      0.5189

 eigenvalue-minimisations  :   756
 total energy-change (2. order) :-0.1510223E-04  (-0.1108176E-06)
 number of electron       4.0000000 magnetization 
 augmentation part       -0.1034469 magnetization 

 DIPCOR: dipole corrections for dipol
 direction  3 min pos   385,
 dipolmoment           0.000000      0.000000     -0.000000 electrons x Angstroem
 Tr[quadrupol]       -12.358699

 energy correction for charged system         0.000000 eV
 dipol+quadrupol energy correction           -0.000000 eV
 added-field ion interaction          0.000000 eV  (added to PSCEN)


 Broyden mixing:
  rms(total) = 0.34226E-04    rms(broyden)= 0.34226E-04
  rms(prec ) = 0.40782E-04
  weight for this iteration     100.00

 eigenvalues of (default mixing * dielectric matrix)
  average eigenvalue GAMMA=   3.1549
  8.5106  6.6525  4.1792  3.4094  2.9530  2.5854  2.3040  0.9755  1.0172  1.0172
  1.1000

 Free energy of the ion-electron system (eV)
  ---------------------------------------------------
  alpha Z        PSCENC =         0.12710513
  Ewald energy   TEWEN  =       267.87820229
  -Hartree energ DENC   =      -309.25716540
  -exchange      EXHF   =         0.00000000
  -V(xc)+E(xc)   XCENC  =         5.48299110
  PAW double counting   =        54.87480271      -53.66099511
  entropy T*S    EENTRO =        -0.00000000
  eigenvalues    EBANDS =       -23.54403158
  atomic energy  EATOM  =        54.95850721
  Solvation  Ediel_sol  =         0.00000000
  ---------------------------------------------------
  free energy    TOTEN  =        -3.14058366 eV

  energy without entropy =       -3.14058366  energy(sigma->0) =       -3.14058366


--------------------------------------------------------------------------------------------------------




--------------------------------------- Iteration      1(  17)  ---------------------------------------


    POTLOK:  cpu time      0.0343: real time      0.0345
    SETDIJ:  cpu time      0.0008: real time      0.0009
     EDDAV:  cpu time      0.3587: real time      0.3607
       DOS:  cpu time      0.0002: real time      0.0002
    CHARGE:  cpu time      0.0391: real time      0.0393
    MIXING:  cpu time      0.0011: real time      0.0012
    --------------------------------------------
      LOOP:  cpu time      0.4344: real time      0.4368

 eigenvalue-minimisations  :   630
 total energy-change (2. order) :-0.3909814E-05  (-0.1566305E-07)
 number of electron       4.0000000 magnetization 
 augmentation part       -0.1034477 magnetization 

 DIPCOR: dipole corrections for dipol
 direction  3 min pos   385,
 dipolmoment           0.000000      0.000000     -0.000000 electrons x Angstroem
 Tr[quadrupol]       -12.358980

 energy correction for charged system         0.000000 eV
 dipol+quadrupol energy correction           -0.000000 eV
 added-field ion interaction          0.000000 eV  (added to PSCEN)


 Broyden mixing:
  rms(total) = 0.12253E-04    rms(broyden)= 0.12253E-04
  rms(prec ) = 0.16663E-04
  weight for this iteration     100.00

 eigenvalues of (default mixing * dielectric matrix)
  average eigenvalue GAMMA=   3.3139
  8.7607  7.1247  5.2040  3.5078  3.5078  2.7958  2.4916  2.3173  0.9873  0.9959
  1.0145  1.0588

 Free energy of the ion-electron system (eV)
  ---------------------------------------------------
  alpha Z        PSCENC =         0.12710513
  Ewald energy   TEWEN  =       267.87820229
  -Hartree energ DENC   =      -309.25461016
  -exchange      EXHF   =         0.00000000
  -V(xc)+E(xc)   XCENC  =         5.48284569
  PAW double counting   =        54.86456981      -53.65076783
  entropy T*S    EENTRO =        -0.00000000
  eigenvalues    EBANDS =       -23.54643971
  atomic energy  EATOM  =        54.95850721
  Solvation  Ediel_sol  =         0.00000000
  ---------------------------------------------------
  free energy    TOTEN  =        -3.14058757 eV

  energy without entropy =       -3.14058757  energy(sigma->0) =       -3.14058757


--------------------------------------------------------------------------------------------------------




--------------------------------------- Iteration      1(  18)  ---------------------------------------


    POTLOK:  cpu time      0.0360: real time      0.0362
    SETDIJ:  cpu time      0.0010: real time      0.0010
     EDDAV:  cpu time      0.3375: real time      0.3394
       DOS:  cpu time      0.0003: real time      0.0003
    CHARGE:  cpu time      0.0450: real time      0.0452
    MIXING:  cpu time      0.0011: real time      0.0011
    --------------------------------------------
      LOOP:  cpu time      0.4207: real time      0.4231

 eigenvalue-minimisations  :   588
 total energy-change (2. order) :-0.2999323E-05  (-0.7128287E-08)
 number of electron       4.0000000 magnetization 
 augmentation part       -0.1034476 magnetization 

 DIPCOR: dipole corrections for dipol
 direction  3 min pos   385,
 dipolmoment           0.000000      0.000000     -0.000000 electrons x Angstroem
 Tr[quadrupol]       -12.360073

 energy correction for charged system         0.000000 eV
 dipol+quadrupol energy correction           -0.000000 eV
 added-field ion interaction          0.000000 eV  (added to PSCEN)


 Broyden mixing:
  rms(total) = 0.50731E-05    rms(broyden)= 0.50731E-05
  rms(prec ) = 0.64596E-05
  weight for this iteration     100.00

 eigenvalues of (default mixing * dielectric matrix)
  average eigenvalue GAMMA=   3.2735
  8.5684  7.7616  4.6977  4.6977  3.0108  3.0108  2.5241  2.1719  2.0475  0.9928
  0.9928  1.0246  1.0544

 Free energy of the ion-electron system (eV)
  ---------------------------------------------------
  alpha Z        PSCENC =         0.12710513
  Ewald energy   TEWEN  =       267.87820229
  -Hartree energ DENC   =      -309.25616995
  -exchange      EXHF   =         0.00000000
  -V(xc)+E(xc)   XCENC  =         5.48286592
  PAW double counting   =        54.86870222      -53.65490684
  entropy T*S    EENTRO =        -0.00000000
  eigenvalues    EBANDS =       -23.54489655
  atomic energy  EATOM  =        54.95850721
  Solvation  Ediel_sol  =         0.00000000
  ---------------------------------------------------
  free energy    TOTEN  =        -3.14059057 eV

  energy without entropy =       -3.14059057  energy(sigma->0) =       -3.14059057


--------------------------------------------------------------------------------------------------------




--------------------------------------- Iteration      1(  19)  ---------------------------------------


    POTLOK:  cpu time      0.0350: real time      0.0352
    SETDIJ:  cpu time      0.0012: real time      0.0012
     EDDAV:  cpu time      0.6456: real time      0.6490
       DOS:  cpu time      0.0002: real time      0.0002
    --------------------------------------------
      LOOP:  cpu time      0.6823: real time      0.6859

 eigenvalue-minimisations  :   714
 total energy-change (2. order) :-0.3908993E-06  (-0.6454226E-10)
 number of electron       4.0000000 magnetization 
 augmentation part       -0.1034476 magnetization 

 DIPCOR: dipole corrections for dipol
 direction  3 min pos   385,
 dipolmoment           0.000000      0.000000     -0.000000 electrons x Angstroem
 Tr[quadrupol]       -12.360266

 energy correction for charged system         0.000000 eV
 dipol+quadrupol energy correction           -0.000000 eV
 added-field ion interaction          0.000000 eV  (added to PSCEN)


 Free energy of the ion-electron system (eV)
  ---------------------------------------------------
  alpha Z        PSCENC =         0.12710513
  Ewald energy   TEWEN  =       267.87820229
  -Hartree energ DENC   =      -309.25627122
  -exchange      EXHF   =         0.00000000
  -V(xc)+E(xc)   XCENC  =         5.48286223
  PAW double counting   =        54.87001405      -53.65622325
  entropy T*S    EENTRO =        -0.00000000
  eigenvalues    EBANDS =       -23.54478739
  atomic energy  EATOM  =        54.95850721
  Solvation  Ediel_sol  =         0.00000000
  ---------------------------------------------------
  free energy    TOTEN  =        -3.14059096 eV

  energy without entropy =       -3.14059096  energy(sigma->0) =       -3.14059096


--------------------------------------------------------------------------------------------------------




 average (electrostatic) potential at core
  the test charge radii are     0.9943
  (the norm of the test charge is              1.0000)
       1 -43.9005       2 -43.9005
 
 
 
 E-fermi :  -3.6597     XC(G=0):  -0.8796     alpha+bet : -0.4630

 val. band max:       -3.8861496551   @ k =   0.4000   0.2000   0.0000
 cond. band min:      -3.4406732433   @ k =   0.2000   0.0000   0.0000
 fundamental gap:      0.4454764118
 Fermi energy:        -3.6597299872

 k-point     1 :       0.0000    0.0000    0.0000
  band No.  band energies     occupation 
      1      -8.4855      2.00000
      2      -3.8902      2.00000
      3      -1.3328      0.00000
      4      -1.3328      0.00000
      5      -0.0780      0.00000
      6       0.2930      0.00000
      7       0.3363      0.00000
      8       0.5713      0.00000
      9       0.6421      0.00000
     10       1.0899      0.00000
     11       1.2212      0.00000
     12       1.8100      0.00000
     13       1.9843      0.00000
     14       2.7467      0.00000
     15       2.8134      0.00000
     16       2.8134      0.00000
     17       2.9721      0.00000
     18       3.8868      0.00000
     19       4.0369      0.00000
     20       4.1437      0.00000
     21       4.3925      0.00000
     22       5.2167      0.00000
     23       5.5089      0.00000
     24       6.7285      0.00000
     25       7.0681      0.00000
     26       7.4822      0.00000
     27       8.3958      0.00000
     28       8.8284      0.00000
     29       9.3362      0.00000
     30       9.3362      0.00000
     31      10.0930      0.00000
     32      10.6746      0.00000
     33      10.6746      0.00000
     34      10.7673      0.00000
     35      11.2214      0.00000
     36      12.1381      0.00000
     37      12.1381      0.00000
     38      12.4221      0.00000
     39      12.4221      0.00000
     40      12.5829      0.00000
     41      12.5871      0.00000
     42      12.7167      0.00000

 k-point     2 :       0.2000    0.0000    0.0000
  band No.  band energies     occupation 
      1      -8.0964      2.00000
      2      -3.4407      0.00000
      3      -2.7766      0.00000
      4      -1.9741      0.00000
      5       0.4153      0.00000
      6       0.7927      0.00000
      7       0.8413      0.00000
      8       1.0720      0.00000
      9       1.1455      0.00000
     10       1.5894      0.00000
     11       1.7218      0.00000
     12       2.3039      0.00000
     13       2.4659      0.00000
     14       2.5294      0.00000
     15       2.9298      0.00000
     16       3.2451      0.00000
     17       3.4717      0.00000
     18       4.3049      0.00000
     19       4.3701      0.00000
     20       4.6402      0.00000
     21       5.0323      0.00000
     22       5.6677      0.00000
     23       6.0042      0.00000
     24       6.9051      0.00000
     25       7.4858      0.00000
     26       7.5620      0.00000
     27       7.9135      0.00000
     28       7.9838      0.00000
     29       8.4210      0.00000
     30       8.4572      0.00000
     31       8.6972      0.00000
     32       8.7083      0.00000
     33       9.0081      0.00000
     34       9.0088      0.00000
     35       9.3121      0.00000
     36       9.3295      0.00000
     37       9.3971      0.00000
     38       9.9590      0.00000
     39      10.0938      0.00000
     40      10.2828      0.00000
     41      10.5148      0.00000
     42      10.7136      0.00000

 k-point     3 :       0.4000    0.0000    0.0000
  band No.  band energies     occupation 
      1      -6.9618      2.00000
      2      -5.0307      2.00000
      3      -2.6599      0.00000
      4      -2.1968      0.00000
      5       0.4558      0.00000
      6       1.8872      0.00000
      7       2.0153      0.00000
      8       2.2972      0.00000
      9       2.3565      0.00000
     10       2.5778      0.00000
     11       2.6551      0.00000
     12       3.0898      0.00000
     13       3.2233      0.00000
     14       3.7851      0.00000
     15       3.9790      0.00000
     16       4.2723      0.00000
     17       4.6127      0.00000
     18       4.7599      0.00000
     19       4.8800      0.00000
     20       4.9563      0.00000
     21       5.0444      0.00000
     22       5.1586      0.00000
     23       5.4682      0.00000
     24       5.6853      0.00000
     25       5.7437      0.00000
     26       6.1125      0.00000
     27       6.1290      0.00000
     28       6.3944      0.00000
     29       6.6410      0.00000
     30       6.9451      0.00000
     31       7.2100      0.00000
     32       7.2199      0.00000
     33       7.2211      0.00000
     34       7.4534      0.00000
     35       7.6271      0.00000
     36       8.0229      0.00000
     37       8.4908      0.00000
     38       8.8841      0.00000
     39       8.9308      0.00000
     40       8.9904      0.00000
     41       9.2561      0.00000
     42       9.5520      0.00000

 k-point     4 :       0.2000    0.2000    0.0000
  band No.  band energies     occupation 
      1      -7.3317      2.00000
      2      -4.0150      2.00000
      3      -3.2893      0.00000
      4      -2.5742      0.00000
      5       1.3038      0.00000
      6       1.3987      0.00000
      7       1.7811      0.00000
      8       1.8514      0.00000
      9       2.0658      0.00000
     10       2.1520      0.00000
     11       2.5763      0.00000
     12       2.7229      0.00000
     13       3.2609      0.00000
     14       3.4739      0.00000
     15       3.5892      0.00000
     16       4.0823      0.00000
     17       4.1306      0.00000
     18       4.4637      0.00000
     19       4.6539      0.00000
     20       5.4938      0.00000
     21       5.6250      0.00000
     22       6.3120      0.00000
     23       6.5573      0.00000
     24       6.7209      0.00000
     25       6.7537      0.00000
     26       6.9005      0.00000
     27       6.9095      0.00000
     28       6.9617      0.00000
     29       6.9752      0.00000
     30       7.0839      0.00000
     31       7.1644      0.00000
     32       7.2193      0.00000
     33       7.2561      0.00000
     34       7.5852      0.00000
     35       7.6057      0.00000
     36       7.7534      0.00000
     37       7.7952      0.00000
     38       8.0834      0.00000
     39       8.2446      0.00000
     40       8.2503      0.00000
     41       8.4903      0.00000
     42       8.5538      0.00000

 k-point     5 :       0.4000    0.2000    0.0000
  band No.  band energies     occupation 
      1      -6.0818      2.00000
      2      -5.5855      2.00000
      3      -3.8861      2.00000
      4      -1.3579      0.00000
      5      -0.2706      0.00000
      6       3.0490      0.00000
      7       3.2859      0.00000
      8       3.3604      0.00000
      9       3.5356      0.00000
     10       3.7855      0.00000
     11       3.8697      0.00000
     12       3.8717      0.00000
     13       3.9383      0.00000
     14       4.0801      0.00000
     15       4.1537      0.00000
     16       4.1622      0.00000
     17       4.2573      0.00000
     18       4.5958      0.00000
     19       4.6949      0.00000
     20       4.7120      0.00000
     21       4.7527      0.00000
     22       5.3019      0.00000
     23       5.4211      0.00000
     24       5.4460      0.00000
     25       5.4668      0.00000
     26       6.0441      0.00000
     27       6.2337      0.00000
     28       6.2475      0.00000
     29       6.2732      0.00000
     30       6.3594      0.00000
     31       6.4034      0.00000
     32       6.4710      0.00000
     33       6.6962      0.00000
     34       6.7115      0.00000
     35       6.9432      0.00000
     36       7.1423      0.00000
     37       7.2751      0.00000
     38       7.3401      0.00000
     39       7.3664      0.00000
     40       7.5407      0.00000
     41       7.7771      0.00000
     42       7.9483      0.00000


--------------------------------------------------------------------------------------------------------


 soft charge-density along one line, spin component           1
         0         1         2         3         4         5         6         7         8         9
 total charge-density along one line
 
 pseudopotential strength for first ion, spin component:           1
  5.228 -13.297  -0.000   0.000   0.000  -0.000  -0.000  -0.000
-13.297  34.694   0.000  -0.000  -0.000  -0.000   0.000   0.000
 -0.000   0.000  -0.386   0.000   0.000   0.904  -0.000  -0.000
  0.000  -0.000   0.000  -0.392  -0.000  -0.000   0.921   0.000
  0.000  -0.000   0.000  -0.000  -0.386  -0.000   0.000   0.904
 -0.000  -0.000   0.904  -0.000  -0.000  -0.459   0.000   0.000
 -0.000   0.000  -0.000   0.921   0.000   0.000  -0.512  -0.000
 -0.000   0.000  -0.000   0.000   0.904   0.000  -0.000  -0.459
 total augmentation occupancy for first ion, spin component:           1
  1.640   0.042   0.000  -0.000   0.000   0.000   0.000   0.000
  0.042   0.001  -0.000  -0.000  -0.000   0.000   0.000   0.000
  0.000  -0.000   0.666   0.000   0.000   0.024   0.000   0.000
 -0.000  -0.000   0.000   0.039  -0.000   0.000   0.001  -0.000
  0.000  -0.000   0.000  -0.000   0.666   0.000  -0.000   0.024
  0.000   0.000   0.024   0.000   0.000   0.001   0.000   0.000
  0.000   0.000  -0.000   0.001  -0.000  -0.000   0.000  -0.000
  0.000   0.000   0.000   0.000   0.024   0.000  -0.000   0.001


------------------------ aborting loop because EDIFF is reached ----------------------------------------


    CHARGE:  cpu time      0.0756: real time      0.0760
    FORLOC:  cpu time      0.0059: real time      0.0059
    FORNL :  cpu time      0.0187: real time      0.0188
    STRESS:  cpu time      0.2508: real time      0.2525
    FORCOR:  cpu time      0.0379: real time      0.0381
    FORHAR:  cpu time      0.0107: real time      0.0108
    MIXING:  cpu time      0.0050: real time      0.0050
    OFIELD:  cpu time      0.0000: real time      0.0000

  FORCE on cell =-STRESS in cart. coord.  units (eV):
  Direction    XX          YY          ZZ          XY          YZ          ZX
  --------------------------------------------------------------------------------------
  Alpha Z     0.12711     0.12711     0.12711
  Ewald     309.48760   309.48760  -351.09699    -0.00000     0.00000     0.00000
  Hartree   308.10886   308.10886  -306.96113    -0.00000    -0.00000    -0.00000
  E(xc)      -8.25366    -8.25366    -8.52179    -0.00000     0.00000    -0.00000
  Local    -641.10375  -641.10375   639.44098     0.00000     0.00000     0.00000
  n-local    12.97835    12.24140    11.65200    -0.39148     0.00000    -0.00000
  augment    -0.97071    -0.97071    -1.08268    -0.00000     0.00000     0.00000
  Kinetic    15.98246    20.97962    16.44256     2.51929    -0.00000     0.00000
  Fock        0.00000     0.00000     0.00000     0.00000     0.00000     0.00000
  -------------------------------------------------------------------------------------
  Total      -1.51364    -1.51364     0.00005     0.00000     0.00000     0.00000
  in kB      -4.41130    -4.41130     0.00014     0.00000     0.00000     0.00000
  external pressure =       -2.94 kB  Pullay stress =        0.00 kB


 VOLUME and BASIS-vectors are now :
 -----------------------------------------------------------------------------
  energy-cutoff  :      600.00
  volume of cell :      549.75
      direct lattice vectors                 reciprocal lattice vectors
     3.450000000  1.991858429  0.000000000     0.144927536  0.251021856  0.000000000
    -3.450000000  1.991858429  0.000000000    -0.144927536  0.251021856  0.000000000
     0.000000000  0.000000000 40.000000000     0.000000000  0.000000000  0.025000000

  length of vectors
     3.983716857  3.983716857 40.000000000     0.289855072  0.289855072  0.025000000


 FORCES acting on ions
    electron-ion (+dipol)            ewald-force                    non-local-force                 convergence-correction
 -----------------------------------------------------------------------------------------------
   -.701E-08 0.187E-13 -.187E-10   -.352E-12 0.211E-14 0.000E+00   0.000E+00 0.694E-17 -.969E-26   -.843E-12 0.123E-16 -.155E-13
   0.701E-08 -.199E-13 -.190E-10   0.351E-12 -.169E-14 0.000E+00   0.139E-16 0.000E+00 0.969E-26   0.843E-12 0.121E-16 -.155E-13
 -----------------------------------------------------------------------------------------------
   -.546E-15 -.116E-14 -.377E-10   -.115E-15 0.414E-15 0.000E+00   0.139E-16 0.694E-17 0.000E+00   0.271E-16 0.244E-16 -.310E-13
 
 
 POSITION                                       TOTAL-FORCE (eV/Angst)
 -----------------------------------------------------------------------------------
     -1.15000      1.99186      4.00000        -0.000000     -0.000000     -0.000000
      1.15000      1.99186      4.00000         0.000000      0.000000      0.000000
 -----------------------------------------------------------------------------------
    total drift:                               -0.000000     -0.000000     -0.000000


--------------------------------------------------------------------------------------------------------



  FREE ENERGIE OF THE ION-ELECTRON SYSTEM (eV)
  ---------------------------------------------------
  free  energy   TOTEN  =        -3.14059096 eV

  energy  without entropy=       -3.14059096  energy(sigma->0) =       -3.14059096
 


--------------------------------------------------------------------------------------------------------


    POTLOK:  cpu time      0.0564: real time      0.0566


--------------------------------------------------------------------------------------------------------


     LOOP+:  cpu time      9.3377: real time      9.3877
 vacuum level on the upper side and lower side of the slab         0.304         0.304
    4ORBIT:  cpu time      0.0000: real time      0.0000

 total amount of memory used by VASP MPI-rank0    58928. kBytes
=======================================================================

   base                                    :      30000. kBytes
   nonl-proj                               :       6475. kBytes
   fftplans                                :       3909. kBytes
   grid                                    :      17063. kBytes
   one-center                              :          6. kBytes
   wavefun                                 :       1475. kBytes
 
  
  
 General timing and accounting informations for this job:
 ========================================================
  
                  Total CPU time used (sec):       17.234
                            User time (sec):       15.505
                          System time (sec):        1.729
                         Elapsed time (sec):       17.853
  
                   Maximum memory used (kb):      243940.
                   Average memory used (kb):          N/A
  
                          Minor page faults:        26525
                          Major page faults:           10
                 Voluntary context switches:          599
