<?xml version="1.0" encoding="ISO-8859-1"?>
<modeling>
 <generator>
  <i name="program" type="string">vasp </i>
  <i name="version" type="string">6.5.0  </i>
  <i name="subversion" type="string">16Dec24 (build Jan 08 2025 16:17:04) complex                          parallel </i>
  <i name="platform" type="string">LinuxIFC </i>
  <i name="date" type="string">2025 07 23 </i>
  <i name="time" type="string">11:07:40 </i>
 </generator>
 <incar>
  <i type="string" name="SYSTEM">Convergence</i>
  <i type="int" name="ISTART">     0</i>
  <i type="string" name="PREC">Accurate</i>
  <i type="string" name="ALGO">Normal</i>
  <i type="int" name="ISPIN">     1</i>
  <i type="int" name="ICHARG">     2</i>
  <i type="int" name="NELM">   100</i>
  <i type="int" name="IBRION">    -1</i>
  <i name="EDIFF">      0.00000100</i>
  <i name="EDIFFG">     -0.00100000</i>
  <i type="int" name="NSW">     0</i>
  <i type="int" name="ISIF">     2</i>
  <i name="ENCUT">    600.00000000</i>
  <i name="POTIM">      0.50000000</i>
  <i type="int" name="ISMEAR">     0</i>
  <i name="SIGMA">      0.05000000</i>
  <i type="logical" name="LWAVE"> F  </i>
  <i type="logical" name="LCHARG"> F  </i>
  <i type="string" name="GGA">PE</i>
  <i type="logical" name="LDIPOL"> T  </i>
  <i type="int" name="IDIPOL">     3</i>
  <v name="DIPOL">      0.50000000      0.50000000      0.10000000</v>
 </incar>
 <primitive_cell>
  <structure name="primitive_cell" >
   <crystal>
    <varray name="basis" >
     <v>       3.45000000       1.99185843       0.00000000 </v>
     <v>      -3.45000000       1.99185843       0.00000000 </v>
     <v>       0.00000000       0.00000000      40.00000000 </v>
    </varray>
    <i name="volume">    549.75292632 </i>
    <varray name="rec_basis" >
     <v>       0.14492754       0.25102186       0.00000000 </v>
     <v>      -0.14492754       0.25102186       0.00000000 </v>
     <v>       0.00000000       0.00000000       0.02500000 </v>
    </varray>
   </crystal>
   <varray name="positions" >
    <v>       0.33333333       0.66666667       0.10000000 </v>
    <v>       0.66666667       0.33333333       0.10000000 </v>
   </varray>
  </structure>
  <varray name="primitive_index" >
   <v type="int" >        1 </v>
   <v type="int" >        2 </v>
  </varray>
 </primitive_cell>
 <kpoints>
  <generation param="Gamma">
   <v type="int" name="divisions">       5        5        1 </v>
   <v name="usershift">      0.00000000       0.00000000       0.00000000 </v>
   <v name="genvec1">      0.20000000       0.00000000       0.00000000 </v>
   <v name="genvec2">      0.00000000       0.20000000       0.00000000 </v>
   <v name="genvec3">      0.00000000       0.00000000       1.00000000 </v>
   <v name="shift">      0.00000000       0.00000000       0.00000000 </v>
  </generation>
  <varray name="kpointlist" >
   <v>       0.00000000       0.00000000       0.00000000 </v>
   <v>       0.20000000       0.00000000       0.00000000 </v>
   <v>       0.40000000       0.00000000       0.00000000 </v>
   <v>       0.20000000       0.20000000       0.00000000 </v>
   <v>       0.40000000       0.20000000       0.00000000 </v>
  </varray>
  <varray name="weights" >
   <v>       0.04000000 </v>
   <v>       0.24000000 </v>
   <v>       0.24000000 </v>
   <v>       0.24000000 </v>
   <v>       0.24000000 </v>
  </varray>
 </kpoints>
 <parameters>
  <separator name="general" >
   <i type="string" name="SYSTEM">Convergence</i>
   <i type="logical" name="LCOMPAT"> F  </i>
  </separator>
  <separator name="electronic" >
   <i type="string" name="PREC">accura</i>
   <i name="ENMAX">    600.00000000</i>
   <i name="ENAUG">    318.78100000</i>
   <i name="EDIFF">      0.00000100</i>
   <i type="int" name="IALGO">    38</i>
   <i type="int" name="IWAVPR">    10</i>
   <i type="int" name="NBANDS">    42</i>
   <i type="int" name="NBANDSLOW">    -1</i>
   <i type="int" name="NBANDSHIGH">    -1</i>
   <i name="NELECT">      4.00000000</i>
   <i type="int" name="TURBO">     0</i>
   <i type="int" name="IRESTART">     0</i>
   <i type="int" name="NREBOOT">     0</i>
   <i type="int" name="NMIN">     0</i>
   <i name="EREF">      0.00000000</i>
   <separator name="electronic smearing" >
    <i type="int" name="ISMEAR">     0</i>
    <i name="SIGMA">      0.05000000</i>
    <i name="KSPACING">      0.50000000</i>
    <i type="logical" name="KGAMMA"> T  </i>
    <i type="logical" name="KBLOWUP"> T  </i>
   </separator>
   <separator name="electronic projectors" >
    <i type="logical" name="LREAL"> F  </i>
    <v name="ROPT">      0.00000000</v>
    <i type="int" name="LMAXPAW">  -100</i>
    <i type="int" name="LMAXMIX">     2</i>
    <i type="logical" name="NLSPLINE"> F  </i>
   </separator>
   <separator name="electronic startup" >
    <i type="int" name="ISTART">     0</i>
    <i type="int" name="ICHARG">     2</i>
    <i type="int" name="INIWAV">     1</i>
   </separator>
   <separator name="electronic spin" >
    <i type="int" name="ISPIN">     1</i>
    <i type="logical" name="LNONCOLLINEAR"> F  </i>
    <v name="MAGMOM">      1.00000000      1.00000000</v>
    <i name="NUPDOWN">     -1.00000000</i>
    <i type="logical" name="LSORBIT"> F  </i>
    <v name="SAXIS">      0.00000000      0.00000000      1.00000000</v>
    <i type="logical" name="LSPIRAL"> F  </i>
    <v name="QSPIRAL">      0.00000000      0.00000000      0.00000000</v>
    <i type="logical" name="LZEROZ"> F  </i>
   </separator>
   <separator name="electronic exchange-correlation" >
    <i type="logical" name="LASPH"> F  </i>
   </separator>
   <separator name="electronic convergence" >
    <i type="int" name="NELM">   100</i>
    <i type="int" name="NELMDL">    -5</i>
    <i type="int" name="NELMIN">     2</i>
    <i name="ENINI">    600.00000000</i>
    <separator name="electronic convergence detail" >
     <i type="logical" name="LDIAG"> T  </i>
     <i type="logical" name="LSUBROT"> F  </i>
     <i name="WEIMIN">      0.00000000</i>
     <i name="EBREAK">      0.00000001</i>
     <i name="DEPER">      0.30000000</i>
     <i type="int" name="NRMM">     4</i>
     <i name="TIME">      0.40000000</i>
    </separator>
   </separator>
   <separator name="electronic mixer" >
    <i name="AMIX">      0.40000000</i>
    <i name="BMIX">      1.00000000</i>
    <i name="AMIN">      0.10000000</i>
    <i name="AMIX_MAG">      1.60000000</i>
    <i name="BMIX_MAG">      1.00000000</i>
    <separator name="electronic mixer details" >
     <i type="int" name="IMIX">     4</i>
     <i type="logical" name="MIXFIRST"> F  </i>
     <i type="int" name="MAXMIX">   -45</i>
     <i name="WC">    100.00000000</i>
     <i type="int" name="INIMIX">     1</i>
     <i type="int" name="MIXPRE">     1</i>
     <i type="int" name="MREMOVE">     5</i>
    </separator>
   </separator>
   <separator name="electronic dipolcorrection" >
    <i type="logical" name="LDIPOL"> T  </i>
    <i type="logical" name="LMONO"> F  </i>
    <i type="int" name="IDIPOL">     3</i>
    <i name="EPSILON">      1.00000000</i>
    <v name="DIPOL">      0.50000000      0.50000000      0.10000000</v>
    <i name="EFIELD">      0.00000000</i>
    <i type="logical" name="LVACPOTAV"> F  </i>
   </separator>
  </separator>
  <separator name="grids" >
   <i type="int" name="NGX">    32</i>
   <i type="int" name="NGY">    32</i>
   <i type="int" name="NGZ">   320</i>
   <i type="int" name="NGXF">    64</i>
   <i type="int" name="NGYF">    64</i>
   <i type="int" name="NGZF">   640</i>
   <i type="logical" name="ADDGRID"> F  </i>
  </separator>
  <separator name="ionic" >
   <i type="int" name="NSW">     0</i>
   <i type="int" name="IBRION">    -1</i>
   <i type="int" name="MDALGO">     0</i>
   <i type="int" name="ISIF">     2</i>
   <i name="PSTRESS">      0.00000000</i>
   <i name="EDIFFG">     -0.00100000</i>
   <i type="int" name="NFREE">     0</i>
   <i name="POTIM">      0.50000000</i>
   <i name="SMASS">     -3.00000000</i>
   <i name="SCALEE">      1.00000000</i>
  </separator>
  <separator name="ionic md" >
   <i name="TEBEG">      0.00010000</i>
   <i name="TEEND">      0.00010000</i>
   <i type="int" name="NBLOCK">     1</i>
   <i type="int" name="KBLOCK">     1</i>
   <i type="int" name="NPACO">   256</i>
   <i name="APACO">     10.00000000</i>
  </separator>
  <separator name="symmetry" >
   <i type="int" name="ISYM">     2</i>
   <i name="SYMPREC">      0.00001000</i>
  </separator>
  <separator name="dos" >
   <i type="int" name="LORBIT">     0</i>
   <v name="RWIGS">     -1.00000000</v>
   <i type="int" name="NEDOS">   301</i>
   <i name="EMIN">     10.00000000</i>
   <i name="EMAX">    -10.00000000</i>
   <i name="EFERMI">      0.00000000</i>
  </separator>
  <separator name="writing" >
   <i type="int" name="NWRITE">     2</i>
   <i type="logical" name="LWAVE"> F  </i>
   <i type="logical" name="LDOWNSAMPLE"> F  </i>
   <i type="logical" name="LCHARG"> F  </i>
   <i type="logical" name="LPARD"> F  </i>
   <i type="logical" name="LVTOT"> F  </i>
   <i type="logical" name="LVHAR"> F  </i>
   <i type="logical" name="LELF"> F  </i>
   <i type="logical" name="LOPTICS"> F  </i>
   <v name="STM">      0.00000000      0.00000000      0.00000000      0.00000000      0.00000000      0.00000000      0.00000000</v>
  </separator>
  <separator name="performance" >
   <i type="int" name="NPAR">    42</i>
   <i type="int" name="NSIM">     4</i>
   <i type="int" name="NBLK">    -1</i>
   <i type="logical" name="LPLANE"> T  </i>
   <i type="logical" name="LSCALAPACK"> T  </i>
   <i type="logical" name="LSCAAWARE"> F  </i>
   <i type="logical" name="LSCALU"> F  </i>
   <i type="logical" name="LASYNC"> F  </i>
   <i type="logical" name="LORBITALREAL"> F  </i>
  </separator>
  <separator name="miscellaneous" >
   <i type="int" name="IDIOT">     3</i>
   <i type="int" name="PHON_NSTRUCT">    -1</i>
   <i type="logical" name="LMUSIC"> F  </i>
   <v name="POMASS">      9.01300000</v>
   <v name="DARWINR">      0.00000000</v>
   <v name="DARWINV">      1.00000000</v>
   <i type="logical" name="LCORR"> T  </i>
  </separator>
  <i type="logical" name="GGA_COMPAT"> T  </i>
  <i type="logical" name="LBERRY"> F  </i>
  <i type="int" name="ICORELEVEL">     0</i>
  <i type="logical" name="LDAU"> F  </i>
  <i type="int" name="I_CONSTRAINED_M">     0</i>
  <separator name="electronic exchange-correlation" >
   <i type="string" name="GGA    ">PE</i>
   <i type="string" name="XC_C">1</i>
   <i type="int" name="VOSKOWN">     0</i>
   <i type="logical" name="LHFCALC"> F  </i>
   <i type="string" name="PRECFOCK"></i>
   <i type="logical" name="LSYMGRAD"> F  </i>
   <i type="logical" name="LHFONE"> F  </i>
   <i type="logical" name="LRHFCALC"> F  </i>
   <i type="logical" name="LTHOMAS"> F  </i>
   <i type="logical" name="LMODELHF"> F  </i>
   <i type="logical" name="LFOCKACE"> F  </i>
   <i name="ENCUT4O">     -1.00000000</i>
   <i type="int" name="EXXOEP">     0</i>
   <i type="int" name="FOURORBIT">     0</i>
   <i name="AEXX">      0.00000000</i>
   <i name="HFALPHA">      0.00000000</i>
   <i name="MCALPHA">      0.00000000</i>
   <i name="ALDAX">      1.00000000</i>
   <i name="AGGAX">      1.00000000</i>
   <i name="AMGGAX">      1.00000000</i>
   <i name="ALDAC">      1.00000000</i>
   <i name="AGGAC">      1.00000000</i>
   <i name="AMGGAC">      1.00000000</i>
   <i type="int" name="NKREDX">     1</i>
   <i type="int" name="NKREDY">     1</i>
   <i type="int" name="NKREDZ">     1</i>
   <i type="logical" name="SHIFTRED"> F  </i>
   <i type="logical" name="ODDONLY"> F  </i>
   <i type="logical" name="EVENONLY"> F  </i>
   <i type="int" name="LMAXFOCK">     0</i>
   <i type="int" name="NMAXFOCKAE">     0</i>
   <i type="logical" name="LFOCKAEDFT"> F  </i>
   <i name="HFSCREEN">      0.00000000</i>
   <i name="HFSCREENC">      0.00000000</i>
   <i type="int" name="NBANDSGWLOW">     0</i>
  </separator>
  <separator name="vdW DFT" >
   <i type="logical" name="LUSE_VDW"> F  </i>
   <i type="int" name="IVDW_NL">    -1</i>
   <i type="logical" name="LSPIN_VDW"> F  </i>
   <i name="ZAB_VDW">     -0.84910000</i>
   <i name="GAMMA_VDW">      1.39626340</i>
   <i name="ALPHA_VDW">      0.00000000</i>
   <i name="PARAM1">      0.12340000</i>
   <i name="PARAM2">      1.00000000</i>
   <i name="BPARAM">      6.30000000</i>
   <i name="CPARAM">      0.00930000</i>
  </separator>
  <separator name="model GW" >
   <i type="int" name="MODEL_GW">     0</i>
   <i name="MODEL_EPS0">    164.92587790</i>
   <i name="MODEL_ALPHA">      1.00000000</i>
  </separator>
  <separator name="linear response parameters" >
   <i type="logical" name="LEPSILON"> F  </i>
   <i type="logical" name="LRPA"> F  </i>
   <i type="logical" name="LNABLA"> F  </i>
   <i type="logical" name="LVEL"> F  </i>
   <i name="CSHIFT">      0.10000000</i>
   <i name="OMEGAMAX">     -1.00000000</i>
   <i name="DEG_THRESHOLD">      0.00200000</i>
   <i name="RTIME">     -0.10000000</i>
   <i name="WPLASMAI">      0.00000000</i>
   <v name="DFIELD">      0.00000000      0.00000000      0.00000000</v>
   <v name="WPLASMA">      0.00000000      0.00000000      0.00000000      0.00000000      0.00000000      0.00000000      0.00000000      0.00000000      0.00000000</v>
  </separator>
  <separator name="orbital magnetization" >
   <i type="logical" name="NUCIND"> F  </i>
   <v name="MAGPOS">      0.00000000      0.00000000      0.00000000</v>
   <i type="logical" name="LNICSALL"> T  </i>
   <i type="logical" name="ORBITALMAG"> F  </i>
   <i type="logical" name="LMAGBLOCH"> F  </i>
   <i type="logical" name="LCHIMAG"> F  </i>
   <i type="logical" name="LGAUGE"> T  </i>
   <i type="int" name="MAGATOM">     0</i>
   <v name="MAGDIPOL">      0.00000000      0.00000000      0.00000000</v>
   <v name="AVECCONST">      0.00000000      0.00000000      0.00000000</v>
  </separator>
  <separator name="response functions" >
   <i type="logical" name="LALL_IN_ONE"> F  </i>
   <i type="int" name="IALL_IN_ONE">    -1</i>
   <i type="int" name="NBANDS_WAVE">    -1</i>
   <i type="logical" name="LFINITE_TEMPERATURE"> F  </i>
   <i type="logical" name="LADDER"> F  </i>
   <i type="logical" name="LRPAFORCE"> F  </i>
   <i type="logical" name="LFXC"> F  </i>
   <i type="logical" name="LHARTREE"> T  </i>
   <i type="int" name="IBSE">     2</i>
   <v type="int" name="KPOINT">    -1     0     0     0</v>
   <i type="logical" name="LTCTC"> F  </i>
   <i type="logical" name="LTCTE"> F  </i>
   <i type="logical" name="LTETE"> F  </i>
   <i type="logical" name="LTRIPLET"> F  </i>
   <i type="logical" name="LFXCEPS"> F  </i>
   <i type="logical" name="LFXHEG"> F  </i>
   <i type="int" name="NATURALO">     2</i>
   <i type="logical" name="LHOLEGF"> F  </i>
   <i type="logical" name="L2ORDER"> F  </i>
   <i type="logical" name="LDMP1"> F  </i>
   <i type="logical" name="LMP2LT"> F  </i>
   <i type="logical" name="LSMP2LT"> F  </i>
   <i type="logical" name="LGWLF"> F  </i>
   <i name="ENCUTGW">     -1.60000002</i>
   <i name="ENCUTGWSOFT">     -1.60000002</i>
   <i name="ENCUTLF">     -1.00000000</i>
   <i type="logical" name="ESF_SPLINES"> F  </i>
   <i name="ESF_CONV">      0.01000000</i>
   <i type="int" name="ESF_NINTER">    15</i>
   <i type="int" name="LMAXMP2">    -1</i>
   <i name="SCISSOR">      0.00000000</i>
   <i type="int" name="NOMEGA">     0</i>
   <i type="int" name="NOMEGAR">     0</i>
   <i type="int" name="NBANDSGW">    -1</i>
   <i type="int" name="NBANDSO">    -1</i>
   <i type="int" name="NBANDSV">    -1</i>
   <i type="int" name="NELMGW">     1</i>
   <i type="int" name="NELMHF">     1</i>
   <i type="int" name="DIM">     3</i>
   <i type="int" name="IESPILON">     4</i>
   <i type="int" name="ANTIRES">     0</i>
   <i name="OMEGAMAX">    -30.00000000</i>
   <i name="OMEGAMIN">    -30.00000000</i>
   <i name="OMEGATL">   -200.00000000</i>
   <i type="int" name="OMEGAGRID">     0</i>
   <i name="CSHIFT">     -0.10000000</i>
   <i type="logical" name="LSELFENERGY"> F  </i>
   <i type="logical" name="LSPECTRAL"> F  </i>
   <i type="logical" name="LSPECTRALGW"> F  </i>
   <i type="logical" name="LSINGLES"> F  </i>
   <i type="logical" name="LFERMIGW"> F  </i>
   <i type="logical" name="ODDONLYGW"> F  </i>
   <i type="logical" name="EVENONLYGW"> F  </i>
   <i type="int" name="NKREDLFX">     1</i>
   <i type="int" name="NKREDLFY">     1</i>
   <i type="int" name="NKREDLFZ">     1</i>
   <i type="int" name="MAXMEM">  2800</i>
   <i type="int" name="TELESCOPE">     0</i>
   <i type="int" name="NTAUPAR">    -1</i>
   <i type="int" name="NOMEGAPAR">    -1</i>
   <i name="DAMP_NEWTON">      0.80000001</i>
   <i name="LAMBDA">      1.00000000</i>
  </separator>
  <separator name="External order field" >
   <i name="OFIELD_KAPPA">      0.00000000</i>
   <v name="OFIELD_K">      0.00000000      0.00000000      0.00000000</v>
   <i name="OFIELD_Q6_NEAR">      0.00000000</i>
   <i name="OFIELD_Q6_FAR">      0.00000000</i>
   <i name="OFIELD_A">      0.00000000</i>
  </separator>
  <separator name="optional k-points parameters" >
   <i type="int" name="KPOINTS_OPT_MODE">     1</i>
   <i type="logical" name="LKPOINTS_OPT"> F  </i>
  </separator>
 </parameters>
 <atominfo>
  <atoms>       2 </atoms>
  <types>       1 </types>
  <array name="atoms" >
   <dimension dim="1">ion</dimension>
   <field type="string">element</field>
   <field type="int">atomtype</field>
   <set>
    <rc><c>Be</c><c>   1</c></rc>
    <rc><c>Be</c><c>   1</c></rc>
   </set>
  </array>
  <array name="atomtypes" >
   <dimension dim="1">type</dimension>
   <field type="int">atomspertype</field>
   <field type="string">element</field>
   <field>mass</field>
   <field>valence</field>
   <field type="string">pseudopotential</field>
   <set>
    <rc><c>   2</c><c>Be</c><c>      9.01300000</c><c>      2.00000000</c><c>  PAW_PBE Be 06Sep2000                  </c></rc>
   </set>
  </array>
 </atominfo>
 <structure name="initialpos" >
  <crystal>
   <varray name="basis" >
    <v>       3.45000000       1.99185843       0.00000000 </v>
    <v>      -3.45000000       1.99185843       0.00000000 </v>
    <v>       0.00000000       0.00000000      40.00000000 </v>
   </varray>
   <i name="volume">    549.75292632 </i>
   <varray name="rec_basis" >
    <v>       0.14492754       0.25102186       0.00000000 </v>
    <v>      -0.14492754       0.25102186       0.00000000 </v>
    <v>       0.00000000       0.00000000       0.02500000 </v>
   </varray>
  </crystal>
  <varray name="positions" >
   <v>       0.33333333       0.66666667       0.10000000 </v>
   <v>       0.66666667       0.33333333       0.10000000 </v>
  </varray>
 </structure>
 <calculation>
  <scstep>
   <time name="dav">    0.30    0.31</time>
   <time name="total">    0.36    0.37</time>
   <dipole>
    <v name="dipole">      0.00000000       0.00000000       0.00000000 </v>
    <i name="Tr[quadrupol]">    -11.62947404 </i>
    <i name="Echarged">      0.00000000 </i>
    <i name="Edipol_quadrupol">      0.00000000 </i>
    <i name="Eion">      0.00000000 </i>
   </dipole>
   <energy>
    <i name="alphaZ">      0.12710513 </i>
    <i name="ewald">    267.87820229 </i>
    <i name="hartreedc">   -302.84367504 </i>
    <i name="XCdc">      5.20344317 </i>
    <i name="pawpsdc">     30.51246266 </i>
    <i name="pawaedc">    -29.24515235 </i>
    <i name="eentropy">     -0.00062805 </i>
    <i name="bandstr">    -22.19092077 </i>
    <i name="atom">     54.95850721 </i>
    <i name="e_fr_energy">      4.39934426 </i>
    <i name="e_wo_entrp">      4.39997231 </i>
    <i name="e_0_energy">      4.39965829 </i>
   </energy>
  </scstep>
  <scstep>
   <time name="dav">    0.41    0.42</time>
   <time name="total">    0.41    0.42</time>
   <dipole>
    <v name="dipole">      0.00000000       0.00000000       0.00000000 </v>
    <i name="Tr[quadrupol]">    -11.62947404 </i>
    <i name="Echarged">      0.00000000 </i>
    <i name="Edipol_quadrupol">      0.00000000 </i>
    <i name="Eion">      0.00000000 </i>
   </dipole>
   <energy>
    <i name="e_fr_energy">     -3.25136149 </i>
    <i name="e_wo_entrp">     -3.25049699 </i>
    <i name="e_0_energy">     -3.25092924 </i>
   </energy>
  </scstep>
  <scstep>
   <time name="dav">    0.37    0.37</time>
   <time name="total">    0.37    0.37</time>
   <dipole>
    <v name="dipole">      0.00000000       0.00000000       0.00000000 </v>
    <i name="Tr[quadrupol]">    -11.62947404 </i>
    <i name="Echarged">      0.00000000 </i>
    <i name="Edipol_quadrupol">      0.00000000 </i>
    <i name="Eion">      0.00000000 </i>
   </dipole>
   <energy>
    <i name="e_fr_energy">     -3.32392136 </i>
    <i name="e_wo_entrp">     -3.32229124 </i>
    <i name="e_0_energy">     -3.32310630 </i>
   </energy>
  </scstep>
  <scstep>
   <time name="dav">    0.50    0.50</time>
   <time name="total">    0.50    0.50</time>
   <dipole>
    <v name="dipole">      0.00000000       0.00000000       0.00000000 </v>
    <i name="Tr[quadrupol]">    -11.62947404 </i>
    <i name="Echarged">      0.00000000 </i>
    <i name="Edipol_quadrupol">      0.00000000 </i>
    <i name="Eion">      0.00000000 </i>
   </dipole>
   <energy>
    <i name="e_fr_energy">     -3.32412265 </i>
    <i name="e_wo_entrp">     -3.32248814 </i>
    <i name="e_0_energy">     -3.32330539 </i>
   </energy>
  </scstep>
  <scstep>
   <time name="dav">    0.37    0.38</time>
   <time name="total">    0.42    0.42</time>
   <dipole>
    <v name="dipole">      0.00000000       0.00000000       0.00000000 </v>
    <i name="Tr[quadrupol]">    -11.62947404 </i>
    <i name="Echarged">      0.00000000 </i>
    <i name="Edipol_quadrupol">      0.00000000 </i>
    <i name="Eion">      0.00000000 </i>
   </dipole>
   <energy>
    <i name="e_fr_energy">     -3.32412266 </i>
    <i name="e_wo_entrp">     -3.32248816 </i>
    <i name="e_0_energy">     -3.32330541 </i>
   </energy>
  </scstep>
  <scstep>
   <time name="dav">    0.41    0.42</time>
   <time name="total">    0.49    0.49</time>
   <dipole>
    <v name="dipole">      0.00000000       0.00000000       0.00000000 </v>
    <i name="Tr[quadrupol]">    -11.72660511 </i>
    <i name="Echarged">      0.00000000 </i>
    <i name="Edipol_quadrupol">      0.00000000 </i>
    <i name="Eion">      0.00000000 </i>
   </dipole>
   <energy>
    <i name="e_fr_energy">     -3.22786535 </i>
    <i name="e_wo_entrp">     -3.22785755 </i>
    <i name="e_0_energy">     -3.22786145 </i>
   </energy>
  </scstep>
  <scstep>
   <time name="dav">    0.44    0.44</time>
   <time name="total">    0.52    0.52</time>
   <dipole>
    <v name="dipole">      0.00000000       0.00000000      -0.00000000 </v>
    <i name="Tr[quadrupol]">    -11.92942844 </i>
    <i name="Echarged">      0.00000000 </i>
    <i name="Edipol_quadrupol">      0.00000000 </i>
    <i name="Eion">      0.00000000 </i>
   </dipole>
   <energy>
    <i name="e_fr_energy">     -3.14601489 </i>
    <i name="e_wo_entrp">     -3.14601489 </i>
    <i name="e_0_energy">     -3.14601489 </i>
   </energy>
  </scstep>
  <scstep>
   <time name="dav">    0.47    0.48</time>
   <time name="total">    0.57    0.57</time>
   <dipole>
    <v name="dipole">      0.00000000       0.00000000      -0.00000000 </v>
    <i name="Tr[quadrupol]">    -12.10624044 </i>
    <i name="Echarged">      0.00000000 </i>
    <i name="Edipol_quadrupol">      0.00000000 </i>
    <i name="Eion">      0.00000000 </i>
   </dipole>
   <energy>
    <i name="e_fr_energy">     -3.13641010 </i>
    <i name="e_wo_entrp">     -3.13641010 </i>
    <i name="e_0_energy">     -3.13641010 </i>
   </energy>
  </scstep>
  <scstep>
   <time name="dav">    0.41    0.41</time>
   <time name="total">    0.50    0.51</time>
   <dipole>
    <v name="dipole">      0.00000000       0.00000000      -0.00000000 </v>
    <i name="Tr[quadrupol]">    -12.15097437 </i>
    <i name="Echarged">      0.00000000 </i>
    <i name="Edipol_quadrupol">      0.00000000 </i>
    <i name="Eion">      0.00000000 </i>
   </dipole>
   <energy>
    <i name="e_fr_energy">     -3.13751557 </i>
    <i name="e_wo_entrp">     -3.13751557 </i>
    <i name="e_0_energy">     -3.13751557 </i>
   </energy>
  </scstep>
  <scstep>
   <time name="dav">    0.41    0.41</time>
   <time name="total">    0.49    0.50</time>
   <dipole>
    <v name="dipole">      0.00000000       0.00000000      -0.00000000 </v>
    <i name="Tr[quadrupol]">    -12.26631345 </i>
    <i name="Echarged">      0.00000000 </i>
    <i name="Edipol_quadrupol">      0.00000000 </i>
    <i name="Eion">      0.00000000 </i>
   </dipole>
   <energy>
    <i name="e_fr_energy">     -3.13880487 </i>
    <i name="e_wo_entrp">     -3.13880487 </i>
    <i name="e_0_energy">     -3.13880487 </i>
   </energy>
  </scstep>
  <scstep>
   <time name="dav">    0.42    0.43</time>
   <time name="total">    0.51    0.51</time>
   <dipole>
    <v name="dipole">      0.00000000       0.00000000      -0.00000000 </v>
    <i name="Tr[quadrupol]">    -12.29685264 </i>
    <i name="Echarged">      0.00000000 </i>
    <i name="Edipol_quadrupol">      0.00000000 </i>
    <i name="Eion">      0.00000000 </i>
   </dipole>
   <energy>
    <i name="e_fr_energy">     -3.13937695 </i>
    <i name="e_wo_entrp">     -3.13937695 </i>
    <i name="e_0_energy">     -3.13937695 </i>
   </energy>
  </scstep>
  <scstep>
   <time name="dav">    0.33    0.34</time>
   <time name="total">    0.41    0.41</time>
   <dipole>
    <v name="dipole">      0.00000000       0.00000000      -0.00000000 </v>
    <i name="Tr[quadrupol]">    -12.33316569 </i>
    <i name="Echarged">      0.00000000 </i>
    <i name="Edipol_quadrupol">      0.00000000 </i>
    <i name="Eion">      0.00000000 </i>
   </dipole>
   <energy>
    <i name="e_fr_energy">     -3.13996684 </i>
    <i name="e_wo_entrp">     -3.13996684 </i>
    <i name="e_0_energy">     -3.13996684 </i>
   </energy>
  </scstep>
  <scstep>
   <time name="dav">    0.30    0.30</time>
   <time name="total">    0.37    0.38</time>
   <dipole>
    <v name="dipole">      0.00000000       0.00000000      -0.00000000 </v>
    <i name="Tr[quadrupol]">    -12.35313064 </i>
    <i name="Echarged">      0.00000000 </i>
    <i name="Edipol_quadrupol">      0.00000000 </i>
    <i name="Eion">      0.00000000 </i>
   </dipole>
   <energy>
    <i name="e_fr_energy">     -3.14043594 </i>
    <i name="e_wo_entrp">     -3.14043594 </i>
    <i name="e_0_energy">     -3.14043594 </i>
   </energy>
  </scstep>
  <scstep>
   <time name="dav">    0.39    0.39</time>
   <time name="total">    0.46    0.47</time>
   <dipole>
    <v name="dipole">      0.00000000       0.00000000      -0.00000000 </v>
    <i name="Tr[quadrupol]">    -12.35231960 </i>
    <i name="Echarged">      0.00000000 </i>
    <i name="Edipol_quadrupol">      0.00000000 </i>
    <i name="Eion">      0.00000000 </i>
   </dipole>
   <energy>
    <i name="e_fr_energy">     -3.14047448 </i>
    <i name="e_wo_entrp">     -3.14047448 </i>
    <i name="e_0_energy">     -3.14047448 </i>
   </energy>
  </scstep>
  <scstep>
   <time name="dav">    0.34    0.35</time>
   <time name="total">    0.42    0.42</time>
   <dipole>
    <v name="dipole">      0.00000000       0.00000000      -0.00000000 </v>
    <i name="Tr[quadrupol]">    -12.35586634 </i>
    <i name="Echarged">      0.00000000 </i>
    <i name="Edipol_quadrupol">      0.00000000 </i>
    <i name="Eion">      0.00000000 </i>
   </dipole>
   <energy>
    <i name="e_fr_energy">     -3.14056856 </i>
    <i name="e_wo_entrp">     -3.14056856 </i>
    <i name="e_0_energy">     -3.14056856 </i>
   </energy>
  </scstep>
  <scstep>
   <time name="dav">    0.44    0.44</time>
   <time name="total">    0.52    0.52</time>
   <dipole>
    <v name="dipole">      0.00000000       0.00000000      -0.00000000 </v>
    <i name="Tr[quadrupol]">    -12.35869908 </i>
    <i name="Echarged">      0.00000000 </i>
    <i name="Edipol_quadrupol">      0.00000000 </i>
    <i name="Eion">      0.00000000 </i>
   </dipole>
   <energy>
    <i name="e_fr_energy">     -3.14058366 </i>
    <i name="e_wo_entrp">     -3.14058366 </i>
    <i name="e_0_energy">     -3.14058366 </i>
   </energy>
  </scstep>
  <scstep>
   <time name="dav">    0.36    0.36</time>
   <time name="total">    0.43    0.44</time>
   <dipole>
    <v name="dipole">      0.00000000       0.00000000      -0.00000000 </v>
    <i name="Tr[quadrupol]">    -12.35897997 </i>
    <i name="Echarged">      0.00000000 </i>
    <i name="Edipol_quadrupol">      0.00000000 </i>
    <i name="Eion">      0.00000000 </i>
   </dipole>
   <energy>
    <i name="e_fr_energy">     -3.14058757 </i>
    <i name="e_wo_entrp">     -3.14058757 </i>
    <i name="e_0_energy">     -3.14058757 </i>
   </energy>
  </scstep>
  <scstep>
   <time name="dav">    0.34    0.34</time>
   <time name="total">    0.42    0.42</time>
   <dipole>
    <v name="dipole">      0.00000000       0.00000000      -0.00000000 </v>
    <i name="Tr[quadrupol]">    -12.36007306 </i>
    <i name="Echarged">      0.00000000 </i>
    <i name="Edipol_quadrupol">      0.00000000 </i>
    <i name="Eion">      0.00000000 </i>
   </dipole>
   <energy>
    <i name="e_fr_energy">     -3.14059057 </i>
    <i name="e_wo_entrp">     -3.14059057 </i>
    <i name="e_0_energy">     -3.14059057 </i>
   </energy>
  </scstep>
  <scstep>
   <time name="dav">    0.65    0.65</time>
   <time name="total">    0.68    0.69</time>
   <dipole>
    <v name="dipole">      0.00000000       0.00000000      -0.00000000 </v>
    <i name="Tr[quadrupol]">    -12.36026584 </i>
    <i name="Echarged">      0.00000000 </i>
    <i name="Edipol_quadrupol">      0.00000000 </i>
    <i name="Eion">      0.00000000 </i>
   </dipole>
   <energy>
    <i name="alphaZ">      0.12710513 </i>
    <i name="ewald">    267.87820229 </i>
    <i name="hartreedc">   -309.25627122 </i>
    <i name="XCdc">      5.48286223 </i>
    <i name="pawpsdc">     54.87001405 </i>
    <i name="pawaedc">    -53.65622325 </i>
    <i name="eentropy">     -0.00000000 </i>
    <i name="bandstr">    -23.54478739 </i>
    <i name="atom">     54.95850721 </i>
    <i name="e_fr_energy">     -3.14059096 </i>
    <i name="e_wo_entrp">     -3.14059096 </i>
    <i name="e_0_energy">     -3.14059096 </i>
   </energy>
  </scstep>
  <structure>
   <crystal>
    <varray name="basis" >
     <v>       3.45000000       1.99185843       0.00000000 </v>
     <v>      -3.45000000       1.99185843       0.00000000 </v>
     <v>       0.00000000       0.00000000      40.00000000 </v>
    </varray>
    <i name="volume">    549.75292632 </i>
    <varray name="rec_basis" >
     <v>       0.14492754       0.25102186       0.00000000 </v>
     <v>      -0.14492754       0.25102186       0.00000000 </v>
     <v>       0.00000000       0.00000000       0.02500000 </v>
    </varray>
   </crystal>
   <varray name="positions" >
    <v>       0.33333333       0.66666667       0.10000000 </v>
    <v>       0.66666667       0.33333333       0.10000000 </v>
   </varray>
  </structure>
  <varray name="forces" >
   <v>      -0.00000000      -0.00000000      -0.00000000 </v>
   <v>       0.00000000       0.00000000       0.00000000 </v>
  </varray>
  <varray name="stress" >
   <v>      -4.41130230       0.00000000       0.00000000 </v>
   <v>       0.00000000      -4.41130230      -0.00000000 </v>
   <v>       0.00000000       0.00000000       0.00014326 </v>
  </varray>
  <energy>
   <i name="e_fr_energy">     -3.14059096 </i>
   <i name="e_wo_entrp">     -3.14059096 </i>
   <i name="e_0_energy">     -3.14059096 </i>
  </energy>
  <time name="totalsc">    9.34    9.39</time>
  <eigenvalues>
   <array>
    <dimension dim="1">band</dimension>
    <dimension dim="2">kpoint</dimension>
    <dimension dim="3">spin</dimension>
    <field>eigene</field>
    <field>occ</field>
    <set>
     <set comment="spin 1">
      <set comment="kpoint 1">
       <r>   -8.4855    1.0000 </r>
       <r>   -3.8902    1.0000 </r>
       <r>   -1.3328    0.0000 </r>
       <r>   -1.3328    0.0000 </r>
       <r>   -0.0780    0.0000 </r>
       <r>    0.2930    0.0000 </r>
       <r>    0.3363    0.0000 </r>
       <r>    0.5713    0.0000 </r>
       <r>    0.6421    0.0000 </r>
       <r>    1.0899    0.0000 </r>
       <r>    1.2212    0.0000 </r>
       <r>    1.8100    0.0000 </r>
       <r>    1.9843    0.0000 </r>
       <r>    2.7467    0.0000 </r>
       <r>    2.8134    0.0000 </r>
       <r>    2.8134    0.0000 </r>
       <r>    2.9721    0.0000 </r>
       <r>    3.8868    0.0000 </r>
       <r>    4.0369    0.0000 </r>
       <r>    4.1437    0.0000 </r>
       <r>    4.3925    0.0000 </r>
       <r>    5.2167    0.0000 </r>
       <r>    5.5089    0.0000 </r>
       <r>    6.7285    0.0000 </r>
       <r>    7.0681    0.0000 </r>
       <r>    7.4822    0.0000 </r>
       <r>    8.3958    0.0000 </r>
       <r>    8.8284    0.0000 </r>
       <r>    9.3362    0.0000 </r>
       <r>    9.3362    0.0000 </r>
       <r>   10.0930    0.0000 </r>
       <r>   10.6746    0.0000 </r>
       <r>   10.6746    0.0000 </r>
       <r>   10.7673    0.0000 </r>
       <r>   11.2214    0.0000 </r>
       <r>   12.1381    0.0000 </r>
       <r>   12.1381    0.0000 </r>
       <r>   12.4221    0.0000 </r>
       <r>   12.4221    0.0000 </r>
       <r>   12.5829    0.0000 </r>
       <r>   12.5871    0.0000 </r>
       <r>   12.7167    0.0000 </r>
      </set>
      <set comment="kpoint 2">
       <r>   -8.0964    1.0000 </r>
       <r>   -3.4407    0.0000 </r>
       <r>   -2.7766    0.0000 </r>
       <r>   -1.9741    0.0000 </r>
       <r>    0.4153    0.0000 </r>
       <r>    0.7927    0.0000 </r>
       <r>    0.8413    0.0000 </r>
       <r>    1.0720    0.0000 </r>
       <r>    1.1455    0.0000 </r>
       <r>    1.5894    0.0000 </r>
       <r>    1.7218    0.0000 </r>
       <r>    2.3039    0.0000 </r>
       <r>    2.4659    0.0000 </r>
       <r>    2.5294    0.0000 </r>
       <r>    2.9298    0.0000 </r>
       <r>    3.2451    0.0000 </r>
       <r>    3.4717    0.0000 </r>
       <r>    4.3049    0.0000 </r>
       <r>    4.3701    0.0000 </r>
       <r>    4.6402    0.0000 </r>
       <r>    5.0323    0.0000 </r>
       <r>    5.6677    0.0000 </r>
       <r>    6.0042    0.0000 </r>
       <r>    6.9051    0.0000 </r>
       <r>    7.4858    0.0000 </r>
       <r>    7.5620    0.0000 </r>
       <r>    7.9135    0.0000 </r>
       <r>    7.9838    0.0000 </r>
       <r>    8.4210    0.0000 </r>
       <r>    8.4572    0.0000 </r>
       <r>    8.6972    0.0000 </r>
       <r>    8.7083    0.0000 </r>
       <r>    9.0081    0.0000 </r>
       <r>    9.0088    0.0000 </r>
       <r>    9.3121    0.0000 </r>
       <r>    9.3295    0.0000 </r>
       <r>    9.3971    0.0000 </r>
       <r>    9.9590    0.0000 </r>
       <r>   10.0938    0.0000 </r>
       <r>   10.2828    0.0000 </r>
       <r>   10.5148    0.0000 </r>
       <r>   10.7136    0.0000 </r>
      </set>
      <set comment="kpoint 3">
       <r>   -6.9618    1.0000 </r>
       <r>   -5.0307    1.0000 </r>
       <r>   -2.6599    0.0000 </r>
       <r>   -2.1968    0.0000 </r>
       <r>    0.4558    0.0000 </r>
       <r>    1.8872    0.0000 </r>
       <r>    2.0153    0.0000 </r>
       <r>    2.2972    0.0000 </r>
       <r>    2.3565    0.0000 </r>
       <r>    2.5778    0.0000 </r>
       <r>    2.6551    0.0000 </r>
       <r>    3.0898    0.0000 </r>
       <r>    3.2233    0.0000 </r>
       <r>    3.7851    0.0000 </r>
       <r>    3.9790    0.0000 </r>
       <r>    4.2723    0.0000 </r>
       <r>    4.6127    0.0000 </r>
       <r>    4.7599    0.0000 </r>
       <r>    4.8800    0.0000 </r>
       <r>    4.9563    0.0000 </r>
       <r>    5.0444    0.0000 </r>
       <r>    5.1586    0.0000 </r>
       <r>    5.4682    0.0000 </r>
       <r>    5.6853    0.0000 </r>
       <r>    5.7437    0.0000 </r>
       <r>    6.1125    0.0000 </r>
       <r>    6.1290    0.0000 </r>
       <r>    6.3944    0.0000 </r>
       <r>    6.6410    0.0000 </r>
       <r>    6.9451    0.0000 </r>
       <r>    7.2100    0.0000 </r>
       <r>    7.2199    0.0000 </r>
       <r>    7.2211    0.0000 </r>
       <r>    7.4534    0.0000 </r>
       <r>    7.6271    0.0000 </r>
       <r>    8.0229    0.0000 </r>
       <r>    8.4908    0.0000 </r>
       <r>    8.8841    0.0000 </r>
       <r>    8.9308    0.0000 </r>
       <r>    8.9904    0.0000 </r>
       <r>    9.2561    0.0000 </r>
       <r>    9.5520    0.0000 </r>
      </set>
      <set comment="kpoint 4">
       <r>   -7.3317    1.0000 </r>
       <r>   -4.0150    1.0000 </r>
       <r>   -3.2893    0.0000 </r>
       <r>   -2.5742    0.0000 </r>
       <r>    1.3038    0.0000 </r>
       <r>    1.3987    0.0000 </r>
       <r>    1.7811    0.0000 </r>
       <r>    1.8514    0.0000 </r>
       <r>    2.0658    0.0000 </r>
       <r>    2.1520    0.0000 </r>
       <r>    2.5763    0.0000 </r>
       <r>    2.7229    0.0000 </r>
       <r>    3.2609    0.0000 </r>
       <r>    3.4739    0.0000 </r>
       <r>    3.5892    0.0000 </r>
       <r>    4.0823    0.0000 </r>
       <r>    4.1306    0.0000 </r>
       <r>    4.4637    0.0000 </r>
       <r>    4.6539    0.0000 </r>
       <r>    5.4938    0.0000 </r>
       <r>    5.6250    0.0000 </r>
       <r>    6.3120    0.0000 </r>
       <r>    6.5573    0.0000 </r>
       <r>    6.7209    0.0000 </r>
       <r>    6.7537    0.0000 </r>
       <r>    6.9005    0.0000 </r>
       <r>    6.9095    0.0000 </r>
       <r>    6.9617    0.0000 </r>
       <r>    6.9752    0.0000 </r>
       <r>    7.0839    0.0000 </r>
       <r>    7.1644    0.0000 </r>
       <r>    7.2193    0.0000 </r>
       <r>    7.2561    0.0000 </r>
       <r>    7.5852    0.0000 </r>
       <r>    7.6057    0.0000 </r>
       <r>    7.7534    0.0000 </r>
       <r>    7.7952    0.0000 </r>
       <r>    8.0834    0.0000 </r>
       <r>    8.2446    0.0000 </r>
       <r>    8.2503    0.0000 </r>
       <r>    8.4903    0.0000 </r>
       <r>    8.5538    0.0000 </r>
      </set>
      <set comment="kpoint 5">
       <r>   -6.0818    1.0000 </r>
       <r>   -5.5855    1.0000 </r>
       <r>   -3.8861    1.0000 </r>
       <r>   -1.3579    0.0000 </r>
       <r>   -0.2706    0.0000 </r>
       <r>    3.0490    0.0000 </r>
       <r>    3.2859    0.0000 </r>
       <r>    3.3604    0.0000 </r>
       <r>    3.5356    0.0000 </r>
       <r>    3.7855    0.0000 </r>
       <r>    3.8697    0.0000 </r>
       <r>    3.8717    0.0000 </r>
       <r>    3.9383    0.0000 </r>
       <r>    4.0801    0.0000 </r>
       <r>    4.1537    0.0000 </r>
       <r>    4.1622    0.0000 </r>
       <r>    4.2573    0.0000 </r>
       <r>    4.5958    0.0000 </r>
       <r>    4.6949    0.0000 </r>
       <r>    4.7120    0.0000 </r>
       <r>    4.7527    0.0000 </r>
       <r>    5.3019    0.0000 </r>
       <r>    5.4211    0.0000 </r>
       <r>    5.4460    0.0000 </r>
       <r>    5.4668    0.0000 </r>
       <r>    6.0441    0.0000 </r>
       <r>    6.2337    0.0000 </r>
       <r>    6.2475    0.0000 </r>
       <r>    6.2732    0.0000 </r>
       <r>    6.3594    0.0000 </r>
       <r>    6.4034    0.0000 </r>
       <r>    6.4710    0.0000 </r>
       <r>    6.6962    0.0000 </r>
       <r>    6.7115    0.0000 </r>
       <r>    6.9432    0.0000 </r>
       <r>    7.1423    0.0000 </r>
       <r>    7.2751    0.0000 </r>
       <r>    7.3401    0.0000 </r>
       <r>    7.3664    0.0000 </r>
       <r>    7.5407    0.0000 </r>
       <r>    7.7771    0.0000 </r>
       <r>    7.9483    0.0000 </r>
      </set>
     </set>
    </set>
   </array>
  </eigenvalues>
  <separator name="orbital magnetization" >
   <v name="MAGDIPOLOUT">      0.00000000      0.00000000      0.00000000</v>
  </separator>
  <dos>
   <i name="efermi">     -3.65972999 </i>
   <total>
    <array>
     <dimension dim="1">gridpoints</dimension>
     <dimension dim="2">spin</dimension>
     <field>energy</field>
     <field>total</field>
     <field>integrated</field>
     <set>
      <set comment="spin 1">
       <r>    -9.5456     0.0000     0.0000 </r>
       <r>    -9.4679     0.0000     0.0000 </r>
       <r>    -9.3901     0.0000     0.0000 </r>
       <r>    -9.3124     0.0000     0.0000 </r>
       <r>    -9.2346     0.0000     0.0000 </r>
       <r>    -9.1569     0.0000     0.0000 </r>
       <r>    -9.0792     0.0000     0.0000 </r>
       <r>    -9.0014     0.0000     0.0000 </r>
       <r>    -8.9237     0.0000     0.0000 </r>
       <r>    -8.8459     0.0000     0.0000 </r>
       <r>    -8.7682     0.0000     0.0000 </r>
       <r>    -8.6905     0.0000     0.0000 </r>
       <r>    -8.6127     0.0002     0.0000 </r>
       <r>    -8.5350     0.0830     0.0065 </r>
       <r>    -8.4572     0.7277     0.0630 </r>
       <r>    -8.3795     0.2167     0.0799 </r>
       <r>    -8.3017     0.0014     0.0800 </r>
       <r>    -8.2240     0.0009     0.0801 </r>
       <r>    -8.1463     0.4869     0.1179 </r>
       <r>    -8.0685     4.3552     0.4565 </r>
       <r>    -7.9908     1.3225     0.5593 </r>
       <r>    -7.9130     0.0087     0.5600 </r>
       <r>    -7.8353     0.0000     0.5600 </r>
       <r>    -7.7576     0.0000     0.5600 </r>
       <r>    -7.6798     0.0000     0.5600 </r>
       <r>    -7.6021     0.0000     0.5600 </r>
       <r>    -7.5243     0.0000     0.5600 </r>
       <r>    -7.4466     0.0036     0.5603 </r>
       <r>    -7.3689     0.9038     0.6305 </r>
       <r>    -7.2911     4.4938     0.9799 </r>
       <r>    -7.2134     0.7706     1.0398 </r>
       <r>    -7.1356     0.0025     1.0400 </r>
       <r>    -7.0579     0.0203     1.0416 </r>
       <r>    -6.9801     1.8445     1.1850 </r>
       <r>    -6.9024     4.0227     1.4977 </r>
       <r>    -6.8247     0.2865     1.5200 </r>
       <r>    -6.7469     0.0003     1.5200 </r>
       <r>    -6.6692     0.0000     1.5200 </r>
       <r>    -6.5914     0.0000     1.5200 </r>
       <r>    -6.5137     0.0000     1.5200 </r>
       <r>    -6.4360     0.0000     1.5200 </r>
       <r>    -6.3582     0.0000     1.5200 </r>
       <r>    -6.2805     0.0000     1.5200 </r>
       <r>    -6.2027     0.0019     1.5202 </r>
       <r>    -6.1250     0.6836     1.5733 </r>
       <r>    -6.0472     4.4756     1.9212 </r>
       <r>    -5.9695     1.0085     1.9996 </r>
       <r>    -5.8918     0.0046     2.0000 </r>
       <r>    -5.8140     0.0000     2.0000 </r>
       <r>    -5.7363     0.0001     2.0000 </r>
       <r>    -5.6585     0.1201     2.0093 </r>
       <r>    -5.5808     3.2954     2.2655 </r>
       <r>    -5.5031     2.6980     2.4753 </r>
       <r>    -5.4253     0.0607     2.4800 </r>
       <r>    -5.3476     0.0000     2.4800 </r>
       <r>    -5.2698     0.0000     2.4800 </r>
       <r>    -5.1921     0.0000     2.4800 </r>
       <r>    -5.1143     0.0554     2.4843 </r>
       <r>    -5.0366     2.6200     2.6880 </r>
       <r>    -4.9589     3.3685     2.9499 </r>
       <r>    -4.8811     0.1304     2.9600 </r>
       <r>    -4.8034     0.0001     2.9600 </r>
       <r>    -4.7256     0.0000     2.9600 </r>
       <r>    -4.6479     0.0000     2.9600 </r>
       <r>    -4.5702     0.0000     2.9600 </r>
       <r>    -4.4924     0.0000     2.9600 </r>
       <r>    -4.4147     0.0000     2.9600 </r>
       <r>    -4.3369     0.0000     2.9600 </r>
       <r>    -4.2592     0.0000     2.9600 </r>
       <r>    -4.1814     0.0000     2.9600 </r>
       <r>    -4.1037     0.0373     2.9629 </r>
       <r>    -4.0260     2.2962     3.1414 </r>
       <r>    -3.9482     3.9546     3.4488 </r>
       <r>    -3.8705     4.7620     3.8191 </r>
       <r>    -3.7927     2.2991     3.9978 </r>
       <r>    -3.7150     0.0285     4.0000 </r>
       <r>    -3.6373     0.0000     4.0000 </r>
       <r>    -3.5595     0.0024     4.0002 </r>
       <r>    -3.4818     0.7540     4.0588 </r>
       <r>    -3.4040     4.4952     4.4083 </r>
       <r>    -3.3263     1.8320     4.5507 </r>
       <r>    -3.2486     4.4969     4.9003 </r>
       <r>    -3.1708     0.7655     4.9598 </r>
       <r>    -3.0931     0.0025     4.9600 </r>
       <r>    -3.0153     0.0000     4.9600 </r>
       <r>    -2.9376     0.0000     4.9600 </r>
       <r>    -2.8598     0.0571     4.9644 </r>
       <r>    -2.7821     2.6477     5.1703 </r>
       <r>    -2.7044     3.9873     5.4803 </r>
       <r>    -2.6266     5.0133     5.8700 </r>
       <r>    -2.5489     5.3490     6.2858 </r>
       <r>    -2.4711     1.4574     6.3991 </r>
       <r>    -2.3934     0.0110     6.4000 </r>
       <r>    -2.3157     0.0024     6.4002 </r>
       <r>    -2.2379     0.7551     6.4589 </r>
       <r>    -2.1602     4.4918     6.8081 </r>
       <r>    -2.0824     0.9281     6.8802 </r>
       <r>    -2.0047     1.1909     6.9728 </r>
       <r>    -1.9269     4.4172     7.3162 </r>
       <r>    -1.8492     0.5619     7.3599 </r>
       <r>    -1.7715     0.0013     7.3600 </r>
       <r>    -1.6937     0.0000     7.3600 </r>
       <r>    -1.6160     0.0000     7.3600 </r>
       <r>    -1.5382     0.0000     7.3600 </r>
       <r>    -1.4605     0.0117     7.3609 </r>
       <r>    -1.3828     1.6359     7.4881 </r>
       <r>    -1.3050     5.7231     7.9330 </r>
       <r>    -1.2273     0.8580     7.9997 </r>
       <r>    -1.1495     0.0036     8.0000 </r>
       <r>    -1.0718     0.0000     8.0000 </r>
       <r>    -0.9940     0.0000     8.0000 </r>
       <r>    -0.9163     0.0000     8.0000 </r>
       <r>    -0.8386     0.0000     8.0000 </r>
       <r>    -0.7608     0.0000     8.0000 </r>
       <r>    -0.6831     0.0000     8.0000 </r>
       <r>    -0.6053     0.0000     8.0000 </r>
       <r>    -0.5276     0.0000     8.0000 </r>
       <r>    -0.4499     0.0000     8.0000 </r>
       <r>    -0.3721     0.0126     8.0010 </r>
       <r>    -0.2944     1.5353     8.1203 </r>
       <r>    -0.2166     4.2348     8.4496 </r>
       <r>    -0.1389     0.4348     8.4834 </r>
       <r>    -0.0611     0.6599     8.5347 </r>
       <r>     0.0166     0.3221     8.5597 </r>
       <r>     0.0943     0.0038     8.5600 </r>
       <r>     0.1721     0.0003     8.5600 </r>
       <r>     0.2498     0.1213     8.5695 </r>
       <r>     0.3276     1.1941     8.6623 </r>
       <r>     0.4053     3.5859     8.9411 </r>
       <r>     0.4830     7.9767     9.5612 </r>
       <r>     0.5608     1.9238     9.7107 </r>
       <r>     0.6385     1.0774     9.7945 </r>
       <r>     0.7163     0.6628     9.8460 </r>
       <r>     0.7940     3.6600    10.1306 </r>
       <r>     0.8718     7.3298    10.7004 </r>
       <r>     0.9495     1.2762    10.7996 </r>
       <r>     1.0272     0.6821    10.8526 </r>
       <r>     1.1050     5.8774    11.3095 </r>
       <r>     1.1827     6.0551    11.7803 </r>
       <r>     1.2605     2.3380    11.9620 </r>
       <r>     1.3382     4.8824    12.3416 </r>
       <r>     1.4159     4.9863    12.7292 </r>
       <r>     1.4937     1.9379    12.8799 </r>
       <r>     1.5714     1.8906    13.0269 </r>
       <r>     1.6492     4.1284    13.3478 </r>
       <r>     1.7269     3.9924    13.6582 </r>
       <r>     1.8046     7.9787    14.2785 </r>
       <r>     1.8824     9.2799    14.9999 </r>
       <r>     1.9601     5.1345    15.3991 </r>
       <r>     2.0379     6.3493    15.8927 </r>
       <r>     2.1156     6.9585    16.4336 </r>
       <r>     2.1934     5.0098    16.8231 </r>
       <r>     2.2711     3.2935    17.0791 </r>
       <r>     2.3488    11.2747    17.9557 </r>
       <r>     2.4266     5.3692    18.3731 </r>
       <r>     2.5043     6.3561    18.8672 </r>
       <r>     2.5821    11.8753    19.7904 </r>
       <r>     2.6598     9.3109    20.5142 </r>
       <r>     2.7375     7.1081    21.0668 </r>
       <r>     2.8153     3.7651    21.3595 </r>
       <r>     2.8930     1.9440    21.5107 </r>
       <r>     2.9708     5.0880    21.9062 </r>
       <r>     3.0485     4.9891    22.2941 </r>
       <r>     3.1263     7.5646    22.8822 </r>
       <r>     3.2040     3.9571    23.1898 </r>
       <r>     3.2817    15.5044    24.3951 </r>
       <r>     3.3595     9.1338    25.1052 </r>
       <r>     3.4372     5.1471    25.5054 </r>
       <r>     3.5150    10.8799    26.3512 </r>
       <r>     3.5927     8.7717    27.0331 </r>
       <r>     3.6704     3.1161    27.2753 </r>
       <r>     3.7482     1.8784    27.4214 </r>
       <r>     3.8259    10.3024    28.2223 </r>
       <r>     3.9037    12.2199    29.1723 </r>
       <r>     3.9814    10.2016    29.9654 </r>
       <r>     4.0592     7.6836    30.5627 </r>
       <r>     4.1369    15.8971    31.7986 </r>
       <r>     4.2146    13.1700    32.8224 </r>
       <r>     4.2924    11.6305    33.7266 </r>
       <r>     4.3701     9.7635    34.4856 </r>
       <r>     4.4479     5.9172    34.9457 </r>
       <r>     4.5256     4.2458    35.2757 </r>
       <r>     4.6033     7.5272    35.8609 </r>
       <r>     4.6811    18.4237    37.2932 </r>
       <r>     4.7588    16.8745    38.6050 </r>
       <r>     4.8366     7.1543    39.1612 </r>
       <r>     4.9143     5.3469    39.5769 </r>
       <r>     4.9921     6.7176    40.0991 </r>
       <r>     5.0698     9.7855    40.8599 </r>
       <r>     5.1475     4.6542    41.2217 </r>
       <r>     5.2253     4.3596    41.5606 </r>
       <r>     5.3030     3.6658    41.8456 </r>
       <r>     5.3808     4.0106    42.1574 </r>
       <r>     5.4585    14.2115    43.2622 </r>
       <r>     5.5362    15.4371    44.4623 </r>
       <r>     5.6140     4.1205    44.7827 </r>
       <r>     5.6917    11.7361    45.6950 </r>
       <r>     5.7695     8.5905    46.3629 </r>
       <r>     5.8472     1.4960    46.4792 </r>
       <r>     5.9249     0.0898    46.4862 </r>
       <r>     6.0027     3.6517    46.7700 </r>
       <r>     6.0804     9.2312    47.4877 </r>
       <r>     6.1582    10.0016    48.2652 </r>
       <r>     6.2359     8.2639    48.9077 </r>
       <r>     6.3137    14.8636    50.0632 </r>
       <r>     6.3914    13.4929    51.1122 </r>
       <r>     6.4691    11.0254    51.9693 </r>
       <r>     6.5469     5.7805    52.4187 </r>
       <r>     6.6246     5.8847    52.8762 </r>
       <r>     6.7024    12.4200    53.8417 </r>
       <r>     6.7801    15.4883    55.0458 </r>
       <r>     6.8578     3.7837    55.3400 </r>
       <r>     6.9356    20.3310    56.9205 </r>
       <r>     7.0133    19.6460    58.4478 </r>
       <r>     7.0911     6.3620    58.9424 </r>
       <r>     7.1688    12.5604    59.9189 </r>
       <r>     7.2466    25.3088    61.8864 </r>
       <r>     7.3243    15.8492    63.1186 </r>
       <r>     7.4020     9.6120    63.8658 </r>
       <r>     7.4798     8.9514    64.5617 </r>
       <r>     7.5575    13.9804    65.6486 </r>
       <r>     7.6353    17.6208    67.0184 </r>
       <r>     7.7130     5.3975    67.4381 </r>
       <r>     7.7907    11.0644    68.2982 </r>
       <r>     7.8685     7.0054    68.8428 </r>
       <r>     7.9462     8.4508    69.4998 </r>
       <r>     8.0240    12.0769    70.4387 </r>
       <r>     8.1017     7.8426    71.0484 </r>
       <r>     8.1795     2.2714    71.2250 </r>
       <r>     8.2572     7.1921    71.7841 </r>
       <r>     8.3349     4.8429    72.1606 </r>
       <r>     8.4127     4.0219    72.4732 </r>
       <r>     8.4904    14.5062    73.6010 </r>
       <r>     8.5682    11.0711    74.4617 </r>
       <r>     8.6459     2.9579    74.6916 </r>
       <r>     8.7236     8.2305    75.3315 </r>
       <r>     8.8014     3.7074    75.6197 </r>
       <r>     8.8791     3.8897    75.9221 </r>
       <r>     8.9569     9.6427    76.6717 </r>
       <r>     9.0346    14.6147    77.8079 </r>
       <r>     9.1124     3.4781    78.0783 </r>
       <r>     9.1901     0.2150    78.0950 </r>
       <r>     9.2678     4.6519    78.4567 </r>
       <r>     9.3456    12.2682    79.4104 </r>
       <r>     9.4233     8.1822    80.0465 </r>
       <r>     9.5011     1.9117    80.1951 </r>
       <r>     9.5788     4.3381    80.5324 </r>
       <r>     9.6565     1.3748    80.6393 </r>
       <r>     9.7343     0.0096    80.6400 </r>
       <r>     9.8120     0.0001    80.6400 </r>
       <r>     9.8898     0.1546    80.6520 </r>
       <r>     9.9675     3.5188    80.9256 </r>
       <r>    10.0452     3.0696    81.1642 </r>
       <r>    10.1230     5.1670    81.5659 </r>
       <r>    10.2007     1.5214    81.6842 </r>
       <r>    10.2785     2.7343    81.8968 </r>
       <r>    10.3562     3.2696    82.1509 </r>
       <r>    10.4340     0.1850    82.1653 </r>
       <r>    10.5117     2.8008    82.3831 </r>
       <r>    10.5894     3.2154    82.6330 </r>
       <r>    10.6672     1.5335    82.7522 </r>
       <r>    10.7449     5.8502    83.2070 </r>
       <r>    10.8227     1.9008    83.3548 </r>
       <r>    10.9004     0.0666    83.3600 </r>
       <r>    10.9781     0.0001    83.3600 </r>
       <r>    11.0559     0.0000    83.3600 </r>
       <r>    11.1336     0.0067    83.3605 </r>
       <r>    11.2114     0.3927    83.3910 </r>
       <r>    11.2891     0.6011    83.4378 </r>
       <r>    11.3669     0.0286    83.4400 </r>
       <r>    11.4446     0.0000    83.4400 </r>
       <r>    11.5223     0.0000    83.4400 </r>
       <r>    11.6001     0.0000    83.4400 </r>
       <r>    11.6778     0.0000    83.4400 </r>
       <r>    11.7556     0.0000    83.4400 </r>
       <r>    11.8333     0.0000    83.4400 </r>
       <r>    11.9110     0.0000    83.4400 </r>
       <r>    11.9888     0.0000    83.4400 </r>
       <r>    12.0665     0.0443    83.4434 </r>
       <r>    12.1443     1.1282    83.5311 </r>
       <r>    12.2220     0.8676    83.5986 </r>
       <r>    12.2998     0.0186    83.6000 </r>
       <r>    12.3775     0.2128    83.6166 </r>
       <r>    12.4552     1.4866    83.7322 </r>
       <r>    12.5330     0.5022    83.7712 </r>
       <r>    12.6107     1.4338    83.8827 </r>
       <r>    12.6885     0.6948    83.9367 </r>
       <r>    12.7662     0.7313    83.9935 </r>
       <r>    12.8439     0.0830    84.0000 </r>
       <r>    12.9217     0.0002    84.0000 </r>
       <r>    12.9994     0.0000    84.0000 </r>
       <r>    13.0772     0.0000    84.0000 </r>
       <r>    13.1549     0.0000    84.0000 </r>
       <r>    13.2327     0.0000    84.0000 </r>
       <r>    13.3104     0.0000    84.0000 </r>
       <r>    13.3881     0.0000    84.0000 </r>
       <r>    13.4659     0.0000    84.0000 </r>
       <r>    13.5436     0.0000    84.0000 </r>
       <r>    13.6214     0.0000    84.0000 </r>
       <r>    13.6991     0.0000    84.0000 </r>
       <r>    13.7768     0.0000    84.0000 </r>
      </set>
     </set>
    </array>
   </total>
  </dos>
 </calculation>
 <structure name="finalpos" >
  <crystal>
   <varray name="basis" >
    <v>       3.45000000       1.99185843       0.00000000 </v>
    <v>      -3.45000000       1.99185843       0.00000000 </v>
    <v>       0.00000000       0.00000000      40.00000000 </v>
   </varray>
   <i name="volume">    549.75292632 </i>
   <varray name="rec_basis" >
    <v>       0.14492754       0.25102186       0.00000000 </v>
    <v>      -0.14492754       0.25102186       0.00000000 </v>
    <v>       0.00000000       0.00000000       0.02500000 </v>
   </varray>
  </crystal>
  <varray name="positions" >
   <v>       0.33333333       0.66666667       0.10000000 </v>
   <v>       0.66666667       0.33333333       0.10000000 </v>
  </varray>
 </structure>
</modeling>
