 running   42 mpi-ranks, on    1 nodes
 distrk:  each k-point on   42 cores,    1 groups
 distr:  one band on    1 cores,   42 groups
 vasp.6.5.0 16Dec24 (build Jan 08 2025 16:17:04) complex                        
  
 POSCAR found type information on POSCAR Be
 POSCAR found :  1 types and       1 ions
 Reading from existing POTCAR
 scaLAPACK will be used
 -----------------------------------------------------------------------------
|                                                                             |
|           W    W    AA    RRRRR   N    N  II  N    N   GGGG   !!!           |
|           W    W   A  A   R    R  NN   N  II  NN   N  G    G  !!!           |
|           W    W  A    A  R    R  N N  N  II  N N  N  G       !!!           |
|           W WW W  AAAAAA  RRRRR   N  N N  II  N  N N  G  GGG   !            |
|           WW  WW  A    A  R   R   N   NN  II  N   NN  G    G                |
|           W    W  A    A  R    R  N    N  II  N    N   GGGG   !!!           |
|                                                                             |
|     For optimal performance we recommend to set                             |
|       NCORE = 2 up to number-of-cores-per-socket                            |
|     NCORE specifies how many cores store one orbital (NPAR=cpu/NCORE).      |
|     This setting can greatly improve the performance of VASP for DFT.       |
|     The default, NCORE=1 might be grossly inefficient on modern             |
|     multi-core architectures or massively parallel machines. Do your        |
|     own testing! More info at https://www.vasp.at/wiki/index.php/NCORE      |
|     Unfortunately you need to use the default for GW and RPA                |
|     calculations (for HF NCORE is supported but not extensively tested      |
|     yet).                                                                   |
|                                                                             |
 -----------------------------------------------------------------------------

 Reading from existing POTCAR
 LDA part: xc-table for (Slater+PW92), standard interpolation
 POSCAR, INCAR and KPOINTS ok, starting setup
 FFT: planning ... GRIDC
 FFT: planning ... GRID_SOFT
 FFT: planning ... GRID
 WAVECAR not read
 entering main loop
       N       E                     dE             d eps       ncg     rms          rms(c)
DAV:   1     0.791555248221E-01    0.79156E-01   -0.75295E+02 12852   0.337E+01
DAV:   2    -0.189462210218E+01   -0.19738E+01   -0.17796E+01 18354   0.324E+00
DAV:   3    -0.189912825097E+01   -0.45061E-02   -0.45058E-02 13860   0.176E-01
DAV:   4    -0.189913509693E+01   -0.68460E-05   -0.68457E-05 24318   0.689E-03
DAV:   5    -0.189913509719E+01   -0.25705E-09   -0.48724E-10 13986   0.214E-05    0.111E+00
DAV:   6    -0.186934597436E+01    0.29789E-01   -0.13306E-02 19236   0.479E-02    0.674E-01
DAV:   7    -0.185169767727E+01    0.17648E-01   -0.34742E-02 19404   0.831E-02    0.740E-02
DAV:   8    -0.185164703250E+01    0.50645E-04   -0.54754E-04 19908   0.159E-02    0.272E-02
DAV:   9    -0.185150111125E+01    0.14592E-03   -0.92454E-05 20118   0.569E-03    0.138E-02
DAV:  10    -0.185156348469E+01   -0.62373E-04   -0.18191E-04 18144   0.627E-03    0.586E-03
DAV:  11    -0.185176315153E+01   -0.19967E-03   -0.24356E-05 16506   0.366E-03    0.277E-03
DAV:  12    -0.185182197565E+01   -0.58824E-04   -0.12983E-05 15876   0.172E-03    0.160E-03
DAV:  13    -0.185188224739E+01   -0.60272E-04   -0.49943E-06 17514   0.958E-04    0.686E-04
DAV:  14    -0.185190296946E+01   -0.20722E-04   -0.23532E-06 16338   0.434E-04    0.372E-04
DAV:  15    -0.185190799266E+01   -0.50232E-05   -0.36686E-07 17472   0.187E-04    0.167E-04
DAV:  16    -0.185191224684E+01   -0.42542E-05   -0.27792E-07 16968   0.111E-04    0.797E-05
DAV:  17    -0.185191313219E+01   -0.88535E-06   -0.60435E-08 17514   0.572E-05
   1 F= -.18519131E+01 E0= -.18515377E+01  d E =-.750808E-03
