       N       E                     dE             d eps       ncg     rms          rms(c)
DAV:   1    -0.431523465292E+01   -0.43152E+01   -0.15961E+03  1288   0.227E+02
DAV:   2    -0.158193246895E+02   -0.11504E+02   -0.10252E+02  1596   0.294E+01
DAV:   3    -0.160656080367E+02   -0.24628E+00   -0.24605E+00  1988   0.603E+00
DAV:   4    -0.160661874133E+02   -0.57938E-03   -0.57938E-03  1876   0.268E-01
DAV:   5    -0.160661877732E+02   -0.35995E-06   -0.36042E-06  1904   0.785E-03
DAV:   6    -0.160661877753E+02   -0.20439E-08   -0.20581E-08  1960   0.440E-04
   1 F= -.16066188E+02 E0= -.16066065E+02  d E =-.245213E-03  mag=     0.0000    -0.0000     0.0000
