Phonopy                                 
           1
    10.479973    7.656603    0.000000
    -8.995045    5.238257    0.000000
     0.000000    0.000000   40.000000
   Be   H 
    50    50
Direct configuration=     1
   0.02429042  0.11355626  0.12232619
   0.22429042  0.11259556  0.12232619
   0.42429042  0.11259556  0.12232619
   0.62429042  0.11259556  0.12232619
   0.82429042  0.11259556  0.12232619
   0.02429042  0.31259556  0.12232619
   0.22429042  0.31259556  0.12232619
   0.42429042  0.31259556  0.12232619
   0.62429042  0.31259556  0.12232619
   0.82429042  0.31259556  0.12232619
   0.02429042  0.51259556  0.12232619
   0.22429042  0.51259556  0.12232619
   0.42429042  0.51259556  0.12232619
   0.62429042  0.51259556  0.12232619
   0.82429042  0.51259556  0.12232619
   0.02429042  0.71259556  0.12232619
   0.22429042  0.71259556  0.12232619
   0.42429042  0.71259556  0.12232619
   0.62429042  0.71259556  0.12232619
   0.82429042  0.71259556  0.12232619
   0.02429042  0.91259556  0.12232619
   0.22429042  0.91259556  0.12232619
   0.42429042  0.91259556  0.12232619
   0.62429042  0.91259556  0.12232619
   0.82429042  0.91259556  0.12232619
   0.11040269  0.05565621  0.07767370
   0.31040269  0.05565621  0.07767370
   0.51040269  0.05565621  0.07767370
   0.71040269  0.05565621  0.07767370
   0.91040269  0.05565621  0.07767370
   0.11040269  0.25565621  0.07767370
   0.31040269  0.25565621  0.07767370
   0.51040269  0.25565621  0.07767370
   0.71040269  0.25565621  0.07767370
   0.91040269  0.25565621  0.07767370
   0.11040269  0.45565621  0.07767370
   0.31040269  0.45565621  0.07767370
   0.51040269  0.45565621  0.07767370
   0.71040269  0.45565621  0.07767370
   0.91040269  0.45565621  0.07767370
   0.11040269  0.65565621  0.07767370
   0.31040269  0.65565621  0.07767370
   0.51040269  0.65565621  0.07767370
   0.71040269  0.65565621  0.07767370
   0.91040269  0.65565621  0.07767370
   0.11040269  0.85565621  0.07767370
   0.31040269  0.85565621  0.07767370
   0.51040269  0.85565621  0.07767370
   0.71040269  0.85565621  0.07767370
   0.91040269  0.85565621  0.07767370
   0.02075229  0.01082952  0.14741723
   0.22075229  0.01082952  0.14741723
   0.42075229  0.01082952  0.14741723
   0.62075229  0.01082952  0.14741723
   0.82075229  0.01082952  0.14741723
   0.02075229  0.21082952  0.14741723
   0.22075229  0.21082952  0.14741723
   0.42075229  0.21082952  0.14741723
   0.62075229  0.21082952  0.14741723
   0.82075229  0.21082952  0.14741723
   0.02075229  0.41082952  0.14741723
   0.22075229  0.41082952  0.14741723
   0.42075229  0.41082952  0.14741723
   0.62075229  0.41082952  0.14741723
   0.82075229  0.41082952  0.14741723
   0.02075229  0.61082952  0.14741723
   0.22075229  0.61082952  0.14741723
   0.42075229  0.61082952  0.14741723
   0.62075229  0.61082952  0.14741723
   0.82075229  0.61082952  0.14741723
   0.02075229  0.81082952  0.14741723
   0.22075229  0.81082952  0.14741723
   0.42075229  0.81082952  0.14741723
   0.62075229  0.81082952  0.14741723
   0.82075229  0.81082952  0.14741723
   0.11391343  0.15741616  0.05258287
   0.31391343  0.15741616  0.05258287
   0.51391343  0.15741616  0.05258287
   0.71391343  0.15741616  0.05258287
   0.91391343  0.15741616  0.05258287
   0.11391343  0.35741616  0.05258287
   0.31391343  0.35741616  0.05258287
   0.51391343  0.35741616  0.05258287
   0.71391343  0.35741616  0.05258287
   0.91391343  0.35741616  0.05258287
   0.11391343  0.55741616  0.05258287
   0.31391343  0.55741616  0.05258287
   0.51391343  0.55741616  0.05258287
   0.71391343  0.55741616  0.05258287
   0.91391343  0.55741616  0.05258287
   0.11391343  0.75741616  0.05258287
   0.31391343  0.75741616  0.05258287
   0.51391343  0.75741616  0.05258287
   0.71391343  0.75741616  0.05258287
   0.91391343  0.75741616  0.05258287
   0.11391343  0.95741616  0.05258287
   0.31391343  0.95741616  0.05258287
   0.51391343  0.95741616  0.05258287
   0.71391343  0.95741616  0.05258287
   0.91391343  0.95741616  0.05258287
