       N       E                     dE             d eps       ncg     rms          rms(c)
DAV:   1     0.233807396388E+01    0.23381E+01   -0.27518E+03 17520   0.198E+02
DAV:   2    -0.110457633433E+02   -0.13384E+02   -0.12531E+02 25488   0.268E+01
DAV:   3    -0.111524683771E+02   -0.10671E+00   -0.10645E+00 21672   0.268E+00
DAV:   4    -0.111527332604E+02   -0.26488E-03   -0.26488E-03 30312   0.138E-01
DAV:   5    -0.111527333970E+02   -0.13659E-06   -0.13671E-06 21216   0.199E-03    0.316E+00
DAV:   6    -0.102181851786E+02    0.93455E+00   -0.80891E+00 22872   0.282E+00    0.135E+00
DAV:   7    -0.101722977047E+02    0.45887E-01   -0.40519E-01 24408   0.665E-01    0.636E-01
DAV:   8    -0.101606289608E+02    0.11669E-01   -0.15569E-01 27864   0.453E-01    0.372E-01
DAV:   9    -0.101530581328E+02    0.75708E-02   -0.60430E-02 25032   0.260E-01    0.575E-02
DAV:  10    -0.101523965514E+02    0.66158E-03   -0.17711E-03 27000   0.905E-02    0.641E-02
DAV:  11    -0.101522463430E+02    0.15021E-03   -0.11267E-03 25344   0.346E-02    0.263E-02
DAV:  12    -0.101525515507E+02   -0.30521E-03   -0.53559E-04 20976   0.266E-02    0.111E-02
DAV:  13    -0.101528284157E+02   -0.27686E-03   -0.45647E-05 19632   0.135E-02    0.139E-02
DAV:  14    -0.101529403420E+02   -0.11193E-03   -0.14782E-04 19968   0.123E-02    0.553E-03
DAV:  15    -0.101530064705E+02   -0.66128E-04   -0.92647E-06 20160   0.363E-03    0.211E-03
DAV:  16    -0.101530219273E+02   -0.15457E-04   -0.34803E-06 20376   0.213E-03    0.994E-04
DAV:  17    -0.101530470981E+02   -0.25171E-04   -0.19604E-06 19920   0.164E-03    0.345E-04
DAV:  18    -0.101530530352E+02   -0.59371E-05   -0.25263E-07 21720   0.561E-04    0.242E-04
DAV:  19    -0.101530557164E+02   -0.26813E-05   -0.64094E-08 20016   0.278E-04    0.104E-04
DAV:  20    -0.101530566785E+02   -0.96210E-06   -0.12127E-08 21960   0.122E-04
   1 F= -.10153057E+02 E0= -.10152562E+02  d E =-.101531E+02
       N       E                     dE             d eps       ncg     rms          rms(c)
DAV:   1    -0.102194524496E+02   -0.66397E-01   -0.93279E-01 18648   0.215E+00    0.185E-01
DAV:   2    -0.102176008237E+02    0.18516E-02   -0.84723E-03 23544   0.215E-01    0.748E-02
DAV:   3    -0.102171888177E+02    0.41201E-03   -0.19380E-03 22272   0.639E-02    0.230E-02
DAV:   4    -0.102171638332E+02    0.24985E-04   -0.20890E-04 28440   0.227E-02    0.974E-03
DAV:   5    -0.102171621607E+02    0.16725E-05   -0.67550E-06 20688   0.643E-03    0.238E-03
DAV:   6    -0.102171635610E+02   -0.14003E-05   -0.10517E-06 20496   0.179E-03    0.131E-03
DAV:   7    -0.102171696015E+02   -0.60405E-05   -0.13269E-06 19248   0.137E-03    0.483E-04
DAV:   8    -0.102171726091E+02   -0.30076E-05   -0.18313E-07 20472   0.487E-04    0.338E-04
DAV:   9    -0.102171762170E+02   -0.36079E-05   -0.35209E-07 18768   0.581E-04    0.126E-04
DAV:  10    -0.102171773637E+02   -0.11467E-05   -0.50958E-08 20424   0.245E-04    0.572E-05
DAV:  11    -0.102171777072E+02   -0.34353E-06   -0.81854E-09 20112   0.104E-04
   2 F= -.10217178E+02 E0= -.10216757E+02  d E =-.641210E-01
       N       E                     dE             d eps       ncg     rms          rms(c)
DAV:   1    -0.103717698017E+02   -0.15459E+00   -0.87159E+00 18720   0.660E+00    0.519E-01
DAV:   2    -0.103550423461E+02    0.16727E-01   -0.66046E-02 23376   0.652E-01    0.233E-01
DAV:   3    -0.103508377475E+02    0.42046E-02   -0.21997E-02 26616   0.218E-01    0.499E-02
DAV:   4    -0.103508419347E+02   -0.41872E-05   -0.64334E-04 21600   0.586E-02    0.270E-02
DAV:   5    -0.103507941825E+02    0.47752E-04   -0.20757E-04 27312   0.232E-02    0.107E-02
DAV:   6    -0.103507870622E+02    0.71204E-05   -0.14145E-05 23112   0.764E-03    0.465E-03
DAV:   7    -0.103508059816E+02   -0.18919E-04   -0.98626E-06 20232   0.403E-03    0.174E-03
DAV:   8    -0.103508212262E+02   -0.15245E-04   -0.20951E-06 20592   0.181E-03    0.112E-03
DAV:   9    -0.103508345240E+02   -0.13298E-04   -0.22341E-06 19560   0.161E-03    0.466E-04
DAV:  10    -0.103508420251E+02   -0.75011E-05   -0.29749E-07 19752   0.664E-04    0.191E-04
DAV:  11    -0.103508437106E+02   -0.16855E-05   -0.20419E-08 21456   0.161E-04    0.124E-04
DAV:  12    -0.103508454363E+02   -0.17257E-05   -0.57453E-08 20088   0.207E-04    0.511E-05
DAV:  13    -0.103508462155E+02   -0.77920E-06   -0.22068E-08 19992   0.111E-04
   3 F= -.10350846E+02 E0= -.10350095E+02  d E =-.197790E+00
       N       E                     dE             d eps       ncg     rms          rms(c)
DAV:   1    -0.103182568848E+02    0.32589E-01   -0.37936E+01 19344   0.140E+01    0.128E+00
DAV:   2    -0.102261348386E+02    0.92122E-01   -0.42598E-01 23640   0.162E+00    0.605E-01
DAV:   3    -0.102018818481E+02    0.24253E-01   -0.12498E-01 25944   0.522E-01    0.269E-01
DAV:   4    -0.101992640818E+02    0.26178E-02   -0.11645E-02 26952   0.172E-01    0.981E-02
DAV:   5    -0.101986439026E+02    0.62018E-03   -0.82822E-04 29304   0.628E-02    0.260E-02
DAV:   6    -0.101984555000E+02    0.18840E-03   -0.15357E-04 27288   0.183E-02    0.150E-02
DAV:   7    -0.101983864222E+02    0.69078E-04   -0.94108E-05 23664   0.129E-02    0.568E-03
DAV:   8    -0.101984655597E+02   -0.79138E-04   -0.28376E-05 20328   0.754E-03    0.260E-03
DAV:   9    -0.101985092218E+02   -0.43662E-04   -0.35417E-06 19920   0.353E-03    0.156E-03
DAV:  10    -0.101985498747E+02   -0.40653E-04   -0.27077E-06 19992   0.166E-03    0.546E-04
DAV:  11    -0.101985605749E+02   -0.10700E-04   -0.37381E-07 20664   0.563E-04    0.310E-04
DAV:  12    -0.101985673349E+02   -0.67600E-05   -0.28499E-07 19704   0.440E-04    0.156E-04
DAV:  13    -0.101985709103E+02   -0.35754E-05   -0.18407E-07 19848   0.314E-04    0.578E-05
DAV:  14    -0.101985713607E+02   -0.45037E-06   -0.53084E-09 21984   0.636E-05
   4 F= -.10198571E+02 E0= -.10197963E+02  d E =-.455147E-01
       N       E                     dE             d eps       ncg     rms          rms(c)
DAV:   1    -0.104457551357E+02   -0.24718E+00   -0.21989E+01 18696   0.108E+01    0.931E-01
DAV:   2    -0.103920247356E+02    0.53730E-01   -0.20761E-01 21144   0.108E+00    0.447E-01
DAV:   3    -0.103777018648E+02    0.14323E-01   -0.79700E-02 26616   0.407E-01    0.187E-01
DAV:   4    -0.103769364665E+02    0.76540E-03   -0.58196E-03 22008   0.130E-01    0.689E-02
DAV:   5    -0.103769786611E+02   -0.42195E-04   -0.61538E-04 27600   0.617E-02    0.228E-02
DAV:   6    -0.103771007342E+02   -0.12207E-03   -0.69993E-05 24720   0.162E-02    0.108E-02
DAV:   7    -0.103772755919E+02   -0.17486E-03   -0.74050E-05 23616   0.127E-02    0.442E-03
DAV:   8    -0.103773563743E+02   -0.80782E-04   -0.30445E-05 22608   0.733E-03    0.274E-03
DAV:   9    -0.103773984364E+02   -0.42062E-04   -0.16602E-05 21264   0.459E-03    0.113E-03
DAV:  10    -0.103774075330E+02   -0.90966E-05   -0.19313E-06 20616   0.147E-03    0.431E-04
DAV:  11    -0.103774089613E+02   -0.14283E-05   -0.12981E-07 20376   0.397E-04    0.288E-04
DAV:  12    -0.103774106520E+02   -0.16907E-05   -0.14048E-07 20040   0.366E-04    0.112E-04
DAV:  13    -0.103774113847E+02   -0.73268E-06   -0.27963E-08 21000   0.137E-04
   5 F= -.10377411E+02 E0= -.10376605E+02  d E =-.224355E+00
       N       E                     dE             d eps       ncg     rms          rms(c)
DAV:   1    -0.104510305209E+02   -0.73620E-01   -0.10471E+00 18672   0.232E+00    0.598E-01
DAV:   2    -0.104426343656E+02    0.83962E-02   -0.19003E-01 22536   0.564E-01    0.276E-01
DAV:   3    -0.104377307643E+02    0.49036E-02   -0.38555E-02 22296   0.249E-01    0.126E-01
DAV:   4    -0.104374268714E+02    0.30389E-03   -0.18808E-03 20784   0.932E-02    0.189E-02
DAV:   5    -0.104374250435E+02    0.18279E-05   -0.10100E-04 21120   0.232E-02    0.128E-02
DAV:   6    -0.104374223642E+02    0.26793E-05   -0.21671E-05 20400   0.758E-03    0.204E-03
DAV:   7    -0.104374243763E+02   -0.20121E-05   -0.24923E-06 20760   0.354E-03    0.107E-03
DAV:   8    -0.104374258817E+02   -0.15054E-05   -0.20696E-07 20592   0.791E-04    0.510E-04
DAV:   9    -0.104374296984E+02   -0.38167E-05   -0.48780E-07 19776   0.790E-04    0.227E-04
DAV:  10    -0.104374310498E+02   -0.13514E-05   -0.85636E-08 20184   0.283E-04    0.169E-04
DAV:  11    -0.104374320891E+02   -0.10393E-05   -0.45876E-08 19848   0.199E-04    0.668E-05
DAV:  12    -0.104374325980E+02   -0.50887E-06   -0.13431E-08 20328   0.989E-05
   6 F= -.10437433E+02 E0= -.10436268E+02  d E =-.600212E-01
       N       E                     dE             d eps       ncg     rms          rms(c)
DAV:   1    -0.107170083357E+02   -0.27958E+00   -0.97935E+00 18336   0.702E+00    0.175E+00
DAV:   2    -0.106286658917E+02    0.88342E-01   -0.14382E+00 23520   0.153E+00    0.561E-01
DAV:   3    -0.106098136532E+02    0.18852E-01   -0.16540E-01 22560   0.553E-01    0.328E-01
DAV:   4    -0.106076471540E+02    0.21665E-02   -0.10378E-02 22296   0.205E-01    0.599E-02
DAV:   5    -0.106075990152E+02    0.48139E-04   -0.29407E-04 21648   0.456E-02    0.221E-02
DAV:   6    -0.106075921957E+02    0.68195E-05   -0.51071E-05 20496   0.128E-02    0.529E-03
DAV:   7    -0.106075965291E+02   -0.43334E-05   -0.87000E-06 20280   0.572E-03    0.221E-03
DAV:   8    -0.106076029484E+02   -0.64193E-05   -0.51680E-07 24672   0.119E-03    0.124E-03
DAV:   9    -0.106076165897E+02   -0.13641E-04   -0.37120E-06 19608   0.211E-03    0.594E-04
DAV:  10    -0.106076216442E+02   -0.50545E-05   -0.38822E-07 19728   0.741E-04    0.344E-04
DAV:  11    -0.106076253510E+02   -0.37069E-05   -0.15576E-07 19992   0.376E-04    0.187E-04
DAV:  12    -0.106076268071E+02   -0.14561E-05   -0.67368E-08 19872   0.202E-04    0.681E-05
DAV:  13    -0.106076273157E+02   -0.50861E-06   -0.87667E-09 20424   0.863E-05
   7 F= -.10607627E+02 E0= -.10607068E+02  d E =-.230216E+00
       N       E                     dE             d eps       ncg     rms          rms(c)
DAV:   1    -0.107563669821E+02   -0.14874E+00   -0.43030E+01 19200   0.146E+01    0.408E+00
DAV:   2    -0.102169910697E+02    0.53938E+00   -0.32658E+00 22728   0.271E+00    0.107E+00
DAV:   3    -0.102020111825E+02    0.14980E-01   -0.56424E-02 23112   0.642E-01    0.541E-01
DAV:   4    -0.101966844977E+02    0.53267E-02   -0.20390E-02 23664   0.234E-01    0.585E-02
DAV:   5    -0.101966396975E+02    0.44800E-04   -0.37838E-04 22512   0.447E-02    0.235E-02
DAV:   6    -0.101966464684E+02   -0.67709E-05   -0.63785E-05 21096   0.166E-02    0.681E-03
DAV:   7    -0.101966598787E+02   -0.13410E-04   -0.22326E-05 20640   0.748E-03    0.316E-03
DAV:   8    -0.101966721517E+02   -0.12273E-04   -0.64814E-06 21072   0.367E-03    0.248E-03
DAV:   9    -0.101966924042E+02   -0.20253E-04   -0.15280E-05 23400   0.470E-03    0.292E-03
DAV:  10    -0.101966978886E+02   -0.54844E-05   -0.30115E-06 22200   0.230E-03    0.837E-04
DAV:  11    -0.101967060483E+02   -0.81597E-05   -0.50306E-07 21528   0.921E-04    0.236E-04
DAV:  12    -0.101967076638E+02   -0.16155E-05   -0.11873E-07 21648   0.337E-04    0.190E-04
DAV:  13    -0.101967097669E+02   -0.21030E-05   -0.89664E-08 20232   0.250E-04    0.608E-05
DAV:  14    -0.101967107895E+02   -0.10226E-05   -0.58236E-08 20424   0.164E-04    0.400E-05
DAV:  15    -0.101967110923E+02   -0.30278E-06   -0.93725E-09 20664   0.622E-05
   8 F= -.10196711E+02 E0= -.10195961E+02  d E =0.180700E+00
       N       E                     dE             d eps       ncg     rms          rms(c)
DAV:   1    -0.111115107221E+02   -0.91480E+00   -0.34262E+01 18480   0.142E+01    0.380E+00
DAV:   2    -0.107243140502E+02    0.38720E+00   -0.54263E+00 24432   0.276E+00    0.136E+00
DAV:   3    -0.106449484328E+02    0.79366E-01   -0.79569E-01 25776   0.114E+00    0.834E-01
DAV:   4    -0.106375341252E+02    0.74143E-02   -0.34727E-02 26880   0.393E-01    0.113E-01
DAV:   5    -0.106375012097E+02    0.32916E-04   -0.13857E-03 26784   0.816E-02    0.257E-02
DAV:   6    -0.106375282951E+02   -0.27085E-04   -0.11676E-04 22728   0.210E-02    0.976E-03
DAV:   7    -0.106375465442E+02   -0.18249E-04   -0.91052E-06 23976   0.655E-03    0.167E-03
DAV:   8    -0.106375518520E+02   -0.53078E-05   -0.87836E-07 24048   0.140E-03    0.107E-03
DAV:   9    -0.106375616533E+02   -0.98013E-05   -0.52062E-06 22992   0.231E-03    0.587E-04
DAV:  10    -0.106375627837E+02   -0.11304E-05   -0.43348E-07 22584   0.745E-04    0.321E-04
DAV:  11    -0.106375630258E+02   -0.24210E-06   -0.36873E-08 22152   0.245E-04
   9 F= -.10637563E+02 E0= -.10636870E+02  d E =-.260152E+00
       N       E                     dE             d eps       ncg     rms          rms(c)
DAV:   1    -0.106685481795E+02   -0.30985E-01   -0.13059E+00 18792   0.263E+00    0.734E-01
DAV:   2    -0.106531572238E+02    0.15391E-01   -0.20786E-01 21024   0.589E-01    0.219E-01
DAV:   3    -0.106508515663E+02    0.23057E-02   -0.22528E-02 21192   0.217E-01    0.146E-01
DAV:   4    -0.106504752987E+02    0.37627E-03   -0.18526E-03 21288   0.869E-02    0.151E-02
DAV:   5    -0.106504684717E+02    0.68271E-05   -0.11816E-04 21384   0.228E-02    0.120E-02
DAV:   6    -0.106504669529E+02    0.15188E-05   -0.16314E-05 20496   0.750E-03    0.222E-03
DAV:   7    -0.106504696664E+02   -0.27135E-05   -0.19550E-06 21192   0.312E-03    0.100E-03
DAV:   8    -0.106504714912E+02   -0.18248E-05   -0.85224E-08 20688   0.475E-04    0.574E-04
DAV:   9    -0.106504765699E+02   -0.50786E-05   -0.78515E-07 19968   0.947E-04    0.292E-04
DAV:  10    -0.106504781900E+02   -0.16201E-05   -0.13620E-07 20808   0.364E-04    0.190E-04
DAV:  11    -0.106504793164E+02   -0.11265E-05   -0.35661E-08 20016   0.187E-04    0.945E-05
DAV:  12    -0.106504797498E+02   -0.43338E-06   -0.12818E-08 20280   0.919E-05
  10 F= -.10650480E+02 E0= -.10649522E+02  d E =-.273068E+00
       N       E                     dE             d eps       ncg     rms          rms(c)
DAV:   1    -0.107826267403E+02   -0.13215E+00   -0.16217E+00 21912   0.301E+00    0.118E+00
DAV:   2    -0.107465948823E+02    0.36032E-01   -0.45255E-01 22392   0.801E-01    0.300E-01
DAV:   3    -0.107432914885E+02    0.33034E-02   -0.36697E-02 21672   0.256E-01    0.215E-01
DAV:   4    -0.107428990279E+02    0.39246E-03   -0.20167E-03 20760   0.940E-02    0.131E-02
DAV:   5    -0.107429122526E+02   -0.13225E-04   -0.57422E-05 21144   0.192E-02    0.800E-03
DAV:   6    -0.107429330834E+02   -0.20831E-04   -0.87384E-06 20424   0.583E-03    0.257E-03
DAV:   7    -0.107429406749E+02   -0.75914E-05   -0.74402E-07 21264   0.167E-03    0.982E-04
DAV:   8    -0.107429503218E+02   -0.96470E-05   -0.66054E-07 20712   0.101E-03    0.464E-04
DAV:   9    -0.107429614092E+02   -0.11087E-04   -0.14686E-06 21096   0.108E-03    0.262E-04
DAV:  10    -0.107429640247E+02   -0.26154E-05   -0.20519E-07 21072   0.374E-04    0.113E-04
DAV:  11    -0.107429652459E+02   -0.12212E-05   -0.87916E-08 21648   0.214E-04    0.401E-05
DAV:  12    -0.107429655081E+02   -0.26223E-06   -0.68589E-09 21672   0.576E-05
  11 F= -.10742966E+02 E0= -.10742170E+02  d E =-.924858E-01
       N       E                     dE             d eps       ncg     rms          rms(c)
DAV:   1    -0.112078056555E+02   -0.46484E+00   -0.14463E+01 20832   0.877E+00    0.316E+00
DAV:   2    -0.109074404832E+02    0.30037E+00   -0.15573E+00 22344   0.182E+00    0.997E-01
DAV:   3    -0.109003761881E+02    0.70643E-02   -0.39493E-02 20760   0.461E-01    0.410E-01
DAV:   4    -0.108992985768E+02    0.10776E-02   -0.21383E-02 22464   0.210E-01    0.114E-01
DAV:   5    -0.108992126670E+02    0.85910E-04   -0.80990E-03 25512   0.116E-01    0.797E-02
DAV:   6    -0.108990833176E+02    0.12935E-03   -0.11669E-03 22128   0.497E-02    0.157E-02
DAV:   7    -0.108991635065E+02   -0.80189E-04   -0.12914E-04 21576   0.209E-02    0.116E-02
DAV:   8    -0.108991933809E+02   -0.29874E-04   -0.38249E-05 22944   0.984E-03    0.223E-03
DAV:   9    -0.108992255553E+02   -0.32174E-04   -0.42904E-06 21984   0.382E-03    0.135E-03
DAV:  10    -0.108992475967E+02   -0.22041E-04   -0.24380E-06 22512   0.253E-03    0.577E-04
DAV:  11    -0.108992540058E+02   -0.64091E-05   -0.50231E-07 22584   0.104E-03    0.280E-04
DAV:  12    -0.108992559312E+02   -0.19254E-05   -0.52063E-08 22032   0.369E-04    0.118E-04
DAV:  13    -0.108992567602E+02   -0.82900E-06   -0.94926E-09 20736   0.172E-04
  12 F= -.10899257E+02 E0= -.10898610E+02  d E =-.248777E+00
       N       E                     dE             d eps       ncg     rms          rms(c)
DAV:   1    -0.109747090027E+02   -0.75453E-01   -0.32658E-01 21504   0.133E+00    0.400E-01
DAV:   2    -0.109711570071E+02    0.35520E-02   -0.28673E-02 19824   0.234E-01    0.120E-01
DAV:   3    -0.109710492370E+02    0.10777E-03   -0.14514E-03 20352   0.747E-02    0.765E-02
DAV:   4    -0.109710109500E+02    0.38287E-04   -0.14768E-04 23424   0.265E-02    0.620E-03
DAV:   5    -0.109710279480E+02   -0.16998E-04   -0.41305E-06 20232   0.491E-03    0.416E-03
DAV:   6    -0.109710598725E+02   -0.31924E-04   -0.78244E-06 20976   0.467E-03    0.168E-03
DAV:   7    -0.109710787148E+02   -0.18842E-04   -0.24776E-06 21984   0.262E-03    0.973E-04
DAV:   8    -0.109710931260E+02   -0.14411E-04   -0.32866E-06 22248   0.269E-03    0.452E-04
DAV:   9    -0.109710958597E+02   -0.27337E-05   -0.20951E-07 22296   0.767E-04    0.208E-04
DAV:  10    -0.109710966784E+02   -0.81875E-06   -0.84391E-08 20928   0.419E-04
  13 F= -.10971097E+02 E0= -.10970435E+02  d E =-.718399E-01
       N       E                     dE             d eps       ncg     rms          rms(c)
DAV:   1    -0.111636861893E+02   -0.19259E+00   -0.28262E+00 21360   0.388E+00    0.106E+00
DAV:   2    -0.111372064329E+02    0.26480E-01   -0.15164E-01 20904   0.592E-01    0.384E-01
DAV:   3    -0.111364164962E+02    0.78994E-03   -0.42153E-03 22080   0.178E-01    0.177E-01
DAV:   4    -0.111363447494E+02    0.71747E-04   -0.91023E-04 24960   0.553E-02    0.164E-02
DAV:   5    -0.111363987854E+02   -0.54036E-04   -0.90579E-05 27336   0.176E-02    0.122E-02
DAV:   6    -0.111365380763E+02   -0.13929E-03   -0.83373E-05 24048   0.162E-02    0.802E-03
DAV:   7    -0.111365761079E+02   -0.38032E-04   -0.15669E-05 23904   0.547E-03    0.344E-03
DAV:   8    -0.111366266658E+02   -0.50558E-04   -0.17367E-05 22416   0.673E-03    0.157E-03
DAV:   9    -0.111366353452E+02   -0.86794E-05   -0.14330E-06 22968   0.190E-03    0.123E-03
DAV:  10    -0.111366373922E+02   -0.20470E-05   -0.79820E-07 21072   0.123E-03    0.507E-04
DAV:  11    -0.111366392053E+02   -0.18131E-05   -0.17099E-07 21096   0.619E-04    0.188E-04
DAV:  12    -0.111366396169E+02   -0.41158E-06   -0.86084E-09 21528   0.140E-04
  14 F= -.11136640E+02 E0= -.11136096E+02  d E =-.237383E+00
       N       E                     dE             d eps       ncg     rms          rms(c)
DAV:   1    -0.113572549768E+02   -0.22062E+00   -0.10515E+01 21096   0.740E+00    0.183E+00
DAV:   2    -0.112819158504E+02    0.75339E-01   -0.30290E-01 22368   0.984E-01    0.779E-01
DAV:   3    -0.112764446451E+02    0.54712E-02   -0.31209E-02 24576   0.354E-01    0.267E-01
DAV:   4    -0.112766076669E+02   -0.16302E-03   -0.84301E-03 23592   0.148E-01    0.540E-02
DAV:   5    -0.112765218923E+02    0.85775E-04   -0.20705E-03 28848   0.658E-02    0.402E-02
DAV:   6    -0.112766741492E+02   -0.15226E-03   -0.40053E-04 24648   0.343E-02    0.125E-02
DAV:   7    -0.112768011205E+02   -0.12697E-03   -0.91457E-05 25296   0.174E-02    0.112E-02
DAV:   8    -0.112768905530E+02   -0.89433E-04   -0.54071E-05 22992   0.114E-02    0.272E-03
DAV:   9    -0.112769176189E+02   -0.27066E-04   -0.93956E-06 23304   0.517E-03    0.198E-03
DAV:  10    -0.112769242199E+02   -0.66009E-05   -0.20379E-06 21984   0.214E-03    0.814E-04
DAV:  11    -0.112769289859E+02   -0.47660E-05   -0.53481E-07 21384   0.111E-03    0.396E-04
DAV:  12    -0.112769294421E+02   -0.45627E-06   -0.17380E-08 22080   0.243E-04
  15 F= -.11276929E+02 E0= -.11276406E+02  d E =-.377673E+00
       N       E                     dE             d eps       ncg     rms          rms(c)
DAV:   1    -0.114229408734E+02   -0.14601E+00   -0.76810E-01 17832   0.179E+00    0.638E-01
DAV:   2    -0.114108061813E+02    0.12135E-01   -0.93786E-02 27528   0.397E-01    0.128E-01
DAV:   3    -0.114107409288E+02    0.65253E-04   -0.11262E-03 27384   0.846E-02    0.778E-02
DAV:   4    -0.114107402605E+02    0.66824E-06   -0.21021E-04 25968   0.326E-02    0.662E-03
DAV:   5    -0.114107480134E+02   -0.77529E-05   -0.59590E-06 21528   0.568E-03    0.268E-03
DAV:   6    -0.114107561023E+02   -0.80889E-05   -0.11886E-06 21312   0.227E-03    0.768E-04
DAV:   7    -0.114107611603E+02   -0.50580E-05   -0.11748E-07 23712   0.650E-04    0.459E-04
DAV:   8    -0.114107661857E+02   -0.50254E-05   -0.20901E-07 21600   0.609E-04    0.284E-04
DAV:   9    -0.114107697540E+02   -0.35683E-05   -0.24039E-07 21024   0.579E-04    0.996E-05
DAV:  10    -0.114107701907E+02   -0.43668E-06   -0.32170E-09 23496   0.102E-04
  16 F= -.11410770E+02 E0= -.11410130E+02  d E =-.133841E+00
       N       E                     dE             d eps       ncg     rms          rms(c)
DAV:   1    -0.116600960110E+02   -0.24933E+00   -0.71222E+00 17640   0.521E+00    0.191E+00
DAV:   2    -0.115402135958E+02    0.11988E+00   -0.13564E+00 24840   0.120E+00    0.400E-01
DAV:   3    -0.115349051826E+02    0.53084E-02   -0.46147E-02 26112   0.340E-01    0.243E-01
DAV:   4    -0.115348647069E+02    0.40476E-04   -0.27284E-03 28536   0.129E-01    0.389E-02
DAV:   5    -0.115348572671E+02    0.74398E-05   -0.36311E-04 19656   0.240E-02    0.913E-03
DAV:   6    -0.115348809167E+02   -0.23650E-04   -0.18587E-05 21648   0.103E-02    0.400E-03
DAV:   7    -0.115349077553E+02   -0.26839E-04   -0.69857E-06 21144   0.372E-03    0.208E-03
DAV:   8    -0.115349208617E+02   -0.13106E-04   -0.23322E-06 21792   0.212E-03    0.966E-04
DAV:   9    -0.115349414586E+02   -0.20597E-04   -0.24886E-06 20592   0.198E-03    0.435E-04
DAV:  10    -0.115349441045E+02   -0.26459E-05   -0.76804E-08 21720   0.547E-04    0.185E-04
DAV:  11    -0.115349464205E+02   -0.23160E-05   -0.22238E-08 22320   0.275E-04    0.936E-05
DAV:  12    -0.115349472842E+02   -0.86369E-06   -0.57134E-09 20736   0.114E-04
  17 F= -.11534947E+02 E0= -.11534153E+02  d E =-.258018E+00
       N       E                     dE             d eps       ncg     rms          rms(c)
DAV:   1    -0.115390574740E+02   -0.41111E-02   -0.85127E-02 18408   0.576E-01    0.197E-01
DAV:   2    -0.115376657727E+02    0.13917E-02   -0.12377E-02 21480   0.137E-01    0.391E-02
DAV:   3    -0.115376586227E+02    0.71500E-05   -0.31404E-04 20688   0.348E-02    0.241E-02
DAV:   4    -0.115376700453E+02   -0.11423E-04   -0.33498E-05 21600   0.130E-02    0.311E-03
DAV:   5    -0.115376720269E+02   -0.19816E-05   -0.72220E-07 25680   0.198E-03    0.130E-03
DAV:   6    -0.115376751589E+02   -0.31320E-05   -0.34300E-07 21480   0.105E-03    0.307E-04
DAV:   7    -0.115376767751E+02   -0.16162E-05   -0.45739E-08 22440   0.361E-04    0.182E-04
DAV:   8    -0.115376782873E+02   -0.15122E-05   -0.56051E-08 21480   0.318E-04    0.922E-05
DAV:   9    -0.115376795210E+02   -0.12337E-05   -0.60558E-08 21552   0.301E-04    0.421E-05
DAV:  10    -0.115376798190E+02   -0.29805E-06   -0.88657E-09 21912   0.116E-04
  18 F= -.11537680E+02 E0= -.11536873E+02  d E =-.260750E+00
       N       E                     dE             d eps       ncg     rms          rms(c)
DAV:   1    -0.115765377031E+02   -0.38858E-01   -0.17273E-01 19944   0.909E-01    0.293E-01
DAV:   2    -0.115732703326E+02    0.32674E-02   -0.28762E-02 23952   0.207E-01    0.411E-02
DAV:   3    -0.115732428859E+02    0.27447E-04   -0.37245E-04 23952   0.458E-02    0.272E-02
DAV:   4    -0.115732362800E+02    0.66060E-05   -0.45304E-05 22536   0.138E-02    0.402E-03
DAV:   5    -0.115732417800E+02   -0.55001E-05   -0.12743E-06 22032   0.319E-03    0.190E-03
DAV:   6    -0.115732484371E+02   -0.66571E-05   -0.48417E-07 20904   0.117E-03    0.737E-04
DAV:   7    -0.115732555670E+02   -0.71299E-05   -0.50381E-07 21216   0.924E-04    0.407E-04
DAV:   8    -0.115732602751E+02   -0.47081E-05   -0.35327E-07 20712   0.743E-04    0.232E-04
DAV:   9    -0.115732629407E+02   -0.26656E-05   -0.10097E-07 21144   0.388E-04    0.848E-05
DAV:  10    -0.115732640631E+02   -0.11225E-05   -0.99890E-09 22248   0.143E-04    0.430E-05
DAV:  11    -0.115732642982E+02   -0.23509E-06   -0.36206E-09 20376   0.714E-05
  19 F= -.11573264E+02 E0= -.11572479E+02  d E =-.355845E-01
       N       E                     dE             d eps       ncg     rms          rms(c)
DAV:   1    -0.117015338513E+02   -0.12827E+00   -0.16316E+00 20112   0.277E+00    0.946E-01
DAV:   2    -0.116699190152E+02    0.31615E-01   -0.34865E-01 24096   0.650E-01    0.145E-01
DAV:   3    -0.116688264307E+02    0.10926E-02   -0.92987E-03 24360   0.167E-01    0.887E-02
DAV:   4    -0.116687467457E+02    0.79685E-04   -0.66993E-04 24120   0.601E-02    0.164E-02
DAV:   5    -0.116687581519E+02   -0.11406E-04   -0.81653E-05 23160   0.143E-02    0.730E-03
DAV:   6    -0.116687879739E+02   -0.29822E-04   -0.51424E-06 20952   0.532E-03    0.258E-03
DAV:   7    -0.116688108615E+02   -0.22888E-04   -0.21826E-06 21624   0.218E-03    0.152E-03
DAV:   8    -0.116688373230E+02   -0.26461E-04   -0.51479E-06 20664   0.288E-03    0.778E-04
DAV:   9    -0.116688504072E+02   -0.13084E-04   -0.68441E-07 21024   0.132E-03    0.414E-04
DAV:  10    -0.116688528766E+02   -0.24694E-05   -0.64108E-08 23016   0.429E-04    0.182E-04
DAV:  11    -0.116688565062E+02   -0.36296E-05   -0.52385E-08 21096   0.331E-04    0.872E-05
DAV:  12    -0.116688570473E+02   -0.54109E-06   -0.60343E-09 24336   0.106E-04
  20 F= -.11668857E+02 E0= -.11668134E+02  d E =-.131177E+00
       N       E                     dE             d eps       ncg     rms          rms(c)
DAV:   1    -0.119341696931E+02   -0.26531E+00   -0.68946E+00 21480   0.573E+00    0.188E+00
DAV:   2    -0.117952700134E+02    0.13890E+00   -0.13843E+00 24408   0.131E+00    0.301E-01
DAV:   3    -0.117917625204E+02    0.35075E-02   -0.35184E-02 23832   0.325E-01    0.200E-01
DAV:   4    -0.117913705283E+02    0.39199E-03   -0.30999E-03 26136   0.116E-01    0.290E-02
DAV:   5    -0.117913861838E+02   -0.15655E-04   -0.13310E-04 21840   0.214E-02    0.125E-02
DAV:   6    -0.117914169581E+02   -0.30774E-04   -0.34183E-05 21408   0.101E-02    0.502E-03
DAV:   7    -0.117914947609E+02   -0.77803E-04   -0.28559E-05 20832   0.752E-03    0.262E-03
DAV:   8    -0.117915276075E+02   -0.32847E-04   -0.23433E-06 20016   0.285E-03    0.159E-03
DAV:   9    -0.117915670219E+02   -0.39414E-04   -0.19561E-06 20904   0.239E-03    0.583E-04
DAV:  10    -0.117915744191E+02   -0.73972E-05   -0.54604E-08 24264   0.488E-04    0.371E-04
DAV:  11    -0.117915836616E+02   -0.92426E-05   -0.20143E-07 21504   0.585E-04    0.141E-04
DAV:  12    -0.117915859403E+02   -0.22787E-05   -0.39239E-08 21648   0.255E-04    0.489E-05
DAV:  13    -0.117915864394E+02   -0.49912E-06   -0.62673E-09 21408   0.943E-05
  21 F= -.11791586E+02 E0= -.11790829E+02  d E =-.253907E+00
       N       E                     dE             d eps       ncg     rms          rms(c)
DAV:   1    -0.121621769886E+02   -0.37059E+00   -0.30357E+01 21288   0.123E+01    0.369E+00
DAV:   2    -0.115587764854E+02    0.60340E+00   -0.56098E+00 23232   0.278E+00    0.666E-01
DAV:   3    -0.115491467310E+02    0.96298E-02   -0.10839E-01 22392   0.658E-01    0.432E-01
DAV:   4    -0.115485223571E+02    0.62437E-03   -0.10409E-02 28296   0.239E-01    0.599E-02
DAV:   5    -0.115484794505E+02    0.42907E-04   -0.14586E-04 22992   0.327E-02    0.264E-02
DAV:   6    -0.115485009045E+02   -0.21454E-04   -0.74774E-05 22608   0.160E-02    0.110E-02
DAV:   7    -0.115486942203E+02   -0.19332E-03   -0.11599E-04 20304   0.156E-02    0.454E-03
DAV:   8    -0.115487758652E+02   -0.81645E-04   -0.51224E-06 20568   0.477E-03    0.311E-03
DAV:   9    -0.115488759634E+02   -0.10010E-03   -0.40342E-06 20808   0.321E-03    0.120E-03
DAV:  10    -0.115489135645E+02   -0.37601E-04   -0.52887E-07 21984   0.107E-03    0.472E-04
DAV:  11    -0.115489213383E+02   -0.77738E-05   -0.31410E-07 20952   0.702E-04    0.297E-04
DAV:  12    -0.115489280548E+02   -0.67165E-05   -0.19012E-07 20640   0.555E-04    0.102E-04
DAV:  13    -0.115489293204E+02   -0.12656E-05   -0.27841E-08 21120   0.198E-04    0.627E-05
DAV:  14    -0.115489298407E+02   -0.52035E-06   -0.47938E-09 19704   0.939E-05
  22 F= -.11548930E+02 E0= -.11548128E+02  d E =-.112500E-01
       N       E                     dE             d eps       ncg     rms          rms(c)
DAV:   1    -0.121985274295E+02   -0.64960E+00   -0.19140E+01 21552   0.923E+00    0.302E+00
DAV:   2    -0.118029251591E+02    0.39560E+00   -0.34513E+00 23136   0.239E+00    0.406E-01
DAV:   3    -0.118006663737E+02    0.22588E-02   -0.56633E-02 21120   0.506E-01    0.276E-01
DAV:   4    -0.118009039878E+02   -0.23761E-03   -0.35780E-03 27288   0.153E-01    0.385E-02
DAV:   5    -0.118011283447E+02   -0.22436E-03   -0.40033E-04 24768   0.298E-02    0.151E-02
DAV:   6    -0.118014187504E+02   -0.29041E-03   -0.13242E-04 24936   0.206E-02    0.751E-03
DAV:   7    -0.118016271630E+02   -0.20841E-03   -0.69711E-05 23808   0.141E-02    0.489E-03
DAV:   8    -0.118016902613E+02   -0.63098E-04   -0.20374E-05 23256   0.617E-03    0.201E-03
DAV:   9    -0.118017154163E+02   -0.25155E-04   -0.22805E-06 22824   0.249E-03    0.902E-04
DAV:  10    -0.118017238138E+02   -0.83975E-05   -0.40404E-07 21504   0.105E-03    0.870E-04
DAV:  11    -0.118017278823E+02   -0.40686E-05   -0.48688E-07 21312   0.863E-04    0.296E-04
DAV:  12    -0.118017297318E+02   -0.18495E-05   -0.61396E-08 22080   0.341E-04    0.994E-05
DAV:  13    -0.118017301228E+02   -0.39098E-06   -0.48537E-09 22440   0.102E-04
  23 F= -.11801730E+02 E0= -.11800962E+02  d E =-.264050E+00
       N       E                     dE             d eps       ncg     rms          rms(c)
DAV:   1    -0.118797938369E+02   -0.78064E-01   -0.24694E+00 18240   0.387E+00    0.525E-01
DAV:   2    -0.118741205691E+02    0.56733E-02   -0.51040E-02 21912   0.434E-01    0.246E-01
DAV:   3    -0.118733080982E+02    0.81247E-03   -0.32235E-03 20616   0.107E-01    0.118E-01
DAV:   4    -0.118731574204E+02    0.15068E-03   -0.87502E-04 21768   0.491E-02    0.140E-02
DAV:   5    -0.118731542286E+02    0.31919E-05   -0.32139E-05 24096   0.127E-02    0.388E-03
DAV:   6    -0.118731548780E+02   -0.64938E-06   -0.96658E-07 23808   0.253E-03
  24 F= -.11873155E+02 E0= -.11872417E+02  d E =-.714248E-01
       N       E                     dE             d eps       ncg     rms          rms(c)
DAV:   1    -0.118914852234E+02   -0.18331E-01   -0.20732E+00 18288   0.360E+00    0.452E-01
DAV:   2    -0.118882757746E+02    0.32094E-02   -0.26782E-02 23496   0.366E-01    0.229E-01
DAV:   3    -0.118875713603E+02    0.70441E-03   -0.21033E-03 20208   0.887E-02    0.854E-02
DAV:   4    -0.118875078211E+02    0.63539E-04   -0.38261E-04 21840   0.333E-02    0.112E-02
DAV:   5    -0.118875078493E+02   -0.28239E-07   -0.18708E-05 22224   0.979E-03    0.215E-03
DAV:   6    -0.118875087441E+02   -0.89481E-06   -0.30003E-07 24072   0.156E-03
  25 F= -.11887509E+02 E0= -.11886943E+02  d E =-.857786E-01
       N       E                     dE             d eps       ncg     rms          rms(c)
DAV:   1    -0.119091655861E+02   -0.21658E-01   -0.21084E-01 18336   0.120E+00    0.115E-01
DAV:   2    -0.119091023143E+02    0.63272E-04   -0.10613E-03 31080   0.102E-01    0.690E-02
DAV:   3    -0.119090537734E+02    0.48541E-04   -0.19836E-04 21264   0.224E-02    0.591E-03
DAV:   4    -0.119090548520E+02   -0.10786E-05   -0.29963E-06 22656   0.507E-03    0.283E-03
DAV:   5    -0.119090560988E+02   -0.12468E-05   -0.97010E-07 22776   0.181E-03    0.443E-04
DAV:   6    -0.119090567306E+02   -0.63186E-06   -0.25222E-08 23952   0.379E-04
  26 F= -.11909057E+02 E0= -.11908597E+02  d E =-.215480E-01
       N       E                     dE             d eps       ncg     rms          rms(c)
DAV:   1    -0.119802632975E+02   -0.71207E-01   -0.19066E+00 18696   0.363E+00    0.340E-01
DAV:   2    -0.119795370400E+02    0.72626E-03   -0.99218E-03 29976   0.300E-01    0.201E-01
DAV:   3    -0.119790914305E+02    0.44561E-03   -0.16596E-03 23136   0.646E-02    0.264E-02
DAV:   4    -0.119790966121E+02   -0.51815E-05   -0.42839E-05 23208   0.151E-02    0.750E-03
DAV:   5    -0.119791011750E+02   -0.45629E-05   -0.51621E-06 22440   0.506E-03    0.152E-03
DAV:   6    -0.119791034939E+02   -0.23189E-05   -0.22259E-07 23952   0.110E-03    0.690E-04
DAV:   7    -0.119791064872E+02   -0.29933E-05   -0.11271E-07 22488   0.543E-04    0.222E-04
DAV:   8    -0.119791081546E+02   -0.16674E-05   -0.36292E-08 24000   0.238E-04    0.163E-04
DAV:   9    -0.119791100209E+02   -0.18663E-05   -0.12765E-07 20472   0.412E-04    0.604E-05
DAV:  10    -0.119791103001E+02   -0.27919E-06   -0.31391E-09 21960   0.752E-05
  27 F= -.11979110E+02 E0= -.11978839E+02  d E =-.916016E-01
       N       E                     dE             d eps       ncg     rms          rms(c)
DAV:   1    -0.121358882681E+02   -0.15678E+00   -0.76867E+00 18432   0.735E+00    0.690E-01
DAV:   2    -0.121321118438E+02    0.37764E-02   -0.42815E-02 26280   0.603E-01    0.404E-01
DAV:   3    -0.121303082798E+02    0.18036E-02   -0.72868E-03 26160   0.137E-01    0.697E-02
DAV:   4    -0.121302971090E+02    0.11171E-04   -0.31341E-04 22776   0.371E-02    0.142E-02
DAV:   5    -0.121303112919E+02   -0.14183E-04   -0.15902E-05 22416   0.112E-02    0.450E-03
DAV:   6    -0.121303204606E+02   -0.91686E-05   -0.20919E-06 21936   0.276E-03    0.144E-03
DAV:   7    -0.121303288451E+02   -0.83845E-05   -0.31638E-07 21912   0.123E-03    0.694E-04
DAV:   8    -0.121303374157E+02   -0.85705E-05   -0.44258E-07 21648   0.906E-04    0.467E-04
DAV:   9    -0.121303432205E+02   -0.58049E-05   -0.35160E-07 20928   0.737E-04    0.136E-04
DAV:  10    -0.121303442598E+02   -0.10393E-05   -0.32921E-08 21624   0.236E-04    0.908E-05
DAV:  11    -0.121303452139E+02   -0.95409E-06   -0.52655E-09 21960   0.108E-04
  28 F= -.12130345E+02 E0= -.12130005E+02  d E =-.242836E+00
       N       E                     dE             d eps       ncg     rms          rms(c)
DAV:   1    -0.125373149419E+02   -0.40697E+00   -0.30875E+01 18648   0.149E+01    0.148E+00
DAV:   2    -0.125094235817E+02    0.27891E-01   -0.21232E-01 25176   0.126E+00    0.842E-01
DAV:   3    -0.125002443287E+02    0.91793E-02   -0.50761E-02 28440   0.371E-01    0.178E-01
DAV:   4    -0.124999765375E+02    0.26779E-03   -0.24592E-03 21408   0.121E-01    0.352E-02
DAV:   5    -0.125000172449E+02   -0.40707E-04   -0.15479E-04 22680   0.340E-02    0.125E-02
DAV:   6    -0.125000459833E+02   -0.28738E-04   -0.22139E-05 21048   0.892E-03    0.443E-03
DAV:   7    -0.125000763192E+02   -0.30336E-04   -0.20198E-06 21168   0.346E-03    0.253E-03
DAV:   8    -0.125001250676E+02   -0.48748E-04   -0.96491E-06 20688   0.441E-03    0.133E-03
DAV:   9    -0.125001404702E+02   -0.15403E-04   -0.49322E-07 20496   0.146E-03    0.680E-04
DAV:  10    -0.125001498895E+02   -0.94192E-05   -0.27071E-07 21288   0.829E-04    0.302E-04
DAV:  11    -0.125001569436E+02   -0.70541E-05   -0.65022E-08 21168   0.392E-04    0.114E-04
DAV:  12    -0.125001577279E+02   -0.78432E-06   -0.95816E-09 21984   0.138E-04
  29 F= -.12500158E+02 E0= -.12499930E+02  d E =-.612649E+00
       N       E                     dE             d eps       ncg     rms          rms(c)
DAV:   1    -0.130346625253E+02   -0.53451E+00   -0.11430E+02 18744   0.283E+01    0.310E+00
DAV:   2    -0.128965361674E+02    0.13813E+00   -0.10038E+00 23784   0.271E+00    0.179E+00
DAV:   3    -0.128528022926E+02    0.43734E-01   -0.28620E-01 29328   0.906E-01    0.311E-01
DAV:   4    -0.128514599053E+02    0.13424E-02   -0.11205E-02 21600   0.261E-01    0.825E-02
DAV:   5    -0.128514959095E+02   -0.36004E-04   -0.10537E-03 24624   0.780E-02    0.278E-02
DAV:   6    -0.128515227811E+02   -0.26872E-04   -0.11981E-04 22224   0.241E-02    0.938E-03
DAV:   7    -0.128515657708E+02   -0.42990E-04   -0.88711E-06 21456   0.750E-03    0.566E-03
DAV:   8    -0.128517055031E+02   -0.13973E-03   -0.47217E-05 21240   0.988E-03    0.264E-03
DAV:   9    -0.128517351657E+02   -0.29663E-04   -0.16256E-06 20520   0.254E-03    0.152E-03
DAV:  10    -0.128517709842E+02   -0.35818E-04   -0.54173E-07 20832   0.161E-03    0.749E-04
DAV:  11    -0.128517900561E+02   -0.19072E-04   -0.25237E-07 22200   0.738E-04    0.333E-04
DAV:  12    -0.128517915624E+02   -0.15063E-05   -0.95407E-08 21936   0.325E-04    0.182E-04
DAV:  13    -0.128517942090E+02   -0.26466E-05   -0.49732E-08 21408   0.263E-04    0.718E-05
DAV:  14    -0.128517950893E+02   -0.88032E-06   -0.28210E-08 22248   0.158E-04
  30 F= -.12851795E+02 E0= -.12851616E+02  d E =-.964286E+00
       N       E                     dE             d eps       ncg     rms          rms(c)
DAV:   1    -0.128904861150E+02   -0.38692E-01   -0.15045E+01 18840   0.105E+01    0.117E+00
DAV:   2    -0.128676446863E+02    0.22841E-01   -0.12621E-01 24288   0.916E-01    0.639E-01
DAV:   3    -0.128627123440E+02    0.49323E-02   -0.38200E-02 29832   0.340E-01    0.108E-01
DAV:   4    -0.128625821487E+02    0.13020E-03   -0.28849E-03 22800   0.123E-01    0.287E-02
DAV:   5    -0.128626635145E+02   -0.81366E-04   -0.10983E-04 23832   0.310E-02    0.636E-03
DAV:   6    -0.128627113980E+02   -0.47884E-04   -0.85175E-06 22800   0.625E-03    0.255E-03
DAV:   7    -0.128627438832E+02   -0.32485E-04   -0.24960E-06 22944   0.280E-03    0.153E-03
DAV:   8    -0.128627905281E+02   -0.46645E-04   -0.11879E-05 22296   0.460E-03    0.859E-04
DAV:   9    -0.128627951094E+02   -0.45813E-05   -0.22934E-07 23256   0.768E-04    0.367E-04
DAV:  10    -0.128627975003E+02   -0.23909E-05   -0.74977E-08 22968   0.413E-04    0.214E-04
DAV:  11    -0.128627989686E+02   -0.14683E-05   -0.30806E-08 22464   0.259E-04    0.821E-05
DAV:  12    -0.128627991594E+02   -0.19074E-06   -0.29172E-09 21648   0.653E-05
  31 F= -.12862799E+02 E0= -.12862533E+02  d E =-.975290E+00
       N       E                     dE             d eps       ncg     rms          rms(c)
DAV:   1    -0.128935377082E+02   -0.30739E-01   -0.33970E+00 18576   0.501E+00    0.558E-01
DAV:   2    -0.128888696405E+02    0.46681E-02   -0.30252E-02 29376   0.473E-01    0.310E-01
DAV:   3    -0.128876529645E+02    0.12167E-02   -0.88900E-03 27864   0.159E-01    0.527E-02
DAV:   4    -0.128876012592E+02    0.51705E-04   -0.59429E-04 22224   0.570E-02    0.102E-02
DAV:   5    -0.128876122277E+02   -0.10969E-04   -0.22012E-05 23064   0.139E-02    0.359E-03
DAV:   6    -0.128876207034E+02   -0.84757E-05   -0.16540E-06 21792   0.257E-03    0.167E-03
DAV:   7    -0.128876301338E+02   -0.94304E-05   -0.37423E-07 22056   0.120E-03    0.795E-04
DAV:   8    -0.128876439228E+02   -0.13789E-04   -0.20131E-06 20952   0.175E-03    0.384E-04
DAV:   9    -0.128876455542E+02   -0.16314E-05   -0.25872E-08 23400   0.278E-04    0.225E-04
DAV:  10    -0.128876478642E+02   -0.23100E-05   -0.50805E-08 21840   0.316E-04    0.101E-04
DAV:  11    -0.128876489229E+02   -0.10587E-05   -0.62840E-09 22848   0.110E-04    0.538E-05
DAV:  12    -0.128876492085E+02   -0.28561E-06   -0.42737E-09 20520   0.694E-05
  32 F= -.12887649E+02 E0= -.12887493E+02  d E =-.100014E+01
       N       E                     dE             d eps       ncg     rms          rms(c)
DAV:   1    -0.129634607010E+02   -0.75812E-01   -0.15320E+00 18528   0.332E+00    0.395E-01
DAV:   2    -0.129613957573E+02    0.20649E-02   -0.14891E-02 26136   0.340E-01    0.221E-01
DAV:   3    -0.129609143036E+02    0.48145E-03   -0.37072E-03 24696   0.110E-01    0.362E-02
DAV:   4    -0.129608788820E+02    0.35422E-04   -0.34693E-04 29400   0.432E-02    0.801E-03
DAV:   5    -0.129608795050E+02   -0.62299E-06   -0.10643E-05 27408   0.831E-03    0.241E-03
DAV:   6    -0.129608798475E+02   -0.34248E-06   -0.52996E-07 23712   0.180E-03
  33 F= -.12960880E+02 E0= -.12960768E+02  d E =-.732306E-01
       N       E                     dE             d eps       ncg     rms          rms(c)
DAV:   1    -0.129864329930E+02   -0.25553E-01   -0.14130E+00 18144   0.319E+00    0.370E-01
DAV:   2    -0.129846450236E+02    0.17880E-02   -0.12806E-02 30048   0.322E-01    0.208E-01
DAV:   3    -0.129842084178E+02    0.43661E-03   -0.32115E-03 23976   0.102E-01    0.330E-02
DAV:   4    -0.129841739592E+02    0.34459E-04   -0.31508E-04 28560   0.405E-02    0.673E-03
DAV:   5    -0.129841740135E+02   -0.54274E-07   -0.88252E-06 26544   0.765E-03
  34 F= -.12984174E+02 E0= -.12983989E+02  d E =-.965248E-01
       N       E                     dE             d eps       ncg     rms          rms(c)
DAV:   1    -0.130333364243E+02   -0.49162E-01   -0.11330E-01 22848   0.917E-01    0.874E-02
DAV:   2    -0.130332129815E+02    0.12344E-03   -0.56339E-04 23856   0.697E-02    0.506E-02
DAV:   3    -0.130331399369E+02    0.73045E-04   -0.25356E-04 20688   0.267E-02    0.528E-03
DAV:   4    -0.130331445859E+02   -0.46490E-05   -0.96354E-06 21576   0.727E-03    0.214E-03
DAV:   5    -0.130331485460E+02   -0.39602E-05   -0.53187E-07 23184   0.167E-03    0.103E-03
DAV:   6    -0.130331527215E+02   -0.41754E-05   -0.52602E-07 22416   0.105E-03    0.543E-04
DAV:   7    -0.130331562156E+02   -0.34941E-05   -0.33617E-07 22032   0.784E-04    0.354E-04
DAV:   8    -0.130331599070E+02   -0.36913E-05   -0.85570E-07 21480   0.111E-03    0.157E-04
DAV:   9    -0.130331606201E+02   -0.71311E-06   -0.65551E-08 22272   0.314E-04
  35 F= -.13033161E+02 E0= -.13032987E+02  d E =-.489866E-01
       N       E                     dE             d eps       ncg     rms          rms(c)
DAV:   1    -0.131569001067E+02   -0.12374E+00   -0.10137E+00 22344   0.274E+00    0.260E-01
DAV:   2    -0.131558043490E+02    0.10958E-02   -0.51133E-03 21336   0.202E-01    0.150E-01
DAV:   3    -0.131552142222E+02    0.59013E-03   -0.22947E-03 27048   0.793E-02    0.166E-02
DAV:   4    -0.131552489398E+02   -0.34718E-04   -0.83849E-05 22296   0.209E-02    0.632E-03
DAV:   5    -0.131552728789E+02   -0.23939E-04   -0.48562E-06 24000   0.550E-03    0.317E-03
DAV:   6    -0.131552997958E+02   -0.26917E-04   -0.46227E-06 23136   0.335E-03    0.147E-03
DAV:   7    -0.131553149822E+02   -0.15186E-04   -0.15158E-06 23448   0.187E-03    0.101E-03
DAV:   8    -0.131553341379E+02   -0.19156E-04   -0.56072E-06 22152   0.303E-03    0.426E-04
DAV:   9    -0.131553371004E+02   -0.29625E-05   -0.22796E-07 22728   0.680E-04    0.187E-04
DAV:  10    -0.131553381479E+02   -0.10475E-05   -0.74249E-08 22248   0.323E-04    0.129E-04
DAV:  11    -0.131553386192E+02   -0.47130E-06   -0.26469E-08 21096   0.192E-04
  36 F= -.13155339E+02 E0= -.13155112E+02  d E =-.171165E+00
       N       E                     dE             d eps       ncg     rms          rms(c)
DAV:   1    -0.132987408533E+02   -0.14340E+00   -0.39948E+00 21624   0.540E+00    0.499E-01
DAV:   2    -0.132945179697E+02    0.42229E-02   -0.20277E-02 22248   0.395E-01    0.284E-01
DAV:   3    -0.132923507713E+02    0.21672E-02   -0.87533E-03 28536   0.150E-01    0.360E-02
DAV:   4    -0.132924459885E+02   -0.95217E-04   -0.34218E-04 23592   0.413E-02    0.123E-02
DAV:   5    -0.132925052763E+02   -0.59288E-04   -0.19551E-05 24288   0.115E-02    0.649E-03
DAV:   6    -0.132925767804E+02   -0.71504E-04   -0.18058E-05 23664   0.708E-03    0.287E-03
DAV:   7    -0.132926126488E+02   -0.35868E-04   -0.48007E-06 23712   0.366E-03    0.198E-03
DAV:   8    -0.132926568379E+02   -0.44189E-04   -0.16947E-05 22152   0.558E-03    0.847E-04
DAV:   9    -0.132926633455E+02   -0.65076E-05   -0.56069E-07 23184   0.119E-03    0.358E-04
DAV:  10    -0.132926655900E+02   -0.22445E-05   -0.17779E-07 22224   0.535E-04    0.259E-04
DAV:  11    -0.132926667930E+02   -0.12030E-05   -0.66425E-08 21240   0.324E-04    0.848E-05
DAV:  12    -0.132926670923E+02   -0.29933E-06   -0.57221E-09 21864   0.896E-05
  37 F= -.13292667E+02 E0= -.13292348E+02  d E =-.308493E+00
       N       E                     dE             d eps       ncg     rms          rms(c)
DAV:   1    -0.131963938359E+02    0.96273E-01   -0.15374E+01 21480   0.104E+01    0.915E-01
DAV:   2    -0.131801852593E+02    0.16209E-01   -0.82930E-02 22608   0.734E-01    0.508E-01
DAV:   3    -0.131732088569E+02    0.69764E-02   -0.29951E-02 29424   0.264E-01    0.878E-02
DAV:   4    -0.131733520801E+02   -0.14322E-03   -0.15704E-03 24720   0.843E-02    0.224E-02
DAV:   5    -0.131734546497E+02   -0.10257E-03   -0.90194E-05 26472   0.243E-02    0.131E-02
DAV:   6    -0.131736307924E+02   -0.17614E-03   -0.65824E-05 24384   0.147E-02    0.524E-03
DAV:   7    -0.131736998687E+02   -0.69076E-04   -0.12390E-05 24288   0.648E-03    0.372E-03
DAV:   8    -0.131737942225E+02   -0.94354E-04   -0.48593E-05 22512   0.975E-03    0.159E-03
DAV:   9    -0.131738072988E+02   -0.13076E-04   -0.11014E-06 22656   0.194E-03    0.615E-04
DAV:  10    -0.131738117404E+02   -0.44416E-05   -0.43799E-07 22008   0.879E-04    0.523E-04
DAV:  11    -0.131738147141E+02   -0.29737E-05   -0.15748E-07 21096   0.537E-04    0.167E-04
DAV:  12    -0.131738153480E+02   -0.63390E-06   -0.11760E-08 21792   0.144E-04
  38 F= -.13173815E+02 E0= -.13173617E+02  d E =-.189641E+00
       N       E                     dE             d eps       ncg     rms          rms(c)
DAV:   1    -0.133176337010E+02   -0.14382E+00   -0.81719E+00 21456   0.765E+00    0.678E-01
DAV:   2    -0.133115364686E+02    0.60972E-02   -0.44664E-02 27144   0.626E-01    0.396E-01
DAV:   3    -0.133076048322E+02    0.39316E-02   -0.15588E-02 29640   0.194E-01    0.500E-02
DAV:   4    -0.133075363267E+02    0.68505E-04   -0.34847E-04 22896   0.453E-02    0.199E-02
DAV:   5    -0.133075272448E+02    0.90819E-05   -0.39865E-05 24120   0.154E-02    0.863E-03
DAV:   6    -0.133075420420E+02   -0.14797E-04   -0.23302E-05 23640   0.721E-03    0.438E-03
DAV:   7    -0.133075698092E+02   -0.27767E-04   -0.53923E-06 21648   0.379E-03    0.273E-03
DAV:   8    -0.133076182834E+02   -0.48474E-04   -0.13074E-05 21384   0.495E-03    0.124E-03
DAV:   9    -0.133076420308E+02   -0.23747E-04   -0.96335E-07 21216   0.174E-03    0.476E-04
DAV:  10    -0.133076507566E+02   -0.87257E-05   -0.85540E-08 21528   0.613E-04    0.353E-04
DAV:  11    -0.133076572929E+02   -0.65363E-05   -0.17584E-07 21336   0.515E-04    0.112E-04
DAV:  12    -0.133076593492E+02   -0.20564E-05   -0.50906E-08 21480   0.257E-04    0.599E-05
DAV:  13    -0.133076600440E+02   -0.69478E-06   -0.16276E-08 22008   0.137E-04
  39 F= -.13307660E+02 E0= -.13307460E+02  d E =-.323486E+00
       N       E                     dE             d eps       ncg     rms          rms(c)
DAV:   1    -0.133288042227E+02   -0.21145E-01   -0.84781E-02 22800   0.704E-01    0.892E-02
DAV:   2    -0.133287759421E+02    0.28281E-04   -0.57312E-04 23232   0.758E-02    0.536E-02
DAV:   3    -0.133287404624E+02    0.35480E-04   -0.85944E-05 24960   0.176E-02    0.303E-03
DAV:   4    -0.133287400882E+02    0.37424E-06   -0.35636E-06 21408   0.446E-03
  40 F= -.13328740E+02 E0= -.13328527E+02  d E =-.210800E-01
       N       E                     dE             d eps       ncg     rms          rms(c)
DAV:   1    -0.133803870573E+02   -0.51647E-01   -0.76418E-01 21264   0.211E+00    0.273E-01
DAV:   2    -0.133800134269E+02    0.37363E-03   -0.44457E-03 22872   0.211E-01    0.163E-01
DAV:   3    -0.133797070500E+02    0.30638E-03   -0.86584E-04 27408   0.553E-02    0.109E-02
DAV:   4    -0.133797003960E+02    0.66540E-05   -0.44301E-05 21864   0.151E-02    0.488E-03
DAV:   5    -0.133796992827E+02    0.11132E-05   -0.79909E-06 22848   0.538E-03    0.185E-03
DAV:   6    -0.133796995104E+02   -0.22767E-06   -0.66876E-07 22584   0.207E-03
  41 F= -.13379700E+02 E0= -.13379498E+02  d E =-.720395E-01
       N       E                     dE             d eps       ncg     rms          rms(c)
DAV:   1    -0.134280720659E+02   -0.48373E-01   -0.30557E+00 21144   0.422E+00    0.559E-01
DAV:   2    -0.134263630928E+02    0.17090E-02   -0.18967E-02 23784   0.430E-01    0.332E-01
DAV:   3    -0.134251464182E+02    0.12167E-02   -0.37868E-03 28008   0.114E-01    0.265E-02
DAV:   4    -0.134250995452E+02    0.46873E-04   -0.26609E-04 22104   0.357E-02    0.105E-02
DAV:   5    -0.134250932341E+02    0.63112E-05   -0.38883E-05 22008   0.124E-02    0.378E-03
DAV:   6    -0.134250943152E+02   -0.10812E-05   -0.35048E-06 21240   0.472E-03    0.100E-03
DAV:   7    -0.134250962305E+02   -0.19153E-05   -0.22080E-07 22608   0.738E-04    0.694E-04
DAV:   8    -0.134251016991E+02   -0.54686E-05   -0.67292E-07 22128   0.111E-03    0.514E-04
DAV:   9    -0.134251041926E+02   -0.24935E-05   -0.14193E-07 21480   0.480E-04    0.155E-04
DAV:  10    -0.134251053881E+02   -0.11955E-05   -0.34518E-08 21744   0.230E-04    0.157E-04
DAV:  11    -0.134251061124E+02   -0.72423E-06   -0.11575E-08 21600   0.132E-04
  42 F= -.13425106E+02 E0= -.13424759E+02  d E =-.117446E+00
       N       E                     dE             d eps       ncg     rms          rms(c)
DAV:   1    -0.134255490775E+02   -0.44369E-03   -0.27343E-02 23232   0.400E-01    0.549E-02
DAV:   2    -0.134255308301E+02    0.18247E-04   -0.22452E-04 26616   0.453E-02    0.326E-02
DAV:   3    -0.134255189601E+02    0.11870E-04   -0.41932E-05 24840   0.118E-02    0.300E-03
DAV:   4    -0.134255186426E+02    0.31741E-06   -0.37116E-06 22464   0.433E-03
  43 F= -.13425519E+02 E0= -.13425178E+02  d E =-.117859E+00
       N       E                     dE             d eps       ncg     rms          rms(c)
DAV:   1    -0.134430408175E+02   -0.17522E-01   -0.30471E-01 19008   0.145E+00    0.163E-01
DAV:   2    -0.134427808826E+02    0.25993E-03   -0.22332E-03 26352   0.146E-01    0.958E-02
DAV:   3    -0.134426214329E+02    0.15945E-03   -0.46977E-04 20472   0.413E-02    0.934E-03
DAV:   4    -0.134426128950E+02    0.85380E-05   -0.42329E-05 23112   0.146E-02    0.384E-03
DAV:   5    -0.134426118618E+02    0.10331E-05   -0.44310E-06 27960   0.392E-03    0.198E-03
DAV:   6    -0.134426139473E+02   -0.20855E-05   -0.45891E-07 22752   0.144E-03    0.736E-04
DAV:   7    -0.134426165119E+02   -0.25646E-05   -0.30336E-07 22440   0.762E-04    0.508E-04
DAV:   8    -0.134426217798E+02   -0.52680E-05   -0.67742E-07 21432   0.104E-03    0.198E-04
DAV:   9    -0.134426235125E+02   -0.17326E-05   -0.52667E-08 21552   0.285E-04    0.110E-04
DAV:  10    -0.134426245388E+02   -0.10263E-05   -0.26352E-08 20904   0.186E-04    0.573E-05
DAV:  11    -0.134426250635E+02   -0.52476E-06   -0.87849E-09 21216   0.104E-04
  44 F= -.13442625E+02 E0= -.13442431E+02  d E =-.171064E-01
       N       E                     dE             d eps       ncg     rms          rms(c)
DAV:   1    -0.134667873543E+02   -0.24163E-01   -0.12611E+00 19512   0.297E+00    0.343E-01
DAV:   2    -0.134655583862E+02    0.12290E-02   -0.97830E-03 25872   0.297E-01    0.201E-01
DAV:   3    -0.134648683752E+02    0.69001E-03   -0.21643E-03 20904   0.887E-02    0.206E-02
DAV:   4    -0.134648307948E+02    0.37580E-04   -0.19897E-04 24888   0.316E-02    0.845E-03
DAV:   5    -0.134648253853E+02    0.54095E-05   -0.20967E-05 29520   0.848E-03    0.411E-03
DAV:   6    -0.134648305584E+02   -0.51731E-05   -0.17939E-06 23952   0.297E-03    0.150E-03
DAV:   7    -0.134648375199E+02   -0.69615E-05   -0.11140E-06 22800   0.150E-03    0.102E-03
DAV:   8    -0.134648497227E+02   -0.12203E-04   -0.24461E-06 21144   0.209E-03    0.405E-04
DAV:   9    -0.134648544493E+02   -0.47266E-05   -0.15121E-07 21000   0.676E-04    0.218E-04
DAV:  10    -0.134648573031E+02   -0.28538E-05   -0.74924E-08 21504   0.393E-04    0.116E-04
DAV:  11    -0.134648586289E+02   -0.13258E-05   -0.32231E-08 21144   0.207E-04    0.447E-05
DAV:  12    -0.134648589717E+02   -0.34283E-06   -0.30719E-09 22296   0.643E-05
  45 F= -.13464859E+02 E0= -.13464558E+02  d E =-.393403E-01
       N       E                     dE             d eps       ncg     rms          rms(c)
DAV:   1    -0.134726547191E+02   -0.77961E-02   -0.50380E+00 19848   0.597E+00    0.702E-01
DAV:   2    -0.134675784657E+02    0.50763E-02   -0.39931E-02 24384   0.603E-01    0.414E-01
DAV:   3    -0.134648040106E+02    0.27745E-02   -0.99678E-03 21888   0.192E-01    0.435E-02
DAV:   4    -0.134646500493E+02    0.15396E-03   -0.85282E-04 27144   0.675E-02    0.196E-02
DAV:   5    -0.134646193879E+02    0.30661E-04   -0.11295E-04 30264   0.190E-02    0.847E-03
DAV:   6    -0.134646268843E+02   -0.74964E-05   -0.78353E-06 26040   0.650E-03    0.309E-03
DAV:   7    -0.134646414883E+02   -0.14604E-04   -0.38545E-06 24432   0.288E-03    0.205E-03
DAV:   8    -0.134646679499E+02   -0.26462E-04   -0.82848E-06 21360   0.398E-03    0.841E-04
DAV:   9    -0.134646807278E+02   -0.12778E-04   -0.59132E-07 20904   0.148E-03    0.440E-04
DAV:  10    -0.134646887773E+02   -0.80495E-05   -0.13138E-07 21408   0.673E-04    0.241E-04
DAV:  11    -0.134646922616E+02   -0.34843E-05   -0.11223E-07 21192   0.408E-04    0.939E-05
DAV:  12    -0.134646933765E+02   -0.11150E-05   -0.15735E-08 22224   0.148E-04    0.638E-05
DAV:  13    -0.134646944104E+02   -0.10339E-05   -0.37092E-08 21024   0.206E-04    0.264E-05
DAV:  14    -0.134646947136E+02   -0.30320E-06   -0.47635E-09 21624   0.791E-05
  46 F= -.13464695E+02 E0= -.13464262E+02  d E =-.391761E-01
       N       E                     dE             d eps       ncg     rms          rms(c)
DAV:   1    -0.134739286134E+02   -0.92342E-02   -0.12441E+00 20160   0.298E+00    0.344E-01
DAV:   2    -0.134726109925E+02    0.13176E-02   -0.98311E-03 27120   0.292E-01    0.201E-01
DAV:   3    -0.134719131984E+02    0.69779E-03   -0.23125E-03 23136   0.922E-02    0.218E-02
DAV:   4    -0.134718732346E+02    0.39964E-04   -0.21982E-04 21504   0.330E-02    0.818E-03
DAV:   5    -0.134718785586E+02   -0.53240E-05   -0.17263E-05 21912   0.874E-03    0.431E-03
DAV:   6    -0.134718957372E+02   -0.17179E-04   -0.28732E-06 22200   0.374E-03    0.157E-03
DAV:   7    -0.134719072418E+02   -0.11505E-04   -0.21670E-06 22728   0.223E-03    0.108E-03
DAV:   8    -0.134719227799E+02   -0.15538E-04   -0.50486E-06 21360   0.306E-03    0.456E-04
DAV:   9    -0.134719248843E+02   -0.21044E-05   -0.17934E-07 22512   0.638E-04    0.269E-04
DAV:  10    -0.134719262251E+02   -0.13408E-05   -0.20402E-07 21024   0.558E-04    0.142E-04
DAV:  11    -0.134719264876E+02   -0.26244E-06   -0.22348E-08 21480   0.190E-04
  47 F= -.13471926E+02 E0= -.13471550E+02  d E =-.464078E-01
       N       E                     dE             d eps       ncg     rms          rms(c)
DAV:   1    -0.134803991438E+02   -0.84729E-02   -0.78974E-02 19368   0.769E-01    0.822E-02
DAV:   2    -0.134803619999E+02    0.37144E-04   -0.41725E-04 23088   0.642E-02    0.490E-02
DAV:   3    -0.134803355150E+02    0.26485E-04   -0.69942E-05 27888   0.162E-02    0.311E-03
DAV:   4    -0.134803350005E+02    0.51453E-06   -0.44986E-06 21552   0.490E-03
  48 F= -.13480335E+02 E0= -.13479899E+02  d E =-.840851E-02
       N       E                     dE             d eps       ncg     rms          rms(c)
DAV:   1    -0.135077309345E+02   -0.27395E-01   -0.70774E-01 19152   0.231E+00    0.245E-01
DAV:   2    -0.135073537180E+02    0.37722E-03   -0.33354E-03 23136   0.180E-01    0.146E-01
DAV:   3    -0.135071129853E+02    0.24073E-03   -0.67441E-04 27576   0.504E-02    0.986E-03
DAV:   4    -0.135071068682E+02    0.61171E-05   -0.48022E-05 23544   0.158E-02    0.331E-03
DAV:   5    -0.135071067147E+02    0.15353E-06   -0.32286E-06 21744   0.406E-03
  49 F= -.13507107E+02 E0= -.13506683E+02  d E =-.351802E-01
       N       E                     dE             d eps       ncg     rms          rms(c)
DAV:   1    -0.135575241719E+02   -0.50417E-01   -0.27905E+00 19200   0.461E+00    0.440E-01
DAV:   2    -0.135567840849E+02    0.74009E-03   -0.11244E-02 27096   0.342E-01    0.264E-01
DAV:   3    -0.135561245482E+02    0.65954E-03   -0.18470E-03 26568   0.844E-02    0.159E-02
DAV:   4    -0.135561086813E+02    0.15867E-04   -0.11176E-04 22296   0.249E-02    0.653E-03
DAV:   5    -0.135561077631E+02    0.91823E-06   -0.12669E-05 20160   0.741E-03    0.272E-03
DAV:   6    -0.135561101276E+02   -0.23645E-05   -0.87414E-07 20448   0.259E-03    0.970E-04
DAV:   7    -0.135561128346E+02   -0.27070E-05   -0.31171E-07 24360   0.840E-04    0.581E-04
DAV:   8    -0.135561189600E+02   -0.61254E-05   -0.76738E-07 20928   0.115E-03    0.305E-04
DAV:   9    -0.135561205581E+02   -0.15981E-05   -0.60667E-08 21984   0.334E-04    0.173E-04
DAV:  10    -0.135561222026E+02   -0.16445E-05   -0.47417E-08 21048   0.270E-04    0.106E-04
DAV:  11    -0.135561228500E+02   -0.64736E-06   -0.90552E-09 21432   0.116E-04
  50 F= -.13556123E+02 E0= -.13555912E+02  d E =-.841964E-01
       N       E                     dE             d eps       ncg     rms          rms(c)
DAV:   1    -0.136103687723E+02   -0.54247E-01   -0.10815E+01 18840   0.913E+00    0.838E-01
DAV:   2    -0.136084466175E+02    0.19222E-02   -0.40100E-02 25704   0.637E-01    0.504E-01
DAV:   3    -0.136064656576E+02    0.19810E-02   -0.61766E-03 27264   0.155E-01    0.331E-02
DAV:   4    -0.136064097605E+02    0.55897E-04   -0.38381E-04 22248   0.457E-02    0.136E-02
DAV:   5    -0.136064046328E+02    0.51277E-05   -0.46766E-05 20736   0.144E-02    0.506E-03
DAV:   6    -0.136064080517E+02   -0.34189E-05   -0.33937E-06 21336   0.522E-03    0.162E-03
DAV:   7    -0.136064121339E+02   -0.40821E-05   -0.67581E-07 21744   0.127E-03    0.949E-04
DAV:   8    -0.136064219408E+02   -0.98069E-05   -0.16037E-06 21840   0.173E-03    0.599E-04
DAV:   9    -0.136064250119E+02   -0.30711E-05   -0.14724E-07 21984   0.549E-04    0.289E-04
DAV:  10    -0.136064280913E+02   -0.30794E-05   -0.10401E-07 21456   0.427E-04    0.236E-04
DAV:  11    -0.136064292101E+02   -0.11188E-05   -0.15163E-08 21336   0.167E-04    0.752E-05
DAV:  12    -0.136064294516E+02   -0.24145E-06   -0.42721E-09 22080   0.797E-05
  51 F= -.13606429E+02 E0= -.13606126E+02  d E =-.134503E+00
       N       E                     dE             d eps       ncg     rms          rms(c)
DAV:   1    -0.136107155699E+02   -0.42864E-02   -0.19427E+00 19392   0.389E+00    0.349E-01
DAV:   2    -0.136105789686E+02    0.13660E-03   -0.73543E-03 26976   0.273E-01    0.210E-01
DAV:   3    -0.136102781838E+02    0.30078E-03   -0.88554E-04 28392   0.576E-02    0.106E-02
DAV:   4    -0.136102738537E+02    0.43300E-05   -0.34789E-05 24192   0.140E-02    0.477E-03
DAV:   5    -0.136102732234E+02    0.63037E-06   -0.51951E-06 20904   0.450E-03
  52 F= -.13610273E+02 E0= -.13610109E+02  d E =-.138347E+00
       N       E                     dE             d eps       ncg     rms          rms(c)
DAV:   1    -0.136599354910E+02   -0.49662E-01   -0.10911E+00 19512   0.271E+00    0.264E-01
DAV:   2    -0.136591448855E+02    0.79061E-03   -0.57786E-03 21312   0.235E-01    0.157E-01
DAV:   3    -0.136584313770E+02    0.71351E-03   -0.14171E-03 23640   0.666E-02    0.134E-02
DAV:   4    -0.136584481620E+02   -0.16785E-04   -0.20297E-05 22104   0.132E-02    0.790E-03
DAV:   5    -0.136584817501E+02   -0.33588E-04   -0.93857E-06 23616   0.586E-03    0.225E-03
DAV:   6    -0.136585028037E+02   -0.21054E-04   -0.27778E-06 23208   0.286E-03    0.148E-03
DAV:   7    -0.136585281187E+02   -0.25315E-04   -0.69889E-06 22488   0.385E-03    0.761E-04
DAV:   8    -0.136585351390E+02   -0.70203E-05   -0.96424E-07 22416   0.141E-03    0.315E-04
DAV:   9    -0.136585370956E+02   -0.19567E-05   -0.19674E-07 22056   0.624E-04    0.200E-04
DAV:  10    -0.136585378666E+02   -0.77098E-06   -0.40288E-08 21576   0.285E-04
  53 F= -.13658538E+02 E0= -.13658343E+02  d E =-.482646E-01
       N       E                     dE             d eps       ncg     rms          rms(c)
DAV:   1    -0.136723022907E+02   -0.13765E-01   -0.86296E-01 19752   0.241E+00    0.228E-01
DAV:   2    -0.136717491208E+02    0.55317E-03   -0.47743E-03 21624   0.213E-01    0.135E-01
DAV:   3    -0.136712099148E+02    0.53921E-03   -0.10524E-03 23856   0.567E-02    0.120E-02
DAV:   4    -0.136712240454E+02   -0.14131E-04   -0.15508E-05 20112   0.115E-02    0.714E-03
DAV:   5    -0.136712530154E+02   -0.28970E-04   -0.78228E-06 22728   0.531E-03    0.206E-03
DAV:   6    -0.136712708765E+02   -0.17861E-04   -0.23972E-06 22104   0.260E-03    0.137E-03
DAV:   7    -0.136712932001E+02   -0.22324E-04   -0.63718E-06 22488   0.362E-03    0.709E-04
DAV:   8    -0.136712993106E+02   -0.61105E-05   -0.87016E-07 22344   0.132E-03    0.279E-04
DAV:   9    -0.136713005507E+02   -0.12401E-05   -0.11796E-07 22128   0.469E-04    0.192E-04
DAV:  10    -0.136713012043E+02   -0.65356E-06   -0.53925E-08 20976   0.309E-04
  54 F= -.13671301E+02 E0= -.13671076E+02  d E =-.610280E-01
       N       E                     dE             d eps       ncg     rms          rms(c)
DAV:   1    -0.137036505484E+02   -0.32350E-01   -0.51243E-01 21600   0.180E+00    0.274E-01
DAV:   2    -0.137027137036E+02    0.93684E-03   -0.38453E-03 21408   0.167E-01    0.156E-01
DAV:   3    -0.137023356913E+02    0.37801E-03   -0.11971E-03 22584   0.689E-02    0.225E-02
DAV:   4    -0.137023322608E+02    0.34305E-05   -0.13747E-04 22464   0.257E-02    0.717E-03
DAV:   5    -0.137023345691E+02   -0.23083E-05   -0.39954E-06 24600   0.549E-03    0.247E-03
DAV:   6    -0.137023372531E+02   -0.26840E-05   -0.96986E-07 22872   0.159E-03    0.739E-04
DAV:   7    -0.137023400104E+02   -0.27573E-05   -0.19448E-07 22992   0.769E-04    0.520E-04
DAV:   8    -0.137023446532E+02   -0.46428E-05   -0.73101E-07 21792   0.116E-03    0.270E-04
DAV:   9    -0.137023461720E+02   -0.15187E-05   -0.16450E-07 21816   0.531E-04    0.153E-04
DAV:  10    -0.137023464658E+02   -0.29388E-06   -0.19913E-08 22344   0.177E-04
  55 F= -.13702346E+02 E0= -.13702080E+02  d E =-.310453E-01
       N       E                     dE             d eps       ncg     rms          rms(c)
DAV:   1    -0.137556438261E+02   -0.53298E-01   -0.38718E+00 21792   0.489E+00    0.734E-01
DAV:   2    -0.137485339695E+02    0.71099E-02   -0.26843E-02 23088   0.446E-01    0.422E-01
DAV:   3    -0.137454070537E+02    0.31269E-02   -0.95400E-03 23616   0.189E-01    0.565E-02
DAV:   4    -0.137453667838E+02    0.40270E-04   -0.79868E-04 22272   0.645E-02    0.221E-02
DAV:   5    -0.137453806253E+02   -0.13841E-04   -0.33737E-05 24024   0.148E-02    0.670E-03
DAV:   6    -0.137453884819E+02   -0.78566E-05   -0.64623E-06 24264   0.441E-03    0.184E-03
DAV:   7    -0.137453967413E+02   -0.82594E-05   -0.10344E-06 23208   0.188E-03    0.130E-03
DAV:   8    -0.137454117520E+02   -0.15011E-04   -0.34480E-06 22536   0.265E-03    0.795E-04
DAV:   9    -0.137454147746E+02   -0.30225E-05   -0.24391E-07 23112   0.750E-04    0.271E-04
DAV:  10    -0.137454171316E+02   -0.23570E-05   -0.39644E-07 21720   0.785E-04    0.214E-04
DAV:  11    -0.137454177074E+02   -0.57588E-06   -0.32990E-08 21216   0.254E-04
  56 F= -.13745418E+02 E0= -.13745269E+02  d E =-.741165E-01
       N       E                     dE             d eps       ncg     rms          rms(c)
DAV:   1    -0.137464058931E+02   -0.98876E-03   -0.89092E-02 22536   0.748E-01    0.114E-01
DAV:   2    -0.137462380258E+02    0.16787E-03   -0.62868E-04 22248   0.695E-02    0.657E-02
DAV:   3    -0.137461599558E+02    0.78070E-04   -0.22326E-04 21096   0.288E-02    0.838E-03
DAV:   4    -0.137461590823E+02    0.87349E-06   -0.17975E-05 22512   0.970E-03    0.321E-03
DAV:   5    -0.137461591854E+02   -0.10314E-06   -0.68040E-07 23304   0.210E-03
  57 F= -.13746159E+02 E0= -.13746005E+02  d E =-.748580E-01
       N       E                     dE             d eps       ncg     rms          rms(c)
DAV:   1    -0.137646166062E+02   -0.18458E-01   -0.62910E-01 21672   0.182E+00    0.250E-01
DAV:   2    -0.137637128142E+02    0.90379E-03   -0.52491E-03 22464   0.199E-01    0.142E-01
DAV:   3    -0.137633794406E+02    0.33337E-03   -0.19189E-03 25896   0.769E-02    0.209E-02
DAV:   4    -0.137633714895E+02    0.79510E-05   -0.14967E-04 23928   0.264E-02    0.634E-03
DAV:   5    -0.137633739549E+02   -0.24654E-05   -0.47951E-06 25368   0.604E-03    0.243E-03
DAV:   6    -0.137633752862E+02   -0.13313E-05   -0.56664E-07 23328   0.156E-03    0.307E-04
DAV:   7    -0.137633755408E+02   -0.25457E-06   -0.16673E-08 26256   0.266E-04
  58 F= -.13763376E+02 E0= -.13763284E+02  d E =-.172164E-01
       N       E                     dE             d eps       ncg     rms          rms(c)
DAV:   1    -0.137700153135E+02   -0.66400E-02   -0.45113E-01 21216   0.153E+00    0.213E-01
DAV:   2    -0.137692813691E+02    0.73394E-03   -0.43637E-03 27456   0.178E-01    0.120E-01
DAV:   3    -0.137690204224E+02    0.26095E-03   -0.15070E-03 26712   0.668E-02    0.189E-02
DAV:   4    -0.137690156854E+02    0.47370E-05   -0.11342E-04 22968   0.230E-02    0.562E-03
DAV:   5    -0.137690186261E+02   -0.29407E-05   -0.39607E-06 24024   0.559E-03    0.220E-03
DAV:   6    -0.137690208782E+02   -0.22521E-05   -0.45797E-07 22344   0.138E-03    0.320E-04
DAV:   7    -0.137690213842E+02   -0.50603E-06   -0.15848E-08 26184   0.256E-04
  59 F= -.13769021E+02 E0= -.13768870E+02  d E =-.228622E-01
       N       E                     dE             d eps       ncg     rms          rms(c)
DAV:   1    -0.137692960972E+02   -0.27522E-03   -0.23946E-02 22176   0.353E-01    0.493E-02
DAV:   2    -0.137692560518E+02    0.40045E-04   -0.26966E-04 26280   0.446E-02    0.278E-02
DAV:   3    -0.137692425684E+02    0.13483E-04   -0.87309E-05 25128   0.161E-02    0.451E-03
DAV:   4    -0.137692426695E+02   -0.10105E-06   -0.65530E-06 22248   0.568E-03
  60 F= -.13769243E+02 E0= -.13769130E+02  d E =-.230835E-01
       N       E                     dE             d eps       ncg     rms          rms(c)
DAV:   1    -0.137726722313E+02   -0.34297E-02   -0.11857E-01 19416   0.800E-01    0.108E-01
DAV:   2    -0.137724108094E+02    0.26142E-03   -0.20426E-03 28728   0.120E-01    0.559E-02
DAV:   3    -0.137723561780E+02    0.54631E-04   -0.44227E-04 24144   0.391E-02    0.124E-02
DAV:   4    -0.137723527473E+02    0.34307E-05   -0.40873E-05 23784   0.155E-02    0.520E-03
DAV:   5    -0.137723517727E+02    0.97464E-06   -0.23860E-06 25296   0.354E-03
  61 F= -.13772352E+02 E0= -.13772210E+02  d E =-.310910E-02
       N       E                     dE             d eps       ncg     rms          rms(c)
DAV:   1    -0.137727752658E+02   -0.42252E-03   -0.26312E-02 19464   0.377E-01    0.507E-02
DAV:   2    -0.137727185789E+02    0.56687E-04   -0.44885E-04 29736   0.558E-02    0.263E-02
DAV:   3    -0.137727064838E+02    0.12095E-04   -0.99684E-05 25680   0.186E-02    0.584E-03
DAV:   4    -0.137727052478E+02    0.12360E-05   -0.95624E-06 26832   0.738E-03    0.251E-03
DAV:   5    -0.137727051501E+02    0.97788E-07   -0.53271E-07 25680   0.161E-03
  62 F= -.13772705E+02 E0= -.13772557E+02  d E =-.346248E-02
       N       E                     dE             d eps       ncg     rms          rms(c)
DAV:   1    -0.137746239222E+02   -0.19187E-02   -0.12985E-01 20040   0.941E-01    0.930E-02
DAV:   2    -0.137745310962E+02    0.92826E-04   -0.76776E-04 28392   0.829E-02    0.539E-02
DAV:   3    -0.137744901392E+02    0.40957E-04   -0.23772E-04 22344   0.261E-02    0.868E-03
DAV:   4    -0.137744896060E+02    0.53314E-06   -0.18763E-05 22872   0.956E-03    0.292E-03
DAV:   5    -0.137744900691E+02   -0.46306E-06   -0.53349E-07 21912   0.209E-03
  63 F= -.13774490E+02 E0= -.13774345E+02  d E =-.178492E-02
       N       E                     dE             d eps       ncg     rms          rms(c)
DAV:   1    -0.137744947716E+02   -0.51655E-05   -0.28071E-04 22872   0.439E-02    0.429E-03
DAV:   2    -0.137744948314E+02   -0.59893E-07   -0.17261E-06 23592   0.382E-03
  64 F= -.13774495E+02 E0= -.13774351E+02  d E =-.178968E-02
       N       E                     dE             d eps       ncg     rms          rms(c)
DAV:   1    -0.137749004236E+02   -0.40565E-03   -0.16976E-02 23856   0.324E-01    0.484E-02
DAV:   2    -0.137748779902E+02    0.22433E-04   -0.10959E-04 23112   0.316E-02    0.286E-02
DAV:   3    -0.137748666661E+02    0.11324E-04   -0.34823E-05 26880   0.116E-02    0.345E-03
DAV:   4    -0.137748665973E+02    0.68782E-07   -0.24433E-06 23424   0.350E-03
  65 F= -.13774867E+02 E0= -.13774751E+02  d E =-.371766E-03
       N       E                     dE             d eps       ncg     rms          rms(c)
DAV:   1    -0.137748761955E+02   -0.95294E-05   -0.52476E-04 25536   0.569E-02    0.847E-03
DAV:   2    -0.137748755965E+02    0.59896E-06   -0.36081E-06 23544   0.567E-03
  66 F= -.13774876E+02 E0= -.13774766E+02  d E =-.380765E-03
       N       E                     dE             d eps       ncg     rms          rms(c)
DAV:   1    -0.137750980368E+02   -0.22184E-03   -0.78635E-03 22872   0.223E-01    0.287E-02
DAV:   2    -0.137750918891E+02    0.61477E-05   -0.41543E-05 22464   0.199E-02    0.170E-02
DAV:   3    -0.137750878662E+02    0.40229E-05   -0.11083E-05 27552   0.576E-03    0.115E-03
DAV:   4    -0.137750878610E+02    0.52312E-08   -0.14445E-07 21024   0.105E-03
  67 F= -.13775088E+02 E0= -.13774997E+02  d E =-.212264E-03
       N       E                     dE             d eps       ncg     rms          rms(c)
DAV:   1    -0.137752269818E+02   -0.13912E-03   -0.16664E-02 22272   0.324E-01    0.417E-02
DAV:   2    -0.137752129872E+02    0.13995E-04   -0.76512E-05 25008   0.277E-02    0.247E-02
DAV:   3    -0.137752042681E+02    0.87191E-05   -0.21959E-05 26376   0.814E-03    0.168E-03
DAV:   4    -0.137752042215E+02    0.46642E-07   -0.28419E-07 19824   0.154E-03
  68 F= -.13775204E+02 E0= -.13775126E+02  d E =-.328625E-03
       N       E                     dE             d eps       ncg     rms          rms(c)
DAV:   1    -0.137752815333E+02   -0.77265E-04   -0.36214E-03 22296   0.152E-01    0.177E-02
DAV:   2    -0.137752768194E+02    0.47139E-05   -0.47614E-05 20184   0.197E-02    0.991E-03
DAV:   3    -0.137752754084E+02    0.14111E-05   -0.10665E-05 21624   0.644E-03    0.189E-03
DAV:   4    -0.137752754411E+02   -0.32723E-07   -0.12189E-06 20256   0.269E-03
  69 F= -.13775275E+02 E0= -.13775198E+02  d E =-.712196E-04
       N       E                     dE             d eps       ncg     rms          rms(c)
DAV:   1    -0.137752899845E+02   -0.14576E-04   -0.13596E-03 22392   0.931E-02    0.107E-02
DAV:   2    -0.137752883680E+02    0.16165E-05   -0.18818E-05 20688   0.126E-02    0.608E-03
DAV:   3    -0.137752879246E+02    0.44336E-06   -0.40652E-06 21864   0.396E-03
  70 F= -.13775288E+02 E0= -.13775210E+02  d E =-.837031E-04
       N       E                     dE             d eps       ncg     rms          rms(c)
DAV:   1    -0.137753256395E+02   -0.37271E-04   -0.76776E-04 22560   0.743E-02    0.746E-03
DAV:   2    -0.137753253072E+02    0.33230E-06   -0.44149E-06 21936   0.657E-03
  71 F= -.13775325E+02 E0= -.13775247E+02  d E =-.373825E-04
       N       E                     dE             d eps       ncg     rms          rms(c)
DAV:   1    -0.137753984887E+02   -0.72849E-04   -0.68099E-03 20088   0.223E-01    0.212E-02
DAV:   2    -0.137753962431E+02    0.22455E-05   -0.45841E-05 24408   0.213E-02    0.127E-02
DAV:   3    -0.137753933524E+02    0.28907E-05   -0.76111E-06 21552   0.497E-03    0.145E-03
DAV:   4    -0.137753934580E+02   -0.10558E-06   -0.57312E-07 23352   0.175E-03
  72 F= -.13775393E+02 E0= -.13775314E+02  d E =-.105533E-03
       N       E                     dE             d eps       ncg     rms          rms(c)
DAV:   1    -0.137753630506E+02    0.30302E-04   -0.27481E-02 19344   0.446E-01    0.425E-02
DAV:   2    -0.137753514957E+02    0.11555E-04   -0.16911E-04 27096   0.409E-02    0.253E-02
DAV:   3    -0.137753405563E+02    0.10939E-04   -0.31081E-05 21912   0.997E-03    0.299E-03
DAV:   4    -0.137753412603E+02   -0.70399E-06   -0.26099E-06 21984   0.369E-03
  73 F= -.13775341E+02 E0= -.13775257E+02  d E =-.533356E-04
       N       E                     dE             d eps       ncg     rms          rms(c)
DAV:   1    -0.137754085428E+02   -0.67987E-04   -0.13177E-02 18888   0.309E-01    0.294E-02
DAV:   2    -0.137754071987E+02    0.13441E-05   -0.86578E-05 21672   0.296E-02    0.176E-02
DAV:   3    -0.137754055849E+02    0.16139E-05   -0.15157E-05 22584   0.717E-03    0.209E-03
DAV:   4    -0.137754055130E+02    0.71877E-07   -0.11466E-06 22512   0.239E-03
  74 F= -.13775406E+02 E0= -.13775325E+02  d E =-.117588E-03
       N       E                     dE             d eps       ncg     rms          rms(c)
DAV:   1    -0.137754314386E+02   -0.25854E-04   -0.62525E-04 23160   0.659E-02    0.614E-03
DAV:   2    -0.137754313647E+02    0.73905E-07   -0.38864E-06 20352   0.598E-03
  75 F= -.13775431E+02 E0= -.13775350E+02  d E =-.258517E-04
       N       E                     dE             d eps       ncg     rms          rms(c)
DAV:   1    -0.137754982435E+02   -0.66805E-04   -0.55366E-03 20664   0.197E-01    0.183E-02
DAV:   2    -0.137754976104E+02    0.63311E-06   -0.35727E-05 28920   0.184E-02    0.110E-02
DAV:   3    -0.137754968232E+02    0.78714E-06   -0.55105E-06 20712   0.423E-03
  76 F= -.13775497E+02 E0= -.13775415E+02  d E =-.913103E-04
       N       E                     dE             d eps       ncg     rms          rms(c)
DAV:   1    -0.137755835385E+02   -0.85928E-04   -0.22419E-02 17880   0.395E-01    0.369E-02
DAV:   2    -0.137755788151E+02    0.47234E-05   -0.13373E-04 32568   0.376E-02    0.219E-02
DAV:   3    -0.137755748229E+02    0.39922E-05   -0.22291E-05 21048   0.856E-03    0.229E-03
DAV:   4    -0.137755746756E+02    0.14727E-06   -0.21030E-06 22752   0.326E-03
  77 F= -.13775575E+02 E0= -.13775491E+02  d E =-.169163E-03
       N       E                     dE             d eps       ncg     rms          rms(c)
DAV:   1    -0.137755591623E+02    0.15661E-04   -0.89696E-02 17808   0.790E-01    0.738E-02
DAV:   2    -0.137755351762E+02    0.23986E-04   -0.50914E-04 31944   0.718E-02    0.436E-02
DAV:   3    -0.137755172468E+02    0.17929E-04   -0.89452E-05 21240   0.171E-02    0.471E-03
DAV:   4    -0.137755166617E+02    0.58517E-06   -0.87197E-06 23064   0.659E-03
  78 F= -.13775517E+02 E0= -.13775425E+02  d E =-.111149E-03
       N       E                     dE             d eps       ncg     rms          rms(c)
DAV:   1    -0.137756109380E+02   -0.93691E-04   -0.45892E-02 17880   0.565E-01    0.528E-02
DAV:   2    -0.137755984578E+02    0.12480E-04   -0.27305E-04 21408   0.527E-02    0.314E-02
DAV:   3    -0.137755876497E+02    0.10808E-04   -0.50033E-05 20472   0.133E-02    0.349E-03
DAV:   4    -0.137755874273E+02    0.22241E-06   -0.48630E-06 21792   0.501E-03
  79 F= -.13775587E+02 E0= -.13775501E+02  d E =-.181914E-03
       N       E                     dE             d eps       ncg     rms          rms(c)
DAV:   1    -0.137756315278E+02   -0.43878E-04   -0.31567E-03 21384   0.148E-01    0.130E-02
DAV:   2    -0.137756315662E+02   -0.38349E-07   -0.14930E-05 23136   0.118E-02    0.800E-03
DAV:   3    -0.137756307981E+02    0.76810E-06   -0.13137E-06 20760   0.250E-03
  80 F= -.13775631E+02 E0= -.13775548E+02  d E =-.433707E-04
       N       E                     dE             d eps       ncg     rms          rms(c)
DAV:   1    -0.137756504377E+02   -0.18872E-04   -0.49808E-03 20832   0.186E-01    0.163E-02
DAV:   2    -0.137756507703E+02   -0.33257E-06   -0.24180E-05 29664   0.151E-02    0.101E-02
DAV:   3    -0.137756496848E+02    0.10854E-05   -0.19245E-06 21072   0.303E-03    0.585E-04
DAV:   4    -0.137756497449E+02   -0.60081E-07   -0.52771E-08 23544   0.606E-04
  81 F= -.13775650E+02 E0= -.13775570E+02  d E =-.623176E-04
       N       E                     dE             d eps       ncg     rms          rms(c)
DAV:   1    -0.137756889922E+02   -0.39307E-04   -0.36152E-03 20544   0.161E-01    0.151E-02
DAV:   2    -0.137756890962E+02   -0.10397E-06   -0.17962E-05 24432   0.132E-02    0.919E-03
DAV:   3    -0.137756885706E+02    0.52557E-06   -0.15440E-06 25200   0.246E-03
  82 F= -.13775689E+02 E0= -.13775610E+02  d E =-.388257E-04
       N       E                     dE             d eps       ncg     rms          rms(c)
DAV:   1    -0.137757197826E+02   -0.30686E-04   -0.13678E-02 19992   0.312E-01    0.294E-02
DAV:   2    -0.137757206798E+02   -0.89725E-06   -0.72407E-05 25560   0.268E-02    0.179E-02
DAV:   3    -0.137757182386E+02    0.24412E-05   -0.56395E-06 27000   0.474E-03    0.762E-04
DAV:   4    -0.137757182527E+02   -0.14083E-07   -0.74157E-08 28248   0.741E-04
  83 F= -.13775718E+02 E0= -.13775642E+02  d E =-.685078E-04
       N       E                     dE             d eps       ncg     rms          rms(c)
DAV:   1    -0.137757348820E+02   -0.16643E-04   -0.20991E-03 21048   0.118E-01    0.835E-03
DAV:   2    -0.137757351147E+02   -0.23267E-06   -0.80009E-06 27672   0.896E-03
  84 F= -.13775735E+02 E0= -.13775659E+02  d E =-.168620E-04
       N       E                     dE             d eps       ncg     rms          rms(c)
DAV:   1    -0.137757351067E+02   -0.22472E-06   -0.17721E-05 24432   0.116E-02    0.795E-04
DAV:   2    -0.137757351278E+02   -0.21059E-07   -0.52689E-08 25200   0.720E-04
  85 F= -.13775735E+02 E0= -.13775659E+02  d E =-.168751E-04
       N       E                     dE             d eps       ncg     rms          rms(c)
DAV:   1    -0.137757545150E+02   -0.19408E-04   -0.24861E-03 18384   0.130E-01    0.137E-02
DAV:   2    -0.137757534097E+02    0.11053E-05   -0.18079E-05 26880   0.134E-02    0.826E-03
DAV:   3    -0.137757524846E+02    0.92508E-06   -0.29210E-06 24408   0.318E-03
  86 F= -.13775752E+02 E0= -.13775675E+02  d E =-.173568E-04
       N       E                     dE             d eps       ncg     rms          rms(c)
DAV:   1    -0.137757575688E+02   -0.41591E-05   -0.13425E-03 19392   0.953E-02    0.102E-02
DAV:   2    -0.137757569424E+02    0.62645E-06   -0.89127E-06 30216   0.949E-03
  87 F= -.13775757E+02 E0= -.13775679E+02  d E =-.218146E-04
       N       E                     dE             d eps       ncg     rms          rms(c)
DAV:   1    -0.137757585280E+02   -0.95920E-06   -0.14242E-03 22608   0.979E-02    0.107E-02
DAV:   2    -0.137757576894E+02    0.83860E-06   -0.11143E-05 24792   0.105E-02    0.648E-03
DAV:   3    -0.137757565508E+02    0.11386E-05   -0.19141E-06 21360   0.265E-03    0.568E-04
DAV:   4    -0.137757564900E+02    0.60797E-07   -0.11102E-07 23208   0.785E-04
  88 F= -.13775756E+02 E0= -.13775678E+02  d E =0.452401E-06
       N       E                     dE             d eps       ncg     rms          rms(c)
DAV:   1    -0.137757602706E+02   -0.37199E-05   -0.31267E-04 23400   0.456E-02    0.492E-03
DAV:   2    -0.137757602806E+02   -0.99819E-08   -0.19549E-06 21216   0.443E-03
  89 F= -.13775760E+02 E0= -.13775682E+02  d E =-.333827E-05
       N       E                     dE             d eps       ncg     rms          rms(c)
DAV:   1    -0.137757604115E+02   -0.14087E-06   -0.87908E-07 21888   0.289E-03    0.365E-04
DAV:   2    -0.137757604472E+02   -0.35715E-07   -0.10092E-08 23448   0.249E-04
  90 F= -.13775760E+02 E0= -.13775682E+02  d E =-.350487E-05
       N       E                     dE             d eps       ncg     rms          rms(c)
DAV:   1    -0.137757635758E+02   -0.31643E-05   -0.20968E-04 21768   0.372E-02    0.380E-03
DAV:   2    -0.137757634960E+02    0.79770E-07   -0.18537E-06 19848   0.392E-03
  91 F= -.13775763E+02 E0= -.13775685E+02  d E =-.304877E-05
       N       E                     dE             d eps       ncg     rms          rms(c)
DAV:   1    -0.137757641181E+02   -0.54236E-06   -0.13456E-04 21024   0.305E-02    0.321E-03
DAV:   2    -0.137757641057E+02    0.12470E-07   -0.11500E-06 30192   0.318E-03
  92 F= -.13775764E+02 E0= -.13775686E+02  d E =-.365844E-05
       N       E                     dE             d eps       ncg     rms          rms(c)
DAV:   1    -0.137757641965E+02   -0.78326E-07   -0.29208E-06 21024   0.380E-03    0.450E-04
DAV:   2    -0.137757641846E+02    0.11868E-07   -0.72456E-08 22824   0.730E-04
  93 F= -.13775764E+02 E0= -.13775686E+02  d E =-.373737E-05
