       N       E                     dE             d eps       ncg     rms          rms(c)
DAV:   1    -0.659416775586E+01   -0.65942E+01   -0.22574E+03 21798   0.895E+01
DAV:   2    -0.739454549275E+01   -0.80038E+00   -0.79410E+00 26418   0.555E+00
DAV:   3    -0.739460100849E+01   -0.55516E-04   -0.55516E-04 21126   0.545E-02
DAV:   4    -0.739460100974E+01   -0.12416E-08   -0.72494E-09 30618   0.174E-04
DAV:   5    -0.739460100926E+01    0.47628E-09   -0.18723E-13 20916   0.425E-08    0.110E+00
DAV:   6    -0.735188837651E+01    0.42713E-01   -0.47585E-03 22386   0.163E-01    0.680E-01
DAV:   7    -0.733506392987E+01    0.16824E-01   -0.47172E-03 23646   0.171E-01    0.258E-02
DAV:   8    -0.733501514035E+01    0.48790E-04   -0.14629E-05 21546   0.783E-03    0.971E-03
DAV:   9    -0.733501602350E+01   -0.88314E-06   -0.19726E-06 26292   0.236E-03
   1 F= -.73350160E+01 E0= -.73347299E+01  d E =-.572176E-03
