   7   7   0   0
  0.6867496E+02  0.3725229E-09  0.3725229E-09  0.4000000E-08  0.5000000E-15
  1.000000000000000E-004
  CAR 
 Geometry                                
      7.11534604    -14.47836220  301     -3.85602043      1.00000000
    -14.478  0.0000E+00  0.0000E+00
    -14.406  0.0000E+00  0.0000E+00
    -14.334  0.0000E+00  0.0000E+00
    -14.262  0.0000E+00  0.0000E+00
    -14.190  0.0000E+00  0.0000E+00
    -14.118  0.0000E+00  0.0000E+00
    -14.046  0.0000E+00  0.0000E+00
    -13.975  0.0000E+00  0.0000E+00
    -13.903  0.0000E+00  0.0000E+00
    -13.831  0.0000E+00  0.0000E+00
    -13.759  0.3385E-16  0.2437E-17
    -13.687  0.2607E-10  0.1877E-11
    -13.615  0.4171E-06  0.3002E-07
    -13.543  0.1695E-03  0.1223E-04
    -13.471  0.3063E-02  0.2327E-03
    -13.399  0.7069E-02  0.7415E-03
    -13.327  0.7612E-02  0.1289E-02
    -13.255  0.7519E-02  0.1831E-02
    -13.183  0.7652E-02  0.2381E-02
    -13.111  0.8060E-02  0.2962E-02
    -13.039  0.7096E-02  0.3472E-02
    -12.967  0.8698E-02  0.4098E-02
    -12.895  0.6824E-02  0.4590E-02
    -12.823  0.9232E-02  0.5254E-02
    -12.751  0.6724E-02  0.5738E-02
    -12.679  0.9272E-02  0.6406E-02
    -12.607  0.7509E-02  0.6946E-02
    -12.535  0.8289E-02  0.7543E-02
    -12.463  0.9553E-02  0.8230E-02
    -12.391  0.6687E-02  0.8712E-02
    -12.319  0.1076E-01  0.9486E-02
    -12.247  0.8397E-02  0.1009E-01
    -12.175  0.8169E-02  0.1068E-01
    -12.103  0.1193E-01  0.1154E-01
    -12.031  0.8223E-02  0.1213E-01
    -11.959  0.1143E-01  0.1295E-01
    -11.887  0.1254E-01  0.1385E-01
    -11.815  0.1138E-01  0.1467E-01
    -11.743  0.1957E-01  0.1608E-01
    -11.671  0.1656E-01  0.1727E-01
    -11.599  0.1567E-01  0.1840E-01
    -11.527  0.1006E-01  0.1913E-01
    -11.455  0.8753E-02  0.1976E-01
    -11.383  0.3231E-02  0.1999E-01
    -11.311  0.1541E-03  0.2000E-01
    -11.239  0.3313E-06  0.2000E-01
    -11.167  0.2063E-10  0.2000E-01
    -11.095  0.2691E-16  0.2000E-01
    -11.023  0.0000E+00  0.2000E-01
    -10.951  0.8463E-18  0.2000E-01
    -10.879  0.1839E-11  0.2000E-01
    -10.807  0.7390E-07  0.2000E-01
    -10.735  0.6965E-04  0.2001E-01
    -10.663  0.2448E-02  0.2018E-01
    -10.591  0.8311E-02  0.2078E-01
    -10.520  0.9961E-02  0.2150E-01
    -10.448  0.1053E-01  0.2225E-01
    -10.376  0.1325E-01  0.2321E-01
    -10.304  0.2133E-01  0.2474E-01
    -10.232  0.2592E-01  0.2661E-01
    -10.160  0.3094E-01  0.2884E-01
    -10.088  0.4395E-01  0.3200E-01
    -10.016  0.4905E-01  0.3553E-01
     -9.944  0.3399E-01  0.3798E-01
     -9.872  0.1645E-01  0.3916E-01
     -9.800  0.5833E-02  0.3958E-01
     -9.728  0.3206E-02  0.3981E-01
     -9.656  0.1808E-02  0.3994E-01
     -9.584  0.2346E-03  0.3996E-01
     -9.512  0.1045E-02  0.4003E-01
     -9.440  0.2941E-03  0.4005E-01
     -9.368  0.2994E-03  0.4008E-01
     -9.296  0.2900E-02  0.4029E-01
     -9.224  0.1406E-02  0.4039E-01
     -9.152  0.1784E-02  0.4051E-01
     -9.080  0.4804E-02  0.4086E-01
     -9.008  0.3545E-02  0.4112E-01
     -8.936  0.4478E-02  0.4144E-01
     -8.864  0.1858E-01  0.4278E-01
     -8.792  0.3116E-01  0.4502E-01
     -8.720  0.1850E-01  0.4635E-01
     -8.648  0.1471E-01  0.4741E-01
     -8.576  0.1062E-01  0.4817E-01
     -8.504  0.8917E-02  0.4881E-01
     -8.432  0.7223E-02  0.4933E-01
     -8.360  0.9287E-02  0.5000E-01
     -8.288  0.5469E-02  0.5040E-01
     -8.216  0.7528E-02  0.5094E-01
     -8.144  0.4844E-02  0.5129E-01
     -8.072  0.8113E-02  0.5187E-01
     -8.000  0.1744E-01  0.5313E-01
     -7.928  0.1666E-01  0.5433E-01
     -7.856  0.1998E-01  0.5576E-01
     -7.784  0.7576E-02  0.5631E-01
     -7.712  0.9521E-02  0.5699E-01
     -7.640  0.1975E-01  0.5842E-01
     -7.568  0.8703E-02  0.5904E-01
     -7.496  0.6074E-02  0.5948E-01
     -7.424  0.1007E-01  0.6020E-01
     -7.352  0.1724E-01  0.6145E-01
     -7.280  0.1127E-01  0.6226E-01
     -7.208  0.5529E-02  0.6266E-01
     -7.137  0.1021E-01  0.6339E-01
     -7.065  0.1646E-01  0.6458E-01
     -6.993  0.1392E-01  0.6558E-01
     -6.921  0.1384E-01  0.6657E-01
     -6.849  0.2861E-01  0.6863E-01
     -6.777  0.2759E-01  0.7062E-01
     -6.705  0.8825E-02  0.7125E-01
     -6.633  0.1687E-01  0.7247E-01
     -6.561  0.1874E-01  0.7382E-01
     -6.489  0.1271E-01  0.7473E-01
     -6.417  0.1231E-01  0.7562E-01
     -6.345  0.1499E-01  0.7670E-01
     -6.273  0.2236E-01  0.7831E-01
     -6.201  0.2172E-01  0.7987E-01
     -6.129  0.2190E-01  0.8145E-01
     -6.057  0.2679E-01  0.8337E-01
     -5.985  0.2742E-01  0.8535E-01
     -5.913  0.2216E-01  0.8694E-01
     -5.841  0.3419E-01  0.8940E-01
     -5.769  0.3012E-01  0.9157E-01
     -5.697  0.2355E-01  0.9327E-01
     -5.625  0.1669E-01  0.9447E-01
     -5.553  0.1583E-01  0.9561E-01
     -5.481  0.1346E-01  0.9658E-01
     -5.409  0.1107E-01  0.9737E-01
     -5.337  0.9665E-02  0.9807E-01
     -5.265  0.1292E-01  0.9900E-01
     -5.193  0.1888E-01  0.1004E+00
     -5.121  0.2631E-01  0.1023E+00
     -5.049  0.2656E-01  0.1042E+00
     -4.977  0.2051E-01  0.1056E+00
     -4.905  0.1835E-01  0.1070E+00
     -4.833  0.1783E-01  0.1082E+00
     -4.761  0.1509E-01  0.1093E+00
     -4.689  0.1761E-01  0.1106E+00
     -4.617  0.2677E-01  0.1125E+00
     -4.545  0.3063E-01  0.1147E+00
     -4.473  0.3141E-01  0.1170E+00
     -4.401  0.2532E-01  0.1188E+00
     -4.329  0.2824E-01  0.1208E+00
     -4.257  0.1679E-01  0.1221E+00
     -4.185  0.1645E-01  0.1232E+00
     -4.113  0.2404E-01  0.1250E+00
     -4.041  0.1790E-01  0.1263E+00
     -3.969  0.1592E-01  0.1274E+00
     -3.897  0.2080E-01  0.1289E+00
     -3.825  0.2442E-01  0.1307E+00
     -3.753  0.9356E-02  0.1313E+00
     -3.682  0.1504E-01  0.1324E+00
     -3.610  0.1775E-01  0.1337E+00
     -3.538  0.9910E-02  0.1344E+00
     -3.466  0.1217E-01  0.1353E+00
     -3.394  0.1231E-01  0.1362E+00
     -3.322  0.7245E-02  0.1367E+00
     -3.250  0.8784E-02  0.1373E+00
     -3.178  0.7645E-02  0.1379E+00
     -3.106  0.4384E-02  0.1382E+00
     -3.034  0.5106E-02  0.1386E+00
     -2.962  0.1836E-02  0.1387E+00
     -2.890  0.5499E-02  0.1391E+00
     -2.818  0.6251E-02  0.1395E+00
     -2.746  0.2121E-02  0.1397E+00
     -2.674  0.3282E-02  0.1399E+00
     -2.602  0.6656E-02  0.1404E+00
     -2.530  0.7097E-02  0.1409E+00
     -2.458  0.5654E-02  0.1413E+00
     -2.386  0.1035E-01  0.1421E+00
     -2.314  0.1033E-01  0.1428E+00
     -2.242  0.4226E-02  0.1431E+00
     -2.170  0.1097E-01  0.1439E+00
     -2.098  0.1122E-01  0.1447E+00
     -2.026  0.7976E-02  0.1453E+00
     -1.954  0.1015E-01  0.1460E+00
     -1.882  0.1199E-01  0.1469E+00
     -1.810  0.1122E-01  0.1477E+00
     -1.738  0.1523E-01  0.1488E+00
     -1.666  0.1054E-01  0.1495E+00
     -1.594  0.9899E-02  0.1503E+00
     -1.522  0.1450E-01  0.1513E+00
     -1.450  0.7995E-02  0.1519E+00
     -1.378  0.1154E-01  0.1527E+00
     -1.306  0.1178E-01  0.1535E+00
     -1.234  0.1963E-01  0.1550E+00
     -1.162  0.1549E-01  0.1561E+00
     -1.090  0.2075E-01  0.1576E+00
     -1.018  0.2880E-01  0.1596E+00
     -0.946  0.2665E-01  0.1616E+00
     -0.874  0.1132E-01  0.1624E+00
     -0.802  0.4730E-02  0.1627E+00
     -0.730  0.5663E-02  0.1631E+00
     -0.658  0.3984E-02  0.1634E+00
     -0.586  0.4631E-02  0.1637E+00
     -0.514  0.8127E-02  0.1643E+00
     -0.442  0.7647E-02  0.1649E+00
     -0.370  0.8898E-02  0.1655E+00
     -0.298  0.2028E-01  0.1670E+00
     -0.227  0.4531E-01  0.1702E+00
     -0.155  0.3230E-01  0.1726E+00
     -0.083  0.2540E-01  0.1744E+00
     -0.011  0.2580E-01  0.1763E+00
      0.061  0.1864E-01  0.1776E+00
      0.133  0.1690E-01  0.1788E+00
      0.205  0.2053E-01  0.1803E+00
      0.277  0.1913E-01  0.1817E+00
      0.349  0.2199E-01  0.1832E+00
      0.421  0.3046E-01  0.1854E+00
      0.493  0.2405E-01  0.1872E+00
      0.565  0.1169E-01  0.1880E+00
      0.637  0.1477E-01  0.1891E+00
      0.709  0.1620E-01  0.1902E+00
      0.781  0.1504E-01  0.1913E+00
      0.853  0.1832E-01  0.1926E+00
      0.925  0.1662E-01  0.1938E+00
      0.997  0.1766E-01  0.1951E+00
      1.069  0.3000E-01  0.1973E+00
      1.141  0.3987E-01  0.2001E+00
      1.213  0.4556E-01  0.2034E+00
      1.285  0.4159E-01  0.2064E+00
      1.357  0.3885E-01  0.2092E+00
      1.429  0.4854E-01  0.2127E+00
      1.501  0.6685E-01  0.2175E+00
      1.573  0.6206E-01  0.2220E+00
      1.645  0.4379E-01  0.2251E+00
      1.717  0.5880E-01  0.2294E+00
      1.789  0.6619E-01  0.2341E+00
      1.861  0.6269E-01  0.2386E+00
      1.933  0.5523E-01  0.2426E+00
      2.005  0.4832E-01  0.2461E+00
      2.077  0.4672E-01  0.2495E+00
      2.149  0.5873E-01  0.2537E+00
      2.221  0.5767E-01  0.2578E+00
      2.293  0.4087E-01  0.2608E+00
      2.365  0.4908E-01  0.2643E+00
      2.437  0.7475E-01  0.2697E+00
      2.509  0.7520E-01  0.2751E+00
      2.581  0.5942E-01  0.2794E+00
      2.653  0.5217E-01  0.2831E+00
      2.725  0.5661E-01  0.2872E+00
      2.797  0.6964E-01  0.2922E+00
      2.869  0.6557E-01  0.2969E+00
      2.941  0.6134E-01  0.3014E+00
      3.013  0.5889E-01  0.3056E+00
      3.085  0.5359E-01  0.3095E+00
      3.156  0.7167E-01  0.3146E+00
      3.228  0.6629E-01  0.3194E+00
      3.300  0.5496E-01  0.3233E+00
      3.372  0.5675E-01  0.3274E+00
      3.444  0.7192E-01  0.3326E+00
      3.516  0.6313E-01  0.3371E+00
      3.588  0.5150E-01  0.3409E+00
      3.660  0.5288E-01  0.3447E+00
      3.732  0.6270E-01  0.3492E+00
      3.804  0.7594E-01  0.3546E+00
      3.876  0.5753E-01  0.3588E+00
      3.948  0.4604E-01  0.3621E+00
      4.020  0.6968E-01  0.3671E+00
      4.092  0.6741E-01  0.3720E+00
      4.164  0.5806E-01  0.3761E+00
      4.236  0.6594E-01  0.3809E+00
      4.308  0.8311E-01  0.3869E+00
      4.380  0.6674E-01  0.3917E+00
      4.452  0.6501E-01  0.3964E+00
      4.524  0.8110E-01  0.4022E+00
      4.596  0.9289E-01  0.4089E+00
      4.668  0.7049E-01  0.4140E+00
      4.740  0.6258E-01  0.4185E+00
      4.812  0.7342E-01  0.4237E+00
      4.884  0.6255E-01  0.4282E+00
      4.956  0.6063E-01  0.4326E+00
      5.028  0.6574E-01  0.4373E+00
      5.100  0.5109E-01  0.4410E+00
      5.172  0.5826E-01  0.4452E+00
      5.244  0.6687E-01  0.4500E+00
      5.316  0.5905E-01  0.4543E+00
      5.388  0.4749E-01  0.4577E+00
      5.460  0.5312E-01  0.4615E+00
      5.532  0.5505E-01  0.4655E+00
      5.604  0.4940E-01  0.4690E+00
      5.676  0.3278E-01  0.4714E+00
      5.748  0.2792E-01  0.4734E+00
      5.820  0.2499E-01  0.4752E+00
      5.892  0.2226E-01  0.4768E+00
      5.964  0.2755E-01  0.4788E+00
      6.036  0.1262E-01  0.4797E+00
      6.108  0.2438E-02  0.4799E+00
      6.180  0.1559E-02  0.4800E+00
      6.252  0.2221E-03  0.4800E+00
      6.324  0.9879E-06  0.4800E+00
      6.396  0.9139E-10  0.4800E+00
      6.468  0.1521E-15  0.4800E+00
      6.540  0.0000E+00  0.4800E+00
      6.611  0.0000E+00  0.4800E+00
      6.683  0.0000E+00  0.4800E+00
      6.755  0.0000E+00  0.4800E+00
      6.827  0.0000E+00  0.4800E+00
      6.899  0.0000E+00  0.4800E+00
      6.971  0.0000E+00  0.4800E+00
      7.043  0.0000E+00  0.4800E+00
      7.115  0.0000E+00  0.4800E+00
