 running   24 mpi-ranks, on    1 nodes
 distrk:  each k-point on   24 cores,    1 groups
 distr:  one band on    1 cores,   24 groups
 vasp.6.5.0 16Dec24 (build Jan 08 2025 16:17:04) complex                        
  
 POSCAR found type information on POSCAR BeH 
 POSCAR found :  2 types and       7 ions
 Reading from existing POTCAR
 scaLAPACK will be used
 -----------------------------------------------------------------------------
|                                                                             |
|           W    W    AA    RRRRR   N    N  II  N    N   GGGG   !!!           |
|           W    W   A  A   R    R  NN   N  II  NN   N  G    G  !!!           |
|           W    W  A    A  R    R  N N  N  II  N N  N  G       !!!           |
|           W WW W  AAAAAA  RRRRR   N  N N  II  N  N N  G  GGG   !            |
|           WW  WW  A    A  R   R   N   NN  II  N   NN  G    G                |
|           W    W  A    A  R    R  N    N  II  N    N   GGGG   !!!           |
|                                                                             |
|     For optimal performance we recommend to set                             |
|       NCORE = 2 up to number-of-cores-per-socket                            |
|     NCORE specifies how many cores store one orbital (NPAR=cpu/NCORE).      |
|     This setting can greatly improve the performance of VASP for DFT.       |
|     The default, NCORE=1 might be grossly inefficient on modern             |
|     multi-core architectures or massively parallel machines. Do your        |
|     own testing! More info at https://www.vasp.at/wiki/index.php/NCORE      |
|     Unfortunately you need to use the default for GW and RPA                |
|     calculations (for HF NCORE is supported but not extensively tested      |
|     yet).                                                                   |
|                                                                             |
 -----------------------------------------------------------------------------

 Reading from existing POTCAR
 LDA part: xc-table for (Slater+PW92), standard interpolation
 POSCAR, INCAR and KPOINTS ok, starting setup
 FFT: planning ... GRIDC
 FFT: planning ... GRID_SOFT
 FFT: planning ... GRID
 WAVECAR not read
 entering main loop
       N       E                     dE             d eps       ncg     rms          rms(c)
DAV:   1     0.356891467601E+02    0.35689E+02   -0.41071E+03  3600   0.358E+02
DAV:   2    -0.230854214895E+02   -0.58775E+02   -0.58168E+02  5400   0.580E+01
DAV:   3    -0.242559496530E+02   -0.11705E+01   -0.11701E+01  5520   0.116E+01
DAV:   4    -0.242601761317E+02   -0.42265E-02   -0.42264E-02  5616   0.706E-01
DAV:   5    -0.242601914579E+02   -0.15326E-04   -0.15327E-04  5544   0.314E-02    0.511E+00
DAV:   6    -0.226804280053E+02    0.15798E+01   -0.17838E+01  5736   0.505E+00    0.372E+00
DAV:   7    -0.221260696258E+02    0.55436E+00   -0.52363E+00  6696   0.373E+00    0.160E+00
DAV:   8    -0.219805828289E+02    0.14549E+00   -0.68963E-01  6528   0.172E+00    0.951E-01
DAV:   9    -0.219030860049E+02    0.77497E-01   -0.34057E-01  6408   0.106E+00    0.278E-01
DAV:  10    -0.218916107998E+02    0.11475E-01   -0.43269E-02  6912   0.407E-01    0.182E-01
DAV:  11    -0.218869196879E+02    0.46911E-02   -0.76386E-03  6288   0.172E-01    0.771E-02
DAV:  12    -0.218858776281E+02    0.10421E-02   -0.40043E-03  6144   0.126E-01    0.538E-02
DAV:  13    -0.218870066108E+02   -0.11290E-02   -0.18631E-03  6072   0.784E-02    0.258E-02
DAV:  14    -0.218882517167E+02   -0.12451E-02   -0.35011E-04  4416   0.447E-02    0.107E-02
DAV:  15    -0.218886943705E+02   -0.44265E-03   -0.49024E-05  4464   0.163E-02    0.742E-03
DAV:  16    -0.218892400582E+02   -0.54569E-03   -0.51146E-05  4392   0.135E-02    0.335E-03
DAV:  17    -0.218894565052E+02   -0.21645E-03   -0.24424E-05  4440   0.846E-03    0.143E-03
DAV:  18    -0.218895041955E+02   -0.47690E-04   -0.20974E-06  4344   0.265E-03    0.942E-04
DAV:  19    -0.218895494166E+02   -0.45221E-04   -0.30369E-06  4248   0.274E-03    0.416E-04
DAV:  20    -0.218895581301E+02   -0.87135E-05   -0.17338E-07  4560   0.744E-04    0.327E-04
DAV:  21    -0.218895647395E+02   -0.66095E-05   -0.10271E-07  4152   0.598E-04    0.127E-04
DAV:  22    -0.218895669246E+02   -0.21851E-05   -0.31628E-08  4560   0.320E-04    0.102E-04
DAV:  23    -0.218895671319E+02   -0.20727E-06   -0.68296E-10  5328   0.996E-05
   1 F= -.21889567E+02 E0= -.21889111E+02  d E =-.218896E+02
 curvature:   0.00 expect dE= 0.000E+00 dE for cont linesearch  0.000E+00
 trial: gam= 0.00000 g(F)=  0.263E+00 g(S)=  0.182E-01 ort = 0.000E+00 (trialstep = 0.100E+01)
 search vector abs. value=  0.282E+00
 bond charge predicted
       N       E                     dE             d eps       ncg     rms          rms(c)
DAV:   1    -0.221570579026E+02   -0.26749E+00   -0.37326E+00  3600   0.626E+00    0.291E-01
DAV:   2    -0.221569605788E+02    0.97324E-04   -0.51190E-02  4752   0.829E-01    0.160E-01
DAV:   3    -0.221561705754E+02    0.79000E-03   -0.13999E-02  4152   0.239E-01    0.956E-02
DAV:   4    -0.221557338298E+02    0.43675E-03   -0.44411E-03  4296   0.150E-01    0.247E-02
DAV:   5    -0.221557352026E+02   -0.13729E-05   -0.25152E-04  6072   0.549E-02    0.129E-02
DAV:   6    -0.221557458311E+02   -0.10628E-04   -0.20398E-05  5160   0.130E-02    0.396E-03
DAV:   7    -0.221557587828E+02   -0.12952E-04   -0.29064E-06  4344   0.476E-03    0.247E-03
DAV:   8    -0.221557783653E+02   -0.19583E-04   -0.36254E-06  4536   0.398E-03    0.986E-04
DAV:   9    -0.221557877883E+02   -0.94230E-05   -0.98991E-07  4464   0.196E-03    0.662E-04
DAV:  10    -0.221557974772E+02   -0.96889E-05   -0.17253E-06  4416   0.216E-03    0.335E-04
DAV:  11    -0.221558005381E+02   -0.30609E-05   -0.40191E-07  4512   0.102E-03    0.175E-04
DAV:  12    -0.221558018442E+02   -0.13061E-05   -0.96020E-08  4344   0.520E-04    0.105E-04
DAV:  13    -0.221558023766E+02   -0.53246E-06   -0.14297E-08  4488   0.231E-04
   2 F= -.22155802E+02 E0= -.22154964E+02  d E =-.266235E+00
 ZBRENT: can't locate minimum, use default step
 trial-energy change:   -0.266235  1 .order   -0.266321   -0.281528   -0.251114
 step:   4.0000(harm=  9.2567)  dis= 0.08551  next Energy=   -23.192576 (dE=-0.130E+01)
 bond charge predicted
       N       E                     dE             d eps       ncg     rms          rms(c)
DAV:   1    -0.227671118461E+02   -0.61131E+00   -0.32767E+01  3600   0.185E+01    0.959E-01
DAV:   2    -0.227635084434E+02    0.36034E-02   -0.47539E-01  4944   0.256E+00    0.545E-01
DAV:   3    -0.227534043753E+02    0.10104E-01   -0.78414E-02  4824   0.653E-01    0.191E-01
DAV:   4    -0.227522680545E+02    0.11363E-02   -0.18836E-02  4344   0.312E-01    0.773E-02
DAV:   5    -0.227520255022E+02    0.24255E-03   -0.30313E-03  5808   0.134E-01    0.394E-02
DAV:   6    -0.227520385858E+02   -0.13084E-04   -0.16766E-04  5136   0.449E-02    0.189E-02
DAV:   7    -0.227521231607E+02   -0.84575E-04   -0.58006E-05  4560   0.203E-02    0.792E-03
DAV:   8    -0.227522094089E+02   -0.86248E-04   -0.27236E-05  4584   0.121E-02    0.401E-03
DAV:   9    -0.227522749393E+02   -0.65530E-04   -0.14728E-05  4488   0.784E-03    0.221E-03
DAV:  10    -0.227523185827E+02   -0.43643E-04   -0.11778E-05  4704   0.634E-03    0.100E-03
DAV:  11    -0.227523335733E+02   -0.14991E-04   -0.23938E-06  4800   0.295E-03    0.640E-04
DAV:  12    -0.227523403800E+02   -0.68067E-05   -0.48094E-07  4704   0.147E-03    0.347E-04
DAV:  13    -0.227523443899E+02   -0.40099E-05   -0.15968E-07  4728   0.745E-04    0.143E-04
DAV:  14    -0.227523453906E+02   -0.10007E-05   -0.19053E-08  4992   0.263E-04    0.904E-05
DAV:  15    -0.227523464856E+02   -0.10950E-05   -0.30240E-08  4464   0.266E-04    0.403E-05
DAV:  16    -0.227523468617E+02   -0.37614E-06   -0.49198E-09  4872   0.128E-04
   3 F= -.22752347E+02 E0= -.22751019E+02  d E =-.862780E+00
 curvature:  -2.75 expect dE=-0.104E+01 dE for cont linesearch -0.186E+00
 ZBRENT: increasing intervall
 opt :  10.0000  next Energy=   -22.898742 (dE=-0.101E+01)
 bond charge predicted
       N       E                     dE             d eps       ncg     rms          rms(c)
DAV:   1    -0.222031404804E+02    0.54921E+00   -0.12088E+02  3600   0.329E+01    0.270E+00
DAV:   2    -0.221682910150E+02    0.34849E-01   -0.26996E+00  5544   0.557E+00    0.169E+00
DAV:   3    -0.220953510923E+02    0.72940E-01   -0.41883E-01  5160   0.160E+00    0.387E-01
DAV:   4    -0.220948054090E+02    0.54568E-03   -0.37508E-02  4872   0.587E-01    0.170E-01
DAV:   5    -0.220939945645E+02    0.81084E-03   -0.79192E-03  5544   0.197E-01    0.814E-02
DAV:   6    -0.220939537929E+02    0.40772E-04   -0.87153E-04  5568   0.877E-02    0.226E-02
DAV:   7    -0.220941026307E+02   -0.14884E-03   -0.20142E-04  5016   0.352E-02    0.113E-02
DAV:   8    -0.220942332632E+02   -0.13063E-03   -0.44593E-05  4632   0.165E-02    0.694E-03
DAV:   9    -0.220943579255E+02   -0.12466E-03   -0.42605E-05  4416   0.140E-02    0.340E-03
DAV:  10    -0.220944240064E+02   -0.66081E-04   -0.20508E-05  4440   0.864E-03    0.176E-03
DAV:  11    -0.220944473963E+02   -0.23390E-04   -0.49969E-06  4128   0.436E-03    0.104E-03
DAV:  12    -0.220944620200E+02   -0.14624E-04   -0.18088E-06  4584   0.284E-03    0.499E-04
DAV:  13    -0.220944684528E+02   -0.64327E-05   -0.33545E-07  4392   0.109E-03    0.277E-04
DAV:  14    -0.220944720326E+02   -0.35798E-05   -0.17786E-07  4608   0.682E-04    0.151E-04
DAV:  15    -0.220944735266E+02   -0.14940E-05   -0.44603E-08  4872   0.325E-04    0.761E-05
DAV:  16    -0.220944743935E+02   -0.86693E-06   -0.26166E-08  4584   0.221E-04
   4 F= -.22094474E+02 E0= -.22093035E+02  d E =-.204907E+00
 curvature:  -2.17 expect dE=-0.387E+01 dE for cont linesearch -0.175E+01
 ZBRENT: bracketing found
 ZBRENT: interpolating
 opt :   5.3453  next Energy=   -22.845008 (dE=-0.955E+00)
 bond charge predicted
       N       E                     dE             d eps       ncg     rms          rms(c)
DAV:   1    -0.230448207513E+02   -0.95035E+00   -0.83485E+01  3864   0.295E+01    0.250E+00
DAV:   2    -0.229156939230E+02    0.12913E+00   -0.10259E+00  5688   0.365E+00    0.140E+00
DAV:   3    -0.228783412440E+02    0.37353E-01   -0.27602E-01  4968   0.123E+00    0.351E-01
DAV:   4    -0.228768120225E+02    0.15292E-02   -0.52520E-02  4488   0.535E-01    0.154E-01
DAV:   5    -0.228761452723E+02    0.66675E-03   -0.91535E-03  6000   0.243E-01    0.437E-02
DAV:   6    -0.228761928991E+02   -0.47627E-04   -0.51215E-04  4920   0.769E-02    0.172E-02
DAV:   7    -0.228762329410E+02   -0.40042E-04   -0.71568E-05  5184   0.224E-02    0.801E-03
DAV:   8    -0.228762636874E+02   -0.30746E-04   -0.12254E-05  4776   0.840E-03    0.487E-03
DAV:   9    -0.228763090718E+02   -0.45384E-04   -0.11550E-05  4872   0.664E-03    0.266E-03
DAV:  10    -0.228763481322E+02   -0.39060E-04   -0.10215E-05  4728   0.597E-03    0.128E-03
DAV:  11    -0.228763718000E+02   -0.23668E-04   -0.13229E-06  3960   0.327E-03    0.761E-04
DAV:  12    -0.228763856960E+02   -0.13896E-04   -0.77624E-07  4728   0.192E-03    0.421E-04
DAV:  13    -0.228763943862E+02   -0.86901E-05   -0.16803E-07  4632   0.891E-04    0.227E-04
DAV:  14    -0.228763983054E+02   -0.39193E-05   -0.12365E-07  4752   0.587E-04    0.134E-04
DAV:  15    -0.228763995706E+02   -0.12652E-05   -0.18078E-08  5256   0.239E-04    0.572E-05
DAV:  16    -0.228764005013E+02   -0.93073E-06   -0.22537E-08  4608   0.220E-04
   5 F= -.22876401E+02 E0= -.22875465E+02  d E =-.986833E+00
 curvature:  -0.11 expect dE=-0.578E-01 dE for cont linesearch -0.122E-02
 trial: gam= 1.59298 g(F)=  0.295E+00 g(S)=  0.208E+00 ort = 0.547E-01 (trialstep = 0.378E+00)
 search vector abs. value=  0.139E+01
 bond charge predicted
       N       E                     dE             d eps       ncg     rms          rms(c)
DAV:   1    -0.230825329052E+02   -0.20613E+00   -0.29321E+00  3600   0.594E+00    0.339E-01
DAV:   2    -0.230824925558E+02    0.40349E-04   -0.34717E-02  5640   0.706E-01    0.194E-01
DAV:   3    -0.230815549368E+02    0.93762E-03   -0.50429E-03  5208   0.150E-01    0.609E-02
DAV:   4    -0.230813959265E+02    0.15901E-03   -0.15414E-03  4656   0.897E-02    0.198E-02
DAV:   5    -0.230813771745E+02    0.18752E-04   -0.16407E-04  5760   0.340E-02    0.727E-03
DAV:   6    -0.230813772736E+02   -0.99188E-07   -0.92605E-06  4800   0.898E-03
   6 F= -.23081377E+02 E0= -.23080198E+02  d E =-.204977E+00
 ZBRENT: can't locate minimum, use default step
 trial-energy change:   -0.204977  1 .order   -0.204151   -0.223158   -0.185144
 step:   1.5124(harm=  2.2195)  dis= 0.06902  next Energy=   -23.399745 (dE=-0.523E+00)
 bond charge predicted
       N       E                     dE             d eps       ncg     rms          rms(c)
DAV:   1    -0.234050364705E+02   -0.32366E+00   -0.26357E+01  3600   0.178E+01    0.120E+00
DAV:   2    -0.234022864747E+02    0.27500E-02   -0.36818E-01  5928   0.224E+00    0.727E-01
DAV:   3    -0.233924704024E+02    0.98161E-02   -0.65188E-02  5256   0.558E-01    0.216E-01
DAV:   4    -0.233904221195E+02    0.20483E-02   -0.16719E-02  5376   0.302E-01    0.428E-02
DAV:   5    -0.233903157809E+02    0.10634E-03   -0.99230E-04  5496   0.969E-02    0.236E-02
DAV:   6    -0.233902754629E+02    0.40318E-04   -0.14288E-04  4968   0.329E-02    0.956E-03
DAV:   7    -0.233902842277E+02   -0.87648E-05   -0.15945E-05  4608   0.115E-02    0.580E-03
DAV:   8    -0.233903137616E+02   -0.29534E-04   -0.12583E-05  4584   0.723E-03    0.305E-03
DAV:   9    -0.233903459451E+02   -0.32184E-04   -0.48731E-06  4248   0.454E-03    0.168E-03
DAV:  10    -0.233903690524E+02   -0.23107E-04   -0.48015E-06  4296   0.403E-03    0.964E-04
DAV:  11    -0.233903911395E+02   -0.22087E-04   -0.13986E-06  4200   0.312E-03    0.498E-04
DAV:  12    -0.233903988572E+02   -0.77178E-05   -0.12137E-07  4752   0.984E-04    0.248E-04
DAV:  13    -0.233904027789E+02   -0.39216E-05   -0.80501E-08  4704   0.461E-04    0.142E-04
DAV:  14    -0.233904047251E+02   -0.19462E-05   -0.58957E-08  4488   0.353E-04    0.612E-05
DAV:  15    -0.233904054058E+02   -0.68073E-06   -0.90834E-09  4560   0.142E-04
   7 F= -.23390405E+02 E0= -.23389006E+02  d E =-.514005E+00
 curvature:  -2.23 expect dE=-0.694E+00 dE for cont linesearch -0.207E-04
 trial: gam= 0.13399 g(F)=  0.282E+00 g(S)=  0.287E-01 ort = 0.359E-02 (trialstep = 0.605E+00)
 search vector abs. value=  0.337E+00
 bond charge predicted
       N       E                     dE             d eps       ncg     rms          rms(c)
DAV:   1    -0.235548654854E+02   -0.16446E+00   -0.16505E+00  3672   0.391E+00    0.488E-01
DAV:   2    -0.235437341896E+02    0.11131E-01   -0.56309E-02  4872   0.837E-01    0.238E-01
DAV:   3    -0.235407299253E+02    0.30043E-02   -0.15545E-02  5256   0.320E-01    0.300E-02
DAV:   4    -0.235407903678E+02   -0.60442E-04   -0.14033E-03  4968   0.127E-01    0.198E-02
DAV:   5    -0.235407920537E+02   -0.16859E-05   -0.80481E-05  4920   0.275E-02    0.113E-02
DAV:   6    -0.235407990019E+02   -0.69482E-05   -0.10654E-05  5208   0.102E-02    0.230E-03
DAV:   7    -0.235408027644E+02   -0.37625E-05   -0.17739E-06  5208   0.401E-03    0.136E-03
DAV:   8    -0.235408085275E+02   -0.57631E-05   -0.57274E-07  4680   0.161E-03    0.705E-04
DAV:   9    -0.235408157528E+02   -0.72253E-05   -0.68687E-07  4392   0.141E-03    0.444E-04
DAV:  10    -0.235408195290E+02   -0.37762E-05   -0.26565E-07  4440   0.763E-04    0.222E-04
DAV:  11    -0.235408214348E+02   -0.19057E-05   -0.76749E-08  4800   0.407E-04    0.116E-04
DAV:  12    -0.235408224269E+02   -0.99215E-06   -0.22986E-08  4992   0.228E-04
   8 F= -.23540822E+02 E0= -.23539722E+02  d E =-.150417E+00
 trial-energy change:   -0.150417  1 .order   -0.149663   -0.188372   -0.110954
 step:   1.3706(harm=  1.4719)  dis= 0.07334  next Energy=   -23.612562 (dE=-0.222E+00)
 bond charge predicted
       N       E                     dE             d eps       ncg     rms          rms(c)
DAV:   1    -0.236319333107E+02   -0.91112E-01   -0.26020E+00  3720   0.492E+00    0.561E-01
DAV:   2    -0.236185020224E+02    0.13431E-01   -0.79397E-02  5544   0.103E+00    0.275E-01
DAV:   3    -0.236147205952E+02    0.37814E-02   -0.19590E-02  4920   0.368E-01    0.388E-02
DAV:   4    -0.236148021953E+02   -0.81600E-04   -0.20008E-03  4968   0.152E-01    0.247E-02
DAV:   5    -0.236148040913E+02   -0.18960E-05   -0.12268E-04  4872   0.335E-02    0.139E-02
DAV:   6    -0.236148137082E+02   -0.96169E-05   -0.16383E-05  5352   0.125E-02    0.293E-03
DAV:   7    -0.236148181771E+02   -0.44689E-05   -0.26815E-06  4944   0.506E-03    0.146E-03
DAV:   8    -0.236148236385E+02   -0.54614E-05   -0.50538E-07  4728   0.170E-03    0.737E-04
DAV:   9    -0.236148312587E+02   -0.76201E-05   -0.65518E-07  4392   0.139E-03    0.424E-04
DAV:  10    -0.236148350791E+02   -0.38204E-05   -0.29911E-07  4368   0.827E-04    0.277E-04
DAV:  11    -0.236148372894E+02   -0.22103E-05   -0.10542E-07  4752   0.493E-04    0.120E-04
DAV:  12    -0.236148381588E+02   -0.86936E-06   -0.19351E-08  4968   0.228E-04
   9 F= -.23614838E+02 E0= -.23614246E+02  d E =-.224433E+00
 curvature:  -0.79 expect dE=-0.141E-01 dE for cont linesearch -0.166E-03
 ZBRENT: extrapolating
 opt :   1.4074  next Energy=   -23.614994 (dE=-0.225E+00)
 bond charge predicted
       N       E                     dE             d eps       ncg     rms          rms(c)
DAV:   1    -0.236150240020E+02   -0.18671E-03   -0.59685E-03  4368   0.237E-01    0.254E-02
DAV:   2    -0.236149990385E+02    0.24963E-04   -0.19423E-04  4272   0.507E-02    0.133E-02
DAV:   3    -0.236149916189E+02    0.74197E-05   -0.46461E-05  4488   0.181E-02    0.199E-03
DAV:   4    -0.236149920870E+02   -0.46813E-06   -0.57750E-06  4368   0.781E-03
  10 F= -.23614992E+02 E0= -.23614358E+02  d E =-.224587E+00
 curvature:  -0.74 expect dE=-0.137E-01 dE for cont linesearch -0.954E-07
 trial: gam= 0.06614 g(F)=  0.184E-01 g(S)=  0.259E-03 ort =-0.209E-03 (trialstep = 0.765E+00)
 search vector abs. value=  0.201E-01
 bond charge predicted
       N       E                     dE             d eps       ncg     rms          rms(c)
DAV:   1    -0.236290330042E+02   -0.14041E-01   -0.19598E-01  3600   0.119E+00    0.129E-01
DAV:   2    -0.236279992471E+02    0.10338E-02   -0.63891E-03  5280   0.249E-01    0.559E-02
DAV:   3    -0.236278513259E+02    0.14792E-03   -0.11009E-03  5376   0.760E-02    0.133E-02
DAV:   4    -0.236278539046E+02   -0.25788E-05   -0.75974E-05  4512   0.283E-02    0.554E-03
DAV:   5    -0.236278534166E+02    0.48804E-06   -0.12861E-05  5352   0.925E-03    0.231E-03
DAV:   6    -0.236278530854E+02    0.33123E-06   -0.80310E-07  4824   0.270E-03
  11 F= -.23627853E+02 E0= -.23627070E+02  d E =-.128610E-01
 ZBRENT: can't locate minimum, use default step
 trial-energy change:   -0.012861  1 .order   -0.012852   -0.014254   -0.011449
 step:   3.0618(harm=  3.8907)  dis= 0.03786  next Energy=   -23.651217 (dE=-0.362E-01)
 bond charge predicted
       N       E                     dE             d eps       ncg     rms          rms(c)
DAV:   1    -0.236603838436E+02   -0.32530E-01   -0.17732E+00  3600   0.357E+00    0.397E-01
DAV:   2    -0.236503191950E+02    0.10065E-01   -0.60181E-02  6072   0.757E-01    0.167E-01
DAV:   3    -0.236489758214E+02    0.13434E-02   -0.95031E-03  5472   0.222E-01    0.405E-02
DAV:   4    -0.236489878981E+02   -0.12077E-04   -0.57200E-04  4800   0.803E-02    0.153E-02
DAV:   5    -0.236489824113E+02    0.54868E-05   -0.87955E-05  6000   0.243E-02    0.647E-03
DAV:   6    -0.236489790271E+02    0.33842E-05   -0.59017E-06  5616   0.695E-03    0.330E-03
DAV:   7    -0.236489761572E+02    0.28699E-05   -0.27298E-06  5712   0.402E-03    0.112E-03
DAV:   8    -0.236489770100E+02   -0.85280E-06   -0.31565E-07  5328   0.149E-03
  12 F= -.23648977E+02 E0= -.23647697E+02  d E =-.339849E-01
 curvature:  -1.95 expect dE=-0.142E-01 dE for cont linesearch -0.108E-02
 ZBRENT: extrapolating
 opt :   3.7212  next Energy=   -23.650077 (dE=-0.351E-01)
 bond charge predicted
       N       E                     dE             d eps       ncg     rms          rms(c)
DAV:   1    -0.236510856613E+02   -0.21095E-02   -0.14732E-01  3600   0.103E+00    0.116E-01
DAV:   2    -0.236501956935E+02    0.88997E-03   -0.53102E-03  5832   0.225E-01    0.492E-02
DAV:   3    -0.236500750890E+02    0.12060E-03   -0.86552E-04  5664   0.673E-02    0.115E-02
DAV:   4    -0.236500771084E+02   -0.20195E-05   -0.48537E-05  4728   0.239E-02    0.455E-03
DAV:   5    -0.236500773009E+02   -0.19242E-06   -0.66459E-06  5784   0.685E-03
  13 F= -.23650077E+02 E0= -.23648652E+02  d E =-.350852E-01
 curvature:  -1.98 expect dE=-0.190E-01 dE for cont linesearch -0.440E-06
 trial: gam= 0.50387 g(F)=  0.855E-02 g(S)=  0.101E-02 ort =-0.667E-04 (trialstep = 0.136E+01)
 search vector abs. value=  0.146E-01
 bond charge predicted
       N       E                     dE             d eps       ncg     rms          rms(c)
DAV:   1    -0.236599760085E+02   -0.98989E-02   -0.38920E-01  3600   0.180E+00    0.185E-01
DAV:   2    -0.236582441769E+02    0.17318E-02   -0.12855E-02  6312   0.380E-01    0.858E-02
DAV:   3    -0.236579243656E+02    0.31981E-03   -0.19501E-03  5304   0.107E-01    0.222E-02
DAV:   4    -0.236579110123E+02    0.13353E-04   -0.15584E-04  5664   0.414E-02    0.919E-03
DAV:   5    -0.236579009809E+02    0.10031E-04   -0.23913E-05  5640   0.117E-02    0.417E-03
DAV:   6    -0.236578978680E+02    0.31129E-05   -0.30121E-06  4416   0.439E-03    0.208E-03
DAV:   7    -0.236578991669E+02   -0.12989E-05   -0.77982E-07  4752   0.212E-03    0.888E-04
DAV:   8    -0.236579028227E+02   -0.36559E-05   -0.55727E-07  4560   0.142E-03    0.568E-04
DAV:   9    -0.236579070345E+02   -0.42117E-05   -0.54298E-07  4680   0.124E-03    0.294E-04
DAV:  10    -0.236579102762E+02   -0.32418E-05   -0.54142E-07  4608   0.111E-03    0.147E-04
DAV:  11    -0.236579113344E+02   -0.10581E-05   -0.13194E-07  4680   0.518E-04    0.892E-05
DAV:  12    -0.236579116582E+02   -0.32379E-06   -0.22265E-08  4680   0.239E-04
  14 F= -.23657912E+02 E0= -.23656320E+02  d E =-.783436E-02
 trial-energy change:   -0.007834  1 .order   -0.007818   -0.012928   -0.002709
 step:   1.7162(harm=  1.7162)  dis= 0.01664  next Energy=   -23.658255 (dE=-0.818E-02)
 bond charge predicted
       N       E                     dE             d eps       ncg     rms          rms(c)
DAV:   1    -0.236584092891E+02   -0.49795E-03   -0.27373E-02  3816   0.479E-01    0.489E-02
DAV:   2    -0.236582892842E+02    0.12000E-03   -0.92946E-04  4992   0.102E-01    0.230E-02
DAV:   3    -0.236582659937E+02    0.23291E-04   -0.14390E-04  4872   0.296E-02    0.592E-03
DAV:   4    -0.236582651631E+02    0.83055E-06   -0.12585E-05  4512   0.117E-02    0.251E-03
DAV:   5    -0.236582643798E+02    0.78333E-06   -0.16869E-06  5256   0.324E-03
  15 F= -.23658264E+02 E0= -.23656661E+02  d E =-.818708E-02
 curvature:  -1.31 expect dE=-0.997E-03 dE for cont linesearch -0.110E-06
 trial: gam= 0.03506 g(F)=  0.607E-03 g(S)=  0.151E-03 ort =-0.350E-04 (trialstep = 0.143E+01)
 search vector abs. value=  0.774E-03
 bond charge predicted
       N       E                     dE             d eps       ncg     rms          rms(c)
DAV:   1    -0.236589857636E+02   -0.72060E-03   -0.21853E-02  3600   0.526E-01    0.383E-02
DAV:   2    -0.236589736079E+02    0.12156E-04   -0.37121E-04  4272   0.733E-02    0.221E-02
DAV:   3    -0.236589657162E+02    0.78917E-05   -0.58743E-05  4512   0.185E-02    0.551E-03
DAV:   4    -0.236589653979E+02    0.31830E-06   -0.11215E-05  4416   0.803E-03    0.144E-03
DAV:   5    -0.236589654723E+02   -0.74399E-07   -0.90791E-07  4824   0.268E-03
  16 F= -.23658965E+02 E0= -.23657385E+02  d E =-.701093E-03
 trial-energy change:   -0.000701  1 .order   -0.000694   -0.001082   -0.000307
 step:   1.9564(harm=  1.9941)  dis= 0.00247  next Energy=   -23.659023 (dE=-0.758E-03)
 bond charge predicted
       N       E                     dE             d eps       ncg     rms          rms(c)
DAV:   1    -0.236590292459E+02   -0.63848E-04   -0.29852E-03  3984   0.194E-01    0.142E-02
DAV:   2    -0.236590274695E+02    0.17764E-05   -0.49835E-05  5112   0.265E-02    0.812E-03
DAV:   3    -0.236590269371E+02    0.53245E-06   -0.81085E-06  4080   0.678E-03
  17 F= -.23659027E+02 E0= -.23657454E+02  d E =-.762557E-03
 curvature:  -1.01 expect dE=-0.183E-03 dE for cont linesearch -0.285E-06
 trial: gam= 0.21680 g(F)=  0.120E-03 g(S)=  0.602E-04 ort = 0.147E-04 (trialstep = 0.153E+01)
 search vector abs. value=  0.223E-03
 bond charge predicted
       N       E                     dE             d eps       ncg     rms          rms(c)
DAV:   1    -0.236592200009E+02   -0.19253E-03   -0.62634E-03  3816   0.290E-01    0.214E-02
DAV:   2    -0.236592057934E+02    0.14207E-04   -0.14013E-04  4368   0.398E-02    0.113E-02
DAV:   3    -0.236592023228E+02    0.34706E-05   -0.26521E-05  4968   0.126E-02    0.376E-03
DAV:   4    -0.236592017271E+02    0.59566E-06   -0.39287E-06  4464   0.506E-03
  18 F= -.23659202E+02 E0= -.23657626E+02  d E =-.174790E-03
 trial-energy change:   -0.000175  1 .order   -0.000177   -0.000282   -0.000072
 step:   2.0598(harm=  2.0598)  dis= 0.00172  next Energy=   -23.659216 (dE=-0.189E-03)
 bond charge predicted
       N       E                     dE             d eps       ncg     rms          rms(c)
DAV:   1    -0.236592168401E+02   -0.14517E-04   -0.74602E-04  4776   0.100E-01    0.731E-03
DAV:   2    -0.236592146480E+02    0.21920E-05   -0.17164E-05  4704   0.136E-02    0.391E-03
DAV:   3    -0.236592141554E+02    0.49265E-06   -0.31110E-06  4296   0.432E-03
  19 F= -.23659214E+02 E0= -.23657639E+02  d E =-.187218E-03
 curvature:  -1.25 expect dE=-0.127E-04 dE for cont linesearch -0.417E-07
 ZBRENT: extrapolating
 opt :   2.0923  next Energy=   -23.659214 (dE=-0.187E-03)
 bond charge predicted
       N       E                     dE             d eps       ncg     rms          rms(c)
DAV:   1    -0.236592140100E+02    0.63802E-06   -0.26552E-06  4920   0.633E-03    0.727E-04
DAV:   2    -0.236592140026E+02    0.73613E-08   -0.32084E-08  4656   0.733E-04
  20 F= -.23659214E+02 E0= -.23657639E+02  d E =-.187066E-03
 curvature:  -1.33 expect dE=-0.139E-04 dE for cont linesearch -0.243E-08
 trial: gam= 0.08060 g(F)=  0.884E-05 g(S)=  0.158E-05 ort =-0.639E-06 (trialstep = 0.165E+01)
 search vector abs. value=  0.118E-04
 bond charge predicted
       N       E                     dE             d eps       ncg     rms          rms(c)
DAV:   1    -0.236592239911E+02   -0.99811E-05   -0.48440E-04  4440   0.735E-02    0.656E-03
DAV:   2    -0.236592229999E+02    0.99121E-06   -0.84726E-06  4248   0.102E-02
  21 F= -.23659223E+02 E0= -.23657647E+02  d E =-.899723E-05
 trial-energy change:   -0.000009  1 .order   -0.000009   -0.000017   -0.000001
 step:   1.7674(harm=  1.7674)  dis= 0.00040  next Energy=   -23.659223 (dE=-0.916E-05)
 bond charge predicted
       N       E                     dE             d eps       ncg     rms          rms(c)
DAV:   1    -0.236592229754E+02    0.10157E-05   -0.22570E-06  4776   0.553E-03    0.985E-04
DAV:   2    -0.236592230157E+02   -0.40373E-07   -0.22697E-07  4680   0.134E-03
  22 F= -.23659223E+02 E0= -.23657647E+02  d E =-.901310E-05
 curvature:  -1.00 expect dE=-0.239E-05 dE for cont linesearch -0.888E-07
 ZBRENT: interpolating
 opt :   1.6958  next Energy=   -23.659223 (dE=-0.902E-05)
 bond charge predicted
       N       E                     dE             d eps       ncg     rms          rms(c)
DAV:   1    -0.236592231784E+02   -0.20301E-06   -0.10435E-06  5136   0.324E-03    0.211E-04
DAV:   2    -0.236592231874E+02   -0.89835E-08   -0.18239E-08  4800   0.467E-04
  23 F= -.23659223E+02 E0= -.23657647E+02  d E =-.918472E-05
 curvature:  -0.20 expect dE=-0.443E-06 dE for cont linesearch -0.754E-08
 ZBRENT: interpolating
 opt :   1.6717  next Energy=   -23.659223 (dE=-0.919E-05)
 bond charge predicted
       N       E                     dE             d eps       ncg     rms          rms(c)
DAV:   1    -0.236592232214E+02   -0.42971E-07   -0.90745E-08  4632   0.105E-03    0.109E-04
DAV:   2    -0.236592232250E+02   -0.36491E-08    0.27446E-10  4680   0.135E-04
  24 F= -.23659223E+02 E0= -.23657647E+02  d E =-.922236E-05
 curvature:  -0.21 expect dE=-0.456E-06 dE for cont linesearch -0.435E-08
 ZBRENT: bisectioning
 opt :   1.6587  next Energy=   -23.659223 (dE=-0.923E-05)
 bond charge predicted
       N       E                     dE             d eps       ncg     rms          rms(c)
DAV:   1    -0.236592232408E+02   -0.19400E-07   -0.23927E-08  4368   0.561E-04    0.556E-05
DAV:   2    -0.236592232430E+02   -0.22473E-08    0.15589E-09  4728   0.706E-05
  25 F= -.23659223E+02 E0= -.23657647E+02  d E =-.924036E-05
 curvature:  -0.28 expect dE=-0.590E-06 dE for cont linesearch -0.373E-08
 trial: gam= 0.23374 g(F)=  0.197E-05 g(S)=  0.123E-06 ort =-0.394E-06 (trialstep = 0.165E+01)
 search vector abs. value=  0.255E-05
 bond charge predicted
       N       E                     dE             d eps       ncg     rms          rms(c)
DAV:   1    -0.236592264561E+02   -0.32154E-05   -0.11305E-04  4344   0.305E-02    0.309E-03
DAV:   2    -0.236592258997E+02    0.55644E-06   -0.41393E-06  4344   0.637E-03
  26 F= -.23659226E+02 E0= -.23657650E+02  d E =-.265668E-05
 trial-energy change:   -0.000003  1 .order   -0.000003   -0.000003   -0.000002
 step:   4.8244(harm=  4.8244)  dis= 0.00073  next Energy=   -23.659228 (dE=-0.482E-05)
 bond charge predicted
       N       E                     dE             d eps       ncg     rms          rms(c)
DAV:   1    -0.236592288405E+02   -0.23844E-05   -0.39984E-04  4608   0.583E-02    0.612E-03
DAV:   2    -0.236592266948E+02    0.21457E-05   -0.14851E-05  5280   0.119E-02    0.271E-03
DAV:   3    -0.236592264953E+02    0.19944E-06   -0.22298E-06  4344   0.371E-03
  27 F= -.23659226E+02 E0= -.23657651E+02  d E =-.325232E-05
 curvature:  -3.08 expect dE=-0.167E-05 dE for cont linesearch -0.857E-06
 ZBRENT: interpolating
 opt :   3.5845  next Energy=   -23.659227 (dE=-0.377E-05)
 bond charge predicted
       N       E                     dE             d eps       ncg     rms          rms(c)
DAV:   1    -0.236592274450E+02   -0.75022E-06   -0.63173E-05  5040   0.226E-02    0.225E-03
DAV:   2    -0.236592270260E+02    0.41903E-06   -0.24693E-06  4824   0.465E-03
  28 F= -.23659227E+02 E0= -.23657651E+02  d E =-.378295E-05
 curvature:  -1.88 expect dE=-0.455E-06 dE for cont linesearch -0.478E-07
 ZBRENT: interpolating
 opt :   3.1342  next Energy=   -23.659227 (dE=-0.385E-05)
 bond charge predicted
       N       E                     dE             d eps       ncg     rms          rms(c)
DAV:   1    -0.236592269835E+02    0.46151E-06   -0.66126E-06  4656   0.806E-03    0.961E-04
DAV:   2    -0.236592269253E+02    0.58158E-07   -0.28267E-07  4536   0.146E-03
  29 F= -.23659227E+02 E0= -.23657651E+02  d E =-.368231E-05
 curvature:  -2.62 expect dE=-0.486E-06 dE for cont linesearch -0.186E-07
 trial: gam=-0.04028 g(F)=  0.153E-06 g(S)=  0.331E-07 ort = 0.134E-06 (trialstep = 0.195E+01)
 search vector abs. value=  0.179E-06
 reached required accuracy - stopping structural energy minimisation
