 running   28 mpi-ranks, on    1 nodes
 distrk:  each k-point on   28 cores,    1 groups
 distr:  one band on    1 cores,   28 groups
 vasp.6.5.0 16Dec24 (build Sep 22 2026 16:26:42) complex                        
  
 POSCAR found type information on POSCAR BeH 
 POSCAR found :  2 types and       3 ions
 Reading from existing POTCAR
 scaLAPACK will be used
 -----------------------------------------------------------------------------
|                                                                             |
|           W    W    AA    RRRRR   N    N  II  N    N   GGGG   !!!           |
|           W    W   A  A   R    R  NN   N  II  NN   N  G    G  !!!           |
|           W    W  A    A  R    R  N N  N  II  N N  N  G       !!!           |
|           W WW W  AAAAAA  RRRRR   N  N N  II  N  N N  G  GGG   !            |
|           WW  WW  A    A  R   R   N   NN  II  N   NN  G    G                |
|           W    W  A    A  R    R  N    N  II  N    N   GGGG   !!!           |
|                                                                             |
|     For optimal performance we recommend to set                             |
|       NCORE = 2 up to number-of-cores-per-socket                            |
|     NCORE specifies how many cores store one orbital (NPAR=cpu/NCORE).      |
|     This setting can greatly improve the performance of VASP for DFT.       |
|     The default, NCORE=1 might be grossly inefficient on modern             |
|     multi-core architectures or massively parallel machines. Do your        |
|     own testing! More info at https://www.vasp.at/wiki/index.php/NCORE      |
|     Unfortunately you need to use the default for GW and RPA                |
|     calculations (for HF NCORE is supported but not extensively tested      |
|     yet).                                                                   |
|                                                                             |
 -----------------------------------------------------------------------------

 Reading from existing POTCAR
 -----------------------------------------------------------------------------
|                                                                             |
|               ----> ADVICE to this user running VASP <----                  |
|                                                                             |
|     In the current version of VASP you can specify the input to             |
|     wannier90 in the INCAR file. To do so use the WANNIER90_WIN tag         |
|     which is a string delimited by ", that can span mutiple lines. VASP     |
|     will then write the contents of WANNIER90_WIN to wannier90.win and      |
|     automatically set some variables to be consistent with the present      |
|     run. Presently you have not specified WANNIER90_WIN, therefore the      |
|     interface to wannier90 will run in legacy mode. This means a            |
|     barebones wannier90.win will be created only if this file is not        |
|     already present.                                                        |
|                                                                             |
 -----------------------------------------------------------------------------

 LDA part: xc-table for (Slater+PW92), standard interpolation
 WARNING: stress and forces are not correct
 POSCAR, INCAR and KPOINTS ok, starting setup
 FFT: planning ... GRIDC
 FFT: planning ... GRID_SOFT
 FFT: planning ... GRID
 WAVECAR not read
 reading imaginary part of occupancies ...
 charge-density read from file: beta_1h                                 
 reading imaginary part of occupancies ...
 magnetization density read from file 1
 reading imaginary part of occupancies ...
 magnetization density read from file 2
 reading imaginary part of occupancies ...
 magnetization density read from file 3
 entering main loop
       N       E                     dE             d eps       ncg     rms          rms(c)
DAV:   1     0.532863950276E+01    0.53286E+01   -0.19738E+03  1736   0.274E+02
DAV:   2    -0.113135826409E+02   -0.16642E+02   -0.14716E+02  2240   0.348E+01
forrtl: error (78): process killed (SIGTERM)
Image              PC                Routine            Line        Source             
libc.so.6          000014FA8683FB30  Unknown               Unknown  Unknown
libmpi.so.12.0.0   000014FA874B2416  Unknown               Unknown  Unknown
libmpi.so.12.0.0   000014FA871C7DDA  Unknown               Unknown  Unknown
libmpi.so.12.0.0   000014FA871C80A8  Unknown               Unknown  Unknown
libmpi.so.12.0.0   000014FA875532F0  Unknown               Unknown  Unknown
libmpi.so.12.0.0   000014FA872B6875  Unknown               Unknown  Unknown
libmpi.so.12.0.0   000014FA872BFB73  Unknown               Unknown  Unknown
libmpi.so.12.0.0   000014FA86FA303F  Unknown               Unknown  Unknown
libmpi.so.12.0.0   000014FA8711DD36  Unknown               Unknown  Unknown
libmpi.so.12.0.0   000014FA8710E779  Unknown               Unknown  Unknown
libmpi.so.12.0.0   000014FA87213541  Unknown               Unknown  Unknown
libmpi.so.12.0.0   000014FA86FF682E  PMPI_Alltoall         Unknown  Unknown
libmpifort.so.12.  000014FA90DE0733  mpi_alltoall__        Unknown  Unknown
vasp_ncl           00000000004D02B9  Unknown               Unknown  Unknown
vasp_ncl           0000000000D5AE59  Unknown               Unknown  Unknown
vasp_ncl           0000000001C97C09  Unknown               Unknown  Unknown
vasp_ncl           0000000001DDB9C5  Unknown               Unknown  Unknown
vasp_ncl           000000000330CD0B  Unknown               Unknown  Unknown
vasp_ncl           00000000032FDD6F  Unknown               Unknown  Unknown
vasp_ncl           00000000032D5425  Unknown               Unknown  Unknown
vasp_ncl           000000000044050D  Unknown               Unknown  Unknown
libc.so.6          000014FA8682A610  Unknown               Unknown  Unknown
libc.so.6          000014FA8682A6C0  __libc_start_main     Unknown  Unknown
vasp_ncl           0000000000440425  Unknown               Unknown  Unknown
forrtl: error (78): process killed (SIGTERM)
Image              PC                Routine            Line        Source             
libc.so.6          000015235283FB30  Unknown               Unknown  Unknown
libc.so.6          000015235290FD5A  epoll_wait            Unknown  Unknown
libtcp-fi.so       000015234F9888EC  Unknown               Unknown  Unknown
libtcp-fi.so       000015234F985DC5  Unknown               Unknown  Unknown
libtcp-fi.so       000015234F99DA30  Unknown               Unknown  Unknown
libtcp-fi.so       000015234F981839  Unknown               Unknown  Unknown
libmpi.so.12.0.0   00001523534B2413  Unknown               Unknown  Unknown
libmpi.so.12.0.0   00001523531C7DDA  Unknown               Unknown  Unknown
libmpi.so.12.0.0   00001523531C80A8  Unknown               Unknown  Unknown
libmpi.so.12.0.0   00001523535532F0  Unknown               Unknown  Unknown
libmpi.so.12.0.0   00001523532B6875  Unknown               Unknown  Unknown
libmpi.so.12.0.0   00001523532BFB73  Unknown               Unknown  Unknown
libmpi.so.12.0.0   0000152352FA303F  Unknown               Unknown  Unknown
libmpi.so.12.0.0   000015235311DD36  Unknown               Unknown  Unknown
libmpi.so.12.0.0   000015235310E779  Unknown               Unknown  Unknown
libmpi.so.12.0.0   0000152353213541  Unknown               Unknown  Unknown
libmpi.so.12.0.0   0000152352FF682E  PMPI_Alltoall         Unknown  Unknown
libmpifort.so.12.  000015235CDE0733  mpi_alltoall__        Unknown  Unknown
vasp_ncl           00000000004D02B9  Unknown               Unknown  Unknown
vasp_ncl           0000000000D5AE59  Unknown               Unknown  Unknown
vasp_ncl           0000000001C97C09  Unknown               Unknown  Unknown
vasp_ncl           0000000001DDB9C5  Unknown               Unknown  Unknown
vasp_ncl           000000000330CD0B  Unknown               Unknown  Unknown
vasp_ncl           00000000032FDD6F  Unknown               Unknown  Unknown
vasp_ncl           00000000032D5425  Unknown               Unknown  Unknown
vasp_ncl           000000000044050D  Unknown               Unknown  Unknown
libc.so.6          000015235282A610  Unknown               Unknown  Unknown
libc.so.6          000015235282A6C0  __libc_start_main     Unknown  Unknown
vasp_ncl           0000000000440425  Unknown               Unknown  Unknown
forrtl: error (78): process killed (SIGTERM)
Image              PC                Routine            Line        Source             
libc.so.6          00001516A9E3FB30  Unknown               Unknown  Unknown
libc.so.6          00001516A9F0FD5A  epoll_wait            Unknown  Unknown
libtcp-fi.so       00001516A6FCD8EC  Unknown               Unknown  Unknown
libtcp-fi.so       00001516A6FCADC5  Unknown               Unknown  Unknown
libtcp-fi.so       00001516A6FE2A30  Unknown               Unknown  Unknown
libtcp-fi.so       00001516A6FC6839  Unknown               Unknown  Unknown
libmpi.so.12.0.0   00001516AAC74413  Unknown               Unknown  Unknown
libmpi.so.12.0.0   00001516AA989DDA  Unknown               Unknown  Unknown
libmpi.so.12.0.0   00001516AA98A0A8  Unknown               Unknown  Unknown
libmpi.so.12.0.0   00001516AAD152F0  Unknown               Unknown  Unknown
libmpi.so.12.0.0   00001516AAA78875  Unknown               Unknown  Unknown
libmpi.so.12.0.0   00001516AAA81B73  Unknown               Unknown  Unknown
libmpi.so.12.0.0   00001516AA76503F  Unknown               Unknown  Unknown
libmpi.so.12.0.0   00001516AA8DFD36  Unknown               Unknown  Unknown
libmpi.so.12.0.0   00001516AA8D0779  Unknown               Unknown  Unknown
libmpi.so.12.0.0   00001516AA9D5541  Unknown               Unknown  Unknown
libmpi.so.12.0.0   00001516AA7B882E  PMPI_Alltoall         Unknown  Unknown
libmpifort.so.12.  00001516B45A2733  mpi_alltoall__        Unknown  Unknown
vasp_ncl           00000000004D02B9  Unknown               Unknown  Unknown
vasp_ncl           0000000000D5AE59  Unknown               Unknown  Unknown
vasp_ncl           0000000001C97C09  Unknown               Unknown  Unknown
vasp_ncl           0000000001DDB9C5  Unknown               Unknown  Unknown
vasp_ncl           000000000330CD0B  Unknown               Unknown  Unknown
vasp_ncl           00000000032FDD6F  Unknown               Unknown  Unknown
vasp_ncl           00000000032D5425  Unknown               Unknown  Unknown
vasp_ncl           000000000044050D  Unknown               Unknown  Unknown
libc.so.6          00001516A9E2A610  Unknown               Unknown  Unknown
libc.so.6          00001516A9E2A6C0  __libc_start_main     Unknown  Unknown
vasp_ncl           0000000000440425  Unknown               Unknown  Unknown
forrtl: error (78): process killed (SIGTERM)
Image              PC                Routine            Line        Source             
libc.so.6          000014A93283FB30  Unknown               Unknown  Unknown
libc.so.6          000014A93290FD5A  epoll_wait            Unknown  Unknown
libtcp-fi.so       000014A92F9CD8EC  Unknown               Unknown  Unknown
libtcp-fi.so       000014A92F9CADC5  Unknown               Unknown  Unknown
libtcp-fi.so       000014A92F9E2A30  Unknown               Unknown  Unknown
libtcp-fi.so       000014A92F9C6839  Unknown               Unknown  Unknown
libmpi.so.12.0.0   000014A933674413  Unknown               Unknown  Unknown
libmpi.so.12.0.0   000014A933389DDA  Unknown               Unknown  Unknown
libmpi.so.12.0.0   000014A93338A0A8  Unknown               Unknown  Unknown
libmpi.so.12.0.0   000014A9337152F0  Unknown               Unknown  Unknown
libmpi.so.12.0.0   000014A933478875  Unknown               Unknown  Unknown
libmpi.so.12.0.0   000014A933481B73  Unknown               Unknown  Unknown
libmpi.so.12.0.0   000014A93316503F  Unknown               Unknown  Unknown
libmpi.so.12.0.0   000014A9332DFD36  Unknown               Unknown  Unknown
libmpi.so.12.0.0   000014A9332D0779  Unknown               Unknown  Unknown
libmpi.so.12.0.0   000014A9333D5541  Unknown               Unknown  Unknown
libmpi.so.12.0.0   000014A9331B882E  PMPI_Alltoall         Unknown  Unknown
libmpifort.so.12.  000014A93CFA2733  mpi_alltoall__        Unknown  Unknown
vasp_ncl           00000000004D02B9  Unknown               Unknown  Unknown
vasp_ncl           0000000000D5AE59  Unknown               Unknown  Unknown
vasp_ncl           0000000001C97C09  Unknown               Unknown  Unknown
vasp_ncl           0000000001DDB9C5  Unknown               Unknown  Unknown
vasp_ncl           000000000330CD0B  Unknown               Unknown  Unknown
vasp_ncl           00000000032FDD6F  Unknown               Unknown  Unknown
vasp_ncl           00000000032D5425  Unknown               Unknown  Unknown
vasp_ncl           000000000044050D  Unknown               Unknown  Unknown
libc.so.6          000014A93282A610  Unknown               Unknown  Unknown
libc.so.6          000014A93282A6C0  __libc_start_main     Unknown  Unknown
vasp_ncl           0000000000440425  Unknown               Unknown  Unknown
forrtl: error (78): process killed (SIGTERM)
Image              PC                Routine            Line        Source             
libc.so.6          000014860863FB30  Unknown               Unknown  Unknown
libc.so.6          000014860870FD5A  epoll_wait            Unknown  Unknown
libtcp-fi.so       00001486058878EC  Unknown               Unknown  Unknown
libtcp-fi.so       0000148605884DC5  Unknown               Unknown  Unknown
libtcp-fi.so       000014860589CA30  Unknown               Unknown  Unknown
libtcp-fi.so       0000148605880839  Unknown               Unknown  Unknown
libmpi.so.12.0.0   00001486094B2413  Unknown               Unknown  Unknown
libmpi.so.12.0.0   00001486091C7DDA  Unknown               Unknown  Unknown
libmpi.so.12.0.0   00001486091C80A8  Unknown               Unknown  Unknown
libmpi.so.12.0.0   00001486095532F0  Unknown               Unknown  Unknown
libmpi.so.12.0.0   00001486092B6875  Unknown               Unknown  Unknown
libmpi.so.12.0.0   00001486092BFB73  Unknown               Unknown  Unknown
libmpi.so.12.0.0   0000148608FA303F  Unknown               Unknown  Unknown
libmpi.so.12.0.0   000014860911DD36  Unknown               Unknown  Unknown
libmpi.so.12.0.0   000014860910E779  Unknown               Unknown  Unknown
libmpi.so.12.0.0   0000148609213541  Unknown               Unknown  Unknown
libmpi.so.12.0.0   0000148608FF682E  PMPI_Alltoall         Unknown  Unknown
libmpifort.so.12.  0000148612DE0733  mpi_alltoall__        Unknown  Unknown
vasp_ncl           00000000004D02B9  Unknown               Unknown  Unknown
vasp_ncl           0000000000D5AE59  Unknown               Unknown  Unknown
vasp_ncl           0000000001C97C09  Unknown               Unknown  Unknown
vasp_ncl           0000000001DDB9C5  Unknown               Unknown  Unknown
vasp_ncl           000000000330CD0B  Unknown               Unknown  Unknown
vasp_ncl           00000000032FDD6F  Unknown               Unknown  Unknown
vasp_ncl           00000000032D5425  Unknown               Unknown  Unknown
vasp_ncl           000000000044050D  Unknown               Unknown  Unknown
libc.so.6          000014860862A610  Unknown               Unknown  Unknown
libc.so.6          000014860862A6C0  __libc_start_main     Unknown  Unknown
vasp_ncl           0000000000440425  Unknown               Unknown  Unknown
forrtl: error (78): process killed (SIGTERM)
Image              PC                Routine            Line        Source             
libc.so.6          000014C92463FB30  Unknown               Unknown  Unknown
libc.so.6          000014C92470FD5A  epoll_wait            Unknown  Unknown
libtcp-fi.so       000014C9217498EC  Unknown               Unknown  Unknown
libtcp-fi.so       000014C921746DC5  Unknown               Unknown  Unknown
libtcp-fi.so       000014C92175EA30  Unknown               Unknown  Unknown
libtcp-fi.so       000014C921742839  Unknown               Unknown  Unknown
libmpi.so.12.0.0   000014C9252B2413  Unknown               Unknown  Unknown
libmpi.so.12.0.0   000014C924FC7DDA  Unknown               Unknown  Unknown
libmpi.so.12.0.0   000014C924FC80A8  Unknown               Unknown  Unknown
libmpi.so.12.0.0   000014C9253532F0  Unknown               Unknown  Unknown
libmpi.so.12.0.0   000014C9250B6875  Unknown               Unknown  Unknown
libmpi.so.12.0.0   000014C9250BFB73  Unknown               Unknown  Unknown
libmpi.so.12.0.0   000014C924DA303F  Unknown               Unknown  Unknown
libmpi.so.12.0.0   000014C924F1DD36  Unknown               Unknown  Unknown
libmpi.so.12.0.0   000014C924F0E779  Unknown               Unknown  Unknown
libmpi.so.12.0.0   000014C925013541  Unknown               Unknown  Unknown
libmpi.so.12.0.0   000014C924DF682E  PMPI_Alltoall         Unknown  Unknown
libmpifort.so.12.  000014C92EBE0733  mpi_alltoall__        Unknown  Unknown
vasp_ncl           00000000004D02B9  Unknown               Unknown  Unknown
vasp_ncl           0000000000D5AE59  Unknown               Unknown  Unknown
vasp_ncl           0000000001C97C09  Unknown               Unknown  Unknown
vasp_ncl           0000000001DDB9C5  Unknown               Unknown  Unknown
vasp_ncl           000000000330CD0B  Unknown               Unknown  Unknown
vasp_ncl           00000000032FDD6F  Unknown               Unknown  Unknown
vasp_ncl           00000000032D5425  Unknown               Unknown  Unknown
vasp_ncl           000000000044050D  Unknown               Unknown  Unknown
libc.so.6          000014C92462A610  Unknown               Unknown  Unknown
libc.so.6          000014C92462A6C0  __libc_start_main     Unknown  Unknown
vasp_ncl           0000000000440425  Unknown               Unknown  Unknown
forrtl: error (78): process killed (SIGTERM)
Image              PC                Routine            Line        Source             
libc.so.6          000015040E83FB30  Unknown               Unknown  Unknown
libc.so.6          000015040E90FD5A  epoll_wait            Unknown  Unknown
libtcp-fi.so       000015040B9498EC  Unknown               Unknown  Unknown
libtcp-fi.so       000015040B946DC5  Unknown               Unknown  Unknown
libtcp-fi.so       000015040B95EA30  Unknown               Unknown  Unknown
libtcp-fi.so       000015040B942839  Unknown               Unknown  Unknown
libmpi.so.12.0.0   000015040F4B2413  Unknown               Unknown  Unknown
libmpi.so.12.0.0   000015040F1C7DDA  Unknown               Unknown  Unknown
libmpi.so.12.0.0   000015040F1C80A8  Unknown               Unknown  Unknown
libmpi.so.12.0.0   000015040F5532F0  Unknown               Unknown  Unknown
libmpi.so.12.0.0   000015040F2B6875  Unknown               Unknown  Unknown
libmpi.so.12.0.0   000015040F2BFB73  Unknown               Unknown  Unknown
libmpi.so.12.0.0   000015040EFA303F  Unknown               Unknown  Unknown
libmpi.so.12.0.0   000015040F11DD36  Unknown               Unknown  Unknown
libmpi.so.12.0.0   000015040F10E779  Unknown               Unknown  Unknown
libmpi.so.12.0.0   000015040F213541  Unknown               Unknown  Unknown
libmpi.so.12.0.0   000015040EFF682E  PMPI_Alltoall         Unknown  Unknown
libmpifort.so.12.  0000150418DE0733  mpi_alltoall__        Unknown  Unknown
vasp_ncl           00000000004D02B9  Unknown               Unknown  Unknown
vasp_ncl           0000000000D5AE59  Unknown               Unknown  Unknown
vasp_ncl           0000000001C97C09  Unknown               Unknown  Unknown
vasp_ncl           0000000001DDB9C5  Unknown               Unknown  Unknown
vasp_ncl           000000000330CD0B  Unknown               Unknown  Unknown
vasp_ncl           00000000032FDD6F  Unknown               Unknown  Unknown
vasp_ncl           00000000032D5425  Unknown               Unknown  Unknown
vasp_ncl           000000000044050D  Unknown               Unknown  Unknown
libc.so.6          000015040E82A610  Unknown               Unknown  Unknown
libc.so.6          000015040E82A6C0  __libc_start_main     Unknown  Unknown
vasp_ncl           0000000000440425  Unknown               Unknown  Unknown
forrtl: error (78): process killed (SIGTERM)
Image              PC                Routine            Line        Source             
libc.so.6          0000148A4123FB30  Unknown               Unknown  Unknown
libc.so.6          0000148A4130FD5A  epoll_wait            Unknown  Unknown
libtcp-fi.so       0000148A3E4998EC  Unknown               Unknown  Unknown
libtcp-fi.so       0000148A3E496DC5  Unknown               Unknown  Unknown
libtcp-fi.so       0000148A3E4AEA30  Unknown               Unknown  Unknown
libtcp-fi.so       0000148A3E492839  Unknown               Unknown  Unknown
libmpi.so.12.0.0   0000148A420B2413  Unknown               Unknown  Unknown
libmpi.so.12.0.0   0000148A41DC7DDA  Unknown               Unknown  Unknown
libmpi.so.12.0.0   0000148A41DC80A8  Unknown               Unknown  Unknown
libmpi.so.12.0.0   0000148A421532F0  Unknown               Unknown  Unknown
libmpi.so.12.0.0   0000148A41EB6875  Unknown               Unknown  Unknown
libmpi.so.12.0.0   0000148A41EBFB73  Unknown               Unknown  Unknown
libmpi.so.12.0.0   0000148A41BA303F  Unknown               Unknown  Unknown
libmpi.so.12.0.0   0000148A41D1DD36  Unknown               Unknown  Unknown
libmpi.so.12.0.0   0000148A41D0E779  Unknown               Unknown  Unknown
libmpi.so.12.0.0   0000148A41E13541  Unknown               Unknown  Unknown
libmpi.so.12.0.0   0000148A41BF682E  PMPI_Alltoall         Unknown  Unknown
libmpifort.so.12.  0000148A4B9E0733  mpi_alltoall__        Unknown  Unknown
vasp_ncl           00000000004D02B9  Unknown               Unknown  Unknown
vasp_ncl           0000000000D5AE59  Unknown               Unknown  Unknown
vasp_ncl           0000000001C97C09  Unknown               Unknown  Unknown
vasp_ncl           0000000001DDB9C5  Unknown               Unknown  Unknown
vasp_ncl           000000000330CD0B  Unknown               Unknown  Unknown
vasp_ncl           00000000032FDD6F  Unknown               Unknown  Unknown
vasp_ncl           00000000032D5425  Unknown               Unknown  Unknown
vasp_ncl           000000000044050D  Unknown               Unknown  Unknown
libc.so.6          0000148A4122A610  Unknown               Unknown  Unknown
libc.so.6          0000148A4122A6C0  __libc_start_main     Unknown  Unknown
vasp_ncl           0000000000440425  Unknown               Unknown  Unknown
forrtl: error (78): process killed (SIGTERM)
Image              PC                Routine            Line        Source             
libc.so.6          000014EA18E3FB30  Unknown               Unknown  Unknown
libc.so.6          000014EA18F0FD5A  epoll_wait            Unknown  Unknown
libtcp-fi.so       000014EA15F668EC  Unknown               Unknown  Unknown
libtcp-fi.so       000014EA15F63DC5  Unknown               Unknown  Unknown
libtcp-fi.so       000014EA15F7BA30  Unknown               Unknown  Unknown
libtcp-fi.so       000014EA15F5F839  Unknown               Unknown  Unknown
libmpi.so.12.0.0   000014EA19AB2413  Unknown               Unknown  Unknown
libmpi.so.12.0.0   000014EA197C7DDA  Unknown               Unknown  Unknown
libmpi.so.12.0.0   000014EA197C80A8  Unknown               Unknown  Unknown
libmpi.so.12.0.0   000014EA19B532F0  Unknown               Unknown  Unknown
libmpi.so.12.0.0   000014EA198B6875  Unknown               Unknown  Unknown
libmpi.so.12.0.0   000014EA198BFB73  Unknown               Unknown  Unknown
libmpi.so.12.0.0   000014EA195A303F  Unknown               Unknown  Unknown
libmpi.so.12.0.0   000014EA1971DD36  Unknown               Unknown  Unknown
libmpi.so.12.0.0   000014EA1970E779  Unknown               Unknown  Unknown
libmpi.so.12.0.0   000014EA19813541  Unknown               Unknown  Unknown
libmpi.so.12.0.0   000014EA195F682E  PMPI_Alltoall         Unknown  Unknown
libmpifort.so.12.  000014EA233E0733  mpi_alltoall__        Unknown  Unknown
vasp_ncl           00000000004D02B9  Unknown               Unknown  Unknown
vasp_ncl           0000000000D5AE59  Unknown               Unknown  Unknown
vasp_ncl           0000000001C97C09  Unknown               Unknown  Unknown
vasp_ncl           0000000001DDB9C5  Unknown               Unknown  Unknown
vasp_ncl           000000000330CD0B  Unknown               Unknown  Unknown
vasp_ncl           00000000032FDD6F  Unknown               Unknown  Unknown
vasp_ncl           00000000032D5425  Unknown               Unknown  Unknown
vasp_ncl           000000000044050D  Unknown               Unknown  Unknown
libc.so.6          000014EA18E2A610  Unknown               Unknown  Unknown
libc.so.6          000014EA18E2A6C0  __libc_start_main     Unknown  Unknown
vasp_ncl           0000000000440425  Unknown               Unknown  Unknown
forrtl: error (78): process killed (SIGTERM)
Image              PC                Routine            Line        Source             
libc.so.6          000014927DE3FB30  Unknown               Unknown  Unknown
libc.so.6          000014927DF0FD5A  epoll_wait            Unknown  Unknown
libtcp-fi.so       000014927AFCD8EC  Unknown               Unknown  Unknown
libtcp-fi.so       000014927AFCADC5  Unknown               Unknown  Unknown
libtcp-fi.so       000014927AFE2A30  Unknown               Unknown  Unknown
libtcp-fi.so       000014927AFC6839  Unknown               Unknown  Unknown
libmpi.so.12.0.0   000014927EC74413  Unknown               Unknown  Unknown
libmpi.so.12.0.0   000014927E989DDA  Unknown               Unknown  Unknown
libmpi.so.12.0.0   000014927E98A0A8  Unknown               Unknown  Unknown
libmpi.so.12.0.0   000014927ED152F0  Unknown               Unknown  Unknown
libmpi.so.12.0.0   000014927EA78875  Unknown               Unknown  Unknown
libmpi.so.12.0.0   000014927EA81B73  Unknown               Unknown  Unknown
libmpi.so.12.0.0   000014927E76503F  Unknown               Unknown  Unknown
libmpi.so.12.0.0   000014927E8DFD36  Unknown               Unknown  Unknown
libmpi.so.12.0.0   000014927E8D0779  Unknown               Unknown  Unknown
libmpi.so.12.0.0   000014927E9D5541  Unknown               Unknown  Unknown
libmpi.so.12.0.0   000014927E7B882E  PMPI_Alltoall         Unknown  Unknown
libmpifort.so.12.  00001492885A2733  mpi_alltoall__        Unknown  Unknown
vasp_ncl           00000000004D02B9  Unknown               Unknown  Unknown
vasp_ncl           0000000000D5AE59  Unknown               Unknown  Unknown
vasp_ncl           0000000001C97C09  Unknown               Unknown  Unknown
vasp_ncl           0000000001DDB9C5  Unknown               Unknown  Unknown
vasp_ncl           000000000330CD0B  Unknown               Unknown  Unknown
vasp_ncl           00000000032FDD6F  Unknown               Unknown  Unknown
vasp_ncl           00000000032D5425  Unknown               Unknown  Unknown
vasp_ncl           000000000044050D  Unknown               Unknown  Unknown
libc.so.6          000014927DE2A610  Unknown               Unknown  Unknown
libc.so.6          000014927DE2A6C0  __libc_start_main     Unknown  Unknown
vasp_ncl           0000000000440425  Unknown               Unknown  Unknown
forrtl: error (78): process killed (SIGTERM)
Image              PC                Routine            Line        Source             
libc.so.6          000015265B43FB30  Unknown               Unknown  Unknown
libc.so.6          000015265B50FD5A  epoll_wait            Unknown  Unknown
libtcp-fi.so       00001526585888EC  Unknown               Unknown  Unknown
libtcp-fi.so       0000152658585DC5  Unknown               Unknown  Unknown
libtcp-fi.so       000015265859DA30  Unknown               Unknown  Unknown
libtcp-fi.so       0000152658581839  Unknown               Unknown  Unknown
libmpi.so.12.0.0   000015265C0B2413  Unknown               Unknown  Unknown
libmpi.so.12.0.0   000015265BDC7DDA  Unknown               Unknown  Unknown
libmpi.so.12.0.0   000015265BDC80A8  Unknown               Unknown  Unknown
libmpi.so.12.0.0   000015265C1532F0  Unknown               Unknown  Unknown
libmpi.so.12.0.0   000015265BEB6875  Unknown               Unknown  Unknown
libmpi.so.12.0.0   000015265BEBFB73  Unknown               Unknown  Unknown
libmpi.so.12.0.0   000015265BBA303F  Unknown               Unknown  Unknown
libmpi.so.12.0.0   000015265BD1DD36  Unknown               Unknown  Unknown
libmpi.so.12.0.0   000015265BD0E779  Unknown               Unknown  Unknown
libmpi.so.12.0.0   000015265BE13541  Unknown               Unknown  Unknown
libmpi.so.12.0.0   000015265BBF682E  PMPI_Alltoall         Unknown  Unknown
libmpifort.so.12.  00001526659E0733  mpi_alltoall__        Unknown  Unknown
vasp_ncl           00000000004D02B9  Unknown               Unknown  Unknown
vasp_ncl           0000000000D5AE59  Unknown               Unknown  Unknown
vasp_ncl           0000000001C97C09  Unknown               Unknown  Unknown
vasp_ncl           0000000001DDB9C5  Unknown               Unknown  Unknown
vasp_ncl           000000000330CD0B  Unknown               Unknown  Unknown
vasp_ncl           00000000032FDD6F  Unknown               Unknown  Unknown
vasp_ncl           00000000032D5425  Unknown               Unknown  Unknown
vasp_ncl           000000000044050D  Unknown               Unknown  Unknown
libc.so.6          000015265B42A610  Unknown               Unknown  Unknown
libc.so.6          000015265B42A6C0  __libc_start_main     Unknown  Unknown
vasp_ncl           0000000000440425  Unknown               Unknown  Unknown
forrtl: error (78): process killed (SIGTERM)
Image              PC                Routine            Line        Source             
libc.so.6          0000146449C3FB30  Unknown               Unknown  Unknown
libc.so.6          0000146449D0FD5A  epoll_wait            Unknown  Unknown
libtcp-fi.so       0000146446D058EC  Unknown               Unknown  Unknown
libtcp-fi.so       0000146446D02DC5  Unknown               Unknown  Unknown
libtcp-fi.so       0000146446D1AA30  Unknown               Unknown  Unknown
libtcp-fi.so       0000146446CFE839  Unknown               Unknown  Unknown
libmpi.so.12.0.0   000014644A8B2413  Unknown               Unknown  Unknown
libmpi.so.12.0.0   000014644A5C7DDA  Unknown               Unknown  Unknown
libmpi.so.12.0.0   000014644A5C80A8  Unknown               Unknown  Unknown
libmpi.so.12.0.0   000014644A9532F0  Unknown               Unknown  Unknown
libmpi.so.12.0.0   000014644A6B6875  Unknown               Unknown  Unknown
libmpi.so.12.0.0   000014644A6BFB73  Unknown               Unknown  Unknown
libmpi.so.12.0.0   000014644A3A303F  Unknown               Unknown  Unknown
libmpi.so.12.0.0   000014644A51DD36  Unknown               Unknown  Unknown
libmpi.so.12.0.0   000014644A50E779  Unknown               Unknown  Unknown
libmpi.so.12.0.0   000014644A613541  Unknown               Unknown  Unknown
libmpi.so.12.0.0   000014644A3F682E  PMPI_Alltoall         Unknown  Unknown
libmpifort.so.12.  00001464541E0733  mpi_alltoall__        Unknown  Unknown
vasp_ncl           00000000004D02B9  Unknown               Unknown  Unknown
vasp_ncl           0000000000D5AE59  Unknown               Unknown  Unknown
vasp_ncl           0000000001C97C09  Unknown               Unknown  Unknown
vasp_ncl           0000000001DDB9C5  Unknown               Unknown  Unknown
vasp_ncl           000000000330CD0B  Unknown               Unknown  Unknown
vasp_ncl           00000000032FDD6F  Unknown               Unknown  Unknown
vasp_ncl           00000000032D5425  Unknown               Unknown  Unknown
vasp_ncl           000000000044050D  Unknown               Unknown  Unknown
libc.so.6          0000146449C2A610  Unknown               Unknown  Unknown
libc.so.6          0000146449C2A6C0  __libc_start_main     Unknown  Unknown
vasp_ncl           0000000000440425  Unknown               Unknown  Unknown
forrtl: error (78): process killed (SIGTERM)
Image              PC                Routine            Line        Source             
libc.so.6          000014847043FB30  Unknown               Unknown  Unknown
libc.so.6          000014847050FD5A  epoll_wait            Unknown  Unknown
libtcp-fi.so       000014846D6258EC  Unknown               Unknown  Unknown
libtcp-fi.so       000014846D622DC5  Unknown               Unknown  Unknown
libtcp-fi.so       000014846D63AA30  Unknown               Unknown  Unknown
libtcp-fi.so       000014846D61E839  Unknown               Unknown  Unknown
libmpi.so.12.0.0   00001484712B2413  Unknown               Unknown  Unknown
libmpi.so.12.0.0   0000148470FC7DDA  Unknown               Unknown  Unknown
libmpi.so.12.0.0   0000148470FC80A8  Unknown               Unknown  Unknown
libmpi.so.12.0.0   00001484713532F0  Unknown               Unknown  Unknown
libmpi.so.12.0.0   00001484710B6875  Unknown               Unknown  Unknown
libmpi.so.12.0.0   00001484710BFB73  Unknown               Unknown  Unknown
libmpi.so.12.0.0   0000148470DA303F  Unknown               Unknown  Unknown
libmpi.so.12.0.0   0000148470F1DD36  Unknown               Unknown  Unknown
libmpi.so.12.0.0   0000148470F0E779  Unknown               Unknown  Unknown
libmpi.so.12.0.0   0000148471013541  Unknown               Unknown  Unknown
libmpi.so.12.0.0   0000148470DF682E  PMPI_Alltoall         Unknown  Unknown
libmpifort.so.12.  000014847ABE0733  mpi_alltoall__        Unknown  Unknown
vasp_ncl           00000000004D02B9  Unknown               Unknown  Unknown
vasp_ncl           0000000000D5AE59  Unknown               Unknown  Unknown
vasp_ncl           0000000001C97C09  Unknown               Unknown  Unknown
vasp_ncl           0000000001DDB9C5  Unknown               Unknown  Unknown
vasp_ncl           000000000330CD0B  Unknown               Unknown  Unknown
vasp_ncl           00000000032FDD6F  Unknown               Unknown  Unknown
vasp_ncl           00000000032D5425  Unknown               Unknown  Unknown
vasp_ncl           000000000044050D  Unknown               Unknown  Unknown
libc.so.6          000014847042A610  Unknown               Unknown  Unknown
libc.so.6          000014847042A6C0  __libc_start_main     Unknown  Unknown
vasp_ncl           0000000000440425  Unknown               Unknown  Unknown
forrtl: error (78): process killed (SIGTERM)
Image              PC                Routine            Line        Source             
libc.so.6          000014F5CDA3FB30  Unknown               Unknown  Unknown
libc.so.6          000014F5CDB0FD5A  epoll_wait            Unknown  Unknown
libtcp-fi.so       000014F5CAB498EC  Unknown               Unknown  Unknown
libtcp-fi.so       000014F5CAB46DC5  Unknown               Unknown  Unknown
libtcp-fi.so       000014F5CAB5EA30  Unknown               Unknown  Unknown
libtcp-fi.so       000014F5CAB42839  Unknown               Unknown  Unknown
libmpi.so.12.0.0   000014F5CE6B2413  Unknown               Unknown  Unknown
libmpi.so.12.0.0   000014F5CE3C7DDA  Unknown               Unknown  Unknown
libmpi.so.12.0.0   000014F5CE3C80A8  Unknown               Unknown  Unknown
libmpi.so.12.0.0   000014F5CE7532F0  Unknown               Unknown  Unknown
libmpi.so.12.0.0   000014F5CE4B6875  Unknown               Unknown  Unknown
libmpi.so.12.0.0   000014F5CE4BFB73  Unknown               Unknown  Unknown
libmpi.so.12.0.0   000014F5CE1A303F  Unknown               Unknown  Unknown
libmpi.so.12.0.0   000014F5CE31DD36  Unknown               Unknown  Unknown
libmpi.so.12.0.0   000014F5CE30E779  Unknown               Unknown  Unknown
libmpi.so.12.0.0   000014F5CE413541  Unknown               Unknown  Unknown
libmpi.so.12.0.0   000014F5CE1F682E  PMPI_Alltoall         Unknown  Unknown
libmpifort.so.12.  000014F5D7FE0733  mpi_alltoall__        Unknown  Unknown
vasp_ncl           00000000004D02B9  Unknown               Unknown  Unknown
vasp_ncl           0000000000D5AE59  Unknown               Unknown  Unknown
vasp_ncl           0000000001C97C09  Unknown               Unknown  Unknown
vasp_ncl           0000000001DDB9C5  Unknown               Unknown  Unknown
vasp_ncl           000000000330CD0B  Unknown               Unknown  Unknown
vasp_ncl           00000000032FDD6F  Unknown               Unknown  Unknown
vasp_ncl           00000000032D5425  Unknown               Unknown  Unknown
vasp_ncl           000000000044050D  Unknown               Unknown  Unknown
libc.so.6          000014F5CDA2A610  Unknown               Unknown  Unknown
libc.so.6          000014F5CDA2A6C0  __libc_start_main     Unknown  Unknown
vasp_ncl           0000000000440425  Unknown               Unknown  Unknown
forrtl: error (78): process killed (SIGTERM)
Image              PC                Routine            Line        Source             
libc.so.6          00001513F6C3FB30  Unknown               Unknown  Unknown
libc.so.6          00001513F6D0FD5A  epoll_wait            Unknown  Unknown
libtcp-fi.so       00001513F3E998EC  Unknown               Unknown  Unknown
libtcp-fi.so       00001513F3E96DC5  Unknown               Unknown  Unknown
libtcp-fi.so       00001513F3EAEA30  Unknown               Unknown  Unknown
libtcp-fi.so       00001513F3E92839  Unknown               Unknown  Unknown
libmpi.so.12.0.0   00001513F7AB2413  Unknown               Unknown  Unknown
libmpi.so.12.0.0   00001513F77C7DDA  Unknown               Unknown  Unknown
libmpi.so.12.0.0   00001513F77C80A8  Unknown               Unknown  Unknown
libmpi.so.12.0.0   00001513F7B532F0  Unknown               Unknown  Unknown
libmpi.so.12.0.0   00001513F78B6875  Unknown               Unknown  Unknown
libmpi.so.12.0.0   00001513F78BFB73  Unknown               Unknown  Unknown
libmpi.so.12.0.0   00001513F75A303F  Unknown               Unknown  Unknown
libmpi.so.12.0.0   00001513F771DD36  Unknown               Unknown  Unknown
libmpi.so.12.0.0   00001513F770E779  Unknown               Unknown  Unknown
libmpi.so.12.0.0   00001513F7813541  Unknown               Unknown  Unknown
libmpi.so.12.0.0   00001513F75F682E  PMPI_Alltoall         Unknown  Unknown
libmpifort.so.12.  00001514013E0733  mpi_alltoall__        Unknown  Unknown
vasp_ncl           00000000004D02B9  Unknown               Unknown  Unknown
vasp_ncl           0000000000D5AE59  Unknown               Unknown  Unknown
vasp_ncl           0000000001C97C09  Unknown               Unknown  Unknown
vasp_ncl           0000000001DDB9C5  Unknown               Unknown  Unknown
vasp_ncl           000000000330CD0B  Unknown               Unknown  Unknown
vasp_ncl           00000000032FDD6F  Unknown               Unknown  Unknown
vasp_ncl           00000000032D5425  Unknown               Unknown  Unknown
vasp_ncl           000000000044050D  Unknown               Unknown  Unknown
libc.so.6          00001513F6C2A610  Unknown               Unknown  Unknown
libc.so.6          00001513F6C2A6C0  __libc_start_main     Unknown  Unknown
vasp_ncl           0000000000440425  Unknown               Unknown  Unknown
forrtl: error (78): process killed (SIGTERM)
Image              PC                Routine            Line        Source             
libc.so.6          000015048DC3FB30  Unknown               Unknown  Unknown
libc.so.6          000015048DD0FD5A  epoll_wait            Unknown  Unknown
libtcp-fi.so       000015048AD378EC  Unknown               Unknown  Unknown
libtcp-fi.so       000015048AD34DC5  Unknown               Unknown  Unknown
libtcp-fi.so       000015048AD4CA30  Unknown               Unknown  Unknown
libtcp-fi.so       000015048AD30839  Unknown               Unknown  Unknown
libmpi.so.12.0.0   000015048E8B2413  Unknown               Unknown  Unknown
libmpi.so.12.0.0   000015048E5C7DDA  Unknown               Unknown  Unknown
libmpi.so.12.0.0   000015048E5C80A8  Unknown               Unknown  Unknown
libmpi.so.12.0.0   000015048E9532F0  Unknown               Unknown  Unknown
libmpi.so.12.0.0   000015048E6B6875  Unknown               Unknown  Unknown
libmpi.so.12.0.0   000015048E6BFB73  Unknown               Unknown  Unknown
libmpi.so.12.0.0   000015048E3A303F  Unknown               Unknown  Unknown
libmpi.so.12.0.0   000015048E51DD36  Unknown               Unknown  Unknown
libmpi.so.12.0.0   000015048E50E779  Unknown               Unknown  Unknown
libmpi.so.12.0.0   000015048E613541  Unknown               Unknown  Unknown
libmpi.so.12.0.0   000015048E3F682E  PMPI_Alltoall         Unknown  Unknown
libmpifort.so.12.  00001504981E0733  mpi_alltoall__        Unknown  Unknown
vasp_ncl           00000000004D02B9  Unknown               Unknown  Unknown
vasp_ncl           0000000000D5AE59  Unknown               Unknown  Unknown
vasp_ncl           0000000001C97C09  Unknown               Unknown  Unknown
vasp_ncl           0000000001DDB9C5  Unknown               Unknown  Unknown
vasp_ncl           000000000330CD0B  Unknown               Unknown  Unknown
vasp_ncl           00000000032FDD6F  Unknown               Unknown  Unknown
vasp_ncl           00000000032D5425  Unknown               Unknown  Unknown
vasp_ncl           000000000044050D  Unknown               Unknown  Unknown
libc.so.6          000015048DC2A610  Unknown               Unknown  Unknown
libc.so.6          000015048DC2A6C0  __libc_start_main     Unknown  Unknown
vasp_ncl           0000000000440425  Unknown               Unknown  Unknown
forrtl: error (78): process killed (SIGTERM)
Image              PC                Routine            Line        Source             
libc.so.6          000014E5C983FB30  Unknown               Unknown  Unknown
libc.so.6          000014E5C990FD5A  epoll_wait            Unknown  Unknown
libtcp-fi.so       000014E5C6AB68EC  Unknown               Unknown  Unknown
libtcp-fi.so       000014E5C6AB3DC5  Unknown               Unknown  Unknown
libtcp-fi.so       000014E5C6ACBA30  Unknown               Unknown  Unknown
libtcp-fi.so       000014E5C6AAF839  Unknown               Unknown  Unknown
libmpi.so.12.0.0   000014E5CA6B2413  Unknown               Unknown  Unknown
libmpi.so.12.0.0   000014E5CA3C7DDA  Unknown               Unknown  Unknown
libmpi.so.12.0.0   000014E5CA3C80A8  Unknown               Unknown  Unknown
libmpi.so.12.0.0   000014E5CA7532F0  Unknown               Unknown  Unknown
libmpi.so.12.0.0   000014E5CA4B6875  Unknown               Unknown  Unknown
libmpi.so.12.0.0   000014E5CA4BFB73  Unknown               Unknown  Unknown
libmpi.so.12.0.0   000014E5CA1A303F  Unknown               Unknown  Unknown
libmpi.so.12.0.0   000014E5CA31DD36  Unknown               Unknown  Unknown
libmpi.so.12.0.0   000014E5CA30E779  Unknown               Unknown  Unknown
libmpi.so.12.0.0   000014E5CA413541  Unknown               Unknown  Unknown
libmpi.so.12.0.0   000014E5CA1F682E  PMPI_Alltoall         Unknown  Unknown
libmpifort.so.12.  000014E5D3FE0733  mpi_alltoall__        Unknown  Unknown
vasp_ncl           00000000004D02B9  Unknown               Unknown  Unknown
vasp_ncl           0000000000D5AE59  Unknown               Unknown  Unknown
vasp_ncl           0000000001C97C09  Unknown               Unknown  Unknown
vasp_ncl           0000000001DDB9C5  Unknown               Unknown  Unknown
vasp_ncl           000000000330CD0B  Unknown               Unknown  Unknown
vasp_ncl           00000000032FDD6F  Unknown               Unknown  Unknown
vasp_ncl           00000000032D5425  Unknown               Unknown  Unknown
vasp_ncl           000000000044050D  Unknown               Unknown  Unknown
libc.so.6          000014E5C982A610  Unknown               Unknown  Unknown
libc.so.6          000014E5C982A6C0  __libc_start_main     Unknown  Unknown
vasp_ncl           0000000000440425  Unknown               Unknown  Unknown
forrtl: error (78): process killed (SIGTERM)
Image              PC                Routine            Line        Source             
libc.so.6          0000148E40E3FB30  Unknown               Unknown  Unknown
libc.so.6          0000148E40F0FD5A  epoll_wait            Unknown  Unknown
libtcp-fi.so       0000148E3DFAB8EC  Unknown               Unknown  Unknown
libtcp-fi.so       0000148E3DFA8DC5  Unknown               Unknown  Unknown
libtcp-fi.so       0000148E3DFC0A30  Unknown               Unknown  Unknown
libtcp-fi.so       0000148E3DFA4839  Unknown               Unknown  Unknown
libmpi.so.12.0.0   0000148E41AB2413  Unknown               Unknown  Unknown
libmpi.so.12.0.0   0000148E417C7DDA  Unknown               Unknown  Unknown
libmpi.so.12.0.0   0000148E417C80A8  Unknown               Unknown  Unknown
libmpi.so.12.0.0   0000148E41B532F0  Unknown               Unknown  Unknown
libmpi.so.12.0.0   0000148E418B6875  Unknown               Unknown  Unknown
libmpi.so.12.0.0   0000148E418BFB73  Unknown               Unknown  Unknown
libmpi.so.12.0.0   0000148E415A303F  Unknown               Unknown  Unknown
libmpi.so.12.0.0   0000148E4171DD36  Unknown               Unknown  Unknown
libmpi.so.12.0.0   0000148E4170E779  Unknown               Unknown  Unknown
libmpi.so.12.0.0   0000148E41813541  Unknown               Unknown  Unknown
libmpi.so.12.0.0   0000148E415F682E  PMPI_Alltoall         Unknown  Unknown
libmpifort.so.12.  0000148E4B3E0733  mpi_alltoall__        Unknown  Unknown
vasp_ncl           00000000004D02B9  Unknown               Unknown  Unknown
vasp_ncl           0000000000D5AE59  Unknown               Unknown  Unknown
vasp_ncl           0000000001C97C09  Unknown               Unknown  Unknown
vasp_ncl           0000000001DDB9C5  Unknown               Unknown  Unknown
vasp_ncl           000000000330CD0B  Unknown               Unknown  Unknown
vasp_ncl           00000000032FDD6F  Unknown               Unknown  Unknown
vasp_ncl           00000000032D5425  Unknown               Unknown  Unknown
vasp_ncl           000000000044050D  Unknown               Unknown  Unknown
libc.so.6          0000148E40E2A610  Unknown               Unknown  Unknown
libc.so.6          0000148E40E2A6C0  __libc_start_main     Unknown  Unknown
vasp_ncl           0000000000440425  Unknown               Unknown  Unknown
forrtl: error (78): process killed (SIGTERM)
Image              PC                Routine            Line        Source             
libc.so.6          0000153D3043FB30  Unknown               Unknown  Unknown
libc.so.6          0000153D3050FD5A  epoll_wait            Unknown  Unknown
libtcp-fi.so       0000153D2D5498EC  Unknown               Unknown  Unknown
libtcp-fi.so       0000153D2D546DC5  Unknown               Unknown  Unknown
libtcp-fi.so       0000153D2D55EA30  Unknown               Unknown  Unknown
libtcp-fi.so       0000153D2D542839  Unknown               Unknown  Unknown
libmpi.so.12.0.0   0000153D310B2413  Unknown               Unknown  Unknown
libmpi.so.12.0.0   0000153D30DC7DDA  Unknown               Unknown  Unknown
libmpi.so.12.0.0   0000153D30DC80A8  Unknown               Unknown  Unknown
libmpi.so.12.0.0   0000153D311532F0  Unknown               Unknown  Unknown
libmpi.so.12.0.0   0000153D30EB6875  Unknown               Unknown  Unknown
libmpi.so.12.0.0   0000153D30EBFB73  Unknown               Unknown  Unknown
libmpi.so.12.0.0   0000153D30BA303F  Unknown               Unknown  Unknown
libmpi.so.12.0.0   0000153D30D1DD36  Unknown               Unknown  Unknown
libmpi.so.12.0.0   0000153D30D0E779  Unknown               Unknown  Unknown
libmpi.so.12.0.0   0000153D30E13541  Unknown               Unknown  Unknown
libmpi.so.12.0.0   0000153D30BF682E  PMPI_Alltoall         Unknown  Unknown
libmpifort.so.12.  0000153D3A9E0733  mpi_alltoall__        Unknown  Unknown
vasp_ncl           00000000004D02B9  Unknown               Unknown  Unknown
vasp_ncl           0000000000D5AE59  Unknown               Unknown  Unknown
vasp_ncl           0000000001C97C09  Unknown               Unknown  Unknown
vasp_ncl           0000000001DDB9C5  Unknown               Unknown  Unknown
vasp_ncl           000000000330CD0B  Unknown               Unknown  Unknown
vasp_ncl           00000000032FDD6F  Unknown               Unknown  Unknown
vasp_ncl           00000000032D5425  Unknown               Unknown  Unknown
vasp_ncl           000000000044050D  Unknown               Unknown  Unknown
libc.so.6          0000153D3042A610  Unknown               Unknown  Unknown
libc.so.6          0000153D3042A6C0  __libc_start_main     Unknown  Unknown
vasp_ncl           0000000000440425  Unknown               Unknown  Unknown
forrtl: error (78): process killed (SIGTERM)
Image              PC                Routine            Line        Source             
libc.so.6          000014A90263FB30  Unknown               Unknown  Unknown
libc.so.6          000014A90270FD5A  epoll_wait            Unknown  Unknown
libtcp-fi.so       000014A8FF7888EC  Unknown               Unknown  Unknown
libtcp-fi.so       000014A8FF785DC5  Unknown               Unknown  Unknown
libtcp-fi.so       000014A8FF79DA30  Unknown               Unknown  Unknown
libtcp-fi.so       000014A8FF781839  Unknown               Unknown  Unknown
libmpi.so.12.0.0   000014A9032B2413  Unknown               Unknown  Unknown
libmpi.so.12.0.0   000014A902FC7DDA  Unknown               Unknown  Unknown
libmpi.so.12.0.0   000014A902FC80A8  Unknown               Unknown  Unknown
libmpi.so.12.0.0   000014A9033532F0  Unknown               Unknown  Unknown
libmpi.so.12.0.0   000014A9030B6875  Unknown               Unknown  Unknown
libmpi.so.12.0.0   000014A9030BFB73  Unknown               Unknown  Unknown
libmpi.so.12.0.0   000014A902DA303F  Unknown               Unknown  Unknown
libmpi.so.12.0.0   000014A902F1DD36  Unknown               Unknown  Unknown
libmpi.so.12.0.0   000014A902F0E779  Unknown               Unknown  Unknown
libmpi.so.12.0.0   000014A903013541  Unknown               Unknown  Unknown
libmpi.so.12.0.0   000014A902DF682E  PMPI_Alltoall         Unknown  Unknown
libmpifort.so.12.  000014A90CBE0733  mpi_alltoall__        Unknown  Unknown
vasp_ncl           00000000004D02B9  Unknown               Unknown  Unknown
vasp_ncl           0000000000D5AE59  Unknown               Unknown  Unknown
vasp_ncl           0000000001C97C09  Unknown               Unknown  Unknown
vasp_ncl           0000000001DDB9C5  Unknown               Unknown  Unknown
vasp_ncl           000000000330CD0B  Unknown               Unknown  Unknown
vasp_ncl           00000000032FDD6F  Unknown               Unknown  Unknown
vasp_ncl           00000000032D5425  Unknown               Unknown  Unknown
vasp_ncl           000000000044050D  Unknown               Unknown  Unknown
libc.so.6          000014A90262A610  Unknown               Unknown  Unknown
libc.so.6          000014A90262A6C0  __libc_start_main     Unknown  Unknown
vasp_ncl           0000000000440425  Unknown               Unknown  Unknown
forrtl: error (78): process killed (SIGTERM)
Image              PC                Routine            Line        Source             
libc.so.6          0000146134E3FB30  Unknown               Unknown  Unknown
libc.so.6          0000146134F0FD5A  epoll_wait            Unknown  Unknown
libtcp-fi.so       00001461320428EC  Unknown               Unknown  Unknown
libtcp-fi.so       000014613203FDC5  Unknown               Unknown  Unknown
libtcp-fi.so       0000146132057A30  Unknown               Unknown  Unknown
libtcp-fi.so       000014613203B839  Unknown               Unknown  Unknown
libmpi.so.12.0.0   0000146135CB2413  Unknown               Unknown  Unknown
libmpi.so.12.0.0   00001461359C7DDA  Unknown               Unknown  Unknown
libmpi.so.12.0.0   00001461359C80A8  Unknown               Unknown  Unknown
libmpi.so.12.0.0   0000146135D532F0  Unknown               Unknown  Unknown
libmpi.so.12.0.0   0000146135AB6875  Unknown               Unknown  Unknown
libmpi.so.12.0.0   0000146135ABFB73  Unknown               Unknown  Unknown
libmpi.so.12.0.0   00001461357A303F  Unknown               Unknown  Unknown
libmpi.so.12.0.0   000014613591DD36  Unknown               Unknown  Unknown
libmpi.so.12.0.0   000014613590E779  Unknown               Unknown  Unknown
libmpi.so.12.0.0   0000146135A13541  Unknown               Unknown  Unknown
libmpi.so.12.0.0   00001461357F682E  PMPI_Alltoall         Unknown  Unknown
libmpifort.so.12.  000014613F5E0733  mpi_alltoall__        Unknown  Unknown
vasp_ncl           00000000004D02B9  Unknown               Unknown  Unknown
vasp_ncl           0000000000D5AE59  Unknown               Unknown  Unknown
vasp_ncl           0000000001C97C09  Unknown               Unknown  Unknown
vasp_ncl           0000000001DDB9C5  Unknown               Unknown  Unknown
vasp_ncl           000000000330CD0B  Unknown               Unknown  Unknown
vasp_ncl           00000000032FDD6F  Unknown               Unknown  Unknown
vasp_ncl           00000000032D5425  Unknown               Unknown  Unknown
vasp_ncl           000000000044050D  Unknown               Unknown  Unknown
libc.so.6          0000146134E2A610  Unknown               Unknown  Unknown
libc.so.6          0000146134E2A6C0  __libc_start_main     Unknown  Unknown
vasp_ncl           0000000000440425  Unknown               Unknown  Unknown
forrtl: error (78): process killed (SIGTERM)
Image              PC                Routine            Line        Source             
libc.so.6          0000153D9D83FB30  Unknown               Unknown  Unknown
libc.so.6          0000153D9D90FD5A  epoll_wait            Unknown  Unknown
libtcp-fi.so       0000153D9AA338EC  Unknown               Unknown  Unknown
libtcp-fi.so       0000153D9AA30DC5  Unknown               Unknown  Unknown
libtcp-fi.so       0000153D9AA48A30  Unknown               Unknown  Unknown
libtcp-fi.so       0000153D9AA2C839  Unknown               Unknown  Unknown
libmpi.so.12.0.0   0000153D9E6B2413  Unknown               Unknown  Unknown
libmpi.so.12.0.0   0000153D9E3C7DDA  Unknown               Unknown  Unknown
libmpi.so.12.0.0   0000153D9E3C80A8  Unknown               Unknown  Unknown
libmpi.so.12.0.0   0000153D9E7532F0  Unknown               Unknown  Unknown
libmpi.so.12.0.0   0000153D9E4B6875  Unknown               Unknown  Unknown
libmpi.so.12.0.0   0000153D9E4BFB73  Unknown               Unknown  Unknown
libmpi.so.12.0.0   0000153D9E1A303F  Unknown               Unknown  Unknown
libmpi.so.12.0.0   0000153D9E31DD36  Unknown               Unknown  Unknown
libmpi.so.12.0.0   0000153D9E30E779  Unknown               Unknown  Unknown
libmpi.so.12.0.0   0000153D9E413541  Unknown               Unknown  Unknown
libmpi.so.12.0.0   0000153D9E1F682E  PMPI_Alltoall         Unknown  Unknown
libmpifort.so.12.  0000153DA7FE0733  mpi_alltoall__        Unknown  Unknown
vasp_ncl           00000000004D02B9  Unknown               Unknown  Unknown
vasp_ncl           0000000000D5AE59  Unknown               Unknown  Unknown
vasp_ncl           0000000001C97C09  Unknown               Unknown  Unknown
vasp_ncl           0000000001DDB9C5  Unknown               Unknown  Unknown
vasp_ncl           000000000330CD0B  Unknown               Unknown  Unknown
vasp_ncl           00000000032FDD6F  Unknown               Unknown  Unknown
vasp_ncl           00000000032D5425  Unknown               Unknown  Unknown
vasp_ncl           000000000044050D  Unknown               Unknown  Unknown
libc.so.6          0000153D9D82A610  Unknown               Unknown  Unknown
libc.so.6          0000153D9D82A6C0  __libc_start_main     Unknown  Unknown
vasp_ncl           0000000000440425  Unknown               Unknown  Unknown
forrtl: error (78): process killed (SIGTERM)
Image              PC                Routine            Line        Source             
libc.so.6          0000150BFF63FB30  Unknown               Unknown  Unknown
libc.so.6          0000150BFF70FD5A  epoll_wait            Unknown  Unknown
libtcp-fi.so       0000150BFC8338EC  Unknown               Unknown  Unknown
libtcp-fi.so       0000150BFC830DC5  Unknown               Unknown  Unknown
libtcp-fi.so       0000150BFC848A30  Unknown               Unknown  Unknown
libtcp-fi.so       0000150BFC82C839  Unknown               Unknown  Unknown
libmpi.so.12.0.0   0000150C004B2413  Unknown               Unknown  Unknown
libmpi.so.12.0.0   0000150C001C7DDA  Unknown               Unknown  Unknown
libmpi.so.12.0.0   0000150C001C80A8  Unknown               Unknown  Unknown
libmpi.so.12.0.0   0000150C005532F0  Unknown               Unknown  Unknown
libmpi.so.12.0.0   0000150C002B6875  Unknown               Unknown  Unknown
libmpi.so.12.0.0   0000150C002BFB73  Unknown               Unknown  Unknown
libmpi.so.12.0.0   0000150BFFFA303F  Unknown               Unknown  Unknown
libmpi.so.12.0.0   0000150C0011DD36  Unknown               Unknown  Unknown
libmpi.so.12.0.0   0000150C0010E779  Unknown               Unknown  Unknown
libmpi.so.12.0.0   0000150C00213541  Unknown               Unknown  Unknown
libmpi.so.12.0.0   0000150BFFFF682E  PMPI_Alltoall         Unknown  Unknown
libmpifort.so.12.  0000150C09DE0733  mpi_alltoall__        Unknown  Unknown
vasp_ncl           00000000004D02B9  Unknown               Unknown  Unknown
vasp_ncl           0000000000D5AE59  Unknown               Unknown  Unknown
vasp_ncl           0000000001C97C09  Unknown               Unknown  Unknown
vasp_ncl           0000000001DDB9C5  Unknown               Unknown  Unknown
vasp_ncl           000000000330CD0B  Unknown               Unknown  Unknown
vasp_ncl           00000000032FDD6F  Unknown               Unknown  Unknown
vasp_ncl           00000000032D5425  Unknown               Unknown  Unknown
vasp_ncl           000000000044050D  Unknown               Unknown  Unknown
libc.so.6          0000150BFF62A610  Unknown               Unknown  Unknown
libc.so.6          0000150BFF62A6C0  __libc_start_main     Unknown  Unknown
vasp_ncl           0000000000440425  Unknown               Unknown  Unknown
forrtl: error (78): process killed (SIGTERM)
Image              PC                Routine            Line        Source             
libc.so.6          000015206D63FB30  Unknown               Unknown  Unknown
libc.so.6          000015206D70FD5A  epoll_wait            Unknown  Unknown
libtcp-fi.so       000015206A7CD8EC  Unknown               Unknown  Unknown
libtcp-fi.so       000015206A7CADC5  Unknown               Unknown  Unknown
libtcp-fi.so       000015206A7E2A30  Unknown               Unknown  Unknown
libtcp-fi.so       000015206A7C6839  Unknown               Unknown  Unknown
libmpi.so.12.0.0   000015206E474413  Unknown               Unknown  Unknown
libmpi.so.12.0.0   000015206E189DDA  Unknown               Unknown  Unknown
libmpi.so.12.0.0   000015206E18A0A8  Unknown               Unknown  Unknown
libmpi.so.12.0.0   000015206E5152F0  Unknown               Unknown  Unknown
libmpi.so.12.0.0   000015206E278875  Unknown               Unknown  Unknown
libmpi.so.12.0.0   000015206E281B73  Unknown               Unknown  Unknown
libmpi.so.12.0.0   000015206DF6503F  Unknown               Unknown  Unknown
libmpi.so.12.0.0   000015206E0DFD36  Unknown               Unknown  Unknown
libmpi.so.12.0.0   000015206E0D0779  Unknown               Unknown  Unknown
libmpi.so.12.0.0   000015206E1D5541  Unknown               Unknown  Unknown
libmpi.so.12.0.0   000015206DFB882E  PMPI_Alltoall         Unknown  Unknown
libmpifort.so.12.  0000152077DA2733  mpi_alltoall__        Unknown  Unknown
vasp_ncl           00000000004D02B9  Unknown               Unknown  Unknown
vasp_ncl           0000000000D5AE59  Unknown               Unknown  Unknown
vasp_ncl           0000000001C97C09  Unknown               Unknown  Unknown
vasp_ncl           0000000001DDB9C5  Unknown               Unknown  Unknown
vasp_ncl           000000000330CD0B  Unknown               Unknown  Unknown
vasp_ncl           00000000032FDD6F  Unknown               Unknown  Unknown
vasp_ncl           00000000032D5425  Unknown               Unknown  Unknown
vasp_ncl           000000000044050D  Unknown               Unknown  Unknown
libc.so.6          000015206D62A610  Unknown               Unknown  Unknown
libc.so.6          000015206D62A6C0  __libc_start_main     Unknown  Unknown
vasp_ncl           0000000000440425  Unknown               Unknown  Unknown
forrtl: error (78): process killed (SIGTERM)
Image              PC                Routine            Line        Source             
libc.so.6          000014A5ED23FB30  Unknown               Unknown  Unknown
libc.so.6          000014A5ED30FD5A  epoll_wait            Unknown  Unknown
libtcp-fi.so       000014A5EA4338EC  Unknown               Unknown  Unknown
libtcp-fi.so       000014A5EA430DC5  Unknown               Unknown  Unknown
libtcp-fi.so       000014A5EA448A30  Unknown               Unknown  Unknown
libtcp-fi.so       000014A5EA42C839  Unknown               Unknown  Unknown
libmpi.so.12.0.0   000014A5EE0B2413  Unknown               Unknown  Unknown
libmpi.so.12.0.0   000014A5EDDC7DDA  Unknown               Unknown  Unknown
libmpi.so.12.0.0   000014A5EDDC80A8  Unknown               Unknown  Unknown
libmpi.so.12.0.0   000014A5EE1532F0  Unknown               Unknown  Unknown
libmpi.so.12.0.0   000014A5EDEB6875  Unknown               Unknown  Unknown
libmpi.so.12.0.0   000014A5EDEBFB73  Unknown               Unknown  Unknown
libmpi.so.12.0.0   000014A5EDBA303F  Unknown               Unknown  Unknown
libmpi.so.12.0.0   000014A5EDD1DD36  Unknown               Unknown  Unknown
libmpi.so.12.0.0   000014A5EDD0E779  Unknown               Unknown  Unknown
libmpi.so.12.0.0   000014A5EDE13541  Unknown               Unknown  Unknown
libmpi.so.12.0.0   000014A5EDBF682E  PMPI_Alltoall         Unknown  Unknown
libmpifort.so.12.  000014A5F79E0733  mpi_alltoall__        Unknown  Unknown
vasp_ncl           00000000004D02B9  Unknown               Unknown  Unknown
vasp_ncl           0000000000D5AE59  Unknown               Unknown  Unknown
vasp_ncl           0000000001C97C09  Unknown               Unknown  Unknown
vasp_ncl           0000000001DDB9C5  Unknown               Unknown  Unknown
vasp_ncl           000000000330CD0B  Unknown               Unknown  Unknown
vasp_ncl           00000000032FDD6F  Unknown               Unknown  Unknown
vasp_ncl           00000000032D5425  Unknown               Unknown  Unknown
vasp_ncl           000000000044050D  Unknown               Unknown  Unknown
libc.so.6          000014A5ED22A610  Unknown               Unknown  Unknown
libc.so.6          000014A5ED22A6C0  __libc_start_main     Unknown  Unknown
vasp_ncl           0000000000440425  Unknown               Unknown  Unknown
forrtl: error (78): process killed (SIGTERM)
Image              PC                Routine            Line        Source             
libc.so.6          000014AB9D83FB30  Unknown               Unknown  Unknown
libc.so.6          000014AB9D90FD5A  epoll_wait            Unknown  Unknown
libtcp-fi.so       000014AB9AA258EC  Unknown               Unknown  Unknown
libtcp-fi.so       000014AB9AA22DC5  Unknown               Unknown  Unknown
libtcp-fi.so       000014AB9AA3AA30  Unknown               Unknown  Unknown
libtcp-fi.so       000014AB9AA1E839  Unknown               Unknown  Unknown
libmpi.so.12.0.0   000014AB9E6B2413  Unknown               Unknown  Unknown
libmpi.so.12.0.0   000014AB9E3C7DDA  Unknown               Unknown  Unknown
libmpi.so.12.0.0   000014AB9E3C80A8  Unknown               Unknown  Unknown
libmpi.so.12.0.0   000014AB9E7532F0  Unknown               Unknown  Unknown
libmpi.so.12.0.0   000014AB9E4B6875  Unknown               Unknown  Unknown
libmpi.so.12.0.0   000014AB9E4BFB73  Unknown               Unknown  Unknown
libmpi.so.12.0.0   000014AB9E1A303F  Unknown               Unknown  Unknown
libmpi.so.12.0.0   000014AB9E31DD36  Unknown               Unknown  Unknown
libmpi.so.12.0.0   000014AB9E30E779  Unknown               Unknown  Unknown
libmpi.so.12.0.0   000014AB9E413541  Unknown               Unknown  Unknown
libmpi.so.12.0.0   000014AB9E1F682E  PMPI_Alltoall         Unknown  Unknown
libmpifort.so.12.  000014ABA7FE0733  mpi_alltoall__        Unknown  Unknown
vasp_ncl           00000000004D02B9  Unknown               Unknown  Unknown
vasp_ncl           0000000000D5AE59  Unknown               Unknown  Unknown
vasp_ncl           0000000001C97C09  Unknown               Unknown  Unknown
vasp_ncl           0000000001DDB9C5  Unknown               Unknown  Unknown
vasp_ncl           000000000330CD0B  Unknown               Unknown  Unknown
vasp_ncl           00000000032FDD6F  Unknown               Unknown  Unknown
vasp_ncl           00000000032D5425  Unknown               Unknown  Unknown
vasp_ncl           000000000044050D  Unknown               Unknown  Unknown
libc.so.6          000014AB9D82A610  Unknown               Unknown  Unknown
libc.so.6          000014AB9D82A6C0  __libc_start_main     Unknown  Unknown
vasp_ncl           0000000000440425  Unknown               Unknown  Unknown
forrtl: error (78): process killed (SIGTERM)
Image              PC                Routine            Line        Source             
libc.so.6          000014FDBBC3FB30  Unknown               Unknown  Unknown
libc.so.6          000014FDBBD0FD5A  epoll_wait            Unknown  Unknown
libtcp-fi.so       000014FDB8CE88EC  Unknown               Unknown  Unknown
libtcp-fi.so       000014FDB8CE5DC5  Unknown               Unknown  Unknown
libtcp-fi.so       000014FDB8CFDA30  Unknown               Unknown  Unknown
libtcp-fi.so       000014FDB8CE1839  Unknown               Unknown  Unknown
libmpi.so.12.0.0   000014FDBC8B2413  Unknown               Unknown  Unknown
libmpi.so.12.0.0   000014FDBC5C7DDA  Unknown               Unknown  Unknown
libmpi.so.12.0.0   000014FDBC5C80A8  Unknown               Unknown  Unknown
libmpi.so.12.0.0   000014FDBC9532F0  Unknown               Unknown  Unknown
libmpi.so.12.0.0   000014FDBC6B6875  Unknown               Unknown  Unknown
libmpi.so.12.0.0   000014FDBC6BFB73  Unknown               Unknown  Unknown
libmpi.so.12.0.0   000014FDBC3A303F  Unknown               Unknown  Unknown
libmpi.so.12.0.0   000014FDBC51DD36  Unknown               Unknown  Unknown
libmpi.so.12.0.0   000014FDBC50E779  Unknown               Unknown  Unknown
libmpi.so.12.0.0   000014FDBC613541  Unknown               Unknown  Unknown
libmpi.so.12.0.0   000014FDBC3F682E  PMPI_Alltoall         Unknown  Unknown
libmpifort.so.12.  000014FDC61E0733  mpi_alltoall__        Unknown  Unknown
vasp_ncl           00000000004D02B9  Unknown               Unknown  Unknown
vasp_ncl           0000000000D5AE59  Unknown               Unknown  Unknown
vasp_ncl           0000000001C97C09  Unknown               Unknown  Unknown
vasp_ncl           0000000001DDB9C5  Unknown               Unknown  Unknown
vasp_ncl           000000000330CD0B  Unknown               Unknown  Unknown
vasp_ncl           00000000032FDD6F  Unknown               Unknown  Unknown
vasp_ncl           00000000032D5425  Unknown               Unknown  Unknown
vasp_ncl           000000000044050D  Unknown               Unknown  Unknown
libc.so.6          000014FDBBC2A610  Unknown               Unknown  Unknown
libc.so.6          000014FDBBC2A6C0  __libc_start_main     Unknown  Unknown
vasp_ncl           0000000000440425  Unknown               Unknown  Unknown
forrtl: error (78): process killed (SIGTERM)
Image              PC                Routine            Line        Source             
libc.so.6          000014842AC3FB30  Unknown               Unknown  Unknown
libmkl_def.so.2    0000148257F20BD6  mkl_dft_def_scatt     Unknown  Unknown
libmkl_def.so.2    0000148257EC3AA6  Unknown               Unknown  Unknown
libmkl_intel_lp64  000014843C1182FD  DftiComputeBackwa     Unknown  Unknown
libmkl_intel_lp64  000014843C12464F  fftw_execute_dft      Unknown  Unknown
vasp_ncl           000000000063DDEE  Unknown               Unknown  Unknown
vasp_ncl           0000000000642892  Unknown               Unknown  Unknown
vasp_ncl           0000000000D66063  Unknown               Unknown  Unknown
vasp_ncl           0000000001C9AAFB  Unknown               Unknown  Unknown
vasp_ncl           0000000001DDB9C5  Unknown               Unknown  Unknown
vasp_ncl           000000000330CD0B  Unknown               Unknown  Unknown
vasp_ncl           00000000032FDD6F  Unknown               Unknown  Unknown
vasp_ncl           00000000032D5425  Unknown               Unknown  Unknown
vasp_ncl           000000000044050D  Unknown               Unknown  Unknown
libc.so.6          000014842AC2A610  Unknown               Unknown  Unknown
libc.so.6          000014842AC2A6C0  __libc_start_main     Unknown  Unknown
vasp_ncl           0000000000440425  Unknown               Unknown  Unknown
