  27  27   0   0
  0.6225983E+02  0.6966097E-09  0.6966097E-09  0.4000000E-08  0.1500000E-16
  1.000000000000000E-004
  CAR 
 phonon_dispersion                       
     12.70631460    -16.29831088  301     -5.65119627      1.00000000
    -16.298  0.0000E+00  0.0000E+00
    -16.202  0.0000E+00  0.0000E+00
    -16.105  0.0000E+00  0.0000E+00
    -16.008  0.0000E+00  0.0000E+00
    -15.912  0.0000E+00  0.0000E+00
    -15.815  0.0000E+00  0.0000E+00
    -15.718  0.0000E+00  0.0000E+00
    -15.622  0.0000E+00  0.0000E+00
    -15.525  0.0000E+00  0.0000E+00
    -15.428  0.0000E+00  0.0000E+00
    -15.331  0.0000E+00  0.0000E+00
    -15.235  0.1366E-15  0.1321E-16
    -15.138  0.2125E-08  0.2054E-09
    -15.041  0.4003E-04  0.3871E-05
    -14.945  0.2568E-02  0.2522E-03
    -14.848  0.6375E-02  0.8685E-03
    -14.751  0.6982E-02  0.1544E-02
    -14.655  0.6748E-02  0.2196E-02
    -14.558  0.5905E-02  0.2767E-02
    -14.461  0.8068E-02  0.3547E-02
    -14.365  0.5059E-02  0.4036E-02
    -14.268  0.8113E-02  0.4820E-02
    -14.171  0.6771E-02  0.5475E-02
    -14.075  0.5061E-02  0.5964E-02
    -13.978  0.9252E-02  0.6859E-02
    -13.881  0.5475E-02  0.7388E-02
    -13.785  0.5748E-02  0.7944E-02
    -13.688  0.9949E-02  0.8906E-02
    -13.591  0.4311E-02  0.9323E-02
    -13.495  0.5743E-02  0.9878E-02
    -13.398  0.1042E-01  0.1089E-01
    -13.301  0.6468E-02  0.1151E-01
    -13.204  0.3485E-02  0.1185E-01
    -13.108  0.9432E-02  0.1276E-01
    -13.011  0.8659E-02  0.1360E-01
    -12.914  0.6215E-02  0.1420E-01
    -12.818  0.2601E-02  0.1445E-01
    -12.721  0.1212E-01  0.1562E-01
    -12.624  0.7320E-02  0.1633E-01
    -12.528  0.5969E-02  0.1691E-01
    -12.431  0.4637E-02  0.1735E-01
    -12.334  0.8579E-02  0.1818E-01
    -12.238  0.1096E-01  0.1924E-01
    -12.141  0.5778E-02  0.1980E-01
    -12.044  0.5221E-02  0.2031E-01
    -11.948  0.5453E-02  0.2083E-01
    -11.851  0.1221E-01  0.2201E-01
    -11.754  0.8678E-02  0.2285E-01
    -11.658  0.5498E-02  0.2338E-01
    -11.561  0.5042E-02  0.2387E-01
    -11.464  0.7980E-02  0.2464E-01
    -11.368  0.1230E-01  0.2583E-01
    -11.271  0.8758E-02  0.2668E-01
    -11.174  0.5522E-02  0.2721E-01
    -11.077  0.5219E-02  0.2772E-01
    -10.981  0.8796E-02  0.2857E-01
    -10.884  0.1435E-01  0.2996E-01
    -10.787  0.8688E-02  0.3080E-01
    -10.691  0.6956E-02  0.3147E-01
    -10.594  0.5854E-02  0.3203E-01
    -10.497  0.7836E-02  0.3279E-01
    -10.401  0.2263E-01  0.3498E-01
    -10.304  0.1740E-01  0.3666E-01
    -10.207  0.1529E-01  0.3814E-01
    -10.111  0.1160E-01  0.3926E-01
    -10.014  0.2122E-01  0.4131E-01
     -9.917  0.3218E-01  0.4442E-01
     -9.821  0.1137E-01  0.4552E-01
     -9.724  0.8047E-02  0.4630E-01
     -9.627  0.1195E-01  0.4746E-01
     -9.531  0.1582E-01  0.4899E-01
     -9.434  0.1588E-01  0.5052E-01
     -9.337  0.1051E-01  0.5154E-01
     -9.241  0.1054E-01  0.5256E-01
     -9.144  0.7808E-02  0.5331E-01
     -9.047  0.7153E-02  0.5400E-01
     -8.950  0.1941E-01  0.5588E-01
     -8.854  0.8197E-02  0.5667E-01
     -8.757  0.4921E-02  0.5715E-01
     -8.660  0.9542E-02  0.5807E-01
     -8.564  0.1012E-01  0.5905E-01
     -8.467  0.1119E-01  0.6013E-01
     -8.370  0.4809E-02  0.6060E-01
     -8.274  0.9432E-02  0.6151E-01
     -8.177  0.8598E-02  0.6234E-01
     -8.080  0.6628E-02  0.6298E-01
     -7.984  0.9604E-02  0.6391E-01
     -7.887  0.2996E-02  0.6420E-01
     -7.790  0.1195E-01  0.6535E-01
     -7.694  0.6265E-02  0.6596E-01
     -7.597  0.5483E-02  0.6649E-01
     -7.500  0.6790E-02  0.6715E-01
     -7.404  0.4656E-02  0.6760E-01
     -7.307  0.1288E-01  0.6884E-01
     -7.210  0.5708E-02  0.6939E-01
     -7.114  0.5352E-02  0.6991E-01
     -7.017  0.1045E-01  0.7092E-01
     -6.920  0.1001E-01  0.7189E-01
     -6.823  0.1210E-01  0.7306E-01
     -6.727  0.8515E-02  0.7388E-01
     -6.630  0.1078E-01  0.7492E-01
     -6.533  0.1509E-01  0.7638E-01
     -6.437  0.1612E-01  0.7794E-01
     -6.340  0.1425E-01  0.7932E-01
     -6.243  0.2135E-01  0.8138E-01
     -6.147  0.2732E-01  0.8402E-01
     -6.050  0.4108E-01  0.8800E-01
     -5.953  0.8721E-01  0.9643E-01
     -5.857  0.3376E-01  0.9969E-01
     -5.760  0.3215E-03  0.9972E-01
     -5.663  0.1067E-07  0.9972E-01
     -5.567  0.3475E-15  0.9972E-01
     -5.470  0.0000E+00  0.9972E-01
     -5.373  0.0000E+00  0.9972E-01
     -5.277  0.0000E+00  0.9972E-01
     -5.180  0.0000E+00  0.9972E-01
     -5.083  0.0000E+00  0.9972E-01
     -4.987  0.0000E+00  0.9972E-01
     -4.890  0.0000E+00  0.9972E-01
     -4.793  0.0000E+00  0.9972E-01
     -4.696  0.0000E+00  0.9972E-01
     -4.600  0.0000E+00  0.9972E-01
     -4.503  0.0000E+00  0.9972E-01
     -4.406  0.0000E+00  0.9972E-01
     -4.310  0.0000E+00  0.9972E-01
     -4.213  0.0000E+00  0.9972E-01
     -4.116  0.0000E+00  0.9972E-01
     -4.020  0.0000E+00  0.9972E-01
     -3.923  0.0000E+00  0.9972E-01
     -3.826  0.0000E+00  0.9972E-01
     -3.730  0.0000E+00  0.9972E-01
     -3.633  0.0000E+00  0.9972E-01
     -3.536  0.0000E+00  0.9972E-01
     -3.440  0.0000E+00  0.9972E-01
     -3.343  0.0000E+00  0.9972E-01
     -3.246  0.0000E+00  0.9972E-01
     -3.150  0.0000E+00  0.9972E-01
     -3.053  0.0000E+00  0.9972E-01
     -2.956  0.0000E+00  0.9972E-01
     -2.860  0.0000E+00  0.9972E-01
     -2.763  0.0000E+00  0.9972E-01
     -2.666  0.0000E+00  0.9972E-01
     -2.569  0.0000E+00  0.9972E-01
     -2.473  0.0000E+00  0.9972E-01
     -2.376  0.0000E+00  0.9972E-01
     -2.279  0.0000E+00  0.9972E-01
     -2.183  0.0000E+00  0.9972E-01
     -2.086  0.0000E+00  0.9972E-01
     -1.989  0.0000E+00  0.9972E-01
     -1.893  0.0000E+00  0.9972E-01
     -1.796  0.0000E+00  0.9972E-01
     -1.699  0.0000E+00  0.9972E-01
     -1.603  0.0000E+00  0.9972E-01
     -1.506  0.0000E+00  0.9972E-01
     -1.409  0.0000E+00  0.9972E-01
     -1.313  0.4240E-13  0.9972E-01
     -1.216  0.1299E-06  0.9972E-01
     -1.119  0.3747E-03  0.9976E-01
     -1.023  0.9202E-02  0.1006E+00
     -0.926  0.1317E-01  0.1019E+00
     -0.829  0.2105E-01  0.1040E+00
     -0.732  0.1230E-01  0.1051E+00
     -0.636  0.2001E-01  0.1071E+00
     -0.539  0.2713E-01  0.1097E+00
     -0.442  0.2563E-01  0.1122E+00
     -0.346  0.2380E-01  0.1145E+00
     -0.249  0.2798E-01  0.1172E+00
     -0.152  0.2913E-01  0.1200E+00
     -0.056  0.2683E-01  0.1226E+00
      0.041  0.1353E-01  0.1239E+00
      0.138  0.1552E-01  0.1254E+00
      0.234  0.1272E-01  0.1266E+00
      0.331  0.1916E-01  0.1285E+00
      0.428  0.2761E-01  0.1312E+00
      0.524  0.3032E-01  0.1341E+00
      0.621  0.1857E-01  0.1359E+00
      0.718  0.1167E-01  0.1370E+00
      0.814  0.3317E-01  0.1402E+00
      0.911  0.3725E-01  0.1438E+00
      1.008  0.3737E-01  0.1474E+00
      1.104  0.3592E-01  0.1509E+00
      1.201  0.4232E-01  0.1550E+00
      1.298  0.3793E-01  0.1587E+00
      1.395  0.5241E-01  0.1637E+00
      1.491  0.3605E-01  0.1672E+00
      1.588  0.5115E-01  0.1722E+00
      1.685  0.5276E-01  0.1773E+00
      1.781  0.4662E-01  0.1818E+00
      1.878  0.4823E-01  0.1864E+00
      1.975  0.4404E-01  0.1907E+00
      2.071  0.4940E-01  0.1955E+00
      2.168  0.4243E-01  0.1996E+00
      2.265  0.4518E-01  0.2039E+00
      2.361  0.5457E-01  0.2092E+00
      2.458  0.5248E-01  0.2143E+00
      2.555  0.4950E-01  0.2191E+00
      2.651  0.5860E-01  0.2247E+00
      2.748  0.6427E-01  0.2310E+00
      2.845  0.7646E-01  0.2383E+00
      2.941  0.7335E-01  0.2454E+00
      3.038  0.7212E-01  0.2524E+00
      3.135  0.6100E-01  0.2583E+00
      3.231  0.5662E-01  0.2638E+00
      3.328  0.4777E-01  0.2684E+00
      3.425  0.7741E-01  0.2759E+00
      3.522  0.7337E-01  0.2830E+00
      3.618  0.6437E-01  0.2892E+00
      3.715  0.6703E-01  0.2957E+00
      3.812  0.6950E-01  0.3024E+00
      3.908  0.5039E-01  0.3073E+00
      4.005  0.6576E-01  0.3136E+00
      4.102  0.8811E-01  0.3221E+00
      4.198  0.7412E-01  0.3293E+00
      4.295  0.6361E-01  0.3355E+00
      4.392  0.5791E-01  0.3411E+00
      4.488  0.7246E-01  0.3481E+00
      4.585  0.7621E-01  0.3554E+00
      4.682  0.1076E+00  0.3658E+00
      4.778  0.7988E-01  0.3736E+00
      4.875  0.6759E-01  0.3801E+00
      4.972  0.6313E-01  0.3862E+00
      5.068  0.7983E-01  0.3939E+00
      5.165  0.7684E-01  0.4014E+00
      5.262  0.7511E-01  0.4086E+00
      5.358  0.6783E-01  0.4152E+00
      5.455  0.9647E-01  0.4245E+00
      5.552  0.8649E-01  0.4329E+00
      5.649  0.6957E-01  0.4396E+00
      5.745  0.7028E-01  0.4464E+00
      5.842  0.8573E-01  0.4547E+00
      5.939  0.7508E-01  0.4619E+00
      6.035  0.8530E-01  0.4702E+00
      6.132  0.7968E-01  0.4779E+00
      6.229  0.9326E-01  0.4869E+00
      6.325  0.1136E+00  0.4979E+00
      6.422  0.1053E+00  0.5081E+00
      6.519  0.7896E-01  0.5157E+00
      6.615  0.8297E-01  0.5237E+00
      6.712  0.9394E-01  0.5328E+00
      6.809  0.8576E-01  0.5411E+00
      6.905  0.8854E-01  0.5496E+00
      7.002  0.7351E-01  0.5567E+00
      7.099  0.1151E+00  0.5679E+00
      7.195  0.1143E+00  0.5789E+00
      7.292  0.1135E+00  0.5899E+00
      7.389  0.1021E+00  0.5998E+00
      7.485  0.8682E-01  0.6082E+00
      7.582  0.1029E+00  0.6181E+00
      7.679  0.9504E-01  0.6273E+00
      7.776  0.7321E-01  0.6344E+00
      7.872  0.9027E-01  0.6431E+00
      7.969  0.8933E-01  0.6517E+00
      8.066  0.8417E-01  0.6599E+00
      8.162  0.1027E+00  0.6698E+00
      8.259  0.1111E+00  0.6806E+00
      8.356  0.8819E-01  0.6891E+00
      8.452  0.8781E-01  0.6976E+00
      8.549  0.8879E-01  0.7062E+00
      8.646  0.8110E-01  0.7140E+00
      8.742  0.1115E+00  0.7248E+00
      8.839  0.1094E+00  0.7354E+00
      8.936  0.9175E-01  0.7442E+00
      9.032  0.1112E+00  0.7550E+00
      9.129  0.1416E+00  0.7687E+00
      9.226  0.9362E-01  0.7777E+00
      9.322  0.8699E-01  0.7861E+00
      9.419  0.1037E+00  0.7962E+00
      9.516  0.9831E-01  0.8057E+00
      9.612  0.1175E+00  0.8170E+00
      9.709  0.1012E+00  0.8268E+00
      9.806  0.9693E-01  0.8362E+00
      9.903  0.9569E-01  0.8454E+00
      9.999  0.1013E+00  0.8552E+00
     10.096  0.8887E-01  0.8638E+00
     10.193  0.1068E+00  0.8741E+00
     10.289  0.1188E+00  0.8856E+00
     10.386  0.1067E+00  0.8959E+00
     10.483  0.7868E-01  0.9035E+00
     10.579  0.8869E-01  0.9121E+00
     10.676  0.6987E-01  0.9189E+00
     10.773  0.3733E-01  0.9225E+00
     10.869  0.2508E-01  0.9249E+00
     10.966  0.2519E-01  0.9273E+00
     11.063  0.1271E-01  0.9286E+00
     11.159  0.8135E-02  0.9293E+00
     11.256  0.4838E-02  0.9298E+00
     11.353  0.7170E-02  0.9305E+00
     11.449  0.2357E-02  0.9307E+00
     11.546  0.1162E-03  0.9307E+00
     11.643  0.1086E-07  0.9307E+00
     11.739  0.7976E-15  0.9307E+00
     11.836  0.0000E+00  0.9307E+00
     11.933  0.0000E+00  0.9307E+00
     12.030  0.0000E+00  0.9307E+00
     12.126  0.0000E+00  0.9307E+00
     12.223  0.0000E+00  0.9307E+00
     12.320  0.0000E+00  0.9307E+00
     12.416  0.0000E+00  0.9307E+00
     12.513  0.0000E+00  0.9307E+00
     12.610  0.0000E+00  0.9307E+00
     12.706  0.0000E+00  0.9307E+00
