    2    2    1    1
  0.8131439E+02  0.2166723E-09  0.2166723E-09  0.4000000E-08  0.5000000E-15
  1.000000000000000E-004
  CAR 
 beta_p3m1 SOC topology                  
      4     81     28
 
  0.3283333E+00  0.3283333E+00  0.0000000E+00  0.1234568E-01
      1         -3.477005   1.000000
      2         -3.477005   1.000000
      3         -2.632391   0.700545
      4         -2.632391   0.700543
      5         -2.562673   0.000000
      6         -2.562673   0.000000
      7          0.144780   0.000000
      8          0.144780   0.000000
      9          6.023822   0.000000
     10          6.023822   0.000000
     11          6.036732   0.000000
     12          6.036732   0.000000
     13          6.451833   0.000000
     14          6.451833   0.000000
     15          6.645731   0.000000
     16          6.645731   0.000000
     17         10.136388   0.000000
     18         10.136388   0.000000
     19         13.179949   0.000000
     20         13.179949   0.000000
     21         13.710509   0.000000
     22         13.710513   0.000000
     23         13.758601   0.000000
     24         13.758603   0.000000
     25         14.763053   0.000000
     26         14.776517   0.000000
     27         14.928952   0.000000
     28         14.943530   0.000000
 
  0.3283333E+00  0.3295833E+00  0.0000000E+00  0.1234568E-01
      1         -3.460982   1.000000
      2         -3.460982   1.000000
      3         -2.641382   0.963875
      4         -2.641382   0.963875
      5         -2.568391   0.000000
      6         -2.568391   0.000000
      7          0.142952   0.000000
      8          0.142952   0.000000
      9          6.034327   0.000000
     10          6.034327   0.000000
     11          6.041475   0.000000
     12          6.041475   0.000000
     13          6.456170   0.000000
     14          6.456170   0.000000
     15          6.627943   0.000000
     16          6.627943   0.000000
     17         10.131974   0.000000
     18         10.131974   0.000000
     19         13.205835   0.000000
     20         13.205835   0.000000
     21         13.710127   0.000000
     22         13.710134   0.000000
     23         13.744174   0.000000
     24         13.744177   0.000000
     25         14.792416   0.000000
     26         14.823056   0.000000
     27         14.951790   0.000000
     28         14.988643   0.000000
 
  0.3283333E+00  0.3308333E+00  0.0000000E+00  0.1234568E-01
      1         -3.447391   1.000000
      2         -3.447391   1.000000
      3         -2.650601   0.999036
      4         -2.650601   0.999036
      5         -2.571687   0.000000
      6         -2.571687   0.000000
      7          0.141456   0.000000
      8          0.141456   0.000000
      9          6.042610   0.000000
     10          6.042610   0.000000
     11          6.045753   0.000000
     12          6.045753   0.000000
     13          6.461708   0.000000
     14          6.461708   0.000000
     15          6.611318   0.000000
     16          6.611318   0.000000
     17         10.128356   0.000000
     18         10.128356   0.000000
     19         13.228895   0.000000
     20         13.228895   0.000000
     21         13.701115   0.000000
     22         13.701127   0.000000
     23         13.739071   0.000000
     24         13.739078   0.000000
     25         14.823081   0.000000
     26         14.934586   0.000000
     27         14.967917   0.000000
     28         15.027718   0.000000
 
  0.3283333E+00  0.3320833E+00  0.0000000E+00  0.1234568E-01
      1         -3.436489   1.000000
      2         -3.436489   1.000000
      3         -2.658836   0.999990
      4         -2.658836   0.999990
      5         -2.573516   0.000000
      6         -2.573516   0.000000
      7          0.140292   0.000000
      8          0.140292   0.000000
      9          6.047938   0.000000
     10          6.047938   0.000000
     11          6.050232   0.000000
     12          6.050232   0.000000
     13          6.467969   0.000000
     14          6.467969   0.000000
     15          6.596401   0.000000
     16          6.596401   0.000000
     17         10.125537   0.000000
     18         10.125537   0.000000
     19         13.248337   0.000000
     20         13.248337   0.000000
     21         13.688206   0.000000
     22         13.688209   0.000000
     23         13.739419   0.000000
     24         13.739423   0.000000
     25         14.853613   0.000000
     26         14.878514   0.000000
     27         14.973305   0.000000
     28         15.070664   0.000000
 
  0.3283333E+00  0.3333333E+00  0.0000000E+00  0.1234568E-01
      1         -3.428511   1.000000
      2         -3.428511   1.000000
      3         -2.665239   1.000000
      4         -2.665239   1.000000
      5         -2.574494   0.000000
      6         -2.574494   0.000000
      7          0.139461   0.000000
      8          0.139461   0.000000
      9          6.050746   0.000000
     10          6.050746   0.000000
     11          6.054440   0.000000
     12          6.054440   0.000000
     13          6.474118   0.000000
     14          6.474118   0.000000
     15          6.584059   0.000000
     16          6.584059   0.000000
     17         10.123522   0.000000
     18         10.123522   0.000000
     19         13.263240   0.000000
     20         13.263240   0.000000
     21         13.676755   0.000000
     22         13.676756   0.000000
     23         13.740841   0.000000
     24         13.740845   0.000000
     25         14.880852   0.000000
     26         14.895320   0.000000
     27         14.963780   0.000000
     28         15.048626   0.000000
 
  0.3283333E+00  0.3345833E+00  0.0000000E+00  0.1234568E-01
      1         -3.423642   1.000000
      2         -3.423642   1.000000
      3         -2.669275   1.000000
      4         -2.669275   1.000000
      5         -2.574967   0.000000
      6         -2.574967   0.000000
      7          0.138962   0.000000
      8          0.138962   0.000000
      9          6.052336   0.000000
     10          6.052336   0.000000
     11          6.057061   0.000000
     12          6.057061   0.000000
     13          6.478866   0.000000
     14          6.478866   0.000000
     15          6.575595   0.000000
     16          6.575595   0.000000
     17         10.122311   0.000000
     18         10.122311   0.000000
     19         13.272673   0.000000
     20         13.272673   0.000000
     21         13.669126   0.000000
     22         13.669126   0.000000
     23         13.741944   0.000000
     24         13.741946   0.000000
     25         14.911537   0.000000
     26         14.924308   0.000000
     27         14.966047   0.000000
     28         15.050273   0.000000
 
  0.3283333E+00  0.3358333E+00  0.0000000E+00  0.1234568E-01
      1         -3.422005   1.000000
      2         -3.422005   1.000000
      3         -2.670651   1.000000
      4         -2.670651   1.000000
      5         -2.575108   0.000000
      6         -2.575108   0.000000
      7          0.138796   0.000000
      8          0.138796   0.000000
      9          6.052864   0.000000
     10          6.052864   0.000000
     11          6.057936   0.000000
     12          6.057936   0.000000
     13          6.480700   0.000000
     14          6.480700   0.000000
     15          6.572522   0.000000
     16          6.572523   0.000000
     17         10.121908   0.000000
     18         10.121908   0.000000
     19         13.275910   0.000000
     20         13.275910   0.000000
     21         13.666457   0.000000
     22         13.666458   0.000000
     23         13.742342   0.000000
     24         13.742345   0.000000
     25         14.921309   0.000000
     26         14.930043   0.000000
     27         14.959899   0.000000
     28         15.130344   0.000000
 
  0.3283333E+00  0.3370833E+00  0.0000000E+00  0.1234568E-01
      1         -3.423642   1.000000
      2         -3.423642   1.000000
      3         -2.669275   1.000000
      4         -2.669275   1.000000
      5         -2.574967   0.000000
      6         -2.574967   0.000000
      7          0.138962   0.000000
      8          0.138962   0.000000
      9          6.052336   0.000000
     10          6.052336   0.000000
     11          6.057062   0.000000
     12          6.057062   0.000000
     13          6.478867   0.000000
     14          6.478867   0.000000
     15          6.575594   0.000000
     16          6.575594   0.000000
     17         10.122311   0.000000
     18         10.122311   0.000000
     19         13.272673   0.000000
     20         13.272674   0.000000
     21         13.669126   0.000000
     22         13.669133   0.000000
     23         13.741946   0.000000
     24         13.741960   0.000000
     25         14.909152   0.000000
     26         14.937320   0.000000
     27         14.948777   0.000000
     28         15.144424   0.000000
 
  0.3283333E+00  0.3383333E+00  0.0000000E+00  0.1234568E-01
      1         -3.428510   1.000000
      2         -3.428510   1.000000
      3         -2.665239   1.000000
      4         -2.665239   1.000000
      5         -2.574494   0.000000
      6         -2.574494   0.000000
      7          0.139461   0.000000
      8          0.139461   0.000000
      9          6.050746   0.000000
     10          6.050746   0.000000
     11          6.054440   0.000000
     12          6.054440   0.000000
     13          6.474119   0.000000
     14          6.474119   0.000000
     15          6.584058   0.000000
     16          6.584058   0.000000
     17         10.123522   0.000000
     18         10.123522   0.000000
     19         13.263241   0.000000
     20         13.263241   0.000000
     21         13.676755   0.000000
     22         13.676761   0.000000
     23         13.740842   0.000000
     24         13.740844   0.000000
     25         14.879315   0.000000
     26         14.892276   0.000000
     27         14.971557   0.000000
     28         15.055183   0.000000
 
  0.3295833E+00  0.3283333E+00  0.0000000E+00  0.1234568E-01
      1         -3.460982   1.000000
      2         -3.460982   1.000000
      3         -2.641382   0.963875
      4         -2.641382   0.963875
      5         -2.568391   0.000000
      6         -2.568391   0.000000
      7          0.142952   0.000000
      8          0.142952   0.000000
      9          6.034327   0.000000
     10          6.034327   0.000000
     11          6.041475   0.000000
     12          6.041475   0.000000
     13          6.456170   0.000000
     14          6.456170   0.000000
     15          6.627943   0.000000
     16          6.627943   0.000000
     17         10.131974   0.000000
     18         10.131974   0.000000
     19         13.205835   0.000000
     20         13.205835   0.000000
     21         13.710127   0.000000
     22         13.710131   0.000000
     23         13.744173   0.000000
     24         13.744175   0.000000
     25         14.798873   0.000000
     26         14.824341   0.000000
     27         14.946016   0.000000
     28         14.996005   0.000000
 
  0.3295833E+00  0.3295833E+00  0.0000000E+00  0.1234568E-01
      1         -3.446379   1.000000
      2         -3.446379   1.000000
      3         -2.645326   0.990746
      4         -2.645326   0.990746
      5         -2.577893   0.000000
      6         -2.577893   0.000000
      7          0.141339   0.000000
      8          0.141339   0.000000
      9          6.043340   0.000000
     10          6.043340   0.000000
     11          6.046124   0.000000
     12          6.046124   0.000000
     13          6.461870   0.000000
     14          6.461870   0.000000
     15          6.610266   0.000000
     16          6.610266   0.000000
     17         10.127899   0.000000
     18         10.127899   0.000000
     19         13.230183   0.000000
     20         13.230183   0.000000
     21         13.713809   0.000000
     22         13.713814   0.000000
     23         13.726008   0.000000
     24         13.726012   0.000000
     25         14.823964   0.000000
     26         14.847513   0.000000
     27         14.969444   0.000000
     28         15.035811   0.000000
 
  0.3295833E+00  0.3308333E+00  0.0000000E+00  0.1234568E-01
      1         -3.434311   1.000000
      2         -3.434311   1.000000
      3         -2.649989   0.998714
      4         -2.649989   0.998714
      5         -2.584373   0.000000
      6         -2.584373   0.000000
      7          0.140048   0.000000
      8          0.140048   0.000000
      9          6.049807   0.000000
     10          6.049807   0.000000
     11          6.050629   0.000000
     12          6.050629   0.000000
     13          6.468796   0.000000
     14          6.468796   0.000000
     15          6.593722   0.000000
     16          6.593722   0.000000
     17         10.124633   0.000000
     18         10.124633   0.000000
     19         13.251348   0.000000
     20         13.251348   0.000000
     21         13.704651   0.000000
     22         13.704652   0.000000
     23         13.721789   0.000000
     24         13.721791   0.000000
     25         14.855084   0.000000
     26         14.867051   0.000000
     27         14.976799   0.000000
     28         15.119823   0.000000
 
  0.3295833E+00  0.3320833E+00  0.0000000E+00  0.1234568E-01
      1         -3.425013   1.000000
      2         -3.425013   1.000000
      3         -2.654520   0.999872
      4         -2.654520   0.999872
      5         -2.588445   0.000000
      6         -2.588445   0.000000
      7          0.139080   0.000000
      8          0.139080   0.000000
      9          6.053064   0.000000
     10          6.053064   0.000000
     11          6.055609   0.000000
     12          6.055609   0.000000
     13          6.476360   0.000000
     14          6.476360   0.000000
     15          6.578938   0.000000
     16          6.578938   0.000000
     17         10.122180   0.000000
     18         10.122180   0.000000
     19         13.268476   0.000000
     20         13.268476   0.000000
     21         13.690932   0.000000
     22         13.690932   0.000000
     23         13.724160   0.000000
     24         13.724160   0.000000
     25         14.882324   0.000000
     26         14.890810   0.000000
     27         14.974689   0.000000
     28         14.998325   0.000000
 
  0.3295833E+00  0.3333333E+00  0.0000000E+00  0.1234568E-01
      1         -3.418689   1.000000
      2         -3.418689   1.000000
      3         -2.658061   0.999984
      4         -2.658061   0.999984
      5         -2.590764   0.000000
      6         -2.590764   0.000000
      7          0.138434   0.000000
      8          0.138434   0.000000
      9          6.055244   0.000000
     10          6.055244   0.000000
     11          6.058920   0.000000
     12          6.058920   0.000000
     13          6.483430   0.000000
     14          6.483430   0.000000
     15          6.567057   0.000000
     16          6.567057   0.000000
     17         10.120543   0.000000
     18         10.120543   0.000000
     19         13.280634   0.000000
     20         13.280634   0.000000
     21         13.680719   0.000000
     22         13.680720   0.000000
     23         13.726041   0.000000
     24         13.726044   0.000000
     25         14.914167   0.000000
     26         14.948481   0.000000
     27         14.970090   0.000000
     28         15.009967   0.000000
 
  0.3295833E+00  0.3345833E+00  0.0000000E+00  0.1234568E-01
      1         -3.415488   1.000000
      2         -3.415488   1.000000
      3         -2.659989   0.999995
      4         -2.659989   0.999995
      5         -2.591806   0.000000
      6         -2.591806   0.000000
      7          0.138111   0.000000
      8          0.138111   0.000000
      9          6.056362   0.000000
     10          6.056362   0.000000
     11          6.060546   0.000000
     12          6.060546   0.000000
     13          6.488036   0.000000
     14          6.488036   0.000000
     15          6.560046   0.000000
     16          6.560046   0.000000
     17         10.119724   0.000000
     18         10.119724   0.000000
     19         13.286973   0.000000
     20         13.286973   0.000000
     21         13.675316   0.000000
     22         13.675319   0.000000
     23         13.727010   0.000000
     24         13.727015   0.000000
     25         14.933858   0.000000
     26         14.942936   0.000000
     27         14.961465   0.000000
     28         15.170730   0.000000
 
  0.3295833E+00  0.3358333E+00  0.0000000E+00  0.1234568E-01
      1         -3.415488   1.000000
      2         -3.415488   1.000000
      3         -2.659989   0.999995
      4         -2.659989   0.999995
      5         -2.591806   0.000000
      6         -2.591806   0.000000
      7          0.138111   0.000000
      8          0.138111   0.000000
      9          6.056362   0.000000
     10          6.056362   0.000000
     11          6.060546   0.000000
     12          6.060546   0.000000
     13          6.488036   0.000000
     14          6.488036   0.000000
     15          6.560046   0.000000
     16          6.560046   0.000000
     17         10.119724   0.000000
     18         10.119724   0.000000
     19         13.286973   0.000000
     20         13.286973   0.000000
     21         13.675315   0.000000
     22         13.675315   0.000000
     23         13.727009   0.000000
     24         13.727014   0.000000
     25         14.931311   0.000000
     26         14.936686   0.000000
     27         14.950061   0.000000
     28         15.114469   0.000000
 
  0.3295833E+00  0.3370833E+00  0.0000000E+00  0.1234568E-01
      1         -3.418689   1.000000
      2         -3.418689   1.000000
      3         -2.658061   0.999984
      4         -2.658061   0.999984
      5         -2.590764   0.000000
      6         -2.590764   0.000000
      7          0.138434   0.000000
      8          0.138434   0.000000
      9          6.055244   0.000000
     10          6.055244   0.000000
     11          6.058920   0.000000
     12          6.058920   0.000000
     13          6.483430   0.000000
     14          6.483430   0.000000
     15          6.567056   0.000000
     16          6.567056   0.000000
     17         10.120543   0.000000
     18         10.120543   0.000000
     19         13.280635   0.000000
     20         13.280635   0.000000
     21         13.680719   0.000000
     22         13.680719   0.000000
     23         13.726041   0.000000
     24         13.726042   0.000000
     25         14.911091   0.000000
     26         14.921005   0.000000
     27         14.975250   0.000000
     28         15.118786   0.000000
 
  0.3295833E+00  0.3383333E+00  0.0000000E+00  0.1234568E-01
      1         -3.425013   1.000000
      2         -3.425013   1.000000
      3         -2.654520   0.999872
      4         -2.654520   0.999872
      5         -2.588445   0.000000
      6         -2.588445   0.000000
      7          0.139080   0.000000
      8          0.139080   0.000000
      9          6.053064   0.000000
     10          6.053064   0.000000
     11          6.055609   0.000000
     12          6.055609   0.000000
     13          6.476361   0.000000
     14          6.476361   0.000000
     15          6.578937   0.000000
     16          6.578937   0.000000
     17         10.122180   0.000000
     18         10.122180   0.000000
     19         13.268477   0.000000
     20         13.268477   0.000000
     21         13.690931   0.000000
     22         13.690934   0.000000
     23         13.724161   0.000000
     24         13.724162   0.000000
     25         14.881870   0.000000
     26         14.913520   0.000000
     27         14.972943   0.000000
     28         15.030827   0.000000
 
  0.3308333E+00  0.3283333E+00  0.0000000E+00  0.1234568E-01
      1         -3.447391   1.000000
      2         -3.447391   1.000000
      3         -2.650601   0.999036
      4         -2.650601   0.999036
      5         -2.571687   0.000000
      6         -2.571687   0.000000
      7          0.141456   0.000000
      8          0.141456   0.000000
      9          6.042610   0.000000
     10          6.042610   0.000000
     11          6.045753   0.000000
     12          6.045753   0.000000
     13          6.461708   0.000000
     14          6.461708   0.000000
     15          6.611318   0.000000
     16          6.611318   0.000000
     17         10.128356   0.000000
     18         10.128356   0.000000
     19         13.228895   0.000000
     20         13.228895   0.000000
     21         13.701114   0.000000
     22         13.701125   0.000000
     23         13.739070   0.000000
     24         13.739074   0.000000
     25         14.823262   0.000000
     26         14.902198   0.000000
     27         14.994389   0.000000
     28         15.111107   0.000000
 
  0.3308333E+00  0.3295833E+00  0.0000000E+00  0.1234568E-01
      1         -3.434311   1.000000
      2         -3.434311   1.000000
      3         -2.649989   0.998714
      4         -2.649989   0.998714
      5         -2.584373   0.000000
      6         -2.584373   0.000000
      7          0.140048   0.000000
      8          0.140048   0.000000
      9          6.049807   0.000000
     10          6.049807   0.000000
     11          6.050629   0.000000
     12          6.050629   0.000000
     13          6.468796   0.000000
     14          6.468796   0.000000
     15          6.593722   0.000000
     16          6.593722   0.000000
     17         10.124633   0.000000
     18         10.124633   0.000000
     19         13.251348   0.000000
     20         13.251348   0.000000
     21         13.704652   0.000000
     22         13.704655   0.000000
     23         13.721788   0.000000
     24         13.721791   0.000000
     25         14.852254   0.000000
     26         14.875367   0.000000
     27         14.983946   0.000000
     28         15.084598   0.000000
 
  0.3308333E+00  0.3308333E+00  0.0000000E+00  0.1234568E-01
      1         -3.423842   1.000000
      2         -3.423842   1.000000
      3         -2.649755   0.998566
      4         -2.649755   0.998566
      5         -2.594292   0.000001
      6         -2.594292   0.000001
      7          0.138953   0.000000
      8          0.138953   0.000000
      9          6.053989   0.000000
     10          6.053989   0.000000
     11          6.055846   0.000000
     12          6.055846   0.000000
     13          6.477189   0.000000
     14          6.477189   0.000000
     15          6.577149   0.000000
     16          6.577149   0.000000
     17         10.121732   0.000000
     18         10.121732   0.000000
     19         13.270234   0.000000
     20         13.270234   0.000000
     21         13.702353   0.000000
     22         13.702355   0.000000
     23         13.711890   0.000000
     24         13.711892   0.000000
     25         14.884473   0.000000
     26         14.899868   0.000000
     27         14.979408   0.000000
     28         14.987060   0.000000
 
  0.3308333E+00  0.3320833E+00  0.0000000E+00  0.1234568E-01
      1         -3.416195   1.000000
      2         -3.416195   1.000000
      3         -2.649809   0.998602
      4         -2.649809   0.998602
      5         -2.601326   0.000055
      6         -2.601326   0.000055
      7          0.138170   0.000000
      8          0.138170   0.000000
      9          6.056944   0.000000
     10          6.056944   0.000000
     11          6.059601   0.000000
     12          6.059601   0.000000
     13          6.486229   0.000000
     14          6.486229   0.000000
     15          6.562272   0.000000
     16          6.562272   0.000000
     17         10.119658   0.000000
     18         10.119658   0.000000
     19         13.284680   0.000000
     20         13.284680   0.000000
     21         13.692167   0.000000
     22         13.692171   0.000000
     23         13.712364   0.000000
     24         13.712366   0.000000
     25         14.912180   0.000000
     26         14.933218   0.000000
     27         14.977378   0.000000
     28         15.160061   0.000000
 
  0.3308333E+00  0.3333333E+00  0.0000000E+00  0.1234568E-01
      1         -3.411534   1.000000
      2         -3.411534   1.000000
      3         -2.649975   0.998705
      4         -2.649975   0.998705
      5         -2.605485   0.000521
      6         -2.605485   0.000521
      7          0.137701   0.000000
      8          0.137701   0.000000
      9          6.058811   0.000000
     10          6.058811   0.000000
     11          6.061756   0.000000
     12          6.061756   0.000000
     13          6.494339   0.000000
     14          6.494339   0.000000
     15          6.550665   0.000000
     16          6.550665   0.000000
     17         10.118413   0.000000
     18         10.118413   0.000000
     19         13.293807   0.000000
     20         13.293807   0.000000
     21         13.684798   0.000000
     22         13.684802   0.000000
     23         13.713429   0.000000
     24         13.713433   0.000000
     25         14.940513   0.000000
     26         14.947965   0.000000
     27         14.977656   0.000000
     28         15.106001   0.000000
 
  0.3308333E+00  0.3345833E+00  0.0000000E+00  0.1234568E-01
      1         -3.409968   1.000000
      2         -3.409968   1.000000
      3         -2.650059   0.998755
      4         -2.650059   0.998755
      5         -2.606855   0.001016
      6         -2.606855   0.001016
      7          0.137544   0.000000
      8          0.137544   0.000000
      9          6.059454   0.000000
     10          6.059454   0.000000
     11          6.062452   0.000000
     12          6.062452   0.000000
     13          6.498003   0.000000
     14          6.498003   0.000000
     15          6.545837   0.000000
     16          6.545837   0.000000
     17         10.117997   0.000000
     18         10.117997   0.000000
     19         13.296936   0.000000
     20         13.296936   0.000000
     21         13.682216   0.000000
     22         13.682217   0.000000
     23         13.713818   0.000000
     24         13.713820   0.000000
     25         14.949572   0.000000
     26         14.952419   0.000000
     27         14.981398   0.000000
     28         15.005018   0.000000
 
  0.3308333E+00  0.3358333E+00  0.0000000E+00  0.1234568E-01
      1         -3.411534   1.000000
      2         -3.411534   1.000000
      3         -2.649975   0.998705
      4         -2.649975   0.998705
      5         -2.605485   0.000521
      6         -2.605485   0.000521
      7          0.137701   0.000000
      8          0.137701   0.000000
      9          6.058811   0.000000
     10          6.058811   0.000000
     11          6.061756   0.000000
     12          6.061756   0.000000
     13          6.494340   0.000000
     14          6.494340   0.000000
     15          6.550664   0.000000
     16          6.550664   0.000000
     17         10.118413   0.000000
     18         10.118413   0.000000
     19         13.293808   0.000000
     20         13.293808   0.000000
     21         13.684797   0.000000
     22         13.684798   0.000000
     23         13.713429   0.000000
     24         13.713429   0.000000
     25         14.931461   0.000000
     26         14.946659   0.000000
     27         14.965835   0.000000
     28         15.005369   0.000000
 
  0.3308333E+00  0.3370833E+00  0.0000000E+00  0.1234568E-01
      1         -3.416194   1.000000
      2         -3.416194   1.000000
      3         -2.649809   0.998602
      4         -2.649809   0.998602
      5         -2.601327   0.000055
      6         -2.601327   0.000055
      7          0.138170   0.000000
      8          0.138170   0.000000
      9          6.056944   0.000000
     10          6.056944   0.000000
     11          6.059601   0.000000
     12          6.059601   0.000000
     13          6.486230   0.000000
     14          6.486230   0.000000
     15          6.562271   0.000000
     16          6.562271   0.000000
     17         10.119658   0.000000
     18         10.119658   0.000000
     19         13.284681   0.000000
     20         13.284682   0.000000
     21         13.692171   0.000000
     22         13.692175   0.000000
     23         13.712370   0.000000
     24         13.712384   0.000000
     25         14.910887   0.000000
     26         14.924073   0.000000
     27         14.991094   0.000000
     28         15.027357   0.000000
 
  0.3308333E+00  0.3383333E+00  0.0000000E+00  0.1234568E-01
      1         -3.423842   1.000000
      2         -3.423842   1.000000
      3         -2.649755   0.998566
      4         -2.649755   0.998566
      5         -2.594293   0.000001
      6         -2.594293   0.000001
      7          0.138953   0.000000
      8          0.138953   0.000000
      9          6.053989   0.000000
     10          6.053989   0.000000
     11          6.055846   0.000000
     12          6.055846   0.000000
     13          6.477190   0.000000
     14          6.477190   0.000000
     15          6.577148   0.000000
     16          6.577148   0.000000
     17         10.121732   0.000000
     18         10.121732   0.000000
     19         13.270236   0.000000
     20         13.270236   0.000000
     21         13.702354   0.000000
     22         13.702356   0.000000
     23         13.711890   0.000000
     24         13.711892   0.000000
     25         14.882579   0.000000
     26         14.911261   0.000000
     27         14.973011   0.000000
     28         15.044611   0.000000
 
  0.3320833E+00  0.3283333E+00  0.0000000E+00  0.1234568E-01
      1         -3.436489   1.000000
      2         -3.436489   1.000000
      3         -2.658836   0.999990
      4         -2.658836   0.999990
      5         -2.573516   0.000000
      6         -2.573516   0.000000
      7          0.140292   0.000000
      8          0.140292   0.000000
      9          6.047938   0.000000
     10          6.047938   0.000000
     11          6.050232   0.000000
     12          6.050232   0.000000
     13          6.467969   0.000000
     14          6.467969   0.000000
     15          6.596401   0.000000
     16          6.596401   0.000000
     17         10.125537   0.000000
     18         10.125537   0.000000
     19         13.248337   0.000000
     20         13.248337   0.000000
     21         13.688205   0.000000
     22         13.688205   0.000000
     23         13.739418   0.000000
     24         13.739419   0.000000
     25         14.852134   0.000000
     26         14.855350   0.000000
     27         14.972198   0.000000
     28         15.051755   0.000000
 
  0.3320833E+00  0.3295833E+00  0.0000000E+00  0.1234568E-01
      1         -3.425013   1.000000
      2         -3.425013   1.000000
      3         -2.654520   0.999872
      4         -2.654520   0.999872
      5         -2.588445   0.000000
      6         -2.588445   0.000000
      7          0.139080   0.000000
      8          0.139080   0.000000
      9          6.053064   0.000000
     10          6.053064   0.000000
     11          6.055609   0.000000
     12          6.055609   0.000000
     13          6.476360   0.000000
     14          6.476360   0.000000
     15          6.578938   0.000000
     16          6.578938   0.000000
     17         10.122180   0.000000
     18         10.122180   0.000000
     19         13.268476   0.000000
     20         13.268476   0.000000
     21         13.690933   0.000000
     22         13.690936   0.000000
     23         13.724163   0.000000
     24         13.724166   0.000000
     25         14.886863   0.000000
     26         14.916908   0.000000
     27         14.986715   0.000000
     28         15.110946   0.000000
 
  0.3320833E+00  0.3308333E+00  0.0000000E+00  0.1234568E-01
      1         -3.416195   1.000000
      2         -3.416195   1.000000
      3         -2.649809   0.998602
      4         -2.649809   0.998602
      5         -2.601326   0.000055
      6         -2.601326   0.000055
      7          0.138170   0.000000
      8          0.138170   0.000000
      9          6.056944   0.000000
     10          6.056944   0.000000
     11          6.059601   0.000000
     12          6.059601   0.000000
     13          6.486229   0.000000
     14          6.486229   0.000000
     15          6.562272   0.000000
     16          6.562272   0.000000
     17         10.119658   0.000000
     18         10.119658   0.000000
     19         13.284680   0.000000
     20         13.284680   0.000000
     21         13.692167   0.000000
     22         13.692167   0.000000
     23         13.712365   0.000000
     24         13.712368   0.000000
     25         14.908967   0.000000
     26         14.930097   0.000000
     27         14.973087   0.000000
     28         15.034342   0.000000
 
  0.3320833E+00  0.3320833E+00  0.0000000E+00  0.1234568E-01
      1         -3.410209   1.000000
      2         -3.410209   1.000000
      3         -2.644871   0.989018
      4         -2.644871   0.989018
      5         -2.611817   0.008574
      6         -2.611817   0.008573
      7          0.137564   0.000000
      8          0.137564   0.000000
      9          6.059778   0.000000
     10          6.059778   0.000000
     11          6.062006   0.000000
     12          6.062006   0.000000
     13          6.497037   0.000000
     14          6.497037   0.000000
     15          6.546942   0.000000
     16          6.546942   0.000000
     17         10.117975   0.000000
     18         10.117975   0.000000
     19         13.296120   0.000000
     20         13.296121   0.000000
     21         13.691301   0.000000
     22         13.691305   0.000000
     23         13.705522   0.000000
     24         13.705529   0.000000
     25         14.934805   0.000000
     26         14.957967   0.000000
     27         14.970661   0.000000
     28         15.077779   0.000000
 
  0.3320833E+00  0.3333333E+00  0.0000000E+00  0.1234568E-01
      1         -3.407183   1.000000
      2         -3.407183   1.000000
      3         -2.640820   0.957111
      4         -2.640820   0.957110
      5         -2.618679   0.078802
      6         -2.618679   0.078802
      7          0.137261   0.000000
      8          0.137261   0.000000
      9          6.061385   0.000000
     10          6.061385   0.000000
     11          6.063015   0.000000
     12          6.063015   0.000000
     13          6.506692   0.000000
     14          6.506692   0.000000
     15          6.535031   0.000000
     16          6.535031   0.000000
     17         10.117133   0.000000
     18         10.117133   0.000000
     19         13.302062   0.000000
     20         13.302062   0.000000
     21         13.689484   0.000000
     22         13.689485   0.000000
     23         13.703252   0.000000
     24         13.703253   0.000000
     25         14.950479   0.000000
     26         14.957063   0.000000
     27         14.978369   0.000000
     28         15.095526   0.000000
 
  0.3320833E+00  0.3345833E+00  0.0000000E+00  0.1234568E-01
      1         -3.407183   1.000000
      2         -3.407183   1.000000
      3         -2.640820   0.957108
      4         -2.640820   0.957107
      5         -2.618679   0.078809
      6         -2.618679   0.078809
      7          0.137261   0.000000
      8          0.137261   0.000000
      9          6.061386   0.000000
     10          6.061386   0.000000
     11          6.063015   0.000000
     12          6.063015   0.000000
     13          6.506692   0.000000
     14          6.506692   0.000000
     15          6.535031   0.000000
     16          6.535031   0.000000
     17         10.117133   0.000000
     18         10.117133   0.000000
     19         13.302062   0.000000
     20         13.302062   0.000000
     21         13.689484   0.000000
     22         13.689486   0.000000
     23         13.703253   0.000000
     24         13.703257   0.000000
     25         14.956993   0.000000
     26         14.968610   0.000000
     27         15.027423   0.000000
     28         15.126906   0.000000
 
  0.3320833E+00  0.3358333E+00  0.0000000E+00  0.1234568E-01
      1         -3.410209   1.000000
      2         -3.410209   1.000000
      3         -2.644871   0.989017
      4         -2.644871   0.989016
      5         -2.611818   0.008576
      6         -2.611818   0.008576
      7          0.137564   0.000000
      8          0.137564   0.000000
      9          6.059779   0.000000
     10          6.059779   0.000000
     11          6.062006   0.000000
     12          6.062006   0.000000
     13          6.497038   0.000000
     14          6.497038   0.000000
     15          6.546941   0.000000
     16          6.546941   0.000000
     17         10.117975   0.000000
     18         10.117975   0.000000
     19         13.296121   0.000000
     20         13.296121   0.000000
     21         13.691300   0.000000
     22         13.691300   0.000000
     23         13.705521   0.000000
     24         13.705521   0.000000
     25         14.933637   0.000000
     26         14.943750   0.000000
     27         14.979109   0.000000
     28         15.040077   0.000000
 
  0.3320833E+00  0.3370833E+00  0.0000000E+00  0.1234568E-01
      1         -3.416194   1.000000
      2         -3.416194   1.000000
      3         -2.649808   0.998601
      4         -2.649808   0.998601
      5         -2.601327   0.000055
      6         -2.601327   0.000055
      7          0.138170   0.000000
      8          0.138170   0.000000
      9          6.056944   0.000000
     10          6.056944   0.000000
     11          6.059601   0.000000
     12          6.059601   0.000000
     13          6.486230   0.000000
     14          6.486230   0.000000
     15          6.562270   0.000000
     16          6.562270   0.000000
     17         10.119658   0.000000
     18         10.119658   0.000000
     19         13.284681   0.000000
     20         13.284681   0.000000
     21         13.692168   0.000000
     22         13.692174   0.000000
     23         13.712364   0.000000
     24         13.712366   0.000000
     25         14.915730   0.000000
     26         14.932490   0.000000
     27         14.980885   0.000000
     28         14.995329   0.000000
 
  0.3320833E+00  0.3383333E+00  0.0000000E+00  0.1234568E-01
      1         -3.425012   1.000000
      2         -3.425012   1.000000
      3         -2.654519   0.999872
      4         -2.654519   0.999872
      5         -2.588446   0.000000
      6         -2.588446   0.000000
      7          0.139080   0.000000
      8          0.139080   0.000000
      9          6.053064   0.000000
     10          6.053064   0.000000
     11          6.055609   0.000000
     12          6.055609   0.000000
     13          6.476361   0.000000
     14          6.476361   0.000000
     15          6.578936   0.000000
     16          6.578936   0.000000
     17         10.122180   0.000000
     18         10.122180   0.000000
     19         13.268478   0.000000
     20         13.268478   0.000000
     21         13.690932   0.000000
     22         13.690933   0.000000
     23         13.724160   0.000000
     24         13.724161   0.000000
     25         14.881826   0.000000
     26         14.884537   0.000000
     27         14.971936   0.000000
     28         15.016268   0.000000
 
  0.3333333E+00  0.3283333E+00  0.0000000E+00  0.1234568E-01
      1         -3.428511   1.000000
      2         -3.428511   1.000000
      3         -2.665239   1.000000
      4         -2.665239   1.000000
      5         -2.574494   0.000000
      6         -2.574494   0.000000
      7          0.139461   0.000000
      8          0.139461   0.000000
      9          6.050746   0.000000
     10          6.050746   0.000000
     11          6.054440   0.000000
     12          6.054440   0.000000
     13          6.474118   0.000000
     14          6.474118   0.000000
     15          6.584059   0.000000
     16          6.584059   0.000000
     17         10.123522   0.000000
     18         10.123522   0.000000
     19         13.263240   0.000000
     20         13.263240   0.000000
     21         13.676755   0.000000
     22         13.676758   0.000000
     23         13.740840   0.000000
     24         13.740840   0.000000
     25         14.879113   0.000000
     26         14.883190   0.000000
     27         14.961676   0.000000
     28         15.138030   0.000000
 
  0.3333333E+00  0.3295833E+00  0.0000000E+00  0.1234568E-01
      1         -3.418689   1.000000
      2         -3.418689   1.000000
      3         -2.658061   0.999984
      4         -2.658061   0.999984
      5         -2.590764   0.000000
      6         -2.590764   0.000000
      7          0.138434   0.000000
      8          0.138434   0.000000
      9          6.055244   0.000000
     10          6.055244   0.000000
     11          6.058920   0.000000
     12          6.058920   0.000000
     13          6.483430   0.000000
     14          6.483430   0.000000
     15          6.567057   0.000000
     16          6.567057   0.000000
     17         10.120543   0.000000
     18         10.120543   0.000000
     19         13.280634   0.000000
     20         13.280634   0.000000
     21         13.680720   0.000000
     22         13.680722   0.000000
     23         13.726042   0.000000
     24         13.726045   0.000000
     25         14.913045   0.000000
     26         14.921882   0.000000
     27         14.974151   0.000000
     28         15.084374   0.000000
 
  0.3333333E+00  0.3308333E+00  0.0000000E+00  0.1234568E-01
      1         -3.411534   1.000000
      2         -3.411534   1.000000
      3         -2.649975   0.998705
      4         -2.649975   0.998705
      5         -2.605485   0.000521
      6         -2.605485   0.000521
      7          0.137701   0.000000
      8          0.137701   0.000000
      9          6.058811   0.000000
     10          6.058811   0.000000
     11          6.061756   0.000000
     12          6.061756   0.000000
     13          6.494339   0.000000
     14          6.494339   0.000000
     15          6.550665   0.000000
     16          6.550665   0.000000
     17         10.118413   0.000000
     18         10.118413   0.000000
     19         13.293807   0.000000
     20         13.293807   0.000000
     21         13.684797   0.000000
     22         13.684799   0.000000
     23         13.713429   0.000000
     24         13.713432   0.000000
     25         14.935698   0.000000
     26         14.958762   0.000000
     27         14.976811   0.000000
     28         15.229864   0.000000
 
  0.3333333E+00  0.3320833E+00  0.0000000E+00  0.1234568E-01
      1         -3.407183   1.000000
      2         -3.407183   1.000000
      3         -2.640820   0.957111
      4         -2.640820   0.957110
      5         -2.618679   0.078802
      6         -2.618679   0.078802
      7          0.137261   0.000000
      8          0.137261   0.000000
      9          6.061385   0.000000
     10          6.061385   0.000000
     11          6.063015   0.000000
     12          6.063015   0.000000
     13          6.506692   0.000000
     14          6.506692   0.000000
     15          6.535031   0.000000
     16          6.535031   0.000000
     17         10.117133   0.000000
     18         10.117133   0.000000
     19         13.302062   0.000000
     20         13.302062   0.000000
     21         13.689484   0.000000
     22         13.689485   0.000000
     23         13.703252   0.000000
     24         13.703253   0.000000
     25         14.953693   0.000000
     26         14.962359   0.000000
     27         15.004759   0.000000
     28         15.088346   0.000000
 
  0.3333333E+00  0.3333333E+00  0.0000000E+00  0.1234568E-01
      1         -3.405722   1.000000
      2         -3.405722   1.000000
      3         -2.630877   0.622460
      4         -2.630877   0.622458
      5         -2.629979   0.573321
      6         -2.629979   0.573321
      7          0.137114   0.000000
      8          0.137114   0.000000
      9          6.062838   0.000000
     10          6.062838   0.000000
     11          6.062839   0.000000
     12          6.062839   0.000000
     13          6.520223   0.000000
     14          6.520223   0.000000
     15          6.520408   0.000000
     16          6.520408   0.000000
     17         10.116707   0.000000
     18         10.116707   0.000000
     19         13.304879   0.000000
     20         13.304879   0.000000
     21         13.695328   0.000000
     22         13.695329   0.000000
     23         13.695510   0.000000
     24         13.695514   0.000000
     25         14.961304   0.000000
     26         14.963841   0.000000
     27         14.974798   0.000000
     28         15.047115   0.000000
 
  0.3333333E+00  0.3345833E+00  0.0000000E+00  0.1234568E-01
      1         -3.407182   1.000000
      2         -3.407182   1.000000
      3         -2.640820   0.957100
      4         -2.640820   0.957100
      5         -2.618680   0.078824
      6         -2.618680   0.078824
      7          0.137261   0.000000
      8          0.137261   0.000000
      9          6.061386   0.000000
     10          6.061386   0.000000
     11          6.063015   0.000000
     12          6.063015   0.000000
     13          6.506693   0.000000
     14          6.506693   0.000000
     15          6.535030   0.000000
     16          6.535030   0.000000
     17         10.117133   0.000000
     18         10.117133   0.000000
     19         13.302062   0.000000
     20         13.302063   0.000000
     21         13.689485   0.000000
     22         13.689492   0.000000
     23         13.703254   0.000000
     24         13.703260   0.000000
     25         14.953281   0.000000
     26         14.963767   0.000000
     27         14.966771   0.000000
     28         15.086745   0.000000
 
  0.3333333E+00  0.3358333E+00  0.0000000E+00  0.1234568E-01
      1         -3.411534   1.000000
      2         -3.411534   1.000000
      3         -2.649974   0.998705
      4         -2.649974   0.998705
      5         -2.605486   0.000521
      6         -2.605486   0.000521
      7          0.137701   0.000000
      8          0.137701   0.000000
      9          6.058811   0.000000
     10          6.058811   0.000000
     11          6.061756   0.000000
     12          6.061756   0.000000
     13          6.494340   0.000000
     14          6.494340   0.000000
     15          6.550664   0.000000
     16          6.550664   0.000000
     17         10.118413   0.000000
     18         10.118413   0.000000
     19         13.293808   0.000000
     20         13.293808   0.000000
     21         13.684798   0.000000
     22         13.684799   0.000000
     23         13.713428   0.000000
     24         13.713432   0.000000
     25         14.933829   0.000000
     26         14.949762   0.000000
     27         14.982551   0.000000
     28         15.063151   0.000000
 
  0.3333333E+00  0.3370833E+00  0.0000000E+00  0.1234568E-01
      1         -3.418689   1.000000
      2         -3.418689   1.000000
      3         -2.658060   0.999984
      4         -2.658060   0.999984
      5         -2.590765   0.000000
      6         -2.590765   0.000000
      7          0.138434   0.000000
      8          0.138434   0.000000
      9          6.055244   0.000000
     10          6.055244   0.000000
     11          6.058920   0.000000
     12          6.058920   0.000000
     13          6.483430   0.000000
     14          6.483430   0.000000
     15          6.567055   0.000000
     16          6.567055   0.000000
     17         10.120543   0.000000
     18         10.120543   0.000000
     19         13.280635   0.000000
     20         13.280635   0.000000
     21         13.680720   0.000000
     22         13.680721   0.000000
     23         13.726040   0.000000
     24         13.726044   0.000000
     25         14.907343   0.000000
     26         14.910076   0.000000
     27         14.963320   0.000000
     28         14.991139   0.000000
 
  0.3333333E+00  0.3383333E+00  0.0000000E+00  0.1234568E-01
      1         -3.428510   1.000000
      2         -3.428510   1.000000
      3         -2.665238   1.000000
      4         -2.665238   1.000000
      5         -2.574495   0.000000
      6         -2.574495   0.000000
      7          0.139461   0.000000
      8          0.139461   0.000000
      9          6.050746   0.000000
     10          6.050746   0.000000
     11          6.054440   0.000000
     12          6.054440   0.000000
     13          6.474119   0.000000
     14          6.474119   0.000000
     15          6.584058   0.000000
     16          6.584058   0.000000
     17         10.123521   0.000000
     18         10.123521   0.000000
     19         13.263241   0.000000
     20         13.263241   0.000000
     21         13.676756   0.000000
     22         13.676758   0.000000
     23         13.740838   0.000000
     24         13.740843   0.000000
     25         14.881955   0.000000
     26         14.893698   0.000000
     27         14.966829   0.000000
     28         15.105662   0.000000
 
  0.3345833E+00  0.3283333E+00  0.0000000E+00  0.1234568E-01
      1         -3.423642   1.000000
      2         -3.423642   1.000000
      3         -2.669275   1.000000
      4         -2.669275   1.000000
      5         -2.574967   0.000000
      6         -2.574967   0.000000
      7          0.138962   0.000000
      8          0.138962   0.000000
      9          6.052336   0.000000
     10          6.052336   0.000000
     11          6.057061   0.000000
     12          6.057061   0.000000
     13          6.478866   0.000000
     14          6.478866   0.000000
     15          6.575595   0.000000
     16          6.575595   0.000000
     17         10.122311   0.000000
     18         10.122311   0.000000
     19         13.272673   0.000000
     20         13.272673   0.000000
     21         13.669126   0.000000
     22         13.669128   0.000000
     23         13.741945   0.000000
     24         13.741946   0.000000
     25         14.906743   0.000000
     26         14.911437   0.000000
     27         14.947907   0.000000
     28         14.957518   0.000000
 
  0.3345833E+00  0.3295833E+00  0.0000000E+00  0.1234568E-01
      1         -3.415488   1.000000
      2         -3.415488   1.000000
      3         -2.659989   0.999995
      4         -2.659989   0.999995
      5         -2.591806   0.000000
      6         -2.591806   0.000000
      7          0.138111   0.000000
      8          0.138111   0.000000
      9          6.056362   0.000000
     10          6.056362   0.000000
     11          6.060546   0.000000
     12          6.060546   0.000000
     13          6.488036   0.000000
     14          6.488036   0.000000
     15          6.560046   0.000000
     16          6.560046   0.000000
     17         10.119724   0.000000
     18         10.119724   0.000000
     19         13.286973   0.000000
     20         13.286973   0.000000
     21         13.675316   0.000000
     22         13.675321   0.000000
     23         13.727011   0.000000
     24         13.727016   0.000000
     25         14.932203   0.000000
     26         14.950218   0.000000
     27         14.957040   0.000000
     28         15.153401   0.000000
 
  0.3345833E+00  0.3308333E+00  0.0000000E+00  0.1234568E-01
      1         -3.409968   1.000000
      2         -3.409968   1.000000
      3         -2.650059   0.998755
      4         -2.650059   0.998755
      5         -2.606855   0.001016
      6         -2.606855   0.001016
      7          0.137544   0.000000
      8          0.137544   0.000000
      9          6.059454   0.000000
     10          6.059454   0.000000
     11          6.062452   0.000000
     12          6.062452   0.000000
     13          6.498003   0.000000
     14          6.498003   0.000000
     15          6.545837   0.000000
     16          6.545837   0.000000
     17         10.117997   0.000000
     18         10.117997   0.000000
     19         13.296936   0.000000
     20         13.296936   0.000000
     21         13.682216   0.000000
     22         13.682217   0.000000
     23         13.713819   0.000000
     24         13.713821   0.000000
     25         14.949651   0.000000
     26         14.951424   0.000000
     27         14.966991   0.000000
     28         15.030425   0.000000
 
  0.3345833E+00  0.3320833E+00  0.0000000E+00  0.1234568E-01
      1         -3.407183   1.000000
      2         -3.407183   1.000000
      3         -2.640820   0.957108
      4         -2.640820   0.957107
      5         -2.618679   0.078809
      6         -2.618679   0.078809
      7          0.137261   0.000000
      8          0.137261   0.000000
      9          6.061386   0.000000
     10          6.061386   0.000000
     11          6.063015   0.000000
     12          6.063015   0.000000
     13          6.506692   0.000000
     14          6.506692   0.000000
     15          6.535031   0.000000
     16          6.535031   0.000000
     17         10.117133   0.000000
     18         10.117133   0.000000
     19         13.302062   0.000000
     20         13.302062   0.000000
     21         13.689485   0.000000
     22         13.689486   0.000000
     23         13.703252   0.000000
     24         13.703255   0.000000
     25         14.955640   0.000000
     26         14.959680   0.000000
     27         15.026341   0.000000
     28         15.102086   0.000000
 
  0.3345833E+00  0.3333333E+00  0.0000000E+00  0.1234568E-01
      1         -3.407182   1.000000
      2         -3.407182   1.000000
      3         -2.640820   0.957100
      4         -2.640820   0.957100
      5         -2.618680   0.078824
      6         -2.618680   0.078824
      7          0.137261   0.000000
      8          0.137261   0.000000
      9          6.061386   0.000000
     10          6.061386   0.000000
     11          6.063015   0.000000
     12          6.063015   0.000000
     13          6.506693   0.000000
     14          6.506693   0.000000
     15          6.535030   0.000000
     16          6.535030   0.000000
     17         10.117133   0.000000
     18         10.117133   0.000000
     19         13.302062   0.000000
     20         13.302062   0.000000
     21         13.689485   0.000000
     22         13.689485   0.000000
     23         13.703251   0.000000
     24         13.703252   0.000000
     25         14.953826   0.000000
     26         14.959592   0.000000
     27         14.980684   0.000000
     28         15.131299   0.000000
 
  0.3345833E+00  0.3345833E+00  0.0000000E+00  0.1234568E-01
      1         -3.409968   1.000000
      2         -3.409968   1.000000
      3         -2.650058   0.998755
      4         -2.650058   0.998755
      5         -2.606856   0.001017
      6         -2.606856   0.001017
      7          0.137544   0.000000
      8          0.137544   0.000000
      9          6.059454   0.000000
     10          6.059454   0.000000
     11          6.062452   0.000000
     12          6.062452   0.000000
     13          6.498004   0.000000
     14          6.498004   0.000000
     15          6.545836   0.000000
     16          6.545836   0.000000
     17         10.117997   0.000000
     18         10.117997   0.000000
     19         13.296937   0.000000
     20         13.296937   0.000000
     21         13.682217   0.000000
     22         13.682219   0.000000
     23         13.713819   0.000000
     24         13.713821   0.000000
     25         14.951135   0.000000
     26         14.953146   0.000000
     27         14.959953   0.000000
     28         14.976690   0.000000
 
  0.3345833E+00  0.3358333E+00  0.0000000E+00  0.1234568E-01
      1         -3.415488   1.000000
      2         -3.415488   1.000000
      3         -2.659988   0.999995
      4         -2.659988   0.999995
      5         -2.591808   0.000000
      6         -2.591808   0.000000
      7          0.138111   0.000000
      8          0.138111   0.000000
      9          6.056362   0.000000
     10          6.056362   0.000000
     11          6.060546   0.000000
     12          6.060546   0.000000
     13          6.488037   0.000000
     14          6.488037   0.000000
     15          6.560045   0.000000
     16          6.560045   0.000000
     17         10.119724   0.000000
     18         10.119724   0.000000
     19         13.286974   0.000000
     20         13.286974   0.000000
     21         13.675316   0.000000
     22         13.675319   0.000000
     23         13.727009   0.000000
     24         13.727013   0.000000
     25         14.930596   0.000000
     26         14.941348   0.000000
     27         14.962585   0.000000
     28         15.030298   0.000000
 
  0.3345833E+00  0.3370833E+00  0.0000000E+00  0.1234568E-01
      1         -3.423641   1.000000
      2         -3.423641   1.000000
      3         -2.669274   1.000000
      4         -2.669274   1.000000
      5         -2.574969   0.000000
      6         -2.574969   0.000000
      7          0.138962   0.000000
      8          0.138962   0.000000
      9          6.052336   0.000000
     10          6.052336   0.000000
     11          6.057062   0.000000
     12          6.057062   0.000000
     13          6.478867   0.000000
     14          6.478867   0.000000
     15          6.575593   0.000000
     16          6.575593   0.000000
     17         10.122311   0.000000
     18         10.122311   0.000000
     19         13.272674   0.000000
     20         13.272674   0.000000
     21         13.669126   0.000000
     22         13.669128   0.000000
     23         13.741944   0.000000
     24         13.741948   0.000000
     25         14.907580   0.000000
     26         14.930810   0.000000
     27         14.952698   0.000000
     28         15.171185   0.000000
 
  0.3345833E+00  0.3383333E+00  0.0000000E+00  0.1234568E-01
      1         -3.434291   1.000000
      2         -3.434291   1.000000
      3         -2.677781   1.000000
      4         -2.677781   1.000000
      5         -2.556613   0.000000
      6         -2.556613   0.000000
      7          0.140096   0.000000
      8          0.140096   0.000000
      9          6.047444   0.000000
     10          6.047444   0.000000
     11          6.051929   0.000000
     12          6.051929   0.000000
     13          6.471053   0.000000
     14          6.471053   0.000000
     15          6.591927   0.000000
     16          6.591927   0.000000
     17         10.125756   0.000000
     18         10.125756   0.000000
     19         13.254639   0.000000
     20         13.254639   0.000000
     21         13.663391   0.000000
     22         13.663393   0.000000
     23         13.758221   0.000000
     24         13.758224   0.000000
     25         14.875925   0.000000
     26         14.889599   0.000000
     27         14.953134   0.000000
     28         15.069108   0.000000
 
  0.3358333E+00  0.3283333E+00  0.0000000E+00  0.1234568E-01
      1         -3.422005   1.000000
      2         -3.422005   1.000000
      3         -2.670651   1.000000
      4         -2.670651   1.000000
      5         -2.575108   0.000000
      6         -2.575108   0.000000
      7          0.138796   0.000000
      8          0.138796   0.000000
      9          6.052864   0.000000
     10          6.052864   0.000000
     11          6.057936   0.000000
     12          6.057936   0.000000
     13          6.480700   0.000000
     14          6.480700   0.000000
     15          6.572522   0.000000
     16          6.572523   0.000000
     17         10.121908   0.000000
     18         10.121908   0.000000
     19         13.275910   0.000000
     20         13.275910   0.000000
     21         13.666457   0.000000
     22         13.666458   0.000000
     23         13.742342   0.000000
     24         13.742343   0.000000
     25         14.922435   0.000000
     26         14.937556   0.000000
     27         14.943859   0.000000
     28         15.083432   0.000000
 
  0.3358333E+00  0.3295833E+00  0.0000000E+00  0.1234568E-01
      1         -3.415488   1.000000
      2         -3.415488   1.000000
      3         -2.659989   0.999995
      4         -2.659989   0.999995
      5         -2.591806   0.000000
      6         -2.591806   0.000000
      7          0.138111   0.000000
      8          0.138111   0.000000
      9          6.056362   0.000000
     10          6.056362   0.000000
     11          6.060546   0.000000
     12          6.060546   0.000000
     13          6.488036   0.000000
     14          6.488036   0.000000
     15          6.560046   0.000000
     16          6.560046   0.000000
     17         10.119724   0.000000
     18         10.119724   0.000000
     19         13.286973   0.000000
     20         13.286973   0.000000
     21         13.675316   0.000000
     22         13.675317   0.000000
     23         13.727011   0.000000
     24         13.727012   0.000000
     25         14.931701   0.000000
     26         14.947139   0.000000
     27         14.954134   0.000000
     28         15.033184   0.000000
 
  0.3358333E+00  0.3308333E+00  0.0000000E+00  0.1234568E-01
      1         -3.411534   1.000000
      2         -3.411534   1.000000
      3         -2.649975   0.998705
      4         -2.649975   0.998705
      5         -2.605485   0.000521
      6         -2.605485   0.000521
      7          0.137701   0.000000
      8          0.137701   0.000000
      9          6.058811   0.000000
     10          6.058811   0.000000
     11          6.061756   0.000000
     12          6.061756   0.000000
     13          6.494340   0.000000
     14          6.494340   0.000000
     15          6.550664   0.000000
     16          6.550664   0.000000
     17         10.118413   0.000000
     18         10.118413   0.000000
     19         13.293808   0.000000
     20         13.293808   0.000000
     21         13.684797   0.000000
     22         13.684797   0.000000
     23         13.713429   0.000000
     24         13.713431   0.000000
     25         14.932054   0.000000
     26         14.939646   0.000000
     27         14.971115   0.000000
     28         15.028239   0.000000
 
  0.3358333E+00  0.3320833E+00  0.0000000E+00  0.1234568E-01
      1         -3.410209   1.000000
      2         -3.410209   1.000000
      3         -2.644871   0.989017
      4         -2.644871   0.989016
      5         -2.611818   0.008576
      6         -2.611818   0.008576
      7          0.137564   0.000000
      8          0.137564   0.000000
      9          6.059779   0.000000
     10          6.059779   0.000000
     11          6.062006   0.000000
     12          6.062006   0.000000
     13          6.497038   0.000000
     14          6.497038   0.000000
     15          6.546941   0.000000
     16          6.546941   0.000000
     17         10.117975   0.000000
     18         10.117975   0.000000
     19         13.296121   0.000000
     20         13.296121   0.000000
     21         13.691301   0.000000
     22         13.691302   0.000000
     23         13.705522   0.000000
     24         13.705525   0.000000
     25         14.933778   0.000000
     26         14.938177   0.000000
     27         14.982788   0.000000
     28         15.061568   0.000000
 
  0.3358333E+00  0.3333333E+00  0.0000000E+00  0.1234568E-01
      1         -3.411534   1.000000
      2         -3.411534   1.000000
      3         -2.649974   0.998705
      4         -2.649974   0.998705
      5         -2.605486   0.000521
      6         -2.605486   0.000521
      7          0.137701   0.000000
      8          0.137701   0.000000
      9          6.058811   0.000000
     10          6.058811   0.000000
     11          6.061756   0.000000
     12          6.061756   0.000000
     13          6.494340   0.000000
     14          6.494340   0.000000
     15          6.550664   0.000000
     16          6.550664   0.000000
     17         10.118413   0.000000
     18         10.118413   0.000000
     19         13.293808   0.000000
     20         13.293808   0.000000
     21         13.684798   0.000000
     22         13.684799   0.000000
     23         13.713428   0.000000
     24         13.713430   0.000000
     25         14.932695   0.000000
     26         14.946983   0.000000
     27         14.972849   0.000000
     28         15.181771   0.000000
 
  0.3358333E+00  0.3345833E+00  0.0000000E+00  0.1234568E-01
      1         -3.415488   1.000000
      2         -3.415488   1.000000
      3         -2.659988   0.999995
      4         -2.659988   0.999995
      5         -2.591808   0.000000
      6         -2.591808   0.000000
      7          0.138111   0.000000
      8          0.138111   0.000000
      9          6.056362   0.000000
     10          6.056362   0.000000
     11          6.060546   0.000000
     12          6.060546   0.000000
     13          6.488037   0.000000
     14          6.488037   0.000000
     15          6.560045   0.000000
     16          6.560045   0.000000
     17         10.119724   0.000000
     18         10.119724   0.000000
     19         13.286974   0.000000
     20         13.286974   0.000000
     21         13.675316   0.000000
     22         13.675317   0.000000
     23         13.727009   0.000000
     24         13.727009   0.000000
     25         14.935107   0.000000
     26         14.945347   0.000000
     27         14.953244   0.000000
     28         14.995980   0.000000
 
  0.3358333E+00  0.3358333E+00  0.0000000E+00  0.1234568E-01
      1         -3.422004   1.000000
      2         -3.422004   1.000000
      3         -2.670650   1.000000
      4         -2.670650   1.000000
      5         -2.575110   0.000000
      6         -2.575110   0.000000
      7          0.138795   0.000000
      8          0.138795   0.000000
      9          6.052865   0.000000
     10          6.052865   0.000000
     11          6.057937   0.000000
     12          6.057937   0.000000
     13          6.480701   0.000000
     14          6.480701   0.000000
     15          6.572521   0.000000
     16          6.572521   0.000000
     17         10.121908   0.000000
     18         10.121908   0.000000
     19         13.275911   0.000000
     20         13.275911   0.000000
     21         13.666458   0.000000
     22         13.666458   0.000000
     23         13.742341   0.000000
     24         13.742344   0.000000
     25         14.927513   0.000000
     26         14.931485   0.000000
     27         14.940488   0.000000
     28         15.004444   0.000000
 
  0.3358333E+00  0.3370833E+00  0.0000000E+00  0.1234568E-01
      1         -3.430982   1.000000
      2         -3.430982   1.000000
      3         -2.680900   1.000000
      4         -2.680900   1.000000
      5         -2.556556   0.000000
      6         -2.556556   0.000000
      7          0.139753   0.000000
      8          0.139753   0.000000
      9          6.048506   0.000000
     10          6.048506   0.000000
     11          6.053736   0.000000
     12          6.053736   0.000000
     13          6.473739   0.000000
     14          6.473739   0.000000
     15          6.586692   0.000000
     16          6.586692   0.000000
     17         10.124961   0.000000
     18         10.124961   0.000000
     19         13.261042   0.000000
     20         13.261042   0.000000
     21         13.658410   0.000000
     22         13.658414   0.000000
     23         13.758773   0.000000
     24         13.758778   0.000000
     25         14.900044   0.000000
     26         14.913576   0.000000
     27         14.934795   0.000000
     28         15.071735   0.000000
 
  0.3358333E+00  0.3383333E+00  0.0000000E+00  0.1234568E-01
      1         -3.442287   1.000000
      2         -3.442287   1.000000
      3         -2.690496   1.000000
      4         -2.690496   1.000000
      5         -2.536522   0.000000
      6         -2.536522   0.000000
      7          0.140985   0.000000
      8          0.140985   0.000000
      9          6.043346   0.000000
     10          6.043346   0.000000
     11          6.047891   0.000000
     12          6.047891   0.000000
     13          6.467815   0.000000
     14          6.467815   0.000000
     15          6.601890   0.000000
     16          6.601890   0.000000
     17         10.128879   0.000000
     18         10.128879   0.000000
     19         13.242849   0.000000
     20         13.242849   0.000000
     21         13.651010   0.000000
     22         13.651011   0.000000
     23         13.775917   0.000000
     24         13.775929   0.000000
     25         14.876944   0.000000
     26         14.893573   0.000000
     27         14.962000   0.000000
     28         15.175002   0.000000
 
  0.3370833E+00  0.3283333E+00  0.0000000E+00  0.1234568E-01
      1         -3.423642   1.000000
      2         -3.423642   1.000000
      3         -2.669275   1.000000
      4         -2.669275   1.000000
      5         -2.574967   0.000000
      6         -2.574967   0.000000
      7          0.138962   0.000000
      8          0.138962   0.000000
      9          6.052336   0.000000
     10          6.052336   0.000000
     11          6.057062   0.000000
     12          6.057062   0.000000
     13          6.478867   0.000000
     14          6.478867   0.000000
     15          6.575594   0.000000
     16          6.575594   0.000000
     17         10.122311   0.000000
     18         10.122311   0.000000
     19         13.272673   0.000000
     20         13.272673   0.000000
     21         13.669125   0.000000
     22         13.669126   0.000000
     23         13.741945   0.000000
     24         13.741951   0.000000
     25         14.908517   0.000000
     26         14.922895   0.000000
     27         14.953693   0.000000
     28         15.077726   0.000000
 
  0.3370833E+00  0.3295833E+00  0.0000000E+00  0.1234568E-01
      1         -3.418689   1.000000
      2         -3.418689   1.000000
      3         -2.658061   0.999984
      4         -2.658061   0.999984
      5         -2.590764   0.000000
      6         -2.590764   0.000000
      7          0.138434   0.000000
      8          0.138434   0.000000
      9          6.055244   0.000000
     10          6.055244   0.000000
     11          6.058920   0.000000
     12          6.058920   0.000000
     13          6.483430   0.000000
     14          6.483430   0.000000
     15          6.567056   0.000000
     16          6.567056   0.000000
     17         10.120543   0.000000
     18         10.120543   0.000000
     19         13.280635   0.000000
     20         13.280635   0.000000
     21         13.680719   0.000000
     22         13.680721   0.000000
     23         13.726042   0.000000
     24         13.726045   0.000000
     25         14.911024   0.000000
     26         14.929593   0.000000
     27         14.992891   0.000000
     28         15.182725   0.000000
 
  0.3370833E+00  0.3308333E+00  0.0000000E+00  0.1234568E-01
      1         -3.416194   1.000000
      2         -3.416194   1.000000
      3         -2.649809   0.998602
      4         -2.649809   0.998602
      5         -2.601327   0.000055
      6         -2.601327   0.000055
      7          0.138170   0.000000
      8          0.138170   0.000000
      9          6.056944   0.000000
     10          6.056944   0.000000
     11          6.059601   0.000000
     12          6.059601   0.000000
     13          6.486230   0.000000
     14          6.486230   0.000000
     15          6.562271   0.000000
     16          6.562271   0.000000
     17         10.119658   0.000000
     18         10.119658   0.000000
     19         13.284681   0.000000
     20         13.284681   0.000000
     21         13.692166   0.000000
     22         13.692167   0.000000
     23         13.712364   0.000000
     24         13.712366   0.000000
     25         14.913116   0.000000
     26         14.952630   0.000000
     27         14.977116   0.000000
     28         15.166277   0.000000
 
  0.3370833E+00  0.3320833E+00  0.0000000E+00  0.1234568E-01
      1         -3.416194   1.000000
      2         -3.416194   1.000000
      3         -2.649808   0.998601
      4         -2.649808   0.998601
      5         -2.601327   0.000055
      6         -2.601327   0.000055
      7          0.138170   0.000000
      8          0.138170   0.000000
      9          6.056944   0.000000
     10          6.056944   0.000000
     11          6.059601   0.000000
     12          6.059601   0.000000
     13          6.486230   0.000000
     14          6.486230   0.000000
     15          6.562270   0.000000
     16          6.562270   0.000000
     17         10.119658   0.000000
     18         10.119658   0.000000
     19         13.284681   0.000000
     20         13.284681   0.000000
     21         13.692167   0.000000
     22         13.692172   0.000000
     23         13.712364   0.000000
     24         13.712367   0.000000
     25         14.909373   0.000000
     26         14.912940   0.000000
     27         14.971056   0.000000
     28         15.031918   0.000000
 
  0.3370833E+00  0.3333333E+00  0.0000000E+00  0.1234568E-01
      1         -3.418689   1.000000
      2         -3.418689   1.000000
      3         -2.658060   0.999984
      4         -2.658060   0.999984
      5         -2.590765   0.000000
      6         -2.590765   0.000000
      7          0.138434   0.000000
      8          0.138434   0.000000
      9          6.055244   0.000000
     10          6.055244   0.000000
     11          6.058920   0.000000
     12          6.058920   0.000000
     13          6.483430   0.000000
     14          6.483430   0.000000
     15          6.567055   0.000000
     16          6.567055   0.000000
     17         10.120543   0.000000
     18         10.120543   0.000000
     19         13.280635   0.000000
     20         13.280635   0.000000
     21         13.680720   0.000000
     22         13.680723   0.000000
     23         13.726040   0.000000
     24         13.726043   0.000000
     25         14.910004   0.000000
     26         14.926292   0.000000
     27         14.966306   0.000000
     28         14.994606   0.000000
 
  0.3370833E+00  0.3345833E+00  0.0000000E+00  0.1234568E-01
      1         -3.423641   1.000000
      2         -3.423641   1.000000
      3         -2.669274   1.000000
      4         -2.669274   1.000000
      5         -2.574969   0.000000
      6         -2.574969   0.000000
      7          0.138962   0.000000
      8          0.138962   0.000000
      9          6.052336   0.000000
     10          6.052336   0.000000
     11          6.057062   0.000000
     12          6.057062   0.000000
     13          6.478867   0.000000
     14          6.478867   0.000000
     15          6.575593   0.000000
     16          6.575593   0.000000
     17         10.122311   0.000000
     18         10.122311   0.000000
     19         13.272674   0.000000
     20         13.272674   0.000000
     21         13.669126   0.000000
     22         13.669129   0.000000
     23         13.741944   0.000000
     24         13.741946   0.000000
     25         14.906240   0.000000
     26         14.936324   0.000000
     27         14.968940   0.000000
     28         15.052861   0.000000
 
  0.3370833E+00  0.3358333E+00  0.0000000E+00  0.1234568E-01
      1         -3.430982   1.000000
      2         -3.430982   1.000000
      3         -2.680900   1.000000
      4         -2.680900   1.000000
      5         -2.556556   0.000000
      6         -2.556556   0.000000
      7          0.139753   0.000000
      8          0.139753   0.000000
      9          6.048506   0.000000
     10          6.048506   0.000000
     11          6.053736   0.000000
     12          6.053736   0.000000
     13          6.473739   0.000000
     14          6.473739   0.000000
     15          6.586692   0.000000
     16          6.586692   0.000000
     17         10.124961   0.000000
     18         10.124961   0.000000
     19         13.261042   0.000000
     20         13.261042   0.000000
     21         13.658410   0.000000
     22         13.658414   0.000000
     23         13.758773   0.000000
     24         13.758774   0.000000
     25         14.898110   0.000000
     26         14.909675   0.000000
     27         14.937713   0.000000
     28         14.974868   0.000000
 
  0.3370833E+00  0.3370833E+00  0.0000000E+00  0.1234568E-01
      1         -3.440611   1.000000
      2         -3.440611   1.000000
      3         -2.692158   1.000000
      4         -2.692158   1.000000
      5         -2.536408   0.000000
      6         -2.536408   0.000000
      7          0.140809   0.000000
      8          0.140809   0.000000
      9          6.043905   0.000000
     10          6.043905   0.000000
     11          6.048795   0.000000
     12          6.048795   0.000000
     13          6.468919   0.000000
     14          6.468919   0.000000
     15          6.599478   0.000000
     16          6.599478   0.000000
     17         10.128487   0.000000
     18         10.128487   0.000000
     19         13.246061   0.000000
     20         13.246061   0.000000
     21         13.648606   0.000000
     22         13.648608   0.000000
     23         13.776115   0.000000
     24         13.776120   0.000000
     25         14.877304   0.000000
     26         14.879544   0.000000
     27         14.938476   0.000000
     28         14.982606   0.000000
 
  0.3370833E+00  0.3383333E+00  0.0000000E+00  0.1234568E-01
      1         -3.452404   1.000000
      2         -3.452404   1.000000
      3         -2.702811   1.000000
      4         -2.702811   1.000000
      5         -2.514886   0.000000
      6         -2.514886   0.000000
      7          0.142128   0.000000
      8          0.142128   0.000000
      9          6.038580   0.000000
     10          6.038580   0.000000
     11          6.042212   0.000000
     12          6.042212   0.000000
     13          6.464949   0.000000
     14          6.464949   0.000000
     15          6.613392   0.000000
     16          6.613392   0.000000
     17         10.132886   0.000000
     18         10.132886   0.000000
     19         13.228098   0.000000
     20         13.228099   0.000000
     21         13.639593   0.000000
     22         13.639596   0.000000
     23         13.793661   0.000000
     24         13.793670   0.000000
     25         14.856601   0.000000
     26         14.864730   0.000000
     27         14.920935   0.000000
     28         15.048164   0.000000
 
  0.3383333E+00  0.3283333E+00  0.0000000E+00  0.1234568E-01
      1         -3.428510   1.000000
      2         -3.428510   1.000000
      3         -2.665239   1.000000
      4         -2.665239   1.000000
      5         -2.574494   0.000000
      6         -2.574494   0.000000
      7          0.139461   0.000000
      8          0.139461   0.000000
      9          6.050746   0.000000
     10          6.050746   0.000000
     11          6.054440   0.000000
     12          6.054440   0.000000
     13          6.474119   0.000000
     14          6.474119   0.000000
     15          6.584058   0.000000
     16          6.584058   0.000000
     17         10.123522   0.000000
     18         10.123522   0.000000
     19         13.263241   0.000000
     20         13.263241   0.000000
     21         13.676754   0.000000
     22         13.676758   0.000000
     23         13.740839   0.000000
     24         13.740840   0.000000
     25         14.880220   0.000000
     26         14.896807   0.000000
     27         14.967158   0.000000
     28         15.118494   0.000000
 
  0.3383333E+00  0.3295833E+00  0.0000000E+00  0.1234568E-01
      1         -3.425013   1.000000
      2         -3.425013   1.000000
      3         -2.654520   0.999872
      4         -2.654520   0.999872
      5         -2.588445   0.000000
      6         -2.588445   0.000000
      7          0.139080   0.000000
      8          0.139080   0.000000
      9          6.053064   0.000000
     10          6.053064   0.000000
     11          6.055609   0.000000
     12          6.055609   0.000000
     13          6.476361   0.000000
     14          6.476361   0.000000
     15          6.578937   0.000000
     16          6.578937   0.000000
     17         10.122180   0.000000
     18         10.122180   0.000000
     19         13.268477   0.000000
     20         13.268477   0.000000
     21         13.690931   0.000000
     22         13.690931   0.000000
     23         13.724161   0.000000
     24         13.724163   0.000000
     25         14.883956   0.000000
     26         14.890209   0.000000
     27         14.977652   0.000000
     28         14.993321   0.000000
 
  0.3383333E+00  0.3308333E+00  0.0000000E+00  0.1234568E-01
      1         -3.423842   1.000000
      2         -3.423842   1.000000
      3         -2.649755   0.998566
      4         -2.649755   0.998566
      5         -2.594293   0.000001
      6         -2.594293   0.000001
      7          0.138953   0.000000
      8          0.138953   0.000000
      9          6.053989   0.000000
     10          6.053989   0.000000
     11          6.055846   0.000000
     12          6.055846   0.000000
     13          6.477190   0.000000
     14          6.477190   0.000000
     15          6.577148   0.000000
     16          6.577148   0.000000
     17         10.121732   0.000000
     18         10.121732   0.000000
     19         13.270236   0.000000
     20         13.270236   0.000000
     21         13.702352   0.000000
     22         13.702354   0.000000
     23         13.711889   0.000000
     24         13.711893   0.000000
     25         14.883523   0.000000
     26         14.916710   0.000000
     27         14.991254   0.000000
     28         15.149590   0.000000
 
  0.3383333E+00  0.3320833E+00  0.0000000E+00  0.1234568E-01
      1         -3.425012   1.000000
      2         -3.425012   1.000000
      3         -2.654519   0.999872
      4         -2.654519   0.999872
      5         -2.588446   0.000000
      6         -2.588446   0.000000
      7          0.139080   0.000000
      8          0.139080   0.000000
      9          6.053064   0.000000
     10          6.053064   0.000000
     11          6.055609   0.000000
     12          6.055609   0.000000
     13          6.476361   0.000000
     14          6.476361   0.000000
     15          6.578936   0.000000
     16          6.578936   0.000000
     17         10.122180   0.000000
     18         10.122180   0.000000
     19         13.268478   0.000000
     20         13.268478   0.000000
     21         13.690932   0.000000
     22         13.690932   0.000000
     23         13.724159   0.000000
     24         13.724160   0.000000
     25         14.881048   0.000000
     26         14.892630   0.000000
     27         14.975493   0.000000
     28         15.009372   0.000000
 
  0.3383333E+00  0.3333333E+00  0.0000000E+00  0.1234568E-01
      1         -3.428510   1.000000
      2         -3.428510   1.000000
      3         -2.665238   1.000000
      4         -2.665238   1.000000
      5         -2.574495   0.000000
      6         -2.574495   0.000000
      7          0.139461   0.000000
      8          0.139461   0.000000
      9          6.050746   0.000000
     10          6.050746   0.000000
     11          6.054440   0.000000
     12          6.054440   0.000000
     13          6.474119   0.000000
     14          6.474119   0.000000
     15          6.584058   0.000000
     16          6.584058   0.000000
     17         10.123521   0.000000
     18         10.123521   0.000000
     19         13.263241   0.000000
     20         13.263241   0.000000
     21         13.676756   0.000000
     22         13.676758   0.000000
     23         13.740839   0.000000
     24         13.740843   0.000000
     25         14.880288   0.000000
     26         14.907091   0.000000
     27         14.985514   0.000000
     28         15.017472   0.000000
 
  0.3383333E+00  0.3345833E+00  0.0000000E+00  0.1234568E-01
      1         -3.434291   1.000000
      2         -3.434291   1.000000
      3         -2.677781   1.000000
      4         -2.677781   1.000000
      5         -2.556613   0.000000
      6         -2.556613   0.000000
      7          0.140096   0.000000
      8          0.140096   0.000000
      9          6.047444   0.000000
     10          6.047444   0.000000
     11          6.051929   0.000000
     12          6.051929   0.000000
     13          6.471053   0.000000
     14          6.471053   0.000000
     15          6.591927   0.000000
     16          6.591927   0.000000
     17         10.125756   0.000000
     18         10.125756   0.000000
     19         13.254639   0.000000
     20         13.254639   0.000000
     21         13.663391   0.000000
     22         13.663392   0.000000
     23         13.758220   0.000000
     24         13.758222   0.000000
     25         14.875655   0.000000
     26         14.886039   0.000000
     27         14.945716   0.000000
     28         14.975210   0.000000
 
  0.3383333E+00  0.3358333E+00  0.0000000E+00  0.1234568E-01
      1         -3.442287   1.000000
      2         -3.442287   1.000000
      3         -2.690496   1.000000
      4         -2.690496   1.000000
      5         -2.536522   0.000000
      6         -2.536522   0.000000
      7          0.140985   0.000000
      8          0.140985   0.000000
      9          6.043346   0.000000
     10          6.043346   0.000000
     11          6.047891   0.000000
     12          6.047891   0.000000
     13          6.467815   0.000000
     14          6.467815   0.000000
     15          6.601890   0.000000
     16          6.601890   0.000000
     17         10.128879   0.000000
     18         10.128879   0.000000
     19         13.242849   0.000000
     20         13.242849   0.000000
     21         13.651010   0.000000
     22         13.651014   0.000000
     23         13.775918   0.000000
     24         13.775922   0.000000
     25         14.866712   0.000000
     26         14.872349   0.000000
     27         14.934238   0.000000
     28         14.976655   0.000000
 
  0.3383333E+00  0.3370833E+00  0.0000000E+00  0.1234568E-01
      1         -3.452404   1.000000
      2         -3.452404   1.000000
      3         -2.702811   1.000000
      4         -2.702811   1.000000
      5         -2.514886   0.000000
      6         -2.514886   0.000000
      7          0.142128   0.000000
      8          0.142128   0.000000
      9          6.038580   0.000000
     10          6.038580   0.000000
     11          6.042212   0.000000
     12          6.042212   0.000000
     13          6.464949   0.000000
     14          6.464949   0.000000
     15          6.613392   0.000000
     16          6.613392   0.000000
     17         10.132886   0.000000
     18         10.132886   0.000000
     19         13.228098   0.000000
     20         13.228098   0.000000
     21         13.639594   0.000000
     22         13.639601   0.000000
     23         13.793660   0.000000
     24         13.793663   0.000000
     25         14.862983   0.000000
     26         14.875242   0.000000
     27         14.925629   0.000000
     28         15.144453   0.000000
 
  0.3383333E+00  0.3383333E+00  0.0000000E+00  0.1234568E-01
      1         -3.464533   1.000000
      2         -3.464533   1.000000
      3         -2.714527   1.000000
      4         -2.714527   1.000000
      5         -2.492014   0.000000
      6         -2.492014   0.000000
      7          0.143526   0.000000
      8          0.143526   0.000000
      9          6.033223   0.000000
     10          6.033223   0.000000
     11          6.034851   0.000000
     12          6.034851   0.000000
     13          6.462847   0.000000
     14          6.462847   0.000000
     15          6.626009   0.000000
     16          6.626009   0.000000
     17         10.137772   0.000000
     18         10.137772   0.000000
     19         13.210652   0.000000
     20         13.210652   0.000000
     21         13.629052   0.000000
     22         13.629053   0.000000
     23         13.811203   0.000000
     24         13.811205   0.000000
     25         14.831291   0.000000
     26         14.872387   0.000000
     27         14.912725   0.000000
     28         14.945055   0.000000
