       N       E                     dE             d eps       ncg     rms          ort
DAV:   1     0.192926386558E+01    0.19293E+01   -0.27539E+03 91392   0.129E+02
DAV:   2    -0.109423925606E+02   -0.12872E+02   -0.12349E+02 91392   0.163E+01
DAV:   3    -0.109890070111E+02   -0.46614E-01   -0.46596E-01 91392   0.110E+00
DAV:   4    -0.109891381011E+02   -0.13109E-03   -0.13109E-03 91392   0.637E-02
DAV:   5    -0.109891381101E+02   -0.90126E-08   -0.98291E-08 91392   0.457E-04
SDA:   6    -0.671649196582E+01    0.42726E+01   -0.98291E-08 91392   0.704E+01 0.000E+00
CGA:   7    -0.938322466544E+01   -0.26667E+01   -0.31269E+01 91392   0.749E+00-0.211E+01
CGA:   8    -0.957182386371E+01   -0.18860E+00   -0.18855E+00 91392   0.796E-01 0.308E-02
CGA:   9    -0.959638892265E+01   -0.24565E-01   -0.24513E-01 91392   0.763E-02 0.600E-03
CGA:  10    -0.959912114591E+01   -0.27322E-02   -0.27257E-02 91392   0.135E-02 0.683E-04
CGA:  11    -0.959975784895E+01   -0.63670E-03   -0.63224E-03 91392   0.405E-03 0.182E-04
CGA:  12    -0.959995033213E+01   -0.19248E-03   -0.19170E-03 91392   0.751E-04 0.228E-05
CGA:  13    -0.959998130225E+01   -0.30970E-04   -0.30967E-04 91392   0.109E-04 0.785E-08
CGA:  14    -0.959998617379E+01   -0.48715E-05   -0.48710E-05 91392   0.215E-05 0.711E-08
CGA:  15    -0.959998726975E+01   -0.10960E-05   -0.10951E-05 91392   0.500E-06 0.527E-08
CGA:  16    -0.959998750274E+01   -0.23299E-06   -0.23267E-06 91392   0.674E-07 0.121E-08
   1 F= -.95999875E+01 E0= -.95994671E+01  d E =-.104085E-02
