  36  36   0   0
  0.4662158E+02  0.6477609E-09  0.6477609E-09  0.4000000E-08  0.1500000E-16
  1.000000000000000E-004
  CAR 
 phonon_dispersion                       
     11.37104964    -15.94965093  301     -2.81801747      1.00000000
    -15.950  0.0000E+00  0.0000E+00
    -15.859  0.0000E+00  0.0000E+00
    -15.768  0.0000E+00  0.0000E+00
    -15.676  0.0000E+00  0.0000E+00
    -15.585  0.0000E+00  0.0000E+00
    -15.494  0.0000E+00  0.0000E+00
    -15.403  0.0000E+00  0.0000E+00
    -15.312  0.0000E+00  0.0000E+00
    -15.221  0.0000E+00  0.0000E+00
    -15.130  0.0000E+00  0.0000E+00
    -15.039  0.0000E+00  0.0000E+00
    -14.948  0.2264E-14  0.2062E-15
    -14.857  0.5965E-08  0.5432E-09
    -14.766  0.4192E-04  0.3818E-05
    -14.675  0.2011E-02  0.1869E-03
    -14.584  0.5038E-02  0.6458E-03
    -14.493  0.5220E-02  0.1121E-02
    -14.401  0.4829E-02  0.1561E-02
    -14.310  0.5855E-02  0.2094E-02
    -14.219  0.4249E-02  0.2481E-02
    -14.128  0.6715E-02  0.3093E-02
    -14.037  0.4170E-02  0.3472E-02
    -13.946  0.4511E-02  0.3883E-02
    -13.855  0.5829E-02  0.4414E-02
    -13.764  0.4986E-02  0.4868E-02
    -13.673  0.4115E-02  0.5243E-02
    -13.582  0.7358E-02  0.5913E-02
    -13.491  0.4510E-02  0.6324E-02
    -13.400  0.3997E-02  0.6688E-02
    -13.309  0.6517E-02  0.7281E-02
    -13.218  0.5598E-02  0.7791E-02
    -13.127  0.3412E-02  0.8102E-02
    -13.035  0.5421E-02  0.8595E-02
    -12.944  0.7229E-02  0.9254E-02
    -12.853  0.3638E-02  0.9585E-02
    -12.762  0.7161E-02  0.1024E-01
    -12.671  0.3102E-02  0.1052E-01
    -12.580  0.6183E-02  0.1108E-01
    -12.489  0.7447E-02  0.1176E-01
    -12.398  0.7847E-02  0.1248E-01
    -12.307  0.7454E-02  0.1315E-01
    -12.216  0.1254E-01  0.1430E-01
    -12.125  0.1045E-01  0.1525E-01
    -12.034  0.1162E-01  0.1631E-01
    -11.943  0.7055E-02  0.1695E-01
    -11.852  0.1214E-01  0.1805E-01
    -11.760  0.1190E-01  0.1914E-01
    -11.669  0.1045E-01  0.2009E-01
    -11.578  0.1136E-01  0.2112E-01
    -11.487  0.1037E-01  0.2207E-01
    -11.396  0.8667E-02  0.2286E-01
    -11.305  0.1300E-01  0.2404E-01
    -11.214  0.1025E-01  0.2497E-01
    -11.123  0.1206E-01  0.2607E-01
    -11.032  0.9969E-02  0.2698E-01
    -10.941  0.1287E-01  0.2815E-01
    -10.850  0.1112E-01  0.2917E-01
    -10.759  0.1212E-01  0.3027E-01
    -10.668  0.1291E-01  0.3144E-01
    -10.577  0.1340E-01  0.3267E-01
    -10.486  0.1661E-01  0.3418E-01
    -10.394  0.1170E-01  0.3524E-01
    -10.303  0.1285E-01  0.3641E-01
    -10.212  0.1345E-01  0.3764E-01
    -10.121  0.9796E-02  0.3853E-01
    -10.030  0.1135E-01  0.3956E-01
     -9.939  0.7940E-02  0.4029E-01
     -9.848  0.1285E-01  0.4146E-01
     -9.757  0.1118E-01  0.4248E-01
     -9.666  0.1023E-01  0.4341E-01
     -9.575  0.6128E-02  0.4397E-01
     -9.484  0.9825E-02  0.4486E-01
     -9.393  0.1168E-01  0.4592E-01
     -9.302  0.9701E-02  0.4681E-01
     -9.211  0.1425E-01  0.4810E-01
     -9.119  0.1097E-01  0.4910E-01
     -9.028  0.1419E-01  0.5040E-01
     -8.937  0.1449E-01  0.5172E-01
     -8.846  0.1628E-01  0.5320E-01
     -8.755  0.1275E-01  0.5436E-01
     -8.664  0.1157E-01  0.5541E-01
     -8.573  0.1354E-01  0.5665E-01
     -8.482  0.1305E-01  0.5783E-01
     -8.391  0.1866E-01  0.5953E-01
     -8.300  0.1230E-01  0.6065E-01
     -8.209  0.1257E-01  0.6180E-01
     -8.118  0.1202E-01  0.6289E-01
     -8.027  0.1790E-01  0.6452E-01
     -7.936  0.1713E-01  0.6608E-01
     -7.845  0.1455E-01  0.6741E-01
     -7.753  0.1379E-01  0.6866E-01
     -7.662  0.1116E-01  0.6968E-01
     -7.571  0.9535E-02  0.7055E-01
     -7.480  0.1335E-01  0.7176E-01
     -7.389  0.1633E-01  0.7325E-01
     -7.298  0.8504E-02  0.7403E-01
     -7.207  0.8006E-02  0.7475E-01
     -7.116  0.1050E-01  0.7571E-01
     -7.025  0.1369E-01  0.7696E-01
     -6.934  0.1125E-01  0.7798E-01
     -6.843  0.1006E-01  0.7890E-01
     -6.752  0.7797E-02  0.7961E-01
     -6.661  0.1492E-01  0.8097E-01
     -6.570  0.1833E-01  0.8264E-01
     -6.478  0.1546E-01  0.8404E-01
     -6.387  0.1154E-01  0.8509E-01
     -6.296  0.1566E-01  0.8652E-01
     -6.205  0.2039E-01  0.8838E-01
     -6.114  0.2269E-01  0.9044E-01
     -6.023  0.1422E-01  0.9174E-01
     -5.932  0.9315E-02  0.9259E-01
     -5.841  0.1272E-01  0.9374E-01
     -5.750  0.1442E-01  0.9506E-01
     -5.659  0.1402E-01  0.9634E-01
     -5.568  0.6780E-02  0.9695E-01
     -5.477  0.7056E-02  0.9760E-01
     -5.386  0.1317E-01  0.9880E-01
     -5.295  0.1346E-01  0.1000E+00
     -5.204  0.1390E-01  0.1013E+00
     -5.112  0.9786E-02  0.1022E+00
     -5.021  0.1263E-01  0.1033E+00
     -4.930  0.1360E-01  0.1046E+00
     -4.839  0.1161E-01  0.1056E+00
     -4.748  0.1021E-01  0.1066E+00
     -4.657  0.1403E-01  0.1078E+00
     -4.566  0.1025E-01  0.1088E+00
     -4.475  0.9061E-02  0.1096E+00
     -4.384  0.1236E-01  0.1107E+00
     -4.293  0.1006E-01  0.1116E+00
     -4.202  0.1085E-01  0.1126E+00
     -4.111  0.1038E-01  0.1136E+00
     -4.020  0.1275E-01  0.1147E+00
     -3.929  0.8534E-02  0.1155E+00
     -3.837  0.8415E-02  0.1163E+00
     -3.746  0.1278E-01  0.1174E+00
     -3.655  0.1202E-01  0.1185E+00
     -3.564  0.1206E-01  0.1196E+00
     -3.473  0.1090E-01  0.1206E+00
     -3.382  0.1725E-01  0.1222E+00
     -3.291  0.2050E-01  0.1241E+00
     -3.200  0.1996E-01  0.1259E+00
     -3.109  0.2046E-01  0.1277E+00
     -3.018  0.2490E-01  0.1300E+00
     -2.927  0.2304E-01  0.1321E+00
     -2.836  0.2159E-01  0.1341E+00
     -2.745  0.1561E-01  0.1355E+00
     -2.654  0.1661E-01  0.1370E+00
     -2.563  0.1395E-01  0.1383E+00
     -2.471  0.2068E-01  0.1402E+00
     -2.380  0.2271E-01  0.1422E+00
     -2.289  0.1448E-01  0.1435E+00
     -2.198  0.1638E-01  0.1450E+00
     -2.107  0.2034E-01  0.1469E+00
     -2.016  0.1629E-01  0.1484E+00
     -1.925  0.1651E-01  0.1499E+00
     -1.834  0.1935E-01  0.1516E+00
     -1.743  0.1675E-01  0.1532E+00
     -1.652  0.1803E-01  0.1548E+00
     -1.561  0.1586E-01  0.1563E+00
     -1.470  0.1940E-01  0.1580E+00
     -1.379  0.1501E-01  0.1594E+00
     -1.288  0.7865E-02  0.1601E+00
     -1.196  0.1717E-01  0.1617E+00
     -1.105  0.2654E-01  0.1641E+00
     -1.014  0.2385E-01  0.1663E+00
     -0.923  0.1875E-01  0.1680E+00
     -0.832  0.2108E-01  0.1699E+00
     -0.741  0.1917E-01  0.1716E+00
     -0.650  0.1524E-01  0.1730E+00
     -0.559  0.1537E-01  0.1744E+00
     -0.468  0.1660E-01  0.1759E+00
     -0.377  0.2120E-01  0.1779E+00
     -0.286  0.1979E-01  0.1797E+00
     -0.195  0.1842E-01  0.1813E+00
     -0.104  0.2087E-01  0.1832E+00
     -0.013  0.2314E-01  0.1853E+00
      0.078  0.2326E-01  0.1875E+00
      0.170  0.2825E-01  0.1900E+00
      0.261  0.1912E-01  0.1918E+00
      0.352  0.2028E-01  0.1936E+00
      0.443  0.2364E-01  0.1958E+00
      0.534  0.2095E-01  0.1977E+00
      0.625  0.2139E-01  0.1996E+00
      0.716  0.2267E-01  0.2017E+00
      0.807  0.2385E-01  0.2039E+00
      0.898  0.1869E-01  0.2056E+00
      0.989  0.1822E-01  0.2072E+00
      1.080  0.2223E-01  0.2093E+00
      1.171  0.1725E-01  0.2108E+00
      1.262  0.2234E-01  0.2129E+00
      1.353  0.2728E-01  0.2153E+00
      1.445  0.2815E-01  0.2179E+00
      1.536  0.3296E-01  0.2209E+00
      1.627  0.3132E-01  0.2238E+00
      1.718  0.2355E-01  0.2259E+00
      1.809  0.2790E-01  0.2284E+00
      1.900  0.2445E-01  0.2307E+00
      1.991  0.1686E-01  0.2322E+00
      2.082  0.2836E-01  0.2348E+00
      2.173  0.3491E-01  0.2380E+00
      2.264  0.3396E-01  0.2411E+00
      2.355  0.3204E-01  0.2440E+00
      2.446  0.3639E-01  0.2473E+00
      2.537  0.3426E-01  0.2504E+00
      2.628  0.3411E-01  0.2535E+00
      2.719  0.3955E-01  0.2571E+00
      2.811  0.3714E-01  0.2605E+00
      2.902  0.3439E-01  0.2636E+00
      2.993  0.5004E-01  0.2682E+00
      3.084  0.5464E-01  0.2732E+00
      3.175  0.4182E-01  0.2770E+00
      3.266  0.5229E-01  0.2817E+00
      3.357  0.4933E-01  0.2862E+00
      3.448  0.6152E-01  0.2918E+00
      3.539  0.4947E-01  0.2963E+00
      3.630  0.4768E-01  0.3007E+00
      3.721  0.5079E-01  0.3053E+00
      3.812  0.4052E-01  0.3090E+00
      3.903  0.4976E-01  0.3135E+00
      3.994  0.5991E-01  0.3190E+00
      4.086  0.5596E-01  0.3241E+00
      4.177  0.5820E-01  0.3294E+00
      4.268  0.4542E-01  0.3335E+00
      4.359  0.5000E-01  0.3381E+00
      4.450  0.6044E-01  0.3436E+00
      4.541  0.6559E-01  0.3495E+00
      4.632  0.7203E-01  0.3561E+00
      4.723  0.6893E-01  0.3624E+00
      4.814  0.4493E-01  0.3665E+00
      4.905  0.6408E-01  0.3723E+00
      4.996  0.6319E-01  0.3781E+00
      5.087  0.6180E-01  0.3837E+00
      5.178  0.5191E-01  0.3884E+00
      5.269  0.4442E-01  0.3925E+00
      5.360  0.6754E-01  0.3986E+00
      5.452  0.5910E-01  0.4040E+00
      5.543  0.6310E-01  0.4097E+00
      5.634  0.7130E-01  0.4162E+00
      5.725  0.6267E-01  0.4219E+00
      5.816  0.6956E-01  0.4283E+00
      5.907  0.7492E-01  0.4351E+00
      5.998  0.6017E-01  0.4406E+00
      6.089  0.6047E-01  0.4461E+00
      6.180  0.7278E-01  0.4527E+00
      6.271  0.7530E-01  0.4596E+00
      6.362  0.6516E-01  0.4655E+00
      6.453  0.5230E-01  0.4703E+00
      6.544  0.6645E-01  0.4763E+00
      6.635  0.5381E-01  0.4812E+00
      6.727  0.6261E-01  0.4869E+00
      6.818  0.7986E-01  0.4942E+00
      6.909  0.7754E-01  0.5013E+00
      7.000  0.8705E-01  0.5092E+00
      7.091  0.7541E-01  0.5161E+00
      7.182  0.6392E-01  0.5219E+00
      7.273  0.7474E-01  0.5287E+00
      7.364  0.7334E-01  0.5354E+00
      7.455  0.8530E-01  0.5431E+00
      7.546  0.7715E-01  0.5502E+00
      7.637  0.7798E-01  0.5573E+00
      7.728  0.7028E-01  0.5637E+00
      7.819  0.7271E-01  0.5703E+00
      7.910  0.7692E-01  0.5773E+00
      8.001  0.8027E-01  0.5846E+00
      8.093  0.6705E-01  0.5907E+00
      8.184  0.6883E-01  0.5970E+00
      8.275  0.7488E-01  0.6038E+00
      8.366  0.7503E-01  0.6106E+00
      8.457  0.8441E-01  0.6183E+00
      8.548  0.8401E-01  0.6260E+00
      8.639  0.7411E-01  0.6327E+00
      8.730  0.7972E-01  0.6400E+00
      8.821  0.8739E-01  0.6479E+00
      8.912  0.8316E-01  0.6555E+00
      9.003  0.7427E-01  0.6623E+00
      9.094  0.8653E-01  0.6701E+00
      9.185  0.1001E+00  0.6793E+00
      9.276  0.8588E-01  0.6871E+00
      9.368  0.8491E-01  0.6948E+00
      9.459  0.7749E-01  0.7019E+00
      9.550  0.4937E-01  0.7064E+00
      9.641  0.4084E-01  0.7101E+00
      9.732  0.2400E-01  0.7123E+00
      9.823  0.1578E-01  0.7137E+00
      9.914  0.1381E-01  0.7150E+00
     10.005  0.7712E-02  0.7157E+00
     10.096  0.4610E-02  0.7161E+00
     10.187  0.3542E-02  0.7164E+00
     10.278  0.1081E-03  0.7164E+00
     10.369  0.1665E-07  0.7164E+00
     10.460  0.5827E-14  0.7164E+00
     10.551  0.0000E+00  0.7164E+00
     10.642  0.0000E+00  0.7164E+00
     10.734  0.0000E+00  0.7164E+00
     10.825  0.0000E+00  0.7164E+00
     10.916  0.0000E+00  0.7164E+00
     11.007  0.0000E+00  0.7164E+00
     11.098  0.0000E+00  0.7164E+00
     11.189  0.0000E+00  0.7164E+00
     11.280  0.0000E+00  0.7164E+00
     11.371  0.0000E+00  0.7164E+00
