  20  20   0   0
  0.4951695E+02  0.1298018E-08  0.2081904E-09  0.4000000E-08  0.5000000E-15
  1.000000000000000E-004
  CAR 
 Frozen phonon                           
      4.73469518    -14.52898920  301     -3.09477472      1.00000000
    -14.529  0.0000E+00  0.0000E+00
    -14.465  0.0000E+00  0.0000E+00
    -14.401  0.0000E+00  0.0000E+00
    -14.336  0.0000E+00  0.0000E+00
    -14.272  0.0000E+00  0.0000E+00
    -14.208  0.0000E+00  0.0000E+00
    -14.144  0.0000E+00  0.0000E+00
    -14.080  0.0000E+00  0.0000E+00
    -14.015  0.0000E+00  0.0000E+00
    -13.951  0.0000E+00  0.0000E+00
    -13.887  0.0000E+00  0.0000E+00
    -13.823  0.0000E+00  0.0000E+00
    -13.758  0.2165E-14  0.1390E-15
    -13.694  0.1712E-03  0.1100E-04
    -13.630  0.5092E+00  0.3271E-01
    -13.566  0.1377E+01  0.1211E+00
    -13.502  0.1388E+01  0.2103E+00
    -13.437  0.1377E+01  0.2987E+00
    -13.373  0.1410E+01  0.3892E+00
    -13.309  0.1407E+01  0.4796E+00
    -13.245  0.1397E+01  0.5692E+00
    -13.181  0.1402E+01  0.6593E+00
    -13.116  0.1384E+01  0.7482E+00
    -13.052  0.1369E+01  0.8361E+00
    -12.988  0.1351E+01  0.9229E+00
    -12.924  0.1409E+01  0.1013E+01
    -12.859  0.1456E+01  0.1107E+01
    -12.795  0.1392E+01  0.1196E+01
    -12.731  0.1382E+01  0.1285E+01
    -12.667  0.1406E+01  0.1375E+01
    -12.603  0.1416E+01  0.1466E+01
    -12.538  0.1411E+01  0.1557E+01
    -12.474  0.1371E+01  0.1645E+01
    -12.410  0.1471E+01  0.1739E+01
    -12.346  0.1379E+01  0.1828E+01
    -12.282  0.1469E+01  0.1922E+01
    -12.217  0.1420E+01  0.2013E+01
    -12.153  0.1648E+01  0.2119E+01
    -12.089  0.2738E+01  0.2295E+01
    -12.025  0.2743E+01  0.2471E+01
    -11.960  0.2815E+01  0.2652E+01
    -11.896  0.2766E+01  0.2829E+01
    -11.832  0.2836E+01  0.3012E+01
    -11.768  0.2879E+01  0.3196E+01
    -11.704  0.2766E+01  0.3374E+01
    -11.639  0.2841E+01  0.3556E+01
    -11.575  0.2764E+01  0.3734E+01
    -11.511  0.2923E+01  0.3922E+01
    -11.447  0.2895E+01  0.4107E+01
    -11.383  0.2777E+01  0.4286E+01
    -11.318  0.2994E+01  0.4478E+01
    -11.254  0.2709E+01  0.4652E+01
    -11.190  0.3029E+01  0.4847E+01
    -11.126  0.2729E+01  0.5022E+01
    -11.062  0.3047E+01  0.5217E+01
    -10.997  0.2938E+01  0.5406E+01
    -10.933  0.2766E+01  0.5584E+01
    -10.869  0.3121E+01  0.5784E+01
    -10.805  0.2758E+01  0.5961E+01
    -10.740  0.3171E+01  0.6165E+01
    -10.676  0.2846E+01  0.6348E+01
    -10.612  0.2903E+01  0.6534E+01
    -10.548  0.3260E+01  0.6743E+01
    -10.484  0.2798E+01  0.6923E+01
    -10.419  0.3086E+01  0.7121E+01
    -10.355  0.3106E+01  0.7321E+01
    -10.291  0.2935E+01  0.7509E+01
    -10.227  0.3184E+01  0.7713E+01
    -10.163  0.3080E+01  0.7911E+01
    -10.098  0.3062E+01  0.8108E+01
    -10.034  0.3264E+01  0.8317E+01
     -9.970  0.2970E+01  0.8508E+01
     -9.906  0.3333E+01  0.8722E+01
     -9.841  0.3178E+01  0.8926E+01
     -9.777  0.3253E+01  0.9135E+01
     -9.713  0.3233E+01  0.9343E+01
     -9.649  0.3264E+01  0.9552E+01
     -9.585  0.3458E+01  0.9774E+01
     -9.520  0.3078E+01  0.9972E+01
     -9.456  0.3583E+01  0.1020E+02
     -9.392  0.3461E+01  0.1042E+02
     -9.328  0.3292E+01  0.1064E+02
     -9.264  0.3619E+01  0.1087E+02
     -9.199  0.3676E+01  0.1110E+02
     -9.135  0.3482E+01  0.1133E+02
     -9.071  0.3928E+01  0.1158E+02
     -9.007  0.3762E+01  0.1182E+02
     -8.943  0.3866E+01  0.1207E+02
     -8.878  0.5573E+01  0.1243E+02
     -8.814  0.5230E+01  0.1276E+02
     -8.750  0.5820E+01  0.1314E+02
     -8.686  0.6372E+01  0.1355E+02
     -8.621  0.5563E+01  0.1390E+02
     -8.557  0.5736E+01  0.1427E+02
     -8.493  0.5404E+01  0.1462E+02
     -8.429  0.5658E+01  0.1498E+02
     -8.365  0.5560E+01  0.1534E+02
     -8.300  0.6586E+01  0.1576E+02
     -8.236  0.5702E+01  0.1613E+02
     -8.172  0.6048E+01  0.1652E+02
     -8.108  0.5058E+01  0.1684E+02
     -8.044  0.5271E+01  0.1718E+02
     -7.979  0.4876E+01  0.1749E+02
     -7.915  0.5240E+01  0.1783E+02
     -7.851  0.4776E+01  0.1814E+02
     -7.787  0.4927E+01  0.1845E+02
     -7.722  0.5089E+01  0.1878E+02
     -7.658  0.4927E+01  0.1910E+02
     -7.594  0.5038E+01  0.1942E+02
     -7.530  0.5361E+01  0.1976E+02
     -7.466  0.5533E+01  0.2012E+02
     -7.401  0.6804E+01  0.2056E+02
     -7.337  0.6835E+01  0.2099E+02
     -7.273  0.5061E+01  0.2132E+02
     -7.209  0.5274E+01  0.2166E+02
     -7.145  0.5087E+01  0.2198E+02
     -7.080  0.5647E+01  0.2235E+02
     -7.016  0.6395E+01  0.2276E+02
     -6.952  0.5686E+01  0.2312E+02
     -6.888  0.4074E+01  0.2338E+02
     -6.824  0.2735E+01  0.2356E+02
     -6.759  0.2407E+01  0.2371E+02
     -6.695  0.2430E+01  0.2387E+02
     -6.631  0.2208E+01  0.2401E+02
     -6.567  0.2271E+01  0.2416E+02
     -6.502  0.2185E+01  0.2430E+02
     -6.438  0.1997E+01  0.2443E+02
     -6.374  0.2221E+01  0.2457E+02
     -6.310  0.1901E+01  0.2469E+02
     -6.246  0.1963E+01  0.2482E+02
     -6.181  0.1922E+01  0.2494E+02
     -6.117  0.1906E+01  0.2506E+02
     -6.053  0.1888E+01  0.2518E+02
     -5.989  0.1807E+01  0.2530E+02
     -5.925  0.2016E+01  0.2543E+02
     -5.860  0.1521E+01  0.2553E+02
     -5.796  0.1989E+01  0.2566E+02
     -5.732  0.1772E+01  0.2577E+02
     -5.668  0.1763E+01  0.2588E+02
     -5.603  0.1463E+01  0.2598E+02
     -5.539  0.2089E+01  0.2611E+02
     -5.475  0.1577E+01  0.2621E+02
     -5.411  0.1524E+01  0.2631E+02
     -5.347  0.1977E+01  0.2644E+02
     -5.282  0.1600E+01  0.2654E+02
     -5.218  0.1655E+01  0.2665E+02
     -5.154  0.1364E+01  0.2673E+02
     -5.090  0.2105E+01  0.2687E+02
     -5.026  0.1524E+01  0.2697E+02
     -4.961  0.1294E+01  0.2705E+02
     -4.897  0.2012E+01  0.2718E+02
     -4.833  0.1535E+01  0.2728E+02
     -4.769  0.1633E+01  0.2738E+02
     -4.705  0.1493E+01  0.2748E+02
     -4.640  0.1613E+01  0.2758E+02
     -4.576  0.1710E+01  0.2769E+02
     -4.512  0.1462E+01  0.2779E+02
     -4.448  0.1700E+01  0.2789E+02
     -4.383  0.1645E+01  0.2800E+02
     -4.319  0.1345E+01  0.2809E+02
     -4.255  0.1662E+01  0.2819E+02
     -4.191  0.1628E+01  0.2830E+02
     -4.127  0.1629E+01  0.2840E+02
     -4.062  0.1574E+01  0.2850E+02
     -3.998  0.1197E+01  0.2858E+02
     -3.934  0.1891E+01  0.2870E+02
     -3.870  0.1795E+01  0.2882E+02
     -3.806  0.1272E+01  0.2890E+02
     -3.741  0.1121E+01  0.2897E+02
     -3.677  0.2235E+01  0.2911E+02
     -3.613  0.1530E+01  0.2921E+02
     -3.549  0.1185E+01  0.2929E+02
     -3.484  0.1653E+01  0.2939E+02
     -3.420  0.1705E+01  0.2950E+02
     -3.356  0.1431E+01  0.2960E+02
     -3.292  0.1691E+01  0.2970E+02
     -3.228  0.1520E+01  0.2980E+02
     -3.163  0.1387E+01  0.2989E+02
     -3.099  0.1538E+01  0.2999E+02
     -3.035  0.2001E+01  0.3012E+02
     -2.971  0.1222E+01  0.3020E+02
     -2.907  0.1511E+01  0.3029E+02
     -2.842  0.1920E+01  0.3042E+02
     -2.778  0.1511E+01  0.3051E+02
     -2.714  0.1330E+01  0.3060E+02
     -2.650  0.1765E+01  0.3071E+02
     -2.586  0.1850E+01  0.3083E+02
     -2.521  0.1241E+01  0.3091E+02
     -2.457  0.1626E+01  0.3102E+02
     -2.393  0.1848E+01  0.3113E+02
     -2.329  0.1684E+01  0.3124E+02
     -2.264  0.1683E+01  0.3135E+02
     -2.200  0.1427E+01  0.3144E+02
     -2.136  0.1884E+01  0.3156E+02
     -2.072  0.1789E+01  0.3168E+02
     -2.008  0.1855E+01  0.3180E+02
     -1.943  0.1647E+01  0.3190E+02
     -1.879  0.1950E+01  0.3203E+02
     -1.815  0.1798E+01  0.3214E+02
     -1.751  0.2189E+01  0.3228E+02
     -1.687  0.2033E+01  0.3242E+02
     -1.622  0.2586E+01  0.3258E+02
     -1.558  0.2893E+01  0.3277E+02
     -1.494  0.2382E+01  0.3292E+02
     -1.430  0.2972E+01  0.3311E+02
     -1.365  0.1686E+01  0.3322E+02
     -1.301  0.1448E+01  0.3331E+02
     -1.237  0.1709E+01  0.3342E+02
     -1.173  0.1351E+01  0.3351E+02
     -1.109  0.1511E+01  0.3361E+02
     -1.044  0.1438E+01  0.3370E+02
     -0.980  0.1161E+01  0.3377E+02
     -0.916  0.9743E+00  0.3383E+02
     -0.852  0.8027E+00  0.3389E+02
     -0.788  0.8865E+00  0.3394E+02
     -0.723  0.1070E+01  0.3401E+02
     -0.659  0.1092E+01  0.3408E+02
     -0.595  0.1010E+01  0.3415E+02
     -0.531  0.2099E+01  0.3428E+02
     -0.466  0.3171E+01  0.3449E+02
     -0.402  0.5746E+01  0.3485E+02
     -0.338  0.5842E+01  0.3523E+02
     -0.274  0.6976E+01  0.3568E+02
     -0.210  0.7557E+01  0.3616E+02
     -0.145  0.6200E+01  0.3656E+02
     -0.081  0.6165E+01  0.3696E+02
     -0.017  0.4062E+01  0.3722E+02
      0.047  0.4651E+01  0.3752E+02
      0.111  0.4945E+01  0.3783E+02
      0.176  0.4748E+01  0.3814E+02
      0.240  0.4497E+01  0.3843E+02
      0.304  0.4462E+01  0.3871E+02
      0.368  0.4032E+01  0.3897E+02
      0.432  0.3787E+01  0.3922E+02
      0.497  0.4121E+01  0.3948E+02
      0.561  0.4137E+01  0.3975E+02
      0.625  0.4657E+01  0.4005E+02
      0.689  0.5048E+01  0.4037E+02
      0.754  0.4808E+01  0.4068E+02
      0.818  0.5761E+01  0.4105E+02
      0.882  0.5727E+01  0.4142E+02
      0.946  0.5941E+01  0.4180E+02
      1.010  0.7296E+01  0.4227E+02
      1.075  0.6188E+01  0.4266E+02
      1.139  0.7031E+01  0.4311E+02
      1.203  0.7683E+01  0.4361E+02
      1.267  0.8539E+01  0.4416E+02
      1.331  0.8532E+01  0.4470E+02
      1.396  0.8729E+01  0.4526E+02
      1.460  0.8125E+01  0.4579E+02
      1.524  0.8558E+01  0.4634E+02
      1.588  0.7822E+01  0.4684E+02
      1.653  0.7200E+01  0.4730E+02
      1.717  0.8211E+01  0.4783E+02
      1.781  0.6453E+01  0.4824E+02
      1.845  0.6913E+01  0.4869E+02
      1.909  0.7098E+01  0.4914E+02
      1.974  0.6450E+01  0.4956E+02
      2.038  0.7117E+01  0.5001E+02
      2.102  0.6653E+01  0.5044E+02
      2.166  0.7797E+01  0.5094E+02
      2.230  0.7848E+01  0.5145E+02
      2.295  0.6613E+01  0.5187E+02
      2.359  0.7560E+01  0.5236E+02
      2.423  0.6359E+01  0.5276E+02
      2.487  0.5895E+01  0.5314E+02
      2.551  0.4807E+01  0.5345E+02
      2.616  0.3874E+01  0.5370E+02
      2.680  0.4062E+01  0.5396E+02
      2.744  0.2500E+01  0.5412E+02
      2.808  0.2652E+01  0.5429E+02
      2.873  0.2264E+01  0.5444E+02
      2.937  0.2267E+01  0.5458E+02
      3.001  0.2217E+01  0.5472E+02
      3.065  0.1960E+01  0.5485E+02
      3.129  0.2163E+01  0.5499E+02
      3.194  0.1818E+01  0.5511E+02
      3.258  0.1826E+01  0.5522E+02
      3.322  0.2184E+01  0.5536E+02
      3.386  0.1500E+01  0.5546E+02
      3.450  0.1735E+01  0.5557E+02
      3.515  0.1733E+01  0.5568E+02
      3.579  0.1257E+01  0.5576E+02
      3.643  0.1096E+01  0.5583E+02
      3.707  0.1043E+01  0.5590E+02
      3.772  0.1034E+01  0.5597E+02
      3.836  0.4408E+00  0.5600E+02
      3.900  0.7392E-01  0.5600E+02
      3.964  0.8445E-04  0.5600E+02
      4.028  0.0000E+00  0.5600E+02
      4.093  0.0000E+00  0.5600E+02
      4.157  0.0000E+00  0.5600E+02
      4.221  0.0000E+00  0.5600E+02
      4.285  0.0000E+00  0.5600E+02
      4.349  0.0000E+00  0.5600E+02
      4.414  0.0000E+00  0.5600E+02
      4.478  0.0000E+00  0.5600E+02
      4.542  0.0000E+00  0.5600E+02
      4.606  0.0000E+00  0.5600E+02
      4.670  0.0000E+00  0.5600E+02
      4.735  0.0000E+00  0.5600E+02
