<?xml version="1.0" encoding="ISO-8859-1"?>
<modeling>
 <generator>
  <i name="program" type="string">vasp </i>
  <i name="version" type="string">6.5.0  </i>
  <i name="subversion" type="string">16Dec24 (build Jan 08 2025 16:17:04) complex                          parallel </i>
  <i name="platform" type="string">LinuxIFC </i>
  <i name="date" type="string">2026 09 29 </i>
  <i name="time" type="string">10:13:56 </i>
 </generator>
 <incar>
  <i type="string" name="SYSTEM">Frozen phonon</i>
  <i type="int" name="ISTART">     0</i>
  <i type="string" name="PREC">Accurate</i>
  <i type="string" name="ALGO">Normal</i>
  <i type="int" name="ISPIN">     1</i>
  <i type="int" name="ICHARG">     2</i>
  <i type="int" name="NELM">   200</i>
  <i type="int" name="IBRION">    -1</i>
  <i name="EDIFF">      0.00000001</i>
  <i name="EDIFFG">     -0.00100000</i>
  <i type="int" name="NSW">     0</i>
  <i type="int" name="ISIF">     2</i>
  <i name="ENCUT">    600.00000000</i>
  <i name="POTIM">      0.50000000</i>
  <i type="int" name="ISMEAR">     0</i>
  <i name="SIGMA">      0.02000000</i>
  <i type="logical" name="LWAVE"> F  </i>
  <i type="logical" name="LCHARG"> F  </i>
  <i type="string" name="GGA">PE</i>
  <i type="logical" name="LDIPOL"> T  </i>
  <i type="int" name="IDIPOL">     3</i>
  <v name="DIPOL">      0.50000000      0.50000000      0.10000000</v>
 </incar>
 <primitive_cell>
  <structure name="primitive_cell" >
   <crystal>
    <varray name="basis" >
     <v>       0.01064425       2.08187646       0.00000000 </v>
     <v>       0.00000000       0.00000000     -40.00000000 </v>
     <v>      -2.38373414      -1.02820927       0.00000000 </v>
    </varray>
    <i name="volume">    198.06781897 </i>
    <varray name="rec_basis" >
     <v>      -0.20764792       0.48139756       0.00000000 </v>
     <v>       0.00000000       0.00000000      -0.02500000 </v>
     <v>      -0.42043710       0.00214962       0.00000000 </v>
    </varray>
   </crystal>
   <varray name="positions" >
    <v>       0.35771191       0.87767738       0.21529911 </v>
    <v>       0.64228809       0.92232262       0.78470089 </v>
    <v>       0.86649866       0.85258961       0.23280919 </v>
    <v>       0.13350134       0.94741039       0.76719081 </v>
   </varray>
  </structure>
  <varray name="primitive_index" >
   <v type="int" >        1 </v>
   <v type="int" >        6 </v>
   <v type="int" >       11 </v>
   <v type="int" >       16 </v>
  </varray>
 </primitive_cell>
 <kpoints>
  <generation param="Gamma">
   <v type="int" name="divisions">      16       97        1 </v>
   <v name="usershift">      0.00000000       0.00000000       0.00000000 </v>
   <v name="genvec1">      0.06250000       0.00000000       0.00000000 </v>
   <v name="genvec2">     -0.00000000       0.01030928       0.00000000 </v>
   <v name="genvec3">      0.00000000       0.00000000       1.00000000 </v>
   <v name="shift">      0.00000000       0.00000000       0.00000000 </v>
  </generation>
  <varray name="kpointlist" >
   <v>       0.00000000       0.00000000       0.00000000 </v>
   <v>       0.06250000       0.00000000       0.00000000 </v>
   <v>       0.12500000       0.00000000       0.00000000 </v>
   <v>       0.18750000       0.00000000       0.00000000 </v>
   <v>       0.25000000       0.00000000       0.00000000 </v>
   <v>       0.31250000       0.00000000       0.00000000 </v>
   <v>       0.37500000       0.00000000       0.00000000 </v>
   <v>       0.43750000       0.00000000       0.00000000 </v>
   <v>       0.50000000       0.00000000       0.00000000 </v>
   <v>       0.00000000       0.01030928       0.00000000 </v>
   <v>       0.06250000       0.01030928       0.00000000 </v>
   <v>       0.12500000       0.01030928       0.00000000 </v>
   <v>       0.18750000       0.01030928       0.00000000 </v>
   <v>       0.25000000       0.01030928       0.00000000 </v>
   <v>       0.31250000       0.01030928       0.00000000 </v>
   <v>       0.37500000       0.01030928       0.00000000 </v>
   <v>       0.43750000       0.01030928       0.00000000 </v>
   <v>       0.50000000       0.01030928       0.00000000 </v>
   <v>      -0.43750000       0.01030928       0.00000000 </v>
   <v>      -0.37500000       0.01030928       0.00000000 </v>
   <v>      -0.31250000       0.01030928       0.00000000 </v>
   <v>      -0.25000000       0.01030928       0.00000000 </v>
   <v>      -0.18750000       0.01030928       0.00000000 </v>
   <v>      -0.12500000       0.01030928       0.00000000 </v>
   <v>      -0.06250000       0.01030928       0.00000000 </v>
   <v>       0.00000000       0.02061856       0.00000000 </v>
   <v>       0.06250000       0.02061856       0.00000000 </v>
   <v>       0.12500000       0.02061856       0.00000000 </v>
   <v>       0.18750000       0.02061856       0.00000000 </v>
   <v>       0.25000000       0.02061856       0.00000000 </v>
   <v>       0.31250000       0.02061856       0.00000000 </v>
   <v>       0.37500000       0.02061856       0.00000000 </v>
   <v>       0.43750000       0.02061856       0.00000000 </v>
   <v>       0.50000000       0.02061856       0.00000000 </v>
   <v>      -0.43750000       0.02061856       0.00000000 </v>
   <v>      -0.37500000       0.02061856       0.00000000 </v>
   <v>      -0.31250000       0.02061856       0.00000000 </v>
   <v>      -0.25000000       0.02061856       0.00000000 </v>
   <v>      -0.18750000       0.02061856       0.00000000 </v>
   <v>      -0.12500000       0.02061856       0.00000000 </v>
   <v>      -0.06250000       0.02061856       0.00000000 </v>
   <v>       0.00000000       0.03092784       0.00000000 </v>
   <v>       0.06250000       0.03092784       0.00000000 </v>
   <v>       0.12500000       0.03092784       0.00000000 </v>
   <v>       0.18750000       0.03092784       0.00000000 </v>
   <v>       0.25000000       0.03092784       0.00000000 </v>
   <v>       0.31250000       0.03092784       0.00000000 </v>
   <v>       0.37500000       0.03092784       0.00000000 </v>
   <v>       0.43750000       0.03092784       0.00000000 </v>
   <v>       0.50000000       0.03092784       0.00000000 </v>
   <v>      -0.43750000       0.03092784       0.00000000 </v>
   <v>      -0.37500000       0.03092784       0.00000000 </v>
   <v>      -0.31250000       0.03092784       0.00000000 </v>
   <v>      -0.25000000       0.03092784       0.00000000 </v>
   <v>      -0.18750000       0.03092784       0.00000000 </v>
   <v>      -0.12500000       0.03092784       0.00000000 </v>
   <v>      -0.06250000       0.03092784       0.00000000 </v>
   <v>       0.00000000       0.04123711       0.00000000 </v>
   <v>       0.06250000       0.04123711       0.00000000 </v>
   <v>       0.12500000       0.04123711       0.00000000 </v>
   <v>       0.18750000       0.04123711       0.00000000 </v>
   <v>       0.25000000       0.04123711       0.00000000 </v>
   <v>       0.31250000       0.04123711       0.00000000 </v>
   <v>       0.37500000       0.04123711       0.00000000 </v>
   <v>       0.43750000       0.04123711       0.00000000 </v>
   <v>       0.50000000       0.04123711       0.00000000 </v>
   <v>      -0.43750000       0.04123711       0.00000000 </v>
   <v>      -0.37500000       0.04123711       0.00000000 </v>
   <v>      -0.31250000       0.04123711       0.00000000 </v>
   <v>      -0.25000000       0.04123711       0.00000000 </v>
   <v>      -0.18750000       0.04123711       0.00000000 </v>
   <v>      -0.12500000       0.04123711       0.00000000 </v>
   <v>      -0.06250000       0.04123711       0.00000000 </v>
   <v>       0.00000000       0.05154639       0.00000000 </v>
   <v>       0.06250000       0.05154639       0.00000000 </v>
   <v>       0.12500000       0.05154639       0.00000000 </v>
   <v>       0.18750000       0.05154639       0.00000000 </v>
   <v>       0.25000000       0.05154639       0.00000000 </v>
   <v>       0.31250000       0.05154639       0.00000000 </v>
   <v>       0.37500000       0.05154639       0.00000000 </v>
   <v>       0.43750000       0.05154639       0.00000000 </v>
   <v>       0.50000000       0.05154639       0.00000000 </v>
   <v>      -0.43750000       0.05154639       0.00000000 </v>
   <v>      -0.37500000       0.05154639       0.00000000 </v>
   <v>      -0.31250000       0.05154639       0.00000000 </v>
   <v>      -0.25000000       0.05154639       0.00000000 </v>
   <v>      -0.18750000       0.05154639       0.00000000 </v>
   <v>      -0.12500000       0.05154639       0.00000000 </v>
   <v>      -0.06250000       0.05154639       0.00000000 </v>
   <v>       0.00000000       0.06185567       0.00000000 </v>
   <v>       0.06250000       0.06185567       0.00000000 </v>
   <v>       0.12500000       0.06185567       0.00000000 </v>
   <v>       0.18750000       0.06185567       0.00000000 </v>
   <v>       0.25000000       0.06185567       0.00000000 </v>
   <v>       0.31250000       0.06185567       0.00000000 </v>
   <v>       0.37500000       0.06185567       0.00000000 </v>
   <v>       0.43750000       0.06185567       0.00000000 </v>
   <v>       0.50000000       0.06185567       0.00000000 </v>
   <v>      -0.43750000       0.06185567       0.00000000 </v>
   <v>      -0.37500000       0.06185567       0.00000000 </v>
   <v>      -0.31250000       0.06185567       0.00000000 </v>
   <v>      -0.25000000       0.06185567       0.00000000 </v>
   <v>      -0.18750000       0.06185567       0.00000000 </v>
   <v>      -0.12500000       0.06185567       0.00000000 </v>
   <v>      -0.06250000       0.06185567       0.00000000 </v>
   <v>       0.00000000       0.07216495       0.00000000 </v>
   <v>       0.06250000       0.07216495       0.00000000 </v>
   <v>       0.12500000       0.07216495       0.00000000 </v>
   <v>       0.18750000       0.07216495       0.00000000 </v>
   <v>       0.25000000       0.07216495       0.00000000 </v>
   <v>       0.31250000       0.07216495       0.00000000 </v>
   <v>       0.37500000       0.07216495       0.00000000 </v>
   <v>       0.43750000       0.07216495       0.00000000 </v>
   <v>       0.50000000       0.07216495       0.00000000 </v>
   <v>      -0.43750000       0.07216495       0.00000000 </v>
   <v>      -0.37500000       0.07216495       0.00000000 </v>
   <v>      -0.31250000       0.07216495       0.00000000 </v>
   <v>      -0.25000000       0.07216495       0.00000000 </v>
   <v>      -0.18750000       0.07216495       0.00000000 </v>
   <v>      -0.12500000       0.07216495       0.00000000 </v>
   <v>      -0.06250000       0.07216495       0.00000000 </v>
   <v>       0.00000000       0.08247423       0.00000000 </v>
   <v>       0.06250000       0.08247423       0.00000000 </v>
   <v>       0.12500000       0.08247423       0.00000000 </v>
   <v>       0.18750000       0.08247423       0.00000000 </v>
   <v>       0.25000000       0.08247423       0.00000000 </v>
   <v>       0.31250000       0.08247423       0.00000000 </v>
   <v>       0.37500000       0.08247423       0.00000000 </v>
   <v>       0.43750000       0.08247423       0.00000000 </v>
   <v>       0.50000000       0.08247423       0.00000000 </v>
   <v>      -0.43750000       0.08247423       0.00000000 </v>
   <v>      -0.37500000       0.08247423       0.00000000 </v>
   <v>      -0.31250000       0.08247423       0.00000000 </v>
   <v>      -0.25000000       0.08247423       0.00000000 </v>
   <v>      -0.18750000       0.08247423       0.00000000 </v>
   <v>      -0.12500000       0.08247423       0.00000000 </v>
   <v>      -0.06250000       0.08247423       0.00000000 </v>
   <v>       0.00000000       0.09278351       0.00000000 </v>
   <v>       0.06250000       0.09278351       0.00000000 </v>
   <v>       0.12500000       0.09278351       0.00000000 </v>
   <v>       0.18750000       0.09278351       0.00000000 </v>
   <v>       0.25000000       0.09278351       0.00000000 </v>
   <v>       0.31250000       0.09278351       0.00000000 </v>
   <v>       0.37500000       0.09278351       0.00000000 </v>
   <v>       0.43750000       0.09278351       0.00000000 </v>
   <v>       0.50000000       0.09278351       0.00000000 </v>
   <v>      -0.43750000       0.09278351       0.00000000 </v>
   <v>      -0.37500000       0.09278351       0.00000000 </v>
   <v>      -0.31250000       0.09278351       0.00000000 </v>
   <v>      -0.25000000       0.09278351       0.00000000 </v>
   <v>      -0.18750000       0.09278351       0.00000000 </v>
   <v>      -0.12500000       0.09278351       0.00000000 </v>
   <v>      -0.06250000       0.09278351       0.00000000 </v>
   <v>       0.00000000       0.10309278       0.00000000 </v>
   <v>       0.06250000       0.10309278       0.00000000 </v>
   <v>       0.12500000       0.10309278       0.00000000 </v>
   <v>       0.18750000       0.10309278       0.00000000 </v>
   <v>       0.25000000       0.10309278       0.00000000 </v>
   <v>       0.31250000       0.10309278       0.00000000 </v>
   <v>       0.37500000       0.10309278       0.00000000 </v>
   <v>       0.43750000       0.10309278       0.00000000 </v>
   <v>       0.50000000       0.10309278       0.00000000 </v>
   <v>      -0.43750000       0.10309278       0.00000000 </v>
   <v>      -0.37500000       0.10309278       0.00000000 </v>
   <v>      -0.31250000       0.10309278       0.00000000 </v>
   <v>      -0.25000000       0.10309278       0.00000000 </v>
   <v>      -0.18750000       0.10309278       0.00000000 </v>
   <v>      -0.12500000       0.10309278       0.00000000 </v>
   <v>      -0.06250000       0.10309278       0.00000000 </v>
   <v>       0.00000000       0.11340206       0.00000000 </v>
   <v>       0.06250000       0.11340206       0.00000000 </v>
   <v>       0.12500000       0.11340206       0.00000000 </v>
   <v>       0.18750000       0.11340206       0.00000000 </v>
   <v>       0.25000000       0.11340206       0.00000000 </v>
   <v>       0.31250000       0.11340206       0.00000000 </v>
   <v>       0.37500000       0.11340206       0.00000000 </v>
   <v>       0.43750000       0.11340206       0.00000000 </v>
   <v>       0.50000000       0.11340206       0.00000000 </v>
   <v>      -0.43750000       0.11340206       0.00000000 </v>
   <v>      -0.37500000       0.11340206       0.00000000 </v>
   <v>      -0.31250000       0.11340206       0.00000000 </v>
   <v>      -0.25000000       0.11340206       0.00000000 </v>
   <v>      -0.18750000       0.11340206       0.00000000 </v>
   <v>      -0.12500000       0.11340206       0.00000000 </v>
   <v>      -0.06250000       0.11340206       0.00000000 </v>
   <v>       0.00000000       0.12371134       0.00000000 </v>
   <v>       0.06250000       0.12371134       0.00000000 </v>
   <v>       0.12500000       0.12371134       0.00000000 </v>
   <v>       0.18750000       0.12371134       0.00000000 </v>
   <v>       0.25000000       0.12371134       0.00000000 </v>
   <v>       0.31250000       0.12371134       0.00000000 </v>
   <v>       0.37500000       0.12371134       0.00000000 </v>
   <v>       0.43750000       0.12371134       0.00000000 </v>
   <v>       0.50000000       0.12371134       0.00000000 </v>
   <v>      -0.43750000       0.12371134       0.00000000 </v>
   <v>      -0.37500000       0.12371134       0.00000000 </v>
   <v>      -0.31250000       0.12371134       0.00000000 </v>
   <v>      -0.25000000       0.12371134       0.00000000 </v>
   <v>      -0.18750000       0.12371134       0.00000000 </v>
   <v>      -0.12500000       0.12371134       0.00000000 </v>
   <v>      -0.06250000       0.12371134       0.00000000 </v>
   <v>       0.00000000       0.13402062       0.00000000 </v>
   <v>       0.06250000       0.13402062       0.00000000 </v>
   <v>       0.12500000       0.13402062       0.00000000 </v>
   <v>       0.18750000       0.13402062       0.00000000 </v>
   <v>       0.25000000       0.13402062       0.00000000 </v>
   <v>       0.31250000       0.13402062       0.00000000 </v>
   <v>       0.37500000       0.13402062       0.00000000 </v>
   <v>       0.43750000       0.13402062       0.00000000 </v>
   <v>       0.50000000       0.13402062       0.00000000 </v>
   <v>      -0.43750000       0.13402062       0.00000000 </v>
   <v>      -0.37500000       0.13402062       0.00000000 </v>
   <v>      -0.31250000       0.13402062       0.00000000 </v>
   <v>      -0.25000000       0.13402062       0.00000000 </v>
   <v>      -0.18750000       0.13402062       0.00000000 </v>
   <v>      -0.12500000       0.13402062       0.00000000 </v>
   <v>      -0.06250000       0.13402062       0.00000000 </v>
   <v>       0.00000000       0.14432990       0.00000000 </v>
   <v>       0.06250000       0.14432990       0.00000000 </v>
   <v>       0.12500000       0.14432990       0.00000000 </v>
   <v>       0.18750000       0.14432990       0.00000000 </v>
   <v>       0.25000000       0.14432990       0.00000000 </v>
   <v>       0.31250000       0.14432990       0.00000000 </v>
   <v>       0.37500000       0.14432990       0.00000000 </v>
   <v>       0.43750000       0.14432990       0.00000000 </v>
   <v>       0.50000000       0.14432990       0.00000000 </v>
   <v>      -0.43750000       0.14432990       0.00000000 </v>
   <v>      -0.37500000       0.14432990       0.00000000 </v>
   <v>      -0.31250000       0.14432990       0.00000000 </v>
   <v>      -0.25000000       0.14432990       0.00000000 </v>
   <v>      -0.18750000       0.14432990       0.00000000 </v>
   <v>      -0.12500000       0.14432990       0.00000000 </v>
   <v>      -0.06250000       0.14432990       0.00000000 </v>
   <v>       0.00000000       0.15463918       0.00000000 </v>
   <v>       0.06250000       0.15463918       0.00000000 </v>
   <v>       0.12500000       0.15463918       0.00000000 </v>
   <v>       0.18750000       0.15463918       0.00000000 </v>
   <v>       0.25000000       0.15463918       0.00000000 </v>
   <v>       0.31250000       0.15463918       0.00000000 </v>
   <v>       0.37500000       0.15463918       0.00000000 </v>
   <v>       0.43750000       0.15463918       0.00000000 </v>
   <v>       0.50000000       0.15463918       0.00000000 </v>
   <v>      -0.43750000       0.15463918       0.00000000 </v>
   <v>      -0.37500000       0.15463918       0.00000000 </v>
   <v>      -0.31250000       0.15463918       0.00000000 </v>
   <v>      -0.25000000       0.15463918       0.00000000 </v>
   <v>      -0.18750000       0.15463918       0.00000000 </v>
   <v>      -0.12500000       0.15463918       0.00000000 </v>
   <v>      -0.06250000       0.15463918       0.00000000 </v>
   <v>       0.00000000       0.16494845       0.00000000 </v>
   <v>       0.06250000       0.16494845       0.00000000 </v>
   <v>       0.12500000       0.16494845       0.00000000 </v>
   <v>       0.18750000       0.16494845       0.00000000 </v>
   <v>       0.25000000       0.16494845       0.00000000 </v>
   <v>       0.31250000       0.16494845       0.00000000 </v>
   <v>       0.37500000       0.16494845       0.00000000 </v>
   <v>       0.43750000       0.16494845       0.00000000 </v>
   <v>       0.50000000       0.16494845       0.00000000 </v>
   <v>      -0.43750000       0.16494845       0.00000000 </v>
   <v>      -0.37500000       0.16494845       0.00000000 </v>
   <v>      -0.31250000       0.16494845       0.00000000 </v>
   <v>      -0.25000000       0.16494845       0.00000000 </v>
   <v>      -0.18750000       0.16494845       0.00000000 </v>
   <v>      -0.12500000       0.16494845       0.00000000 </v>
   <v>      -0.06250000       0.16494845       0.00000000 </v>
   <v>       0.00000000       0.17525773       0.00000000 </v>
   <v>       0.06250000       0.17525773       0.00000000 </v>
   <v>       0.12500000       0.17525773       0.00000000 </v>
   <v>       0.18750000       0.17525773       0.00000000 </v>
   <v>       0.25000000       0.17525773       0.00000000 </v>
   <v>       0.31250000       0.17525773       0.00000000 </v>
   <v>       0.37500000       0.17525773       0.00000000 </v>
   <v>       0.43750000       0.17525773       0.00000000 </v>
   <v>       0.50000000       0.17525773       0.00000000 </v>
   <v>      -0.43750000       0.17525773       0.00000000 </v>
   <v>      -0.37500000       0.17525773       0.00000000 </v>
   <v>      -0.31250000       0.17525773       0.00000000 </v>
   <v>      -0.25000000       0.17525773       0.00000000 </v>
   <v>      -0.18750000       0.17525773       0.00000000 </v>
   <v>      -0.12500000       0.17525773       0.00000000 </v>
   <v>      -0.06250000       0.17525773       0.00000000 </v>
   <v>       0.00000000       0.18556701       0.00000000 </v>
   <v>       0.06250000       0.18556701       0.00000000 </v>
   <v>       0.12500000       0.18556701       0.00000000 </v>
   <v>       0.18750000       0.18556701       0.00000000 </v>
   <v>       0.25000000       0.18556701       0.00000000 </v>
   <v>       0.31250000       0.18556701       0.00000000 </v>
   <v>       0.37500000       0.18556701       0.00000000 </v>
   <v>       0.43750000       0.18556701       0.00000000 </v>
   <v>       0.50000000       0.18556701       0.00000000 </v>
   <v>      -0.43750000       0.18556701       0.00000000 </v>
   <v>      -0.37500000       0.18556701       0.00000000 </v>
   <v>      -0.31250000       0.18556701       0.00000000 </v>
   <v>      -0.25000000       0.18556701       0.00000000 </v>
   <v>      -0.18750000       0.18556701       0.00000000 </v>
   <v>      -0.12500000       0.18556701       0.00000000 </v>
   <v>      -0.06250000       0.18556701       0.00000000 </v>
   <v>       0.00000000       0.19587629       0.00000000 </v>
   <v>       0.06250000       0.19587629       0.00000000 </v>
   <v>       0.12500000       0.19587629       0.00000000 </v>
   <v>       0.18750000       0.19587629       0.00000000 </v>
   <v>       0.25000000       0.19587629       0.00000000 </v>
   <v>       0.31250000       0.19587629       0.00000000 </v>
   <v>       0.37500000       0.19587629       0.00000000 </v>
   <v>       0.43750000       0.19587629       0.00000000 </v>
   <v>       0.50000000       0.19587629       0.00000000 </v>
   <v>      -0.43750000       0.19587629       0.00000000 </v>
   <v>      -0.37500000       0.19587629       0.00000000 </v>
   <v>      -0.31250000       0.19587629       0.00000000 </v>
   <v>      -0.25000000       0.19587629       0.00000000 </v>
   <v>      -0.18750000       0.19587629       0.00000000 </v>
   <v>      -0.12500000       0.19587629       0.00000000 </v>
   <v>      -0.06250000       0.19587629       0.00000000 </v>
   <v>       0.00000000       0.20618557       0.00000000 </v>
   <v>       0.06250000       0.20618557       0.00000000 </v>
   <v>       0.12500000       0.20618557       0.00000000 </v>
   <v>       0.18750000       0.20618557       0.00000000 </v>
   <v>       0.25000000       0.20618557       0.00000000 </v>
   <v>       0.31250000       0.20618557       0.00000000 </v>
   <v>       0.37500000       0.20618557       0.00000000 </v>
   <v>       0.43750000       0.20618557       0.00000000 </v>
   <v>       0.50000000       0.20618557       0.00000000 </v>
   <v>      -0.43750000       0.20618557       0.00000000 </v>
   <v>      -0.37500000       0.20618557       0.00000000 </v>
   <v>      -0.31250000       0.20618557       0.00000000 </v>
   <v>      -0.25000000       0.20618557       0.00000000 </v>
   <v>      -0.18750000       0.20618557       0.00000000 </v>
   <v>      -0.12500000       0.20618557       0.00000000 </v>
   <v>      -0.06250000       0.20618557       0.00000000 </v>
   <v>       0.00000000       0.21649485       0.00000000 </v>
   <v>       0.06250000       0.21649485       0.00000000 </v>
   <v>       0.12500000       0.21649485       0.00000000 </v>
   <v>       0.18750000       0.21649485       0.00000000 </v>
   <v>       0.25000000       0.21649485       0.00000000 </v>
   <v>       0.31250000       0.21649485       0.00000000 </v>
   <v>       0.37500000       0.21649485       0.00000000 </v>
   <v>       0.43750000       0.21649485       0.00000000 </v>
   <v>       0.50000000       0.21649485       0.00000000 </v>
   <v>      -0.43750000       0.21649485       0.00000000 </v>
   <v>      -0.37500000       0.21649485       0.00000000 </v>
   <v>      -0.31250000       0.21649485       0.00000000 </v>
   <v>      -0.25000000       0.21649485       0.00000000 </v>
   <v>      -0.18750000       0.21649485       0.00000000 </v>
   <v>      -0.12500000       0.21649485       0.00000000 </v>
   <v>      -0.06250000       0.21649485       0.00000000 </v>
   <v>       0.00000000       0.22680412       0.00000000 </v>
   <v>       0.06250000       0.22680412       0.00000000 </v>
   <v>       0.12500000       0.22680412       0.00000000 </v>
   <v>       0.18750000       0.22680412       0.00000000 </v>
   <v>       0.25000000       0.22680412       0.00000000 </v>
   <v>       0.31250000       0.22680412       0.00000000 </v>
   <v>       0.37500000       0.22680412       0.00000000 </v>
   <v>       0.43750000       0.22680412       0.00000000 </v>
   <v>       0.50000000       0.22680412       0.00000000 </v>
   <v>      -0.43750000       0.22680412       0.00000000 </v>
   <v>      -0.37500000       0.22680412       0.00000000 </v>
   <v>      -0.31250000       0.22680412       0.00000000 </v>
   <v>      -0.25000000       0.22680412       0.00000000 </v>
   <v>      -0.18750000       0.22680412       0.00000000 </v>
   <v>      -0.12500000       0.22680412       0.00000000 </v>
   <v>      -0.06250000       0.22680412       0.00000000 </v>
   <v>       0.00000000       0.23711340       0.00000000 </v>
   <v>       0.06250000       0.23711340       0.00000000 </v>
   <v>       0.12500000       0.23711340       0.00000000 </v>
   <v>       0.18750000       0.23711340       0.00000000 </v>
   <v>       0.25000000       0.23711340       0.00000000 </v>
   <v>       0.31250000       0.23711340       0.00000000 </v>
   <v>       0.37500000       0.23711340       0.00000000 </v>
   <v>       0.43750000       0.23711340       0.00000000 </v>
   <v>       0.50000000       0.23711340       0.00000000 </v>
   <v>      -0.43750000       0.23711340       0.00000000 </v>
   <v>      -0.37500000       0.23711340       0.00000000 </v>
   <v>      -0.31250000       0.23711340       0.00000000 </v>
   <v>      -0.25000000       0.23711340       0.00000000 </v>
   <v>      -0.18750000       0.23711340       0.00000000 </v>
   <v>      -0.12500000       0.23711340       0.00000000 </v>
   <v>      -0.06250000       0.23711340       0.00000000 </v>
   <v>       0.00000000       0.24742268       0.00000000 </v>
   <v>       0.06250000       0.24742268       0.00000000 </v>
   <v>       0.12500000       0.24742268       0.00000000 </v>
   <v>       0.18750000       0.24742268       0.00000000 </v>
   <v>       0.25000000       0.24742268       0.00000000 </v>
   <v>       0.31250000       0.24742268       0.00000000 </v>
   <v>       0.37500000       0.24742268       0.00000000 </v>
   <v>       0.43750000       0.24742268       0.00000000 </v>
   <v>       0.50000000       0.24742268       0.00000000 </v>
   <v>      -0.43750000       0.24742268       0.00000000 </v>
   <v>      -0.37500000       0.24742268       0.00000000 </v>
   <v>      -0.31250000       0.24742268       0.00000000 </v>
   <v>      -0.25000000       0.24742268       0.00000000 </v>
   <v>      -0.18750000       0.24742268       0.00000000 </v>
   <v>      -0.12500000       0.24742268       0.00000000 </v>
   <v>      -0.06250000       0.24742268       0.00000000 </v>
   <v>       0.00000000       0.25773196       0.00000000 </v>
   <v>       0.06250000       0.25773196       0.00000000 </v>
   <v>       0.12500000       0.25773196       0.00000000 </v>
   <v>       0.18750000       0.25773196       0.00000000 </v>
   <v>       0.25000000       0.25773196       0.00000000 </v>
   <v>       0.31250000       0.25773196       0.00000000 </v>
   <v>       0.37500000       0.25773196       0.00000000 </v>
   <v>       0.43750000       0.25773196       0.00000000 </v>
   <v>       0.50000000       0.25773196       0.00000000 </v>
   <v>      -0.43750000       0.25773196       0.00000000 </v>
   <v>      -0.37500000       0.25773196       0.00000000 </v>
   <v>      -0.31250000       0.25773196       0.00000000 </v>
   <v>      -0.25000000       0.25773196       0.00000000 </v>
   <v>      -0.18750000       0.25773196       0.00000000 </v>
   <v>      -0.12500000       0.25773196       0.00000000 </v>
   <v>      -0.06250000       0.25773196       0.00000000 </v>
   <v>       0.00000000       0.26804124       0.00000000 </v>
   <v>       0.06250000       0.26804124       0.00000000 </v>
   <v>       0.12500000       0.26804124       0.00000000 </v>
   <v>       0.18750000       0.26804124       0.00000000 </v>
   <v>       0.25000000       0.26804124       0.00000000 </v>
   <v>       0.31250000       0.26804124       0.00000000 </v>
   <v>       0.37500000       0.26804124       0.00000000 </v>
   <v>       0.43750000       0.26804124       0.00000000 </v>
   <v>       0.50000000       0.26804124       0.00000000 </v>
   <v>      -0.43750000       0.26804124       0.00000000 </v>
   <v>      -0.37500000       0.26804124       0.00000000 </v>
   <v>      -0.31250000       0.26804124       0.00000000 </v>
   <v>      -0.25000000       0.26804124       0.00000000 </v>
   <v>      -0.18750000       0.26804124       0.00000000 </v>
   <v>      -0.12500000       0.26804124       0.00000000 </v>
   <v>      -0.06250000       0.26804124       0.00000000 </v>
   <v>       0.00000000       0.27835052       0.00000000 </v>
   <v>       0.06250000       0.27835052       0.00000000 </v>
   <v>       0.12500000       0.27835052       0.00000000 </v>
   <v>       0.18750000       0.27835052       0.00000000 </v>
   <v>       0.25000000       0.27835052       0.00000000 </v>
   <v>       0.31250000       0.27835052       0.00000000 </v>
   <v>       0.37500000       0.27835052       0.00000000 </v>
   <v>       0.43750000       0.27835052       0.00000000 </v>
   <v>       0.50000000       0.27835052       0.00000000 </v>
   <v>      -0.43750000       0.27835052       0.00000000 </v>
   <v>      -0.37500000       0.27835052       0.00000000 </v>
   <v>      -0.31250000       0.27835052       0.00000000 </v>
   <v>      -0.25000000       0.27835052       0.00000000 </v>
   <v>      -0.18750000       0.27835052       0.00000000 </v>
   <v>      -0.12500000       0.27835052       0.00000000 </v>
   <v>      -0.06250000       0.27835052       0.00000000 </v>
   <v>       0.00000000       0.28865979       0.00000000 </v>
   <v>       0.06250000       0.28865979       0.00000000 </v>
   <v>       0.12500000       0.28865979       0.00000000 </v>
   <v>       0.18750000       0.28865979       0.00000000 </v>
   <v>       0.25000000       0.28865979       0.00000000 </v>
   <v>       0.31250000       0.28865979       0.00000000 </v>
   <v>       0.37500000       0.28865979       0.00000000 </v>
   <v>       0.43750000       0.28865979       0.00000000 </v>
   <v>       0.50000000       0.28865979       0.00000000 </v>
   <v>      -0.43750000       0.28865979       0.00000000 </v>
   <v>      -0.37500000       0.28865979       0.00000000 </v>
   <v>      -0.31250000       0.28865979       0.00000000 </v>
   <v>      -0.25000000       0.28865979       0.00000000 </v>
   <v>      -0.18750000       0.28865979       0.00000000 </v>
   <v>      -0.12500000       0.28865979       0.00000000 </v>
   <v>      -0.06250000       0.28865979       0.00000000 </v>
   <v>       0.00000000       0.29896907       0.00000000 </v>
   <v>       0.06250000       0.29896907       0.00000000 </v>
   <v>       0.12500000       0.29896907       0.00000000 </v>
   <v>       0.18750000       0.29896907       0.00000000 </v>
   <v>       0.25000000       0.29896907       0.00000000 </v>
   <v>       0.31250000       0.29896907       0.00000000 </v>
   <v>       0.37500000       0.29896907       0.00000000 </v>
   <v>       0.43750000       0.29896907       0.00000000 </v>
   <v>       0.50000000       0.29896907       0.00000000 </v>
   <v>      -0.43750000       0.29896907       0.00000000 </v>
   <v>      -0.37500000       0.29896907       0.00000000 </v>
   <v>      -0.31250000       0.29896907       0.00000000 </v>
   <v>      -0.25000000       0.29896907       0.00000000 </v>
   <v>      -0.18750000       0.29896907       0.00000000 </v>
   <v>      -0.12500000       0.29896907       0.00000000 </v>
   <v>      -0.06250000       0.29896907       0.00000000 </v>
   <v>       0.00000000       0.30927835       0.00000000 </v>
   <v>       0.06250000       0.30927835       0.00000000 </v>
   <v>       0.12500000       0.30927835       0.00000000 </v>
   <v>       0.18750000       0.30927835       0.00000000 </v>
   <v>       0.25000000       0.30927835       0.00000000 </v>
   <v>       0.31250000       0.30927835       0.00000000 </v>
   <v>       0.37500000       0.30927835       0.00000000 </v>
   <v>       0.43750000       0.30927835       0.00000000 </v>
   <v>       0.50000000       0.30927835       0.00000000 </v>
   <v>      -0.43750000       0.30927835       0.00000000 </v>
   <v>      -0.37500000       0.30927835       0.00000000 </v>
   <v>      -0.31250000       0.30927835       0.00000000 </v>
   <v>      -0.25000000       0.30927835       0.00000000 </v>
   <v>      -0.18750000       0.30927835       0.00000000 </v>
   <v>      -0.12500000       0.30927835       0.00000000 </v>
   <v>      -0.06250000       0.30927835       0.00000000 </v>
   <v>       0.00000000       0.31958763       0.00000000 </v>
   <v>       0.06250000       0.31958763       0.00000000 </v>
   <v>       0.12500000       0.31958763       0.00000000 </v>
   <v>       0.18750000       0.31958763       0.00000000 </v>
   <v>       0.25000000       0.31958763       0.00000000 </v>
   <v>       0.31250000       0.31958763       0.00000000 </v>
   <v>       0.37500000       0.31958763       0.00000000 </v>
   <v>       0.43750000       0.31958763       0.00000000 </v>
   <v>       0.50000000       0.31958763       0.00000000 </v>
   <v>      -0.43750000       0.31958763       0.00000000 </v>
   <v>      -0.37500000       0.31958763       0.00000000 </v>
   <v>      -0.31250000       0.31958763       0.00000000 </v>
   <v>      -0.25000000       0.31958763       0.00000000 </v>
   <v>      -0.18750000       0.31958763       0.00000000 </v>
   <v>      -0.12500000       0.31958763       0.00000000 </v>
   <v>      -0.06250000       0.31958763       0.00000000 </v>
   <v>       0.00000000       0.32989691       0.00000000 </v>
   <v>       0.06250000       0.32989691       0.00000000 </v>
   <v>       0.12500000       0.32989691       0.00000000 </v>
   <v>       0.18750000       0.32989691       0.00000000 </v>
   <v>       0.25000000       0.32989691       0.00000000 </v>
   <v>       0.31250000       0.32989691       0.00000000 </v>
   <v>       0.37500000       0.32989691       0.00000000 </v>
   <v>       0.43750000       0.32989691       0.00000000 </v>
   <v>       0.50000000       0.32989691       0.00000000 </v>
   <v>      -0.43750000       0.32989691       0.00000000 </v>
   <v>      -0.37500000       0.32989691       0.00000000 </v>
   <v>      -0.31250000       0.32989691       0.00000000 </v>
   <v>      -0.25000000       0.32989691       0.00000000 </v>
   <v>      -0.18750000       0.32989691       0.00000000 </v>
   <v>      -0.12500000       0.32989691       0.00000000 </v>
   <v>      -0.06250000       0.32989691       0.00000000 </v>
   <v>       0.00000000       0.34020619       0.00000000 </v>
   <v>       0.06250000       0.34020619       0.00000000 </v>
   <v>       0.12500000       0.34020619       0.00000000 </v>
   <v>       0.18750000       0.34020619       0.00000000 </v>
   <v>       0.25000000       0.34020619       0.00000000 </v>
   <v>       0.31250000       0.34020619       0.00000000 </v>
   <v>       0.37500000       0.34020619       0.00000000 </v>
   <v>       0.43750000       0.34020619       0.00000000 </v>
   <v>       0.50000000       0.34020619       0.00000000 </v>
   <v>      -0.43750000       0.34020619       0.00000000 </v>
   <v>      -0.37500000       0.34020619       0.00000000 </v>
   <v>      -0.31250000       0.34020619       0.00000000 </v>
   <v>      -0.25000000       0.34020619       0.00000000 </v>
   <v>      -0.18750000       0.34020619       0.00000000 </v>
   <v>      -0.12500000       0.34020619       0.00000000 </v>
   <v>      -0.06250000       0.34020619       0.00000000 </v>
   <v>       0.00000000       0.35051546       0.00000000 </v>
   <v>       0.06250000       0.35051546       0.00000000 </v>
   <v>       0.12500000       0.35051546       0.00000000 </v>
   <v>       0.18750000       0.35051546       0.00000000 </v>
   <v>       0.25000000       0.35051546       0.00000000 </v>
   <v>       0.31250000       0.35051546       0.00000000 </v>
   <v>       0.37500000       0.35051546       0.00000000 </v>
   <v>       0.43750000       0.35051546       0.00000000 </v>
   <v>       0.50000000       0.35051546       0.00000000 </v>
   <v>      -0.43750000       0.35051546       0.00000000 </v>
   <v>      -0.37500000       0.35051546       0.00000000 </v>
   <v>      -0.31250000       0.35051546       0.00000000 </v>
   <v>      -0.25000000       0.35051546       0.00000000 </v>
   <v>      -0.18750000       0.35051546       0.00000000 </v>
   <v>      -0.12500000       0.35051546       0.00000000 </v>
   <v>      -0.06250000       0.35051546       0.00000000 </v>
   <v>       0.00000000       0.36082474       0.00000000 </v>
   <v>       0.06250000       0.36082474       0.00000000 </v>
   <v>       0.12500000       0.36082474       0.00000000 </v>
   <v>       0.18750000       0.36082474       0.00000000 </v>
   <v>       0.25000000       0.36082474       0.00000000 </v>
   <v>       0.31250000       0.36082474       0.00000000 </v>
   <v>       0.37500000       0.36082474       0.00000000 </v>
   <v>       0.43750000       0.36082474       0.00000000 </v>
   <v>       0.50000000       0.36082474       0.00000000 </v>
   <v>      -0.43750000       0.36082474       0.00000000 </v>
   <v>      -0.37500000       0.36082474       0.00000000 </v>
   <v>      -0.31250000       0.36082474       0.00000000 </v>
   <v>      -0.25000000       0.36082474       0.00000000 </v>
   <v>      -0.18750000       0.36082474       0.00000000 </v>
   <v>      -0.12500000       0.36082474       0.00000000 </v>
   <v>      -0.06250000       0.36082474       0.00000000 </v>
   <v>       0.00000000       0.37113402       0.00000000 </v>
   <v>       0.06250000       0.37113402       0.00000000 </v>
   <v>       0.12500000       0.37113402       0.00000000 </v>
   <v>       0.18750000       0.37113402       0.00000000 </v>
   <v>       0.25000000       0.37113402       0.00000000 </v>
   <v>       0.31250000       0.37113402       0.00000000 </v>
   <v>       0.37500000       0.37113402       0.00000000 </v>
   <v>       0.43750000       0.37113402       0.00000000 </v>
   <v>       0.50000000       0.37113402       0.00000000 </v>
   <v>      -0.43750000       0.37113402       0.00000000 </v>
   <v>      -0.37500000       0.37113402       0.00000000 </v>
   <v>      -0.31250000       0.37113402       0.00000000 </v>
   <v>      -0.25000000       0.37113402       0.00000000 </v>
   <v>      -0.18750000       0.37113402       0.00000000 </v>
   <v>      -0.12500000       0.37113402       0.00000000 </v>
   <v>      -0.06250000       0.37113402       0.00000000 </v>
   <v>       0.00000000       0.38144330       0.00000000 </v>
   <v>       0.06250000       0.38144330       0.00000000 </v>
   <v>       0.12500000       0.38144330       0.00000000 </v>
   <v>       0.18750000       0.38144330       0.00000000 </v>
   <v>       0.25000000       0.38144330       0.00000000 </v>
   <v>       0.31250000       0.38144330       0.00000000 </v>
   <v>       0.37500000       0.38144330       0.00000000 </v>
   <v>       0.43750000       0.38144330       0.00000000 </v>
   <v>       0.50000000       0.38144330       0.00000000 </v>
   <v>      -0.43750000       0.38144330       0.00000000 </v>
   <v>      -0.37500000       0.38144330       0.00000000 </v>
   <v>      -0.31250000       0.38144330       0.00000000 </v>
   <v>      -0.25000000       0.38144330       0.00000000 </v>
   <v>      -0.18750000       0.38144330       0.00000000 </v>
   <v>      -0.12500000       0.38144330       0.00000000 </v>
   <v>      -0.06250000       0.38144330       0.00000000 </v>
   <v>       0.00000000       0.39175258       0.00000000 </v>
   <v>       0.06250000       0.39175258       0.00000000 </v>
   <v>       0.12500000       0.39175258       0.00000000 </v>
   <v>       0.18750000       0.39175258       0.00000000 </v>
   <v>       0.25000000       0.39175258       0.00000000 </v>
   <v>       0.31250000       0.39175258       0.00000000 </v>
   <v>       0.37500000       0.39175258       0.00000000 </v>
   <v>       0.43750000       0.39175258       0.00000000 </v>
   <v>       0.50000000       0.39175258       0.00000000 </v>
   <v>      -0.43750000       0.39175258       0.00000000 </v>
   <v>      -0.37500000       0.39175258       0.00000000 </v>
   <v>      -0.31250000       0.39175258       0.00000000 </v>
   <v>      -0.25000000       0.39175258       0.00000000 </v>
   <v>      -0.18750000       0.39175258       0.00000000 </v>
   <v>      -0.12500000       0.39175258       0.00000000 </v>
   <v>      -0.06250000       0.39175258       0.00000000 </v>
   <v>       0.00000000       0.40206186       0.00000000 </v>
   <v>       0.06250000       0.40206186       0.00000000 </v>
   <v>       0.12500000       0.40206186       0.00000000 </v>
   <v>       0.18750000       0.40206186       0.00000000 </v>
   <v>       0.25000000       0.40206186       0.00000000 </v>
   <v>       0.31250000       0.40206186       0.00000000 </v>
   <v>       0.37500000       0.40206186       0.00000000 </v>
   <v>       0.43750000       0.40206186       0.00000000 </v>
   <v>       0.50000000       0.40206186       0.00000000 </v>
   <v>      -0.43750000       0.40206186       0.00000000 </v>
   <v>      -0.37500000       0.40206186       0.00000000 </v>
   <v>      -0.31250000       0.40206186       0.00000000 </v>
   <v>      -0.25000000       0.40206186       0.00000000 </v>
   <v>      -0.18750000       0.40206186       0.00000000 </v>
   <v>      -0.12500000       0.40206186       0.00000000 </v>
   <v>      -0.06250000       0.40206186       0.00000000 </v>
   <v>       0.00000000       0.41237113       0.00000000 </v>
   <v>       0.06250000       0.41237113       0.00000000 </v>
   <v>       0.12500000       0.41237113       0.00000000 </v>
   <v>       0.18750000       0.41237113       0.00000000 </v>
   <v>       0.25000000       0.41237113       0.00000000 </v>
   <v>       0.31250000       0.41237113       0.00000000 </v>
   <v>       0.37500000       0.41237113       0.00000000 </v>
   <v>       0.43750000       0.41237113       0.00000000 </v>
   <v>       0.50000000       0.41237113       0.00000000 </v>
   <v>      -0.43750000       0.41237113       0.00000000 </v>
   <v>      -0.37500000       0.41237113       0.00000000 </v>
   <v>      -0.31250000       0.41237113       0.00000000 </v>
   <v>      -0.25000000       0.41237113       0.00000000 </v>
   <v>      -0.18750000       0.41237113       0.00000000 </v>
   <v>      -0.12500000       0.41237113       0.00000000 </v>
   <v>      -0.06250000       0.41237113       0.00000000 </v>
   <v>       0.00000000       0.42268041       0.00000000 </v>
   <v>       0.06250000       0.42268041       0.00000000 </v>
   <v>       0.12500000       0.42268041       0.00000000 </v>
   <v>       0.18750000       0.42268041       0.00000000 </v>
   <v>       0.25000000       0.42268041       0.00000000 </v>
   <v>       0.31250000       0.42268041       0.00000000 </v>
   <v>       0.37500000       0.42268041       0.00000000 </v>
   <v>       0.43750000       0.42268041       0.00000000 </v>
   <v>       0.50000000       0.42268041       0.00000000 </v>
   <v>      -0.43750000       0.42268041       0.00000000 </v>
   <v>      -0.37500000       0.42268041       0.00000000 </v>
   <v>      -0.31250000       0.42268041       0.00000000 </v>
   <v>      -0.25000000       0.42268041       0.00000000 </v>
   <v>      -0.18750000       0.42268041       0.00000000 </v>
   <v>      -0.12500000       0.42268041       0.00000000 </v>
   <v>      -0.06250000       0.42268041       0.00000000 </v>
   <v>       0.00000000       0.43298969       0.00000000 </v>
   <v>       0.06250000       0.43298969       0.00000000 </v>
   <v>       0.12500000       0.43298969       0.00000000 </v>
   <v>       0.18750000       0.43298969       0.00000000 </v>
   <v>       0.25000000       0.43298969       0.00000000 </v>
   <v>       0.31250000       0.43298969       0.00000000 </v>
   <v>       0.37500000       0.43298969       0.00000000 </v>
   <v>       0.43750000       0.43298969       0.00000000 </v>
   <v>       0.50000000       0.43298969       0.00000000 </v>
   <v>      -0.43750000       0.43298969       0.00000000 </v>
   <v>      -0.37500000       0.43298969       0.00000000 </v>
   <v>      -0.31250000       0.43298969       0.00000000 </v>
   <v>      -0.25000000       0.43298969       0.00000000 </v>
   <v>      -0.18750000       0.43298969       0.00000000 </v>
   <v>      -0.12500000       0.43298969       0.00000000 </v>
   <v>      -0.06250000       0.43298969       0.00000000 </v>
   <v>       0.00000000       0.44329897       0.00000000 </v>
   <v>       0.06250000       0.44329897       0.00000000 </v>
   <v>       0.12500000       0.44329897       0.00000000 </v>
   <v>       0.18750000       0.44329897       0.00000000 </v>
   <v>       0.25000000       0.44329897       0.00000000 </v>
   <v>       0.31250000       0.44329897       0.00000000 </v>
   <v>       0.37500000       0.44329897       0.00000000 </v>
   <v>       0.43750000       0.44329897       0.00000000 </v>
   <v>       0.50000000       0.44329897       0.00000000 </v>
   <v>      -0.43750000       0.44329897       0.00000000 </v>
   <v>      -0.37500000       0.44329897       0.00000000 </v>
   <v>      -0.31250000       0.44329897       0.00000000 </v>
   <v>      -0.25000000       0.44329897       0.00000000 </v>
   <v>      -0.18750000       0.44329897       0.00000000 </v>
   <v>      -0.12500000       0.44329897       0.00000000 </v>
   <v>      -0.06250000       0.44329897       0.00000000 </v>
   <v>       0.00000000       0.45360825       0.00000000 </v>
   <v>       0.06250000       0.45360825       0.00000000 </v>
   <v>       0.12500000       0.45360825       0.00000000 </v>
   <v>       0.18750000       0.45360825       0.00000000 </v>
   <v>       0.25000000       0.45360825       0.00000000 </v>
   <v>       0.31250000       0.45360825       0.00000000 </v>
   <v>       0.37500000       0.45360825       0.00000000 </v>
   <v>       0.43750000       0.45360825       0.00000000 </v>
   <v>       0.50000000       0.45360825       0.00000000 </v>
   <v>      -0.43750000       0.45360825       0.00000000 </v>
   <v>      -0.37500000       0.45360825       0.00000000 </v>
   <v>      -0.31250000       0.45360825       0.00000000 </v>
   <v>      -0.25000000       0.45360825       0.00000000 </v>
   <v>      -0.18750000       0.45360825       0.00000000 </v>
   <v>      -0.12500000       0.45360825       0.00000000 </v>
   <v>      -0.06250000       0.45360825       0.00000000 </v>
   <v>       0.00000000       0.46391753       0.00000000 </v>
   <v>       0.06250000       0.46391753       0.00000000 </v>
   <v>       0.12500000       0.46391753       0.00000000 </v>
   <v>       0.18750000       0.46391753       0.00000000 </v>
   <v>       0.25000000       0.46391753       0.00000000 </v>
   <v>       0.31250000       0.46391753       0.00000000 </v>
   <v>       0.37500000       0.46391753       0.00000000 </v>
   <v>       0.43750000       0.46391753       0.00000000 </v>
   <v>       0.50000000       0.46391753       0.00000000 </v>
   <v>      -0.43750000       0.46391753       0.00000000 </v>
   <v>      -0.37500000       0.46391753       0.00000000 </v>
   <v>      -0.31250000       0.46391753       0.00000000 </v>
   <v>      -0.25000000       0.46391753       0.00000000 </v>
   <v>      -0.18750000       0.46391753       0.00000000 </v>
   <v>      -0.12500000       0.46391753       0.00000000 </v>
   <v>      -0.06250000       0.46391753       0.00000000 </v>
   <v>       0.00000000       0.47422680       0.00000000 </v>
   <v>       0.06250000       0.47422680       0.00000000 </v>
   <v>       0.12500000       0.47422680       0.00000000 </v>
   <v>       0.18750000       0.47422680       0.00000000 </v>
   <v>       0.25000000       0.47422680       0.00000000 </v>
   <v>       0.31250000       0.47422680       0.00000000 </v>
   <v>       0.37500000       0.47422680       0.00000000 </v>
   <v>       0.43750000       0.47422680       0.00000000 </v>
   <v>       0.50000000       0.47422680       0.00000000 </v>
   <v>      -0.43750000       0.47422680       0.00000000 </v>
   <v>      -0.37500000       0.47422680       0.00000000 </v>
   <v>      -0.31250000       0.47422680       0.00000000 </v>
   <v>      -0.25000000       0.47422680       0.00000000 </v>
   <v>      -0.18750000       0.47422680       0.00000000 </v>
   <v>      -0.12500000       0.47422680       0.00000000 </v>
   <v>      -0.06250000       0.47422680       0.00000000 </v>
   <v>       0.00000000       0.48453608       0.00000000 </v>
   <v>       0.06250000       0.48453608       0.00000000 </v>
   <v>       0.12500000       0.48453608       0.00000000 </v>
   <v>       0.18750000       0.48453608       0.00000000 </v>
   <v>       0.25000000       0.48453608       0.00000000 </v>
   <v>       0.31250000       0.48453608       0.00000000 </v>
   <v>       0.37500000       0.48453608       0.00000000 </v>
   <v>       0.43750000       0.48453608       0.00000000 </v>
   <v>       0.50000000       0.48453608       0.00000000 </v>
   <v>      -0.43750000       0.48453608       0.00000000 </v>
   <v>      -0.37500000       0.48453608       0.00000000 </v>
   <v>      -0.31250000       0.48453608       0.00000000 </v>
   <v>      -0.25000000       0.48453608       0.00000000 </v>
   <v>      -0.18750000       0.48453608       0.00000000 </v>
   <v>      -0.12500000       0.48453608       0.00000000 </v>
   <v>      -0.06250000       0.48453608       0.00000000 </v>
   <v>       0.00000000       0.49484536       0.00000000 </v>
   <v>       0.06250000       0.49484536       0.00000000 </v>
   <v>       0.12500000       0.49484536       0.00000000 </v>
   <v>       0.18750000       0.49484536       0.00000000 </v>
   <v>       0.25000000       0.49484536       0.00000000 </v>
   <v>       0.31250000       0.49484536       0.00000000 </v>
   <v>       0.37500000       0.49484536       0.00000000 </v>
   <v>       0.43750000       0.49484536       0.00000000 </v>
   <v>       0.50000000       0.49484536       0.00000000 </v>
   <v>      -0.43750000       0.49484536       0.00000000 </v>
   <v>      -0.37500000       0.49484536       0.00000000 </v>
   <v>      -0.31250000       0.49484536       0.00000000 </v>
   <v>      -0.25000000       0.49484536       0.00000000 </v>
   <v>      -0.18750000       0.49484536       0.00000000 </v>
   <v>      -0.12500000       0.49484536       0.00000000 </v>
   <v>      -0.06250000       0.49484536       0.00000000 </v>
  </varray>
  <varray name="weights" >
   <v>       0.00064433 </v>
   <v>       0.00128866 </v>
   <v>       0.00128866 </v>
   <v>       0.00128866 </v>
   <v>       0.00128866 </v>
   <v>       0.00128866 </v>
   <v>       0.00128866 </v>
   <v>       0.00128866 </v>
   <v>       0.00064433 </v>
   <v>       0.00128866 </v>
   <v>       0.00128866 </v>
   <v>       0.00128866 </v>
   <v>       0.00128866 </v>
   <v>       0.00128866 </v>
   <v>       0.00128866 </v>
   <v>       0.00128866 </v>
   <v>       0.00128866 </v>
   <v>       0.00128866 </v>
   <v>       0.00128866 </v>
   <v>       0.00128866 </v>
   <v>       0.00128866 </v>
   <v>       0.00128866 </v>
   <v>       0.00128866 </v>
   <v>       0.00128866 </v>
   <v>       0.00128866 </v>
   <v>       0.00128866 </v>
   <v>       0.00128866 </v>
   <v>       0.00128866 </v>
   <v>       0.00128866 </v>
   <v>       0.00128866 </v>
   <v>       0.00128866 </v>
   <v>       0.00128866 </v>
   <v>       0.00128866 </v>
   <v>       0.00128866 </v>
   <v>       0.00128866 </v>
   <v>       0.00128866 </v>
   <v>       0.00128866 </v>
   <v>       0.00128866 </v>
   <v>       0.00128866 </v>
   <v>       0.00128866 </v>
   <v>       0.00128866 </v>
   <v>       0.00128866 </v>
   <v>       0.00128866 </v>
   <v>       0.00128866 </v>
   <v>       0.00128866 </v>
   <v>       0.00128866 </v>
   <v>       0.00128866 </v>
   <v>       0.00128866 </v>
   <v>       0.00128866 </v>
   <v>       0.00128866 </v>
   <v>       0.00128866 </v>
   <v>       0.00128866 </v>
   <v>       0.00128866 </v>
   <v>       0.00128866 </v>
   <v>       0.00128866 </v>
   <v>       0.00128866 </v>
   <v>       0.00128866 </v>
   <v>       0.00128866 </v>
   <v>       0.00128866 </v>
   <v>       0.00128866 </v>
   <v>       0.00128866 </v>
   <v>       0.00128866 </v>
   <v>       0.00128866 </v>
   <v>       0.00128866 </v>
   <v>       0.00128866 </v>
   <v>       0.00128866 </v>
   <v>       0.00128866 </v>
   <v>       0.00128866 </v>
   <v>       0.00128866 </v>
   <v>       0.00128866 </v>
   <v>       0.00128866 </v>
   <v>       0.00128866 </v>
   <v>       0.00128866 </v>
   <v>       0.00128866 </v>
   <v>       0.00128866 </v>
   <v>       0.00128866 </v>
   <v>       0.00128866 </v>
   <v>       0.00128866 </v>
   <v>       0.00128866 </v>
   <v>       0.00128866 </v>
   <v>       0.00128866 </v>
   <v>       0.00128866 </v>
   <v>       0.00128866 </v>
   <v>       0.00128866 </v>
   <v>       0.00128866 </v>
   <v>       0.00128866 </v>
   <v>       0.00128866 </v>
   <v>       0.00128866 </v>
   <v>       0.00128866 </v>
   <v>       0.00128866 </v>
   <v>       0.00128866 </v>
   <v>       0.00128866 </v>
   <v>       0.00128866 </v>
   <v>       0.00128866 </v>
   <v>       0.00128866 </v>
   <v>       0.00128866 </v>
   <v>       0.00128866 </v>
   <v>       0.00128866 </v>
   <v>       0.00128866 </v>
   <v>       0.00128866 </v>
   <v>       0.00128866 </v>
   <v>       0.00128866 </v>
   <v>       0.00128866 </v>
   <v>       0.00128866 </v>
   <v>       0.00128866 </v>
   <v>       0.00128866 </v>
   <v>       0.00128866 </v>
   <v>       0.00128866 </v>
   <v>       0.00128866 </v>
   <v>       0.00128866 </v>
   <v>       0.00128866 </v>
   <v>       0.00128866 </v>
   <v>       0.00128866 </v>
   <v>       0.00128866 </v>
   <v>       0.00128866 </v>
   <v>       0.00128866 </v>
   <v>       0.00128866 </v>
   <v>       0.00128866 </v>
   <v>       0.00128866 </v>
   <v>       0.00128866 </v>
   <v>       0.00128866 </v>
   <v>       0.00128866 </v>
   <v>       0.00128866 </v>
   <v>       0.00128866 </v>
   <v>       0.00128866 </v>
   <v>       0.00128866 </v>
   <v>       0.00128866 </v>
   <v>       0.00128866 </v>
   <v>       0.00128866 </v>
   <v>       0.00128866 </v>
   <v>       0.00128866 </v>
   <v>       0.00128866 </v>
   <v>       0.00128866 </v>
   <v>       0.00128866 </v>
   <v>       0.00128866 </v>
   <v>       0.00128866 </v>
   <v>       0.00128866 </v>
   <v>       0.00128866 </v>
   <v>       0.00128866 </v>
   <v>       0.00128866 </v>
   <v>       0.00128866 </v>
   <v>       0.00128866 </v>
   <v>       0.00128866 </v>
   <v>       0.00128866 </v>
   <v>       0.00128866 </v>
   <v>       0.00128866 </v>
   <v>       0.00128866 </v>
   <v>       0.00128866 </v>
   <v>       0.00128866 </v>
   <v>       0.00128866 </v>
   <v>       0.00128866 </v>
   <v>       0.00128866 </v>
   <v>       0.00128866 </v>
   <v>       0.00128866 </v>
   <v>       0.00128866 </v>
   <v>       0.00128866 </v>
   <v>       0.00128866 </v>
   <v>       0.00128866 </v>
   <v>       0.00128866 </v>
   <v>       0.00128866 </v>
   <v>       0.00128866 </v>
   <v>       0.00128866 </v>
   <v>       0.00128866 </v>
   <v>       0.00128866 </v>
   <v>       0.00128866 </v>
   <v>       0.00128866 </v>
   <v>       0.00128866 </v>
   <v>       0.00128866 </v>
   <v>       0.00128866 </v>
   <v>       0.00128866 </v>
   <v>       0.00128866 </v>
   <v>       0.00128866 </v>
   <v>       0.00128866 </v>
   <v>       0.00128866 </v>
   <v>       0.00128866 </v>
   <v>       0.00128866 </v>
   <v>       0.00128866 </v>
   <v>       0.00128866 </v>
   <v>       0.00128866 </v>
   <v>       0.00128866 </v>
   <v>       0.00128866 </v>
   <v>       0.00128866 </v>
   <v>       0.00128866 </v>
   <v>       0.00128866 </v>
   <v>       0.00128866 </v>
   <v>       0.00128866 </v>
   <v>       0.00128866 </v>
   <v>       0.00128866 </v>
   <v>       0.00128866 </v>
   <v>       0.00128866 </v>
   <v>       0.00128866 </v>
   <v>       0.00128866 </v>
   <v>       0.00128866 </v>
   <v>       0.00128866 </v>
   <v>       0.00128866 </v>
   <v>       0.00128866 </v>
   <v>       0.00128866 </v>
   <v>       0.00128866 </v>
   <v>       0.00128866 </v>
   <v>       0.00128866 </v>
   <v>       0.00128866 </v>
   <v>       0.00128866 </v>
   <v>       0.00128866 </v>
   <v>       0.00128866 </v>
   <v>       0.00128866 </v>
   <v>       0.00128866 </v>
   <v>       0.00128866 </v>
   <v>       0.00128866 </v>
   <v>       0.00128866 </v>
   <v>       0.00128866 </v>
   <v>       0.00128866 </v>
   <v>       0.00128866 </v>
   <v>       0.00128866 </v>
   <v>       0.00128866 </v>
   <v>       0.00128866 </v>
   <v>       0.00128866 </v>
   <v>       0.00128866 </v>
   <v>       0.00128866 </v>
   <v>       0.00128866 </v>
   <v>       0.00128866 </v>
   <v>       0.00128866 </v>
   <v>       0.00128866 </v>
   <v>       0.00128866 </v>
   <v>       0.00128866 </v>
   <v>       0.00128866 </v>
   <v>       0.00128866 </v>
   <v>       0.00128866 </v>
   <v>       0.00128866 </v>
   <v>       0.00128866 </v>
   <v>       0.00128866 </v>
   <v>       0.00128866 </v>
   <v>       0.00128866 </v>
   <v>       0.00128866 </v>
   <v>       0.00128866 </v>
   <v>       0.00128866 </v>
   <v>       0.00128866 </v>
   <v>       0.00128866 </v>
   <v>       0.00128866 </v>
   <v>       0.00128866 </v>
   <v>       0.00128866 </v>
   <v>       0.00128866 </v>
   <v>       0.00128866 </v>
   <v>       0.00128866 </v>
   <v>       0.00128866 </v>
   <v>       0.00128866 </v>
   <v>       0.00128866 </v>
   <v>       0.00128866 </v>
   <v>       0.00128866 </v>
   <v>       0.00128866 </v>
   <v>       0.00128866 </v>
   <v>       0.00128866 </v>
   <v>       0.00128866 </v>
   <v>       0.00128866 </v>
   <v>       0.00128866 </v>
   <v>       0.00128866 </v>
   <v>       0.00128866 </v>
   <v>       0.00128866 </v>
   <v>       0.00128866 </v>
   <v>       0.00128866 </v>
   <v>       0.00128866 </v>
   <v>       0.00128866 </v>
   <v>       0.00128866 </v>
   <v>       0.00128866 </v>
   <v>       0.00128866 </v>
   <v>       0.00128866 </v>
   <v>       0.00128866 </v>
   <v>       0.00128866 </v>
   <v>       0.00128866 </v>
   <v>       0.00128866 </v>
   <v>       0.00128866 </v>
   <v>       0.00128866 </v>
   <v>       0.00128866 </v>
   <v>       0.00128866 </v>
   <v>       0.00128866 </v>
   <v>       0.00128866 </v>
   <v>       0.00128866 </v>
   <v>       0.00128866 </v>
   <v>       0.00128866 </v>
   <v>       0.00128866 </v>
   <v>       0.00128866 </v>
   <v>       0.00128866 </v>
   <v>       0.00128866 </v>
   <v>       0.00128866 </v>
   <v>       0.00128866 </v>
   <v>       0.00128866 </v>
   <v>       0.00128866 </v>
   <v>       0.00128866 </v>
   <v>       0.00128866 </v>
   <v>       0.00128866 </v>
   <v>       0.00128866 </v>
   <v>       0.00128866 </v>
   <v>       0.00128866 </v>
   <v>       0.00128866 </v>
   <v>       0.00128866 </v>
   <v>       0.00128866 </v>
   <v>       0.00128866 </v>
   <v>       0.00128866 </v>
   <v>       0.00128866 </v>
   <v>       0.00128866 </v>
   <v>       0.00128866 </v>
   <v>       0.00128866 </v>
   <v>       0.00128866 </v>
   <v>       0.00128866 </v>
   <v>       0.00128866 </v>
   <v>       0.00128866 </v>
   <v>       0.00128866 </v>
   <v>       0.00128866 </v>
   <v>       0.00128866 </v>
   <v>       0.00128866 </v>
   <v>       0.00128866 </v>
   <v>       0.00128866 </v>
   <v>       0.00128866 </v>
   <v>       0.00128866 </v>
   <v>       0.00128866 </v>
   <v>       0.00128866 </v>
   <v>       0.00128866 </v>
   <v>       0.00128866 </v>
   <v>       0.00128866 </v>
   <v>       0.00128866 </v>
   <v>       0.00128866 </v>
   <v>       0.00128866 </v>
   <v>       0.00128866 </v>
   <v>       0.00128866 </v>
   <v>       0.00128866 </v>
   <v>       0.00128866 </v>
   <v>       0.00128866 </v>
   <v>       0.00128866 </v>
   <v>       0.00128866 </v>
   <v>       0.00128866 </v>
   <v>       0.00128866 </v>
   <v>       0.00128866 </v>
   <v>       0.00128866 </v>
   <v>       0.00128866 </v>
   <v>       0.00128866 </v>
   <v>       0.00128866 </v>
   <v>       0.00128866 </v>
   <v>       0.00128866 </v>
   <v>       0.00128866 </v>
   <v>       0.00128866 </v>
   <v>       0.00128866 </v>
   <v>       0.00128866 </v>
   <v>       0.00128866 </v>
   <v>       0.00128866 </v>
   <v>       0.00128866 </v>
   <v>       0.00128866 </v>
   <v>       0.00128866 </v>
   <v>       0.00128866 </v>
   <v>       0.00128866 </v>
   <v>       0.00128866 </v>
   <v>       0.00128866 </v>
   <v>       0.00128866 </v>
   <v>       0.00128866 </v>
   <v>       0.00128866 </v>
   <v>       0.00128866 </v>
   <v>       0.00128866 </v>
   <v>       0.00128866 </v>
   <v>       0.00128866 </v>
   <v>       0.00128866 </v>
   <v>       0.00128866 </v>
   <v>       0.00128866 </v>
   <v>       0.00128866 </v>
   <v>       0.00128866 </v>
   <v>       0.00128866 </v>
   <v>       0.00128866 </v>
   <v>       0.00128866 </v>
   <v>       0.00128866 </v>
   <v>       0.00128866 </v>
   <v>       0.00128866 </v>
   <v>       0.00128866 </v>
   <v>       0.00128866 </v>
   <v>       0.00128866 </v>
   <v>       0.00128866 </v>
   <v>       0.00128866 </v>
   <v>       0.00128866 </v>
   <v>       0.00128866 </v>
   <v>       0.00128866 </v>
   <v>       0.00128866 </v>
   <v>       0.00128866 </v>
   <v>       0.00128866 </v>
   <v>       0.00128866 </v>
   <v>       0.00128866 </v>
   <v>       0.00128866 </v>
   <v>       0.00128866 </v>
   <v>       0.00128866 </v>
   <v>       0.00128866 </v>
   <v>       0.00128866 </v>
   <v>       0.00128866 </v>
   <v>       0.00128866 </v>
   <v>       0.00128866 </v>
   <v>       0.00128866 </v>
   <v>       0.00128866 </v>
   <v>       0.00128866 </v>
   <v>       0.00128866 </v>
   <v>       0.00128866 </v>
   <v>       0.00128866 </v>
   <v>       0.00128866 </v>
   <v>       0.00128866 </v>
   <v>       0.00128866 </v>
   <v>       0.00128866 </v>
   <v>       0.00128866 </v>
   <v>       0.00128866 </v>
   <v>       0.00128866 </v>
   <v>       0.00128866 </v>
   <v>       0.00128866 </v>
   <v>       0.00128866 </v>
   <v>       0.00128866 </v>
   <v>       0.00128866 </v>
   <v>       0.00128866 </v>
   <v>       0.00128866 </v>
   <v>       0.00128866 </v>
   <v>       0.00128866 </v>
   <v>       0.00128866 </v>
   <v>       0.00128866 </v>
   <v>       0.00128866 </v>
   <v>       0.00128866 </v>
   <v>       0.00128866 </v>
   <v>       0.00128866 </v>
   <v>       0.00128866 </v>
   <v>       0.00128866 </v>
   <v>       0.00128866 </v>
   <v>       0.00128866 </v>
   <v>       0.00128866 </v>
   <v>       0.00128866 </v>
   <v>       0.00128866 </v>
   <v>       0.00128866 </v>
   <v>       0.00128866 </v>
   <v>       0.00128866 </v>
   <v>       0.00128866 </v>
   <v>       0.00128866 </v>
   <v>       0.00128866 </v>
   <v>       0.00128866 </v>
   <v>       0.00128866 </v>
   <v>       0.00128866 </v>
   <v>       0.00128866 </v>
   <v>       0.00128866 </v>
   <v>       0.00128866 </v>
   <v>       0.00128866 </v>
   <v>       0.00128866 </v>
   <v>       0.00128866 </v>
   <v>       0.00128866 </v>
   <v>       0.00128866 </v>
   <v>       0.00128866 </v>
   <v>       0.00128866 </v>
   <v>       0.00128866 </v>
   <v>       0.00128866 </v>
   <v>       0.00128866 </v>
   <v>       0.00128866 </v>
   <v>       0.00128866 </v>
   <v>       0.00128866 </v>
   <v>       0.00128866 </v>
   <v>       0.00128866 </v>
   <v>       0.00128866 </v>
   <v>       0.00128866 </v>
   <v>       0.00128866 </v>
   <v>       0.00128866 </v>
   <v>       0.00128866 </v>
   <v>       0.00128866 </v>
   <v>       0.00128866 </v>
   <v>       0.00128866 </v>
   <v>       0.00128866 </v>
   <v>       0.00128866 </v>
   <v>       0.00128866 </v>
   <v>       0.00128866 </v>
   <v>       0.00128866 </v>
   <v>       0.00128866 </v>
   <v>       0.00128866 </v>
   <v>       0.00128866 </v>
   <v>       0.00128866 </v>
   <v>       0.00128866 </v>
   <v>       0.00128866 </v>
   <v>       0.00128866 </v>
   <v>       0.00128866 </v>
   <v>       0.00128866 </v>
   <v>       0.00128866 </v>
   <v>       0.00128866 </v>
   <v>       0.00128866 </v>
   <v>       0.00128866 </v>
   <v>       0.00128866 </v>
   <v>       0.00128866 </v>
   <v>       0.00128866 </v>
   <v>       0.00128866 </v>
   <v>       0.00128866 </v>
   <v>       0.00128866 </v>
   <v>       0.00128866 </v>
   <v>       0.00128866 </v>
   <v>       0.00128866 </v>
   <v>       0.00128866 </v>
   <v>       0.00128866 </v>
   <v>       0.00128866 </v>
   <v>       0.00128866 </v>
   <v>       0.00128866 </v>
   <v>       0.00128866 </v>
   <v>       0.00128866 </v>
   <v>       0.00128866 </v>
   <v>       0.00128866 </v>
   <v>       0.00128866 </v>
   <v>       0.00128866 </v>
   <v>       0.00128866 </v>
   <v>       0.00128866 </v>
   <v>       0.00128866 </v>
   <v>       0.00128866 </v>
   <v>       0.00128866 </v>
   <v>       0.00128866 </v>
   <v>       0.00128866 </v>
   <v>       0.00128866 </v>
   <v>       0.00128866 </v>
   <v>       0.00128866 </v>
   <v>       0.00128866 </v>
   <v>       0.00128866 </v>
   <v>       0.00128866 </v>
   <v>       0.00128866 </v>
   <v>       0.00128866 </v>
   <v>       0.00128866 </v>
   <v>       0.00128866 </v>
   <v>       0.00128866 </v>
   <v>       0.00128866 </v>
   <v>       0.00128866 </v>
   <v>       0.00128866 </v>
   <v>       0.00128866 </v>
   <v>       0.00128866 </v>
   <v>       0.00128866 </v>
   <v>       0.00128866 </v>
   <v>       0.00128866 </v>
   <v>       0.00128866 </v>
   <v>       0.00128866 </v>
   <v>       0.00128866 </v>
   <v>       0.00128866 </v>
   <v>       0.00128866 </v>
   <v>       0.00128866 </v>
   <v>       0.00128866 </v>
   <v>       0.00128866 </v>
   <v>       0.00128866 </v>
   <v>       0.00128866 </v>
   <v>       0.00128866 </v>
   <v>       0.00128866 </v>
   <v>       0.00128866 </v>
   <v>       0.00128866 </v>
   <v>       0.00128866 </v>
   <v>       0.00128866 </v>
   <v>       0.00128866 </v>
   <v>       0.00128866 </v>
   <v>       0.00128866 </v>
   <v>       0.00128866 </v>
   <v>       0.00128866 </v>
   <v>       0.00128866 </v>
   <v>       0.00128866 </v>
   <v>       0.00128866 </v>
   <v>       0.00128866 </v>
   <v>       0.00128866 </v>
   <v>       0.00128866 </v>
   <v>       0.00128866 </v>
   <v>       0.00128866 </v>
   <v>       0.00128866 </v>
   <v>       0.00128866 </v>
   <v>       0.00128866 </v>
   <v>       0.00128866 </v>
   <v>       0.00128866 </v>
   <v>       0.00128866 </v>
   <v>       0.00128866 </v>
   <v>       0.00128866 </v>
   <v>       0.00128866 </v>
   <v>       0.00128866 </v>
   <v>       0.00128866 </v>
   <v>       0.00128866 </v>
   <v>       0.00128866 </v>
   <v>       0.00128866 </v>
   <v>       0.00128866 </v>
   <v>       0.00128866 </v>
   <v>       0.00128866 </v>
   <v>       0.00128866 </v>
   <v>       0.00128866 </v>
   <v>       0.00128866 </v>
   <v>       0.00128866 </v>
   <v>       0.00128866 </v>
   <v>       0.00128866 </v>
   <v>       0.00128866 </v>
   <v>       0.00128866 </v>
   <v>       0.00128866 </v>
   <v>       0.00128866 </v>
   <v>       0.00128866 </v>
   <v>       0.00128866 </v>
   <v>       0.00128866 </v>
   <v>       0.00128866 </v>
   <v>       0.00128866 </v>
   <v>       0.00128866 </v>
   <v>       0.00128866 </v>
   <v>       0.00128866 </v>
   <v>       0.00128866 </v>
   <v>       0.00128866 </v>
   <v>       0.00128866 </v>
   <v>       0.00128866 </v>
   <v>       0.00128866 </v>
   <v>       0.00128866 </v>
   <v>       0.00128866 </v>
   <v>       0.00128866 </v>
   <v>       0.00128866 </v>
   <v>       0.00128866 </v>
   <v>       0.00128866 </v>
   <v>       0.00128866 </v>
   <v>       0.00128866 </v>
   <v>       0.00128866 </v>
   <v>       0.00128866 </v>
   <v>       0.00128866 </v>
   <v>       0.00128866 </v>
   <v>       0.00128866 </v>
   <v>       0.00128866 </v>
   <v>       0.00128866 </v>
   <v>       0.00128866 </v>
   <v>       0.00128866 </v>
   <v>       0.00128866 </v>
   <v>       0.00128866 </v>
   <v>       0.00128866 </v>
   <v>       0.00128866 </v>
   <v>       0.00128866 </v>
   <v>       0.00128866 </v>
   <v>       0.00128866 </v>
   <v>       0.00128866 </v>
   <v>       0.00128866 </v>
   <v>       0.00128866 </v>
   <v>       0.00128866 </v>
   <v>       0.00128866 </v>
   <v>       0.00128866 </v>
   <v>       0.00128866 </v>
   <v>       0.00128866 </v>
   <v>       0.00128866 </v>
   <v>       0.00128866 </v>
   <v>       0.00128866 </v>
   <v>       0.00128866 </v>
   <v>       0.00128866 </v>
   <v>       0.00128866 </v>
   <v>       0.00128866 </v>
   <v>       0.00128866 </v>
   <v>       0.00128866 </v>
   <v>       0.00128866 </v>
   <v>       0.00128866 </v>
   <v>       0.00128866 </v>
   <v>       0.00128866 </v>
   <v>       0.00128866 </v>
   <v>       0.00128866 </v>
   <v>       0.00128866 </v>
   <v>       0.00128866 </v>
   <v>       0.00128866 </v>
   <v>       0.00128866 </v>
   <v>       0.00128866 </v>
   <v>       0.00128866 </v>
   <v>       0.00128866 </v>
   <v>       0.00128866 </v>
   <v>       0.00128866 </v>
   <v>       0.00128866 </v>
   <v>       0.00128866 </v>
   <v>       0.00128866 </v>
   <v>       0.00128866 </v>
   <v>       0.00128866 </v>
   <v>       0.00128866 </v>
   <v>       0.00128866 </v>
   <v>       0.00128866 </v>
   <v>       0.00128866 </v>
   <v>       0.00128866 </v>
   <v>       0.00128866 </v>
   <v>       0.00128866 </v>
   <v>       0.00128866 </v>
   <v>       0.00128866 </v>
   <v>       0.00128866 </v>
   <v>       0.00128866 </v>
   <v>       0.00128866 </v>
   <v>       0.00128866 </v>
   <v>       0.00128866 </v>
   <v>       0.00128866 </v>
   <v>       0.00128866 </v>
   <v>       0.00128866 </v>
   <v>       0.00128866 </v>
   <v>       0.00128866 </v>
   <v>       0.00128866 </v>
   <v>       0.00128866 </v>
   <v>       0.00128866 </v>
   <v>       0.00128866 </v>
   <v>       0.00128866 </v>
   <v>       0.00128866 </v>
   <v>       0.00128866 </v>
   <v>       0.00128866 </v>
   <v>       0.00128866 </v>
   <v>       0.00128866 </v>
   <v>       0.00128866 </v>
   <v>       0.00128866 </v>
   <v>       0.00128866 </v>
   <v>       0.00128866 </v>
   <v>       0.00128866 </v>
   <v>       0.00128866 </v>
   <v>       0.00128866 </v>
   <v>       0.00128866 </v>
   <v>       0.00128866 </v>
   <v>       0.00128866 </v>
   <v>       0.00128866 </v>
   <v>       0.00128866 </v>
   <v>       0.00128866 </v>
   <v>       0.00128866 </v>
   <v>       0.00128866 </v>
   <v>       0.00128866 </v>
   <v>       0.00128866 </v>
   <v>       0.00128866 </v>
   <v>       0.00128866 </v>
   <v>       0.00128866 </v>
   <v>       0.00128866 </v>
   <v>       0.00128866 </v>
   <v>       0.00128866 </v>
   <v>       0.00128866 </v>
   <v>       0.00128866 </v>
   <v>       0.00128866 </v>
   <v>       0.00128866 </v>
   <v>       0.00128866 </v>
   <v>       0.00128866 </v>
   <v>       0.00128866 </v>
   <v>       0.00128866 </v>
   <v>       0.00128866 </v>
   <v>       0.00128866 </v>
   <v>       0.00128866 </v>
   <v>       0.00128866 </v>
   <v>       0.00128866 </v>
   <v>       0.00128866 </v>
   <v>       0.00128866 </v>
   <v>       0.00128866 </v>
   <v>       0.00128866 </v>
   <v>       0.00128866 </v>
   <v>       0.00128866 </v>
   <v>       0.00128866 </v>
   <v>       0.00128866 </v>
   <v>       0.00128866 </v>
   <v>       0.00128866 </v>
   <v>       0.00128866 </v>
   <v>       0.00128866 </v>
   <v>       0.00128866 </v>
   <v>       0.00128866 </v>
   <v>       0.00128866 </v>
   <v>       0.00128866 </v>
   <v>       0.00128866 </v>
   <v>       0.00128866 </v>
   <v>       0.00128866 </v>
   <v>       0.00128866 </v>
   <v>       0.00128866 </v>
   <v>       0.00128866 </v>
   <v>       0.00128866 </v>
   <v>       0.00128866 </v>
   <v>       0.00128866 </v>
   <v>       0.00128866 </v>
   <v>       0.00128866 </v>
   <v>       0.00128866 </v>
   <v>       0.00128866 </v>
   <v>       0.00128866 </v>
   <v>       0.00128866 </v>
   <v>       0.00128866 </v>
   <v>       0.00128866 </v>
   <v>       0.00128866 </v>
   <v>       0.00128866 </v>
   <v>       0.00128866 </v>
   <v>       0.00128866 </v>
   <v>       0.00128866 </v>
   <v>       0.00128866 </v>
   <v>       0.00128866 </v>
   <v>       0.00128866 </v>
   <v>       0.00128866 </v>
   <v>       0.00128866 </v>
   <v>       0.00128866 </v>
   <v>       0.00128866 </v>
   <v>       0.00128866 </v>
   <v>       0.00128866 </v>
   <v>       0.00128866 </v>
   <v>       0.00128866 </v>
   <v>       0.00128866 </v>
   <v>       0.00128866 </v>
   <v>       0.00128866 </v>
   <v>       0.00128866 </v>
   <v>       0.00128866 </v>
   <v>       0.00128866 </v>
   <v>       0.00128866 </v>
   <v>       0.00128866 </v>
   <v>       0.00128866 </v>
   <v>       0.00128866 </v>
  </varray>
 </kpoints>
 <parameters>
  <separator name="general" >
   <i type="string" name="SYSTEM">Frozen phonon</i>
   <i type="logical" name="LCOMPAT"> F  </i>
  </separator>
  <separator name="electronic" >
   <i type="string" name="PREC">accura</i>
   <i name="ENMAX">    600.00000000</i>
   <i name="ENAUG">    400.00000000</i>
   <i name="EDIFF">      0.00000001</i>
   <i type="int" name="IALGO">    38</i>
   <i type="int" name="IWAVPR">    10</i>
   <i type="int" name="NBANDS">    28</i>
   <i type="int" name="NBANDSLOW">    -1</i>
   <i type="int" name="NBANDSHIGH">    -1</i>
   <i name="NELECT">     30.00000000</i>
   <i type="int" name="TURBO">     0</i>
   <i type="int" name="IRESTART">     0</i>
   <i type="int" name="NREBOOT">     0</i>
   <i type="int" name="NMIN">     0</i>
   <i name="EREF">      0.00000000</i>
   <separator name="electronic smearing" >
    <i type="int" name="ISMEAR">     0</i>
    <i name="SIGMA">      0.02000000</i>
    <i name="KSPACING">      0.50000000</i>
    <i type="logical" name="KGAMMA"> T  </i>
    <i type="logical" name="KBLOWUP"> T  </i>
   </separator>
   <separator name="electronic projectors" >
    <i type="logical" name="LREAL"> F  </i>
    <v name="ROPT">      0.00000000      0.00000000</v>
    <i type="int" name="LMAXPAW">  -100</i>
    <i type="int" name="LMAXMIX">     2</i>
    <i type="logical" name="NLSPLINE"> F  </i>
   </separator>
   <separator name="electronic startup" >
    <i type="int" name="ISTART">     0</i>
    <i type="int" name="ICHARG">     2</i>
    <i type="int" name="INIWAV">     1</i>
   </separator>
   <separator name="electronic spin" >
    <i type="int" name="ISPIN">     1</i>
    <i type="logical" name="LNONCOLLINEAR"> F  </i>
    <v name="MAGMOM">      1.00000000      1.00000000      1.00000000      1.00000000      1.00000000      1.00000000      1.00000000      1.00000000      1.00000000      1.00000000      1.00000000      1.00000000      1.00000000      1.00000000      1.00000000      1.00000000      1.00000000      1.00000000      1.00000000      1.00000000
</v>
    <i name="NUPDOWN">     -1.00000000</i>
    <i type="logical" name="LSORBIT"> F  </i>
    <v name="SAXIS">      0.00000000      0.00000000      1.00000000</v>
    <i type="logical" name="LSPIRAL"> F  </i>
    <v name="QSPIRAL">      0.00000000      0.00000000      0.00000000</v>
    <i type="logical" name="LZEROZ"> F  </i>
   </separator>
   <separator name="electronic exchange-correlation" >
    <i type="logical" name="LASPH"> F  </i>
   </separator>
   <separator name="electronic convergence" >
    <i type="int" name="NELM">   200</i>
    <i type="int" name="NELMDL">    -5</i>
    <i type="int" name="NELMIN">     2</i>
    <i name="ENINI">    600.00000000</i>
    <separator name="electronic convergence detail" >
     <i type="logical" name="LDIAG"> T  </i>
     <i type="logical" name="LSUBROT"> F  </i>
     <i name="WEIMIN">      0.00000000</i>
     <i name="EBREAK">      0.00000000</i>
     <i name="DEPER">      0.30000000</i>
     <i type="int" name="NRMM">     4</i>
     <i name="TIME">      0.40000000</i>
    </separator>
   </separator>
   <separator name="electronic mixer" >
    <i name="AMIX">      0.40000000</i>
    <i name="BMIX">      1.00000000</i>
    <i name="AMIN">      0.10000000</i>
    <i name="AMIX_MAG">      1.60000000</i>
    <i name="BMIX_MAG">      1.00000000</i>
    <separator name="electronic mixer details" >
     <i type="int" name="IMIX">     4</i>
     <i type="logical" name="MIXFIRST"> F  </i>
     <i type="int" name="MAXMIX">   -45</i>
     <i name="WC">    100.00000000</i>
     <i type="int" name="INIMIX">     1</i>
     <i type="int" name="MIXPRE">     1</i>
     <i type="int" name="MREMOVE">     5</i>
    </separator>
   </separator>
   <separator name="electronic dipolcorrection" >
    <i type="logical" name="LDIPOL"> T  </i>
    <i type="logical" name="LMONO"> F  </i>
    <i type="int" name="IDIPOL">     3</i>
    <i name="EPSILON">      1.00000000</i>
    <v name="DIPOL">      0.50000000      0.50000000      0.10000000</v>
    <i name="EFIELD">      0.00000000</i>
    <i type="logical" name="LVACPOTAV"> F  </i>
   </separator>
  </separator>
  <separator name="grids" >
   <i type="int" name="NGX">   108</i>
   <i type="int" name="NGY">    18</i>
   <i type="int" name="NGZ">   320</i>
   <i type="int" name="NGXF">   216</i>
   <i type="int" name="NGYF">    36</i>
   <i type="int" name="NGZF">   640</i>
   <i type="logical" name="ADDGRID"> F  </i>
  </separator>
  <separator name="ionic" >
   <i type="int" name="NSW">     0</i>
   <i type="int" name="IBRION">    -1</i>
   <i type="int" name="MDALGO">     0</i>
   <i type="int" name="ISIF">     2</i>
   <i name="PSTRESS">      0.00000000</i>
   <i name="EDIFFG">     -0.00100000</i>
   <i type="int" name="NFREE">     0</i>
   <i name="POTIM">      0.50000000</i>
   <i name="SMASS">     -3.00000000</i>
   <i name="SCALEE">      1.00000000</i>
  </separator>
  <separator name="ionic md" >
   <i name="TEBEG">      0.00010000</i>
   <i name="TEEND">      0.00010000</i>
   <i type="int" name="NBLOCK">     1</i>
   <i type="int" name="KBLOCK">     1</i>
   <i type="int" name="NPACO">   256</i>
   <i name="APACO">     10.00000000</i>
  </separator>
  <separator name="symmetry" >
   <i type="int" name="ISYM">     2</i>
   <i name="SYMPREC">      0.00001000</i>
  </separator>
  <separator name="dos" >
   <i type="int" name="LORBIT">     0</i>
   <v name="RWIGS">     -1.00000000     -1.00000000</v>
   <i type="int" name="NEDOS">   301</i>
   <i name="EMIN">     10.00000000</i>
   <i name="EMAX">    -10.00000000</i>
   <i name="EFERMI">      0.00000000</i>
  </separator>
  <separator name="writing" >
   <i type="int" name="NWRITE">     2</i>
   <i type="logical" name="LWAVE"> F  </i>
   <i type="logical" name="LDOWNSAMPLE"> F  </i>
   <i type="logical" name="LCHARG"> F  </i>
   <i type="logical" name="LPARD"> F  </i>
   <i type="logical" name="LVTOT"> F  </i>
   <i type="logical" name="LVHAR"> F  </i>
   <i type="logical" name="LELF"> F  </i>
   <i type="logical" name="LOPTICS"> F  </i>
   <v name="STM">      0.00000000      0.00000000      0.00000000      0.00000000      0.00000000      0.00000000      0.00000000</v>
  </separator>
  <separator name="performance" >
   <i type="int" name="NPAR">     4</i>
   <i type="int" name="NSIM">     4</i>
   <i type="int" name="NBLK">    -1</i>
   <i type="logical" name="LPLANE"> T  </i>
   <i type="logical" name="LSCALAPACK"> T  </i>
   <i type="logical" name="LSCAAWARE"> F  </i>
   <i type="logical" name="LSCALU"> F  </i>
   <i type="logical" name="LASYNC"> F  </i>
   <i type="logical" name="LORBITALREAL"> F  </i>
  </separator>
  <separator name="miscellaneous" >
   <i type="int" name="IDIOT">     3</i>
   <i type="int" name="PHON_NSTRUCT">    -1</i>
   <i type="logical" name="LMUSIC"> F  </i>
   <v name="POMASS">      9.01300000      1.00000000</v>
   <v name="DARWINR">      0.00000000      0.00000000</v>
   <v name="DARWINV">      1.00000000      1.00000000</v>
   <i type="logical" name="LCORR"> T  </i>
  </separator>
  <i type="logical" name="GGA_COMPAT"> T  </i>
  <i type="logical" name="LBERRY"> F  </i>
  <i type="int" name="ICORELEVEL">     0</i>
  <i type="logical" name="LDAU"> F  </i>
  <i type="int" name="I_CONSTRAINED_M">     0</i>
  <separator name="electronic exchange-correlation" >
   <i type="string" name="GGA    ">PE</i>
   <i type="string" name="XC_C">1</i>
   <i type="int" name="VOSKOWN">     0</i>
   <i type="logical" name="LHFCALC"> F  </i>
   <i type="string" name="PRECFOCK"></i>
   <i type="logical" name="LSYMGRAD"> F  </i>
   <i type="logical" name="LHFONE"> F  </i>
   <i type="logical" name="LRHFCALC"> F  </i>
   <i type="logical" name="LTHOMAS"> F  </i>
   <i type="logical" name="LMODELHF"> F  </i>
   <i type="logical" name="LFOCKACE"> F  </i>
   <i name="ENCUT4O">     -1.00000000</i>
   <i type="int" name="EXXOEP">     0</i>
   <i type="int" name="FOURORBIT">     0</i>
   <i name="AEXX">      0.00000000</i>
   <i name="HFALPHA">      0.00000000</i>
   <i name="MCALPHA">      0.00000000</i>
   <i name="ALDAX">      1.00000000</i>
   <i name="AGGAX">      1.00000000</i>
   <i name="AMGGAX">      1.00000000</i>
   <i name="ALDAC">      1.00000000</i>
   <i name="AGGAC">      1.00000000</i>
   <i name="AMGGAC">      1.00000000</i>
   <i type="int" name="NKREDX">     1</i>
   <i type="int" name="NKREDY">     1</i>
   <i type="int" name="NKREDZ">     1</i>
   <i type="logical" name="SHIFTRED"> F  </i>
   <i type="logical" name="ODDONLY"> F  </i>
   <i type="logical" name="EVENONLY"> F  </i>
   <i type="int" name="LMAXFOCK">     0</i>
   <i type="int" name="NMAXFOCKAE">     0</i>
   <i type="logical" name="LFOCKAEDFT"> F  </i>
   <i name="HFSCREEN">      0.00000000</i>
   <i name="HFSCREENC">      0.00000000</i>
   <i type="int" name="NBANDSGWLOW">     0</i>
  </separator>
  <separator name="vdW DFT" >
   <i type="logical" name="LUSE_VDW"> F  </i>
   <i type="int" name="IVDW_NL">    -1</i>
   <i type="logical" name="LSPIN_VDW"> F  </i>
   <i name="ZAB_VDW">     -0.84910000</i>
   <i name="GAMMA_VDW">      1.39626340</i>
   <i name="ALPHA_VDW">      0.00000000</i>
   <i name="PARAM1">      0.12340000</i>
   <i name="PARAM2">      1.00000000</i>
   <i name="BPARAM">      6.30000000</i>
   <i name="CPARAM">      0.00930000</i>
  </separator>
  <separator name="model GW" >
   <i type="int" name="MODEL_GW">     0</i>
   <i name="MODEL_EPS0">     29.71017285</i>
   <i name="MODEL_ALPHA">      1.00000000</i>
  </separator>
  <separator name="linear response parameters" >
   <i type="logical" name="LEPSILON"> F  </i>
   <i type="logical" name="LRPA"> F  </i>
   <i type="logical" name="LNABLA"> F  </i>
   <i type="logical" name="LVEL"> F  </i>
   <i name="CSHIFT">      0.10000000</i>
   <i name="OMEGAMAX">     -1.00000000</i>
   <i name="DEG_THRESHOLD">      0.00200000</i>
   <i name="RTIME">     -0.10000000</i>
   <i name="WPLASMAI">      0.00000000</i>
   <v name="DFIELD">      0.00000000      0.00000000      0.00000000</v>
   <v name="WPLASMA">      0.00000000      0.00000000      0.00000000      0.00000000      0.00000000      0.00000000      0.00000000      0.00000000      0.00000000</v>
  </separator>
  <separator name="orbital magnetization" >
   <i type="logical" name="NUCIND"> F  </i>
   <v name="MAGPOS">      0.00000000      0.00000000      0.00000000</v>
   <i type="logical" name="LNICSALL"> T  </i>
   <i type="logical" name="ORBITALMAG"> F  </i>
   <i type="logical" name="LMAGBLOCH"> F  </i>
   <i type="logical" name="LCHIMAG"> F  </i>
   <i type="logical" name="LGAUGE"> T  </i>
   <i type="int" name="MAGATOM">     0</i>
   <v name="MAGDIPOL">      0.00000000      0.00000000      0.00000000</v>
   <v name="AVECCONST">      0.00000000      0.00000000      0.00000000</v>
  </separator>
  <separator name="response functions" >
   <i type="logical" name="LALL_IN_ONE"> F  </i>
   <i type="int" name="IALL_IN_ONE">    -1</i>
   <i type="int" name="NBANDS_WAVE">    -1</i>
   <i type="logical" name="LFINITE_TEMPERATURE"> F  </i>
   <i type="logical" name="LADDER"> F  </i>
   <i type="logical" name="LRPAFORCE"> F  </i>
   <i type="logical" name="LFXC"> F  </i>
   <i type="logical" name="LHARTREE"> T  </i>
   <i type="int" name="IBSE">     2</i>
   <v type="int" name="KPOINT">    -1     0     0     0</v>
   <i type="logical" name="LTCTC"> F  </i>
   <i type="logical" name="LTCTE"> F  </i>
   <i type="logical" name="LTETE"> F  </i>
   <i type="logical" name="LTRIPLET"> F  </i>
   <i type="logical" name="LFXCEPS"> F  </i>
   <i type="logical" name="LFXHEG"> F  </i>
   <i type="int" name="NATURALO">     2</i>
   <i type="logical" name="LHOLEGF"> F  </i>
   <i type="logical" name="L2ORDER"> F  </i>
   <i type="logical" name="LDMP1"> F  </i>
   <i type="logical" name="LMP2LT"> F  </i>
   <i type="logical" name="LSMP2LT"> F  </i>
   <i type="logical" name="LGWLF"> F  </i>
   <i name="ENCUTGW">     -1.60000002</i>
   <i name="ENCUTGWSOFT">     -1.60000002</i>
   <i name="ENCUTLF">     -1.00000000</i>
   <i type="logical" name="ESF_SPLINES"> F  </i>
   <i name="ESF_CONV">      0.01000000</i>
   <i type="int" name="ESF_NINTER">    15</i>
   <i type="int" name="LMAXMP2">    -1</i>
   <i name="SCISSOR">      0.00000000</i>
   <i type="int" name="NOMEGA">     0</i>
   <i type="int" name="NOMEGAR">     0</i>
   <i type="int" name="NBANDSGW">    -1</i>
   <i type="int" name="NBANDSO">    -1</i>
   <i type="int" name="NBANDSV">    -1</i>
   <i type="int" name="NELMGW">     1</i>
   <i type="int" name="NELMHF">     1</i>
   <i type="int" name="DIM">     3</i>
   <i type="int" name="IESPILON">     4</i>
   <i type="int" name="ANTIRES">     0</i>
   <i name="OMEGAMAX">    -30.00000000</i>
   <i name="OMEGAMIN">    -30.00000000</i>
   <i name="OMEGATL">   -200.00000000</i>
   <i type="int" name="OMEGAGRID">     0</i>
   <i name="CSHIFT">     -0.10000000</i>
   <i type="logical" name="LSELFENERGY"> F  </i>
   <i type="logical" name="LSPECTRAL"> F  </i>
   <i type="logical" name="LSPECTRALGW"> F  </i>
   <i type="logical" name="LSINGLES"> F  </i>
   <i type="logical" name="LFERMIGW"> F  </i>
   <i type="logical" name="ODDONLYGW"> F  </i>
   <i type="logical" name="EVENONLYGW"> F  </i>
   <i type="int" name="NKREDLFX">     1</i>
   <i type="int" name="NKREDLFY">     1</i>
   <i type="int" name="NKREDLFZ">     1</i>
   <i type="int" name="MAXMEM">  2800</i>
   <i type="int" name="TELESCOPE">     0</i>
   <i type="int" name="NTAUPAR">    -1</i>
   <i type="int" name="NOMEGAPAR">    -1</i>
   <i name="DAMP_NEWTON">      0.80000001</i>
   <i name="LAMBDA">      1.00000000</i>
  </separator>
  <separator name="External order field" >
   <i name="OFIELD_KAPPA">      0.00000000</i>
   <v name="OFIELD_K">      0.00000000      0.00000000      0.00000000</v>
   <i name="OFIELD_Q6_NEAR">      0.00000000</i>
   <i name="OFIELD_Q6_FAR">      0.00000000</i>
   <i name="OFIELD_A">      0.00000000</i>
  </separator>
  <separator name="optional k-points parameters" >
   <i type="int" name="KPOINTS_OPT_MODE">     1</i>
   <i type="logical" name="LKPOINTS_OPT"> F  </i>
  </separator>
 </parameters>
 <atominfo>
  <atoms>      20 </atoms>
  <types>       2 </types>
  <array name="atoms" >
   <dimension dim="1">ion</dimension>
   <field type="string">element</field>
   <field type="int">atomtype</field>
   <set>
    <rc><c>Be</c><c>   1</c></rc>
    <rc><c>Be</c><c>   1</c></rc>
    <rc><c>Be</c><c>   1</c></rc>
    <rc><c>Be</c><c>   1</c></rc>
    <rc><c>Be</c><c>   1</c></rc>
    <rc><c>Be</c><c>   1</c></rc>
    <rc><c>Be</c><c>   1</c></rc>
    <rc><c>Be</c><c>   1</c></rc>
    <rc><c>Be</c><c>   1</c></rc>
    <rc><c>Be</c><c>   1</c></rc>
    <rc><c>H </c><c>   2</c></rc>
    <rc><c>H </c><c>   2</c></rc>
    <rc><c>H </c><c>   2</c></rc>
    <rc><c>H </c><c>   2</c></rc>
    <rc><c>H </c><c>   2</c></rc>
    <rc><c>H </c><c>   2</c></rc>
    <rc><c>H </c><c>   2</c></rc>
    <rc><c>H </c><c>   2</c></rc>
    <rc><c>H </c><c>   2</c></rc>
    <rc><c>H </c><c>   2</c></rc>
   </set>
  </array>
  <array name="atomtypes" >
   <dimension dim="1">type</dimension>
   <field type="int">atomspertype</field>
   <field type="string">element</field>
   <field>mass</field>
   <field>valence</field>
   <field type="string">pseudopotential</field>
   <set>
    <rc><c>  10</c><c>Be</c><c>      9.01300000</c><c>      2.00000000</c><c>  PAW_PBE Be 06Sep2000                  </c></rc>
    <rc><c>  10</c><c>H </c><c>      1.00000000</c><c>      1.00000000</c><c>  PAW_PBE H 15Jun2001                   </c></rc>
   </set>
  </array>
 </atominfo>
 <structure name="initialpos" >
  <crystal>
   <varray name="basis" >
    <v>      11.91867068       5.14104636       0.00000000 </v>
    <v>       0.01064425       2.08187646       0.00000000 </v>
    <v>       0.00000000       0.00000000      40.00000000 </v>
   </varray>
   <i name="volume">    990.33909484 </i>
   <varray name="rec_basis" >
    <v>       0.08408742      -0.00042992       0.00000000 </v>
    <v>      -0.20764792       0.48139756       0.00000000 </v>
    <v>       0.00000000       0.00000000       0.02500000 </v>
   </varray>
  </crystal>
  <varray name="positions" >
   <v>       0.95694018       0.35771191       0.12232262 </v>
   <v>       0.15694018       0.35771191       0.12232262 </v>
   <v>       0.35694018       0.35771191       0.12232262 </v>
   <v>       0.55694018       0.35771191       0.12232262 </v>
   <v>       0.75694018       0.35771191       0.12232262 </v>
   <v>       0.04305982       0.64228809       0.07767738 </v>
   <v>       0.24305982       0.64228809       0.07767738 </v>
   <v>       0.44305982       0.64228809       0.07767738 </v>
   <v>       0.64305982       0.64228809       0.07767738 </v>
   <v>       0.84305982       0.64228809       0.07767738 </v>
   <v>       0.95343816       0.86649866       0.14741039 </v>
   <v>       0.15343816       0.86649866       0.14741039 </v>
   <v>       0.35343816       0.86649866       0.14741039 </v>
   <v>       0.55343816       0.86649866       0.14741039 </v>
   <v>       0.75343816       0.86649866       0.14741039 </v>
   <v>       0.04656184       0.13350134       0.05258961 </v>
   <v>       0.24656184       0.13350134       0.05258961 </v>
   <v>       0.44656184       0.13350134       0.05258961 </v>
   <v>       0.64656184       0.13350134       0.05258961 </v>
   <v>       0.84656184       0.13350134       0.05258961 </v>
  </varray>
 </structure>
 <calculation>
  <scstep>
   <time name="dav">  123.23  124.00</time>
   <time name="total">  123.38  124.14</time>
   <dipole>
    <v name="dipole">      0.00000000       0.00000000      -0.00000000 </v>
    <i name="Tr[quadrupol]">   -411.13609356 </i>
    <i name="Echarged">      0.00000000 </i>
    <i name="Edipol_quadrupol">      0.00000000 </i>
    <i name="Eion">      0.00000000 </i>
   </dipole>
   <energy>
    <i name="alphaZ">      3.38390749 </i>
    <i name="ewald">   8089.85503079 </i>
    <i name="hartreedc">  -8264.38853552 </i>
    <i name="XCdc">     60.62996322 </i>
    <i name="pawpsdc">    173.90258767 </i>
    <i name="pawaedc">   -167.65481393 </i>
    <i name="eentropy">     -0.00090689 </i>
    <i name="bandstr">   -127.13883407 </i>
    <i name="atom">    399.67242035 </i>
    <i name="e_fr_energy">    168.26081913 </i>
    <i name="e_wo_entrp">    168.26172601 </i>
    <i name="e_0_energy">    168.26127257 </i>
   </energy>
  </scstep>
  <scstep>
   <time name="dav">  156.78  157.73</time>
   <time name="total">  156.78  157.73</time>
   <dipole>
    <v name="dipole">      0.00000000       0.00000000      -0.00000000 </v>
    <i name="Tr[quadrupol]">   -411.13609356 </i>
    <i name="Echarged">      0.00000000 </i>
    <i name="Edipol_quadrupol">      0.00000000 </i>
    <i name="Eion">      0.00000000 </i>
   </dipole>
   <energy>
    <i name="e_fr_energy">    -53.94495230 </i>
    <i name="e_wo_entrp">    -53.94453782 </i>
    <i name="e_0_energy">    -53.94474506 </i>
   </energy>
  </scstep>
  <scstep>
   <time name="dav">  141.02  141.88</time>
   <time name="total">  141.03  141.88</time>
   <dipole>
    <v name="dipole">      0.00000000       0.00000000      -0.00000000 </v>
    <i name="Tr[quadrupol]">   -411.13609356 </i>
    <i name="Echarged">      0.00000000 </i>
    <i name="Edipol_quadrupol">      0.00000000 </i>
    <i name="Eion">      0.00000000 </i>
   </dipole>
   <energy>
    <i name="e_fr_energy">    -72.30547051 </i>
    <i name="e_wo_entrp">    -72.30510458 </i>
    <i name="e_0_energy">    -72.30528754 </i>
   </energy>
  </scstep>
  <scstep>
   <time name="dav">  146.87  147.76</time>
   <time name="total">  146.87  147.76</time>
   <dipole>
    <v name="dipole">      0.00000000       0.00000000      -0.00000000 </v>
    <i name="Tr[quadrupol]">   -411.13609356 </i>
    <i name="Echarged">      0.00000000 </i>
    <i name="Edipol_quadrupol">      0.00000000 </i>
    <i name="Eion">      0.00000000 </i>
   </dipole>
   <energy>
    <i name="e_fr_energy">    -72.67663671 </i>
    <i name="e_wo_entrp">    -72.67626499 </i>
    <i name="e_0_energy">    -72.67645085 </i>
   </energy>
  </scstep>
  <scstep>
   <time name="dav">  142.12  142.96</time>
   <time name="total">  145.24  146.10</time>
   <dipole>
    <v name="dipole">      0.00000000       0.00000000      -0.00000000 </v>
    <i name="Tr[quadrupol]">   -411.13609356 </i>
    <i name="Echarged">      0.00000000 </i>
    <i name="Edipol_quadrupol">      0.00000000 </i>
    <i name="Eion">      0.00000000 </i>
   </dipole>
   <energy>
    <i name="e_fr_energy">    -72.68544136 </i>
    <i name="e_wo_entrp">    -72.68506933 </i>
    <i name="e_0_energy">    -72.68525535 </i>
   </energy>
  </scstep>
  <scstep>
   <time name="dav">  126.59  127.38</time>
   <time name="total">  129.90  130.71</time>
   <dipole>
    <v name="dipole">      0.00000000       0.00000000      -0.00000000 </v>
    <i name="Tr[quadrupol]">   -412.01484206 </i>
    <i name="Echarged">      0.00000000 </i>
    <i name="Edipol_quadrupol">      0.00000000 </i>
    <i name="Eion">      0.00000000 </i>
   </dipole>
   <energy>
    <i name="e_fr_energy">    -70.43893342 </i>
    <i name="e_wo_entrp">    -70.43846834 </i>
    <i name="e_0_energy">    -70.43870088 </i>
   </energy>
  </scstep>
  <scstep>
   <time name="dav">  126.21  126.98</time>
   <time name="total">  129.53  130.32</time>
   <dipole>
    <v name="dipole">      0.00000000       0.00000000      -0.00000000 </v>
    <i name="Tr[quadrupol]">   -413.69091887 </i>
    <i name="Echarged">      0.00000000 </i>
    <i name="Edipol_quadrupol">      0.00000000 </i>
    <i name="Eion">      0.00000000 </i>
   </dipole>
   <energy>
    <i name="e_fr_energy">    -68.99975656 </i>
    <i name="e_wo_entrp">    -68.99926135 </i>
    <i name="e_0_energy">    -68.99950895 </i>
   </energy>
  </scstep>
  <scstep>
   <time name="dav">  139.88  140.73</time>
   <time name="total">  143.14  144.02</time>
   <dipole>
    <v name="dipole">      0.00000000       0.00000000       0.00000000 </v>
    <i name="Tr[quadrupol]">   -414.89949186 </i>
    <i name="Echarged">      0.00000000 </i>
    <i name="Edipol_quadrupol">      0.00000000 </i>
    <i name="Eion">      0.00000000 </i>
   </dipole>
   <energy>
    <i name="e_fr_energy">    -68.91697992 </i>
    <i name="e_wo_entrp">    -68.91651332 </i>
    <i name="e_0_energy">    -68.91674662 </i>
   </energy>
  </scstep>
  <scstep>
   <time name="dav">  145.38  146.26</time>
   <time name="total">  148.61  149.51</time>
   <dipole>
    <v name="dipole">      0.00000000       0.00000000       0.00000000 </v>
    <i name="Tr[quadrupol]">   -415.13995570 </i>
    <i name="Echarged">      0.00000000 </i>
    <i name="Edipol_quadrupol">      0.00000000 </i>
    <i name="Eion">      0.00000000 </i>
   </dipole>
   <energy>
    <i name="e_fr_energy">    -68.90416448 </i>
    <i name="e_wo_entrp">    -68.90369400 </i>
    <i name="e_0_energy">    -68.90392924 </i>
   </energy>
  </scstep>
  <scstep>
   <time name="dav">  131.64  132.45</time>
   <time name="total">  134.83  135.65</time>
   <dipole>
    <v name="dipole">      0.00000000       0.00000000       0.00000000 </v>
    <i name="Tr[quadrupol]">   -415.51403226 </i>
    <i name="Echarged">      0.00000000 </i>
    <i name="Edipol_quadrupol">      0.00000000 </i>
    <i name="Eion">      0.00000000 </i>
   </dipole>
   <energy>
    <i name="e_fr_energy">    -68.89626027 </i>
    <i name="e_wo_entrp">    -68.89578314 </i>
    <i name="e_0_energy">    -68.89602171 </i>
   </energy>
  </scstep>
  <scstep>
   <time name="dav">  124.29  125.01</time>
   <time name="total">  127.30  128.04</time>
   <dipole>
    <v name="dipole">      0.00000000       0.00000000       0.00000000 </v>
    <i name="Tr[quadrupol]">   -415.80706790 </i>
    <i name="Echarged">      0.00000000 </i>
    <i name="Edipol_quadrupol">      0.00000000 </i>
    <i name="Eion">      0.00000000 </i>
   </dipole>
   <energy>
    <i name="e_fr_energy">    -68.89512757 </i>
    <i name="e_wo_entrp">    -68.89465373 </i>
    <i name="e_0_energy">    -68.89489065 </i>
   </energy>
  </scstep>
  <scstep>
   <time name="dav">  124.26  125.02</time>
   <time name="total">  127.44  128.23</time>
   <dipole>
    <v name="dipole">      0.00000000       0.00000000       0.00000000 </v>
    <i name="Tr[quadrupol]">   -416.35692992 </i>
    <i name="Echarged">      0.00000000 </i>
    <i name="Edipol_quadrupol">      0.00000000 </i>
    <i name="Eion">      0.00000000 </i>
   </dipole>
   <energy>
    <i name="e_fr_energy">    -68.89741224 </i>
    <i name="e_wo_entrp">    -68.89694173 </i>
    <i name="e_0_energy">    -68.89717698 </i>
   </energy>
  </scstep>
  <scstep>
   <time name="dav">  132.05  132.85</time>
   <time name="total">  135.22  136.03</time>
   <dipole>
    <v name="dipole">      0.00000000       0.00000000       0.00000000 </v>
    <i name="Tr[quadrupol]">   -416.52428129 </i>
    <i name="Echarged">      0.00000000 </i>
    <i name="Edipol_quadrupol">      0.00000000 </i>
    <i name="Eion">      0.00000000 </i>
   </dipole>
   <energy>
    <i name="e_fr_energy">    -68.90080732 </i>
    <i name="e_wo_entrp">    -68.90033746 </i>
    <i name="e_0_energy">    -68.90057239 </i>
   </energy>
  </scstep>
  <scstep>
   <time name="dav">  122.80  123.54</time>
   <time name="total">  126.04  126.80</time>
   <dipole>
    <v name="dipole">      0.00000000       0.00000000       0.00000000 </v>
    <i name="Tr[quadrupol]">   -416.58481273 </i>
    <i name="Echarged">      0.00000000 </i>
    <i name="Edipol_quadrupol">      0.00000000 </i>
    <i name="Eion">      0.00000000 </i>
   </dipole>
   <energy>
    <i name="e_fr_energy">    -68.90352801 </i>
    <i name="e_wo_entrp">    -68.90305981 </i>
    <i name="e_0_energy">    -68.90329391 </i>
   </energy>
  </scstep>
  <scstep>
   <time name="dav">  143.38  144.27</time>
   <time name="total">  146.54  147.45</time>
   <dipole>
    <v name="dipole">      0.00000000       0.00000000       0.00000000 </v>
    <i name="Tr[quadrupol]">   -416.60741385 </i>
    <i name="Echarged">      0.00000000 </i>
    <i name="Edipol_quadrupol">      0.00000000 </i>
    <i name="Eion">      0.00000000 </i>
   </dipole>
   <energy>
    <i name="e_fr_energy">    -68.90399986 </i>
    <i name="e_wo_entrp">    -68.90353142 </i>
    <i name="e_0_energy">    -68.90376564 </i>
   </energy>
  </scstep>
  <scstep>
   <time name="dav">  127.83  128.62</time>
   <time name="total">  131.08  131.89</time>
   <dipole>
    <v name="dipole">      0.00000000       0.00000000       0.00000000 </v>
    <i name="Tr[quadrupol]">   -416.64177837 </i>
    <i name="Echarged">      0.00000000 </i>
    <i name="Edipol_quadrupol">      0.00000000 </i>
    <i name="Eion">      0.00000000 </i>
   </dipole>
   <energy>
    <i name="e_fr_energy">    -68.90461459 </i>
    <i name="e_wo_entrp">    -68.90414558 </i>
    <i name="e_0_energy">    -68.90438009 </i>
   </energy>
  </scstep>
  <scstep>
   <time name="dav">  126.65  127.39</time>
   <time name="total">  129.36  130.12</time>
   <dipole>
    <v name="dipole">      0.00000000       0.00000000       0.00000000 </v>
    <i name="Tr[quadrupol]">   -416.65406636 </i>
    <i name="Echarged">      0.00000000 </i>
    <i name="Edipol_quadrupol">      0.00000000 </i>
    <i name="Eion">      0.00000000 </i>
   </dipole>
   <energy>
    <i name="e_fr_energy">    -68.90480604 </i>
    <i name="e_wo_entrp">    -68.90433721 </i>
    <i name="e_0_energy">    -68.90457162 </i>
   </energy>
  </scstep>
  <scstep>
   <time name="dav">  131.83  132.65</time>
   <time name="total">  134.97  135.81</time>
   <dipole>
    <v name="dipole">      0.00000000       0.00000000       0.00000000 </v>
    <i name="Tr[quadrupol]">   -416.66904783 </i>
    <i name="Echarged">      0.00000000 </i>
    <i name="Edipol_quadrupol">      0.00000000 </i>
    <i name="Eion">      0.00000000 </i>
   </dipole>
   <energy>
    <i name="e_fr_energy">    -68.90492376 </i>
    <i name="e_wo_entrp">    -68.90445503 </i>
    <i name="e_0_energy">    -68.90468939 </i>
   </energy>
  </scstep>
  <scstep>
   <time name="dav">  146.77  147.68</time>
   <time name="total">  150.04  150.97</time>
   <dipole>
    <v name="dipole">      0.00000000       0.00000000       0.00000000 </v>
    <i name="Tr[quadrupol]">   -416.67313130 </i>
    <i name="Echarged">      0.00000000 </i>
    <i name="Edipol_quadrupol">      0.00000000 </i>
    <i name="Eion">      0.00000000 </i>
   </dipole>
   <energy>
    <i name="e_fr_energy">    -68.90494807 </i>
    <i name="e_wo_entrp">    -68.90447935 </i>
    <i name="e_0_energy">    -68.90471371 </i>
   </energy>
  </scstep>
  <scstep>
   <time name="dav">  122.17  122.92</time>
   <time name="total">  125.38  126.16</time>
   <dipole>
    <v name="dipole">      0.00000000       0.00000000       0.00000000 </v>
    <i name="Tr[quadrupol]">   -416.67876073 </i>
    <i name="Echarged">      0.00000000 </i>
    <i name="Edipol_quadrupol">      0.00000000 </i>
    <i name="Eion">      0.00000000 </i>
   </dipole>
   <energy>
    <i name="e_fr_energy">    -68.90496940 </i>
    <i name="e_wo_entrp">    -68.90450064 </i>
    <i name="e_0_energy">    -68.90473502 </i>
   </energy>
  </scstep>
  <scstep>
   <time name="dav">  123.18  123.96</time>
   <time name="total">  126.38  127.18</time>
   <dipole>
    <v name="dipole">      0.00000000       0.00000000       0.00000000 </v>
    <i name="Tr[quadrupol]">   -416.68154496 </i>
    <i name="Echarged">      0.00000000 </i>
    <i name="Edipol_quadrupol">      0.00000000 </i>
    <i name="Eion">      0.00000000 </i>
   </dipole>
   <energy>
    <i name="e_fr_energy">    -68.90497838 </i>
    <i name="e_wo_entrp">    -68.90450963 </i>
    <i name="e_0_energy">    -68.90474401 </i>
   </energy>
  </scstep>
  <scstep>
   <time name="dav">  113.68  114.40</time>
   <time name="total">  116.90  117.63</time>
   <dipole>
    <v name="dipole">      0.00000000       0.00000000       0.00000000 </v>
    <i name="Tr[quadrupol]">   -416.68202642 </i>
    <i name="Echarged">      0.00000000 </i>
    <i name="Edipol_quadrupol">      0.00000000 </i>
    <i name="Eion">      0.00000000 </i>
   </dipole>
   <energy>
    <i name="e_fr_energy">    -68.90498052 </i>
    <i name="e_wo_entrp">    -68.90451177 </i>
    <i name="e_0_energy">    -68.90474615 </i>
   </energy>
  </scstep>
  <scstep>
   <time name="dav">  108.55  109.23</time>
   <time name="total">  111.82  112.52</time>
   <dipole>
    <v name="dipole">      0.00000000       0.00000000       0.00000000 </v>
    <i name="Tr[quadrupol]">   -416.68253913 </i>
    <i name="Echarged">      0.00000000 </i>
    <i name="Edipol_quadrupol">      0.00000000 </i>
    <i name="Eion">      0.00000000 </i>
   </dipole>
   <energy>
    <i name="e_fr_energy">    -68.90498209 </i>
    <i name="e_wo_entrp">    -68.90451335 </i>
    <i name="e_0_energy">    -68.90474772 </i>
   </energy>
  </scstep>
  <scstep>
   <time name="dav">   98.89   99.47</time>
   <time name="total">  101.88  102.48</time>
   <dipole>
    <v name="dipole">      0.00000000       0.00000000       0.00000000 </v>
    <i name="Tr[quadrupol]">   -416.68258678 </i>
    <i name="Echarged">      0.00000000 </i>
    <i name="Edipol_quadrupol">      0.00000000 </i>
    <i name="Eion">      0.00000000 </i>
   </dipole>
   <energy>
    <i name="e_fr_energy">    -68.90498239 </i>
    <i name="e_wo_entrp">    -68.90451364 </i>
    <i name="e_0_energy">    -68.90474802 </i>
   </energy>
  </scstep>
  <scstep>
   <time name="dav">  102.30  102.95</time>
   <time name="total">  105.54  106.21</time>
   <dipole>
    <v name="dipole">      0.00000000       0.00000000       0.00000000 </v>
    <i name="Tr[quadrupol]">   -416.68262221 </i>
    <i name="Echarged">      0.00000000 </i>
    <i name="Edipol_quadrupol">      0.00000000 </i>
    <i name="Eion">      0.00000000 </i>
   </dipole>
   <energy>
    <i name="e_fr_energy">    -68.90498254 </i>
    <i name="e_wo_entrp">    -68.90451379 </i>
    <i name="e_0_energy">    -68.90474816 </i>
   </energy>
  </scstep>
  <scstep>
   <time name="dav">  105.61  106.29</time>
   <time name="total">  108.95  109.65</time>
   <dipole>
    <v name="dipole">      0.00000000       0.00000000       0.00000000 </v>
    <i name="Tr[quadrupol]">   -416.68262682 </i>
    <i name="Echarged">      0.00000000 </i>
    <i name="Edipol_quadrupol">      0.00000000 </i>
    <i name="Eion">      0.00000000 </i>
   </dipole>
   <energy>
    <i name="e_fr_energy">    -68.90498256 </i>
    <i name="e_wo_entrp">    -68.90451381 </i>
    <i name="e_0_energy">    -68.90474819 </i>
   </energy>
  </scstep>
  <scstep>
   <time name="dav">  102.85  103.50</time>
   <time name="total">  106.04  106.71</time>
   <dipole>
    <v name="dipole">      0.00000000       0.00000000       0.00000000 </v>
    <i name="Tr[quadrupol]">   -416.68263014 </i>
    <i name="Echarged">      0.00000000 </i>
    <i name="Edipol_quadrupol">      0.00000000 </i>
    <i name="Eion">      0.00000000 </i>
   </dipole>
   <energy>
    <i name="e_fr_energy">    -68.90498257 </i>
    <i name="e_wo_entrp">    -68.90451382 </i>
    <i name="e_0_energy">    -68.90474820 </i>
   </energy>
  </scstep>
  <scstep>
   <time name="dav">  108.29  108.96</time>
   <time name="total">  108.41  109.09</time>
   <dipole>
    <v name="dipole">      0.00000000       0.00000000       0.00000000 </v>
    <i name="Tr[quadrupol]">   -416.68262778 </i>
    <i name="Echarged">      0.00000000 </i>
    <i name="Edipol_quadrupol">      0.00000000 </i>
    <i name="Eion">      0.00000000 </i>
   </dipole>
   <energy>
    <i name="alphaZ">      3.38390749 </i>
    <i name="ewald">   8089.85503079 </i>
    <i name="hartreedc">  -8376.93339239 </i>
    <i name="XCdc">     64.71835200 </i>
    <i name="pawpsdc">    792.19866153 </i>
    <i name="pawaedc">   -786.74108368 </i>
    <i name="eentropy">     -0.00046875 </i>
    <i name="bandstr">   -255.05840992 </i>
    <i name="atom">    399.67242035 </i>
    <i name="e_fr_energy">    -68.90498258 </i>
    <i name="e_wo_entrp">    -68.90451383 </i>
    <i name="e_0_energy">    -68.90474820 </i>
   </energy>
  </scstep>
  <structure>
   <crystal>
    <varray name="basis" >
     <v>      11.91867068       5.14104636       0.00000000 </v>
     <v>       0.01064425       2.08187646       0.00000000 </v>
     <v>       0.00000000       0.00000000      40.00000000 </v>
    </varray>
    <i name="volume">    990.33909484 </i>
    <varray name="rec_basis" >
     <v>       0.08408742      -0.00042992       0.00000000 </v>
     <v>      -0.20764792       0.48139756       0.00000000 </v>
     <v>       0.00000000       0.00000000       0.02500000 </v>
    </varray>
   </crystal>
   <varray name="positions" >
    <v>       0.95694018       0.35771191       0.12232262 </v>
    <v>       0.15694018       0.35771191       0.12232262 </v>
    <v>       0.35694018       0.35771191       0.12232262 </v>
    <v>       0.55694018       0.35771191       0.12232262 </v>
    <v>       0.75694018       0.35771191       0.12232262 </v>
    <v>       0.04305982       0.64228809       0.07767738 </v>
    <v>       0.24305982       0.64228809       0.07767738 </v>
    <v>       0.44305982       0.64228809       0.07767738 </v>
    <v>       0.64305982       0.64228809       0.07767738 </v>
    <v>       0.84305982       0.64228809       0.07767738 </v>
    <v>       0.95343816       0.86649866       0.14741039 </v>
    <v>       0.15343816       0.86649866       0.14741039 </v>
    <v>       0.35343816       0.86649866       0.14741039 </v>
    <v>       0.55343816       0.86649866       0.14741039 </v>
    <v>       0.75343816       0.86649866       0.14741039 </v>
    <v>       0.04656184       0.13350134       0.05258961 </v>
    <v>       0.24656184       0.13350134       0.05258961 </v>
    <v>       0.44656184       0.13350134       0.05258961 </v>
    <v>       0.64656184       0.13350134       0.05258961 </v>
    <v>       0.84656184       0.13350134       0.05258961 </v>
   </varray>
  </structure>
  <varray name="forces" >
   <v>       0.00008840       0.00012627       0.00117826 </v>
   <v>       0.00008840       0.00012627       0.00117826 </v>
   <v>       0.00008840       0.00012627       0.00117826 </v>
   <v>       0.00008840       0.00012627       0.00117826 </v>
   <v>       0.00008840       0.00012627       0.00117826 </v>
   <v>      -0.00008840      -0.00012627      -0.00117826 </v>
   <v>      -0.00008840      -0.00012627      -0.00117826 </v>
   <v>      -0.00008840      -0.00012627      -0.00117826 </v>
   <v>      -0.00008840      -0.00012627      -0.00117826 </v>
   <v>      -0.00008840      -0.00012627      -0.00117826 </v>
   <v>       0.00330558      -0.00058372      -0.00500622 </v>
   <v>       0.00330558      -0.00058372      -0.00500622 </v>
   <v>       0.00330558      -0.00058372      -0.00500622 </v>
   <v>       0.00330558      -0.00058372      -0.00500622 </v>
   <v>       0.00330558      -0.00058372      -0.00500622 </v>
   <v>      -0.00330558       0.00058372       0.00500622 </v>
   <v>      -0.00330558       0.00058372       0.00500622 </v>
   <v>      -0.00330558       0.00058372       0.00500622 </v>
   <v>      -0.00330558       0.00058372       0.00500622 </v>
   <v>      -0.00330558       0.00058372       0.00500622 </v>
  </varray>
  <varray name="stress" >
   <v>       0.79002697      -0.04063485       0.10322359 </v>
   <v>      -0.04063485       0.08552031      -0.01703410 </v>
   <v>       0.10322359      -0.01703410      -0.18831341 </v>
  </varray>
  <energy>
   <i name="e_fr_energy">    -68.90498258 </i>
   <i name="e_wo_entrp">    -68.90451383 </i>
   <i name="e_0_energy">    -68.90474820 </i>
  </energy>
  <time name="totalsc"> 3689.17 3711.79</time>
  <eigenvalues>
   <array>
    <dimension dim="1">band</dimension>
    <dimension dim="2">kpoint</dimension>
    <dimension dim="3">spin</dimension>
    <field>eigene</field>
    <field>occ</field>
    <set>
     <set comment="spin 1">
      <set comment="kpoint 1">
       <r>  -13.6534    1.0000 </r>
       <r>  -12.8176    1.0000 </r>
       <r>  -12.8176    1.0000 </r>
       <r>  -12.1618    1.0000 </r>
       <r>  -11.3612    1.0000 </r>
       <r>  -11.3612    1.0000 </r>
       <r>  -10.3616    1.0000 </r>
       <r>  -10.3616    1.0000 </r>
       <r>   -9.2638    1.0000 </r>
       <r>   -9.2638    1.0000 </r>
       <r>   -8.9483    1.0000 </r>
       <r>   -8.2091    1.0000 </r>
       <r>   -8.2091    1.0000 </r>
       <r>   -7.0275    1.0000 </r>
       <r>   -7.0275    1.0000 </r>
       <r>   -5.7723    1.0000 </r>
       <r>   -5.7723    1.0000 </r>
       <r>   -0.8490    0.0000 </r>
       <r>   -0.8490    0.0000 </r>
       <r>   -0.5781    0.0000 </r>
       <r>   -0.3210    0.0000 </r>
       <r>   -0.3210    0.0000 </r>
       <r>    0.5752    0.0000 </r>
       <r>    1.1195    0.0000 </r>
       <r>    1.1871    0.0000 </r>
       <r>    1.2961    0.0000 </r>
       <r>    1.2961    0.0000 </r>
       <r>    1.4664    0.0000 </r>
      </set>
      <set comment="kpoint 2">
       <r>  -13.6501    1.0000 </r>
       <r>  -12.9186    1.0000 </r>
       <r>  -12.7101    1.0000 </r>
       <r>  -12.1586    1.0000 </r>
       <r>  -11.4565    1.0000 </r>
       <r>  -11.2604    1.0000 </r>
       <r>  -10.5565    1.0000 </r>
       <r>  -10.1632    1.0000 </r>
       <r>   -9.4054    1.0000 </r>
       <r>   -9.1283    1.0000 </r>
       <r>   -8.9453    1.0000 </r>
       <r>   -8.2928    1.0000 </r>
       <r>   -8.1221    1.0000 </r>
       <r>   -7.0427    1.0000 </r>
       <r>   -7.0273    1.0000 </r>
       <r>   -6.0485    1.0000 </r>
       <r>   -5.4838    1.0000 </r>
       <r>   -1.0769    0.0000 </r>
       <r>   -0.6679    0.0000 </r>
       <r>   -0.5757    0.0000 </r>
       <r>   -0.3997    0.0000 </r>
       <r>   -0.2155    0.0000 </r>
       <r>    0.5792    0.0000 </r>
       <r>    1.1236    0.0000 </r>
       <r>    1.1911    0.0000 </r>
       <r>    1.2865    0.0000 </r>
       <r>    1.3423    0.0000 </r>
       <r>    1.4706    0.0000 </r>
      </set>
      <set comment="kpoint 3">
       <r>  -13.6403    1.0000 </r>
       <r>  -13.0132    1.0000 </r>
       <r>  -12.5962    1.0000 </r>
       <r>  -12.1491    1.0000 </r>
       <r>  -11.5461    1.0000 </r>
       <r>  -11.1541    1.0000 </r>
       <r>  -10.7471    1.0000 </r>
       <r>   -9.9624    1.0000 </r>
       <r>   -9.5505    1.0000 </r>
       <r>   -9.0024    1.0000 </r>
       <r>   -8.9361    1.0000 </r>
       <r>   -8.3727    1.0000 </r>
       <r>   -8.0323    1.0000 </r>
       <r>   -7.0724    1.0000 </r>
       <r>   -7.0422    1.0000 </r>
       <r>   -6.3088    1.0000 </r>
       <r>   -5.1851    1.0000 </r>
       <r>   -1.3419    0.0000 </r>
       <r>   -0.5685    0.0000 </r>
       <r>   -0.5385    0.0000 </r>
       <r>   -0.4521    0.0000 </r>
       <r>   -0.0837    0.0000 </r>
       <r>    0.5913    0.0000 </r>
       <r>    1.1361    0.0000 </r>
       <r>    1.2030    0.0000 </r>
       <r>    1.3109    0.0000 </r>
       <r>    1.3503    0.0000 </r>
       <r>    1.4406    0.0000 </r>
      </set>
      <set comment="kpoint 4">
       <r>  -13.6239    1.0000 </r>
       <r>  -13.1013    1.0000 </r>
       <r>  -12.4760    1.0000 </r>
       <r>  -12.1332    1.0000 </r>
       <r>  -11.6299    1.0000 </r>
       <r>  -11.0425    1.0000 </r>
       <r>  -10.9329    1.0000 </r>
       <r>   -9.7606    1.0000 </r>
       <r>   -9.6971    1.0000 </r>
       <r>   -8.9207    1.0000 </r>
       <r>   -8.8915    1.0000 </r>
       <r>   -8.4484    1.0000 </r>
       <r>   -7.9404    1.0000 </r>
       <r>   -7.1154    1.0000 </r>
       <r>   -7.0714    1.0000 </r>
       <r>   -6.5481    1.0000 </r>
       <r>   -4.8780    1.0000 </r>
       <r>   -1.6337    0.0000 </r>
       <r>   -0.5566    0.0000 </r>
       <r>   -0.4800    0.0000 </r>
       <r>   -0.4579    0.0000 </r>
       <r>    0.0732    0.0000 </r>
       <r>    0.6115    0.0000 </r>
       <r>    1.1569    0.0000 </r>
       <r>    1.2229    0.0000 </r>
       <r>    1.2505    0.0000 </r>
       <r>    1.3253    0.0000 </r>
       <r>    1.3614    0.0000 </r>
      </set>
      <set comment="kpoint 5">
       <r>  -13.6010    1.0000 </r>
       <r>  -13.1829    1.0000 </r>
       <r>  -12.3493    1.0000 </r>
       <r>  -12.1109    1.0000 </r>
       <r>  -11.7077    1.0000 </r>
       <r>  -11.1136    1.0000 </r>
       <r>  -10.9259    1.0000 </r>
       <r>   -9.8439    1.0000 </r>
       <r>   -9.5602    1.0000 </r>
       <r>   -8.8993    1.0000 </r>
       <r>   -8.8030    1.0000 </r>
       <r>   -8.5197    1.0000 </r>
       <r>   -7.8469    1.0000 </r>
       <r>   -7.1703    1.0000 </r>
       <r>   -7.1141    1.0000 </r>
       <r>   -6.7581    1.0000 </r>
       <r>   -4.5638    1.0000 </r>
       <r>   -1.9436    0.0000 </r>
       <r>   -0.5406    0.0000 </r>
       <r>   -0.4867    0.0000 </r>
       <r>   -0.4168    0.0000 </r>
       <r>    0.2535    0.0000 </r>
       <r>    0.6398    0.0000 </r>
       <r>    1.1440    0.0000 </r>
       <r>    1.1525    0.0000 </r>
       <r>    1.1859    0.0000 </r>
       <r>    1.2507    0.0000 </r>
       <r>    1.4274    0.0000 </r>
      </set>
      <set comment="kpoint 6">
       <r>  -13.5716    1.0000 </r>
       <r>  -13.2579    1.0000 </r>
       <r>  -12.2163    1.0000 </r>
       <r>  -12.0823    1.0000 </r>
       <r>  -11.7797    1.0000 </r>
       <r>  -11.2888    1.0000 </r>
       <r>  -10.8043    1.0000 </r>
       <r>   -9.9896    1.0000 </r>
       <r>   -9.3646    1.0000 </r>
       <r>   -8.8719    1.0000 </r>
       <r>   -8.7470    1.0000 </r>
       <r>   -8.5861    1.0000 </r>
       <r>   -7.7528    1.0000 </r>
       <r>   -7.2356    1.0000 </r>
       <r>   -7.1691    1.0000 </r>
       <r>   -6.9266    1.0000 </r>
       <r>   -4.2435    1.0000 </r>
       <r>   -2.2651    0.0000 </r>
       <r>   -0.5208    0.0000 </r>
       <r>   -0.4774    0.0000 </r>
       <r>   -0.4041    0.0000 </r>
       <r>    0.4547    0.0000 </r>
       <r>    0.6761    0.0000 </r>
       <r>    0.9867    0.0000 </r>
       <r>    1.0612    0.0000 </r>
       <r>    1.2233    0.0000 </r>
       <r>    1.2862    0.0000 </r>
       <r>    1.5699    0.0000 </r>
      </set>
      <set comment="kpoint 7">
       <r>  -13.5357    1.0000 </r>
       <r>  -13.3265    1.0000 </r>
       <r>  -12.0770    1.0000 </r>
       <r>  -12.0475    1.0000 </r>
       <r>  -11.8455    1.0000 </r>
       <r>  -11.4584    1.0000 </r>
       <r>  -10.6781    1.0000 </r>
       <r>  -10.1335    1.0000 </r>
       <r>   -9.1795    1.0000 </r>
       <r>   -8.8385    1.0000 </r>
       <r>   -8.7350    1.0000 </r>
       <r>   -8.6475    1.0000 </r>
       <r>   -7.6589    1.0000 </r>
       <r>   -7.3094    1.0000 </r>
       <r>   -7.2312    1.0000 </r>
       <r>   -7.0416    1.0000 </r>
       <r>   -3.9184    1.0000 </r>
       <r>   -2.5935    0.0000 </r>
       <r>   -0.4980    0.0000 </r>
       <r>   -0.4597    0.0000 </r>
       <r>   -0.4097    0.0000 </r>
       <r>    0.6736    0.0000 </r>
       <r>    0.7204    0.0000 </r>
       <r>    0.8625    0.0000 </r>
       <r>    0.9774    0.0000 </r>
       <r>    1.2689    0.0000 </r>
       <r>    1.3293    0.0000 </r>
       <r>    1.5347    0.0000 </r>
      </set>
      <set comment="kpoint 8">
       <r>  -13.4932    1.0000 </r>
       <r>  -13.3886    1.0000 </r>
       <r>  -12.0063    1.0000 </r>
       <r>  -11.9315    1.0000 </r>
       <r>  -11.9053    1.0000 </r>
       <r>  -11.6221    1.0000 </r>
       <r>  -10.5476    1.0000 </r>
       <r>  -10.2749    1.0000 </r>
       <r>   -9.0138    1.0000 </r>
       <r>   -8.7992    1.0000 </r>
       <r>   -8.7750    1.0000 </r>
       <r>   -8.7035    1.0000 </r>
       <r>   -7.5664    1.0000 </r>
       <r>   -7.3903    1.0000 </r>
       <r>   -7.2823    1.0000 </r>
       <r>   -7.1044    1.0000 </r>
       <r>   -3.5894    1.0000 </r>
       <r>   -2.9252    0.0000 </r>
       <r>   -0.4735    0.0000 </r>
       <r>   -0.4431    0.0000 </r>
       <r>   -0.4264    0.0000 </r>
       <r>    0.7728    0.0000 </r>
       <r>    0.7817    0.0000 </r>
       <r>    0.9014    0.0000 </r>
       <r>    0.9055    0.0000 </r>
       <r>    1.3229    0.0000 </r>
       <r>    1.3597    0.0000 </r>
       <r>    1.3793    0.0000 </r>
      </set>
      <set comment="kpoint 9">
       <r>  -13.4441    1.0000 </r>
       <r>  -13.4441    1.0000 </r>
       <r>  -11.9589    1.0000 </r>
       <r>  -11.9589    1.0000 </r>
       <r>  -11.7798    1.0000 </r>
       <r>  -11.7798    1.0000 </r>
       <r>  -10.4130    1.0000 </r>
       <r>  -10.4130    1.0000 </r>
       <r>   -8.9013    1.0000 </r>
       <r>   -8.8444    1.0000 </r>
       <r>   -8.7542    1.0000 </r>
       <r>   -8.7542    1.0000 </r>
       <r>   -7.4764    1.0000 </r>
       <r>   -7.4764    1.0000 </r>
       <r>   -7.3017    1.0000 </r>
       <r>   -7.1241    1.0000 </r>
       <r>   -3.2578    1.0000 </r>
       <r>   -3.2578    1.0000 </r>
       <r>   -0.4488    0.0000 </r>
       <r>   -0.4488    0.0000 </r>
       <r>   -0.4363    0.0000 </r>
       <r>    0.7534    0.0000 </r>
       <r>    0.8331    0.0000 </r>
       <r>    0.8331    0.0000 </r>
       <r>    1.1417    0.0000 </r>
       <r>    1.1417    0.0000 </r>
       <r>    1.3854    0.0000 </r>
       <r>    1.3862    0.0000 </r>
      </set>
      <set comment="kpoint 10">
       <r>  -13.6502    1.0000 </r>
       <r>  -12.8574    1.0000 </r>
       <r>  -12.7715    1.0000 </r>
       <r>  -12.1584    1.0000 </r>
       <r>  -11.3984    1.0000 </r>
       <r>  -11.3176    1.0000 </r>
       <r>  -10.4399    1.0000 </r>
       <r>  -10.2778    1.0000 </r>
       <r>   -9.3191    1.0000 </r>
       <r>   -9.2046    1.0000 </r>
       <r>   -8.9443    1.0000 </r>
       <r>   -8.2405    1.0000 </r>
       <r>   -8.1701    1.0000 </r>
       <r>   -7.0286    1.0000 </r>
       <r>   -7.0222    1.0000 </r>
       <r>   -5.8846    1.0000 </r>
       <r>   -5.6516    1.0000 </r>
       <r>   -0.9343    0.0000 </r>
       <r>   -0.7649    0.0000 </r>
       <r>   -0.5748    0.0000 </r>
       <r>   -0.3540    0.0000 </r>
       <r>   -0.2782    0.0000 </r>
       <r>    0.5795    0.0000 </r>
       <r>    1.1239    0.0000 </r>
       <r>    1.1914    0.0000 </r>
       <r>    1.2901    0.0000 </r>
       <r>    1.3137    0.0000 </r>
       <r>    1.4708    0.0000 </r>
      </set>
      <set comment="kpoint 11">
       <r>  -13.6496    1.0000 </r>
       <r>  -12.8752    1.0000 </r>
       <r>  -12.7526    1.0000 </r>
       <r>  -12.1579    1.0000 </r>
       <r>  -11.4152    1.0000 </r>
       <r>  -11.2999    1.0000 </r>
       <r>  -10.4741    1.0000 </r>
       <r>  -10.2429    1.0000 </r>
       <r>   -9.3440    1.0000 </r>
       <r>   -9.1807    1.0000 </r>
       <r>   -8.9438    1.0000 </r>
       <r>   -8.2552    1.0000 </r>
       <r>   -8.1548    1.0000 </r>
       <r>   -7.0313    1.0000 </r>
       <r>   -7.0222    1.0000 </r>
       <r>   -5.9331    1.0000 </r>
       <r>   -5.6009    1.0000 </r>
       <r>   -0.9744    0.0000 </r>
       <r>   -0.7330    0.0000 </r>
       <r>   -0.5743    0.0000 </r>
       <r>   -0.3678    0.0000 </r>
       <r>   -0.2596    0.0000 </r>
       <r>    0.5802    0.0000 </r>
       <r>    1.1246    0.0000 </r>
       <r>    1.1921    0.0000 </r>
       <r>    1.2884    0.0000 </r>
       <r>    1.3219    0.0000 </r>
       <r>    1.4716    0.0000 </r>
      </set>
      <set comment="kpoint 12">
       <r>  -13.6425    1.0000 </r>
       <r>  -12.9724    1.0000 </r>
       <r>  -12.6414    1.0000 </r>
       <r>  -12.1510    1.0000 </r>
       <r>  -11.5071    1.0000 </r>
       <r>  -11.1958    1.0000 </r>
       <r>  -10.6666    1.0000 </r>
       <r>  -10.0429    1.0000 </r>
       <r>   -9.4879    1.0000 </r>
       <r>   -9.0504    1.0000 </r>
       <r>   -8.9371    1.0000 </r>
       <r>   -8.3367    1.0000 </r>
       <r>   -8.0661    1.0000 </r>
       <r>   -7.0550    1.0000 </r>
       <r>   -7.0309    1.0000 </r>
       <r>   -6.2004    1.0000 </r>
       <r>   -5.3062    1.0000 </r>
       <r>   -1.2254    0.0000 </r>
       <r>   -0.5822    0.0000 </r>
       <r>   -0.5691    0.0000 </r>
       <r>   -0.4309    0.0000 </r>
       <r>   -0.1386    0.0000 </r>
       <r>    0.5890    0.0000 </r>
       <r>    1.1336    0.0000 </r>
       <r>    1.2008    0.0000 </r>
       <r>    1.2995    0.0000 </r>
       <r>    1.3746    0.0000 </r>
       <r>    1.4311    0.0000 </r>
      </set>
      <set comment="kpoint 13">
       <r>  -13.6289    1.0000 </r>
       <r>  -13.0631    1.0000 </r>
       <r>  -12.5237    1.0000 </r>
       <r>  -12.1377    1.0000 </r>
       <r>  -11.5933    1.0000 </r>
       <r>  -11.0864    1.0000 </r>
       <r>  -10.8544    1.0000 </r>
       <r>   -9.8414    1.0000 </r>
       <r>   -9.6340    1.0000 </r>
       <r>   -8.9326    1.0000 </r>
       <r>   -8.9243    1.0000 </r>
       <r>   -8.4142    1.0000 </r>
       <r>   -7.9750    1.0000 </r>
       <r>   -7.0927    1.0000 </r>
       <r>   -7.0543    1.0000 </r>
       <r>   -6.4491    1.0000 </r>
       <r>   -5.0024    1.0000 </r>
       <r>   -1.5074    0.0000 </r>
       <r>   -0.5591    0.0000 </r>
       <r>   -0.4824    0.0000 </r>
       <r>   -0.4686    0.0000 </r>
       <r>    0.0081    0.0000 </r>
       <r>    0.6058    0.0000 </r>
       <r>    1.1510    0.0000 </r>
       <r>    1.2174    0.0000 </r>
       <r>    1.2960    0.0000 </r>
       <r>    1.3403    0.0000 </r>
       <r>    1.4078    0.0000 </r>
      </set>
      <set comment="kpoint 14">
       <r>  -13.6087    1.0000 </r>
       <r>  -13.1474    1.0000 </r>
       <r>  -12.3997    1.0000 </r>
       <r>  -12.1180    1.0000 </r>
       <r>  -11.6736    1.0000 </r>
       <r>  -11.0372    1.0000 </r>
       <r>  -10.9718    1.0000 </r>
       <r>   -9.7809    1.0000 </r>
       <r>   -9.6401    1.0000 </r>
       <r>   -8.9053    1.0000 </r>
       <r>   -8.8338    1.0000 </r>
       <r>   -8.4874    1.0000 </r>
       <r>   -7.8820    1.0000 </r>
       <r>   -7.1429    1.0000 </r>
       <r>   -7.0916    1.0000 </r>
       <r>   -6.6724    1.0000 </r>
       <r>   -4.6909    1.0000 </r>
       <r>   -1.8108    0.0000 </r>
       <r>   -0.5448    0.0000 </r>
       <r>   -0.4834    0.0000 </r>
       <r>   -0.4265    0.0000 </r>
       <r>    0.1790    0.0000 </r>
       <r>    0.6308    0.0000 </r>
       <r>    1.1766    0.0000 </r>
       <r>    1.1957    0.0000 </r>
       <r>    1.2189    0.0000 </r>
       <r>    1.2420    0.0000 </r>
       <r>    1.4014    0.0000 </r>
      </set>
      <set comment="kpoint 15">
       <r>  -13.5819    1.0000 </r>
       <r>  -13.2252    1.0000 </r>
       <r>  -12.2693    1.0000 </r>
       <r>  -12.0921    1.0000 </r>
       <r>  -11.7480    1.0000 </r>
       <r>  -11.2147    1.0000 </r>
       <r>  -10.8523    1.0000 </r>
       <r>   -9.9271    1.0000 </r>
       <r>   -9.4420    1.0000 </r>
       <r>   -8.8804    1.0000 </r>
       <r>   -8.7631    1.0000 </r>
       <r>   -8.5558    1.0000 </r>
       <r>   -7.7881    1.0000 </r>
       <r>   -7.2041    1.0000 </r>
       <r>   -7.1417    1.0000 </r>
       <r>   -6.8596    1.0000 </r>
       <r>   -4.3730    1.0000 </r>
       <r>   -2.1283    0.0000 </r>
       <r>   -0.5264    0.0000 </r>
       <r>   -0.4799    0.0000 </r>
       <r>   -0.4035    0.0000 </r>
       <r>    0.3719    0.0000 </r>
       <r>    0.6638    0.0000 </r>
       <r>    1.0507    0.0000 </r>
       <r>    1.1015    0.0000 </r>
       <r>    1.2106    0.0000 </r>
       <r>    1.2743    0.0000 </r>
       <r>    1.4746    0.0000 </r>
      </set>
      <set comment="kpoint 16">
       <r>  -13.5487    1.0000 </r>
       <r>  -13.2964    1.0000 </r>
       <r>  -12.1326    1.0000 </r>
       <r>  -12.0598    1.0000 </r>
       <r>  -11.8163    1.0000 </r>
       <r>  -11.3867    1.0000 </r>
       <r>  -10.7280    1.0000 </r>
       <r>  -10.0719    1.0000 </r>
       <r>   -9.2518    1.0000 </r>
       <r>   -8.8494    1.0000 </r>
       <r>   -8.7318    1.0000 </r>
       <r>   -8.6193    1.0000 </r>
       <r>   -7.6940    1.0000 </r>
       <r>   -7.2746    1.0000 </r>
       <r>   -7.2021    1.0000 </r>
       <r>   -6.9975    1.0000 </r>
       <r>   -4.0498    1.0000 </r>
       <r>   -2.4543    0.0000 </r>
       <r>   -0.5048    0.0000 </r>
       <r>   -0.4647    0.0000 </r>
       <r>   -0.4026    0.0000 </r>
       <r>    0.5839    0.0000 </r>
       <r>    0.7048    0.0000 </r>
       <r>    0.9117    0.0000 </r>
       <r>    1.0146    0.0000 </r>
       <r>    1.2528    0.0000 </r>
       <r>    1.3143    0.0000 </r>
       <r>    1.5733    0.0000 </r>
      </set>
      <set comment="kpoint 17">
       <r>  -13.5089    1.0000 </r>
       <r>  -13.3612    1.0000 </r>
       <r>  -12.0212    1.0000 </r>
       <r>  -11.9897    1.0000 </r>
       <r>  -11.8786    1.0000 </r>
       <r>  -11.5528    1.0000 </r>
       <r>  -10.5992    1.0000 </r>
       <r>  -10.2143    1.0000 </r>
       <r>   -9.0767    1.0000 </r>
       <r>   -8.8126    1.0000 </r>
       <r>   -8.7500    1.0000 </r>
       <r>   -8.6776    1.0000 </r>
       <r>   -7.6008    1.0000 </r>
       <r>   -7.3527    1.0000 </r>
       <r>   -7.2607    1.0000 </r>
       <r>   -7.0807    1.0000 </r>
       <r>   -3.7222    1.0000 </r>
       <r>   -2.7850    0.0000 </r>
       <r>   -0.4808    0.0000 </r>
       <r>   -0.4464    0.0000 </r>
       <r>   -0.4155    0.0000 </r>
       <r>    0.7539    0.0000 </r>
       <r>    0.8112    0.0000 </r>
       <r>    0.8117    0.0000 </r>
       <r>    0.9354    0.0000 </r>
       <r>    1.3033    0.0000 </r>
       <r>    1.3615    0.0000 </r>
       <r>    1.4909    0.0000 </r>
      </set>
      <set comment="kpoint 18">
       <r>  -13.4625    1.0000 </r>
       <r>  -13.4194    1.0000 </r>
       <r>  -11.9764    1.0000 </r>
       <r>  -11.9348    1.0000 </r>
       <r>  -11.8405    1.0000 </r>
       <r>  -11.7130    1.0000 </r>
       <r>  -10.4663    1.0000 </r>
       <r>  -10.3538    1.0000 </r>
       <r>   -8.9306    1.0000 </r>
       <r>   -8.8182    1.0000 </r>
       <r>   -8.7699    1.0000 </r>
       <r>   -8.7305    1.0000 </r>
       <r>   -7.5096    1.0000 </r>
       <r>   -7.4369    1.0000 </r>
       <r>   -7.2949    1.0000 </r>
       <r>   -7.1172    1.0000 </r>
       <r>   -3.3915    1.0000 </r>
       <r>   -3.1176    0.9466 </r>
       <r>   -0.4559    0.0000 </r>
       <r>   -0.4361    0.0000 </r>
       <r>   -0.4347    0.0000 </r>
       <r>    0.7610    0.0000 </r>
       <r>    0.8109    0.0000 </r>
       <r>    0.8639    0.0000 </r>
       <r>    1.0471    0.0000 </r>
       <r>    1.2384    0.0000 </r>
       <r>    1.3622    0.0000 </r>
       <r>    1.4154    0.0000 </r>
      </set>
      <set comment="kpoint 19">
       <r>  -13.4711    1.0000 </r>
       <r>  -13.4097    1.0000 </r>
       <r>  -11.9847    1.0000 </r>
       <r>  -11.9254    1.0000 </r>
       <r>  -11.8672    1.0000 </r>
       <r>  -11.6853    1.0000 </r>
       <r>  -10.4899    1.0000 </r>
       <r>  -10.3296    1.0000 </r>
       <r>   -8.9527    1.0000 </r>
       <r>   -8.8036    1.0000 </r>
       <r>   -8.7778    1.0000 </r>
       <r>   -8.7216    1.0000 </r>
       <r>   -7.5255    1.0000 </r>
       <r>   -7.4217    1.0000 </r>
       <r>   -7.2914    1.0000 </r>
       <r>   -7.1138    1.0000 </r>
       <r>   -3.4498    1.0000 </r>
       <r>   -3.0591    0.0059 </r>
       <r>   -0.4603    0.0000 </r>
       <r>   -0.4359    0.0000 </r>
       <r>   -0.4321    0.0000 </r>
       <r>    0.7659    0.0000 </r>
       <r>    0.8003    0.0000 </r>
       <r>    0.8759    0.0000 </r>
       <r>    1.0055    0.0000 </r>
       <r>    1.2771    0.0000 </r>
       <r>    1.3513    0.0000 </r>
       <r>    1.4055    0.0000 </r>
      </set>
      <set comment="kpoint 20">
       <r>  -13.5163    1.0000 </r>
       <r>  -13.3503    1.0000 </r>
       <r>  -12.0285    1.0000 </r>
       <r>  -12.0152    1.0000 </r>
       <r>  -11.8681    1.0000 </r>
       <r>  -11.5240    1.0000 </r>
       <r>  -10.6221    1.0000 </r>
       <r>  -10.1895    1.0000 </r>
       <r>   -9.1059    1.0000 </r>
       <r>   -8.8195    1.0000 </r>
       <r>   -8.7429    1.0000 </r>
       <r>   -8.6677    1.0000 </r>
       <r>   -7.6171    1.0000 </r>
       <r>   -7.3385    1.0000 </r>
       <r>   -7.2515    1.0000 </r>
       <r>   -7.0697    1.0000 </r>
       <r>   -3.7800    1.0000 </r>
       <r>   -2.7267    0.0000 </r>
       <r>   -0.4851    0.0000 </r>
       <r>   -0.4494    0.0000 </r>
       <r>   -0.4126    0.0000 </r>
       <r>    0.7447    0.0000 </r>
       <r>    0.7704    0.0000 </r>
       <r>    0.8260    0.0000 </r>
       <r>    0.9487    0.0000 </r>
       <r>    1.2939    0.0000 </r>
       <r>    1.3527    0.0000 </r>
       <r>    1.5049    0.0000 </r>
      </set>
      <set comment="kpoint 21">
       <r>  -13.5550    1.0000 </r>
       <r>  -13.2844    1.0000 </r>
       <r>  -12.1571    1.0000 </r>
       <r>  -12.0659    1.0000 </r>
       <r>  -11.8048    1.0000 </r>
       <r>  -11.3569    1.0000 </r>
       <r>  -10.7501    1.0000 </r>
       <r>  -10.0466    1.0000 </r>
       <r>   -9.2844    1.0000 </r>
       <r>   -8.8553    1.0000 </r>
       <r>   -8.7339    1.0000 </r>
       <r>   -8.6085    1.0000 </r>
       <r>   -7.7105    1.0000 </r>
       <r>   -7.2616    1.0000 </r>
       <r>   -7.1911    1.0000 </r>
       <r>   -6.9773    1.0000 </r>
       <r>   -4.1069    1.0000 </r>
       <r>   -2.3966    0.0000 </r>
       <r>   -0.5088    0.0000 </r>
       <r>   -0.4678    0.0000 </r>
       <r>   -0.4016    0.0000 </r>
       <r>    0.5454    0.0000 </r>
       <r>    0.6970    0.0000 </r>
       <r>    0.9336    0.0000 </r>
       <r>    1.0293    0.0000 </r>
       <r>    1.2448    0.0000 </r>
       <r>    1.3067    0.0000 </r>
       <r>    1.5064    0.0000 </r>
      </set>
      <set comment="kpoint 22">
       <r>  -13.5871    1.0000 </r>
       <r>  -13.2120    1.0000 </r>
       <r>  -12.2927    1.0000 </r>
       <r>  -12.0971    1.0000 </r>
       <r>  -11.7353    1.0000 </r>
       <r>  -11.1840    1.0000 </r>
       <r>  -10.8736    1.0000 </r>
       <r>   -9.9015    1.0000 </r>
       <r>   -9.4764    1.0000 </r>
       <r>   -8.8852    1.0000 </r>
       <r>   -8.7730    1.0000 </r>
       <r>   -8.5441    1.0000 </r>
       <r>   -7.8047    1.0000 </r>
       <r>   -7.1926    1.0000 </r>
       <r>   -7.1320    1.0000 </r>
       <r>   -6.8299    1.0000 </r>
       <r>   -4.4293    1.0000 </r>
       <r>   -2.0717    0.0000 </r>
       <r>   -0.5299    0.0000 </r>
       <r>   -0.4816    0.0000 </r>
       <r>   -0.4056    0.0000 </r>
       <r>    0.3365    0.0000 </r>
       <r>    0.6574    0.0000 </r>
       <r>    1.0784    0.0000 </r>
       <r>    1.1176    0.0000 </r>
       <r>    1.2040    0.0000 </r>
       <r>    1.2681    0.0000 </r>
       <r>    1.5507    0.0000 </r>
      </set>
      <set comment="kpoint 23">
       <r>  -13.6127    1.0000 </r>
       <r>  -13.1331    1.0000 </r>
       <r>  -12.4219    1.0000 </r>
       <r>  -12.1220    1.0000 </r>
       <r>  -11.6599    1.0000 </r>
       <r>  -11.0055    1.0000 </r>
       <r>  -10.9923    1.0000 </r>
       <r>   -9.7551    1.0000 </r>
       <r>   -9.6753    1.0000 </r>
       <r>   -8.9091    1.0000 </r>
       <r>   -8.8494    1.0000 </r>
       <r>   -8.4748    1.0000 </r>
       <r>   -7.8985    1.0000 </r>
       <r>   -7.1332    1.0000 </r>
       <r>   -7.0841    1.0000 </r>
       <r>   -6.6354    1.0000 </r>
       <r>   -4.7462    1.0000 </r>
       <r>   -1.7563    0.0000 </r>
       <r>   -0.5476    0.0000 </r>
       <r>   -0.4823    0.0000 </r>
       <r>   -0.4336    0.0000 </r>
       <r>    0.1473    0.0000 </r>
       <r>    0.6258    0.0000 </r>
       <r>    1.1715    0.0000 </r>
       <r>    1.2130    0.0000 </r>
       <r>    1.2371    0.0000 </r>
       <r>    1.2508    0.0000 </r>
       <r>    1.3897    0.0000 </r>
      </set>
      <set comment="kpoint 24">
       <r>  -13.6317    1.0000 </r>
       <r>  -13.0477    1.0000 </r>
       <r>  -12.5449    1.0000 </r>
       <r>  -12.1405    1.0000 </r>
       <r>  -11.5786    1.0000 </r>
       <r>  -11.1060    1.0000 </r>
       <r>  -10.8218    1.0000 </r>
       <r>   -9.8768    1.0000 </r>
       <r>   -9.6083    1.0000 </r>
       <r>   -8.9521    1.0000 </r>
       <r>   -8.9269    1.0000 </r>
       <r>   -8.4009    1.0000 </r>
       <r>   -7.9911    1.0000 </r>
       <r>   -7.0851    1.0000 </r>
       <r>   -7.0491    1.0000 </r>
       <r>   -6.4071    1.0000 </r>
       <r>   -5.0564    1.0000 </r>
       <r>   -1.4561    0.0000 </r>
       <r>   -0.5612    0.0000 </r>
       <r>   -0.4965    0.0000 </r>
       <r>   -0.4637    0.0000 </r>
       <r>   -0.0195    0.0000 </r>
       <r>    0.6023    0.0000 </r>
       <r>    1.1473    0.0000 </r>
       <r>    1.2139    0.0000 </r>
       <r>    1.3138    0.0000 </r>
       <r>    1.3313    0.0000 </r>
       <r>    1.4942    0.0000 </r>
      </set>
      <set comment="kpoint 25">
       <r>  -13.6442    1.0000 </r>
       <r>  -12.9558    1.0000 </r>
       <r>  -12.6614    1.0000 </r>
       <r>  -12.1526    1.0000 </r>
       <r>  -11.4914    1.0000 </r>
       <r>  -11.2145    1.0000 </r>
       <r>  -10.6331    1.0000 </r>
       <r>  -10.0782    1.0000 </r>
       <r>   -9.4624    1.0000 </r>
       <r>   -9.0725    1.0000 </r>
       <r>   -8.9387    1.0000 </r>
       <r>   -8.3227    1.0000 </r>
       <r>   -8.0819    1.0000 </r>
       <r>   -7.0498    1.0000 </r>
       <r>   -7.0282    1.0000 </r>
       <r>   -6.1547    1.0000 </r>
       <r>   -5.3587    1.0000 </r>
       <r>   -1.1788    0.0000 </r>
       <r>   -0.6049    0.0000 </r>
       <r>   -0.5704    0.0000 </r>
       <r>   -0.4217    0.0000 </r>
       <r>   -0.1618    0.0000 </r>
       <r>    0.5868    0.0000 </r>
       <r>    1.1315    0.0000 </r>
       <r>    1.1987    0.0000 </r>
       <r>    1.2952    0.0000 </r>
       <r>    1.3692    0.0000 </r>
       <r>    1.4784    0.0000 </r>
      </set>
      <set comment="kpoint 26">
       <r>  -13.6407    1.0000 </r>
       <r>  -12.8909    1.0000 </r>
       <r>  -12.7191    1.0000 </r>
       <r>  -12.1484    1.0000 </r>
       <r>  -11.4292    1.0000 </r>
       <r>  -11.2675    1.0000 </r>
       <r>  -10.5126    1.0000 </r>
       <r>  -10.1885    1.0000 </r>
       <r>   -9.3701    1.0000 </r>
       <r>   -9.1416    1.0000 </r>
       <r>   -8.9322    1.0000 </r>
       <r>   -8.2643    1.0000 </r>
       <r>   -8.1236    1.0000 </r>
       <r>   -7.0253    1.0000 </r>
       <r>   -7.0127    1.0000 </r>
       <r>   -5.9881    1.0000 </r>
       <r>   -5.5226    1.0000 </r>
       <r>   -1.0202    0.0000 </r>
       <r>   -0.6825    0.0000 </r>
       <r>   -0.5648    0.0000 </r>
       <r>   -0.3772    0.0000 </r>
       <r>   -0.2256    0.0000 </r>
       <r>    0.5923    0.0000 </r>
       <r>    1.1371    0.0000 </r>
       <r>    1.2044    0.0000 </r>
       <r>    1.2952    0.0000 </r>
       <r>    1.3427    0.0000 </r>
       <r>    1.4840    0.0000 </r>
      </set>
      <set comment="kpoint 27">
       <r>  -13.6428    1.0000 </r>
       <r>  -12.8254    1.0000 </r>
       <r>  -12.7888    1.0000 </r>
       <r>  -12.1505    1.0000 </r>
       <r>  -11.3674    1.0000 </r>
       <r>  -11.3329    1.0000 </r>
       <r>  -10.3862    1.0000 </r>
       <r>  -10.3171    1.0000 </r>
       <r>   -9.2783    1.0000 </r>
       <r>   -9.2295    1.0000 </r>
       <r>   -8.9342    1.0000 </r>
       <r>   -8.2100    1.0000 </r>
       <r>   -8.1800    1.0000 </r>
       <r>   -7.0155    1.0000 </r>
       <r>   -7.0128    1.0000 </r>
       <r>   -5.8091    1.0000 </r>
       <r>   -5.7097    1.0000 </r>
       <r>   -0.8723    0.0000 </r>
       <r>   -0.8000    0.0000 </r>
       <r>   -0.5664    0.0000 </r>
       <r>   -0.3262    0.0000 </r>
       <r>   -0.2939    0.0000 </r>
       <r>    0.5897    0.0000 </r>
       <r>    1.1344    0.0000 </r>
       <r>    1.2018    0.0000 </r>
       <r>    1.3017    0.0000 </r>
       <r>    1.3119    0.0000 </r>
       <r>    1.4813    0.0000 </r>
      </set>
      <set comment="kpoint 28">
       <r>  -13.6384    1.0000 </r>
       <r>  -12.9253    1.0000 </r>
       <r>  -12.6802    1.0000 </r>
       <r>  -12.1462    1.0000 </r>
       <r>  -11.4616    1.0000 </r>
       <r>  -11.2311    1.0000 </r>
       <r>  -10.5803    1.0000 </r>
       <r>  -10.1183    1.0000 </r>
       <r>   -9.4206    1.0000 </r>
       <r>   -9.0955    1.0000 </r>
       <r>   -8.9300    1.0000 </r>
       <r>   -8.2931    1.0000 </r>
       <r>   -8.0925    1.0000 </r>
       <r>   -7.0332    1.0000 </r>
       <r>   -7.0153    1.0000 </r>
       <r>   -6.0826    1.0000 </r>
       <r>   -5.4194    1.0000 </r>
       <r>   -1.1075    0.0000 </r>
       <r>   -0.6279    0.0000 </r>
       <r>   -0.5631    0.0000 </r>
       <r>   -0.4001    0.0000 </r>
       <r>   -0.1839    0.0000 </r>
       <r>    0.5952    0.0000 </r>
       <r>    1.1400    0.0000 </r>
       <r>    1.2072    0.0000 </r>
       <r>    1.2980    0.0000 </r>
       <r>    1.3642    0.0000 </r>
       <r>    1.4869    0.0000 </r>
      </set>
      <set comment="kpoint 29">
       <r>  -13.6274    1.0000 </r>
       <r>  -13.0187    1.0000 </r>
       <r>  -12.5652    1.0000 </r>
       <r>  -12.1355    1.0000 </r>
       <r>  -11.5502    1.0000 </r>
       <r>  -11.1239    1.0000 </r>
       <r>  -10.7701    1.0000 </r>
       <r>   -9.9173    1.0000 </r>
       <r>   -9.5660    1.0000 </r>
       <r>   -8.9721    1.0000 </r>
       <r>   -8.9197    1.0000 </r>
       <r>   -8.3723    1.0000 </r>
       <r>   -8.0023    1.0000 </r>
       <r>   -7.0653    1.0000 </r>
       <r>   -7.0327    1.0000 </r>
       <r>   -6.3395    1.0000 </r>
       <r>   -5.1192    1.0000 </r>
       <r>   -1.3780    0.0000 </r>
       <r>   -0.5550    0.0000 </r>
       <r>   -0.5078    0.0000 </r>
       <r>   -0.4479    0.0000 </r>
       <r>   -0.0477    0.0000 </r>
       <r>    0.6087    0.0000 </r>
       <r>    1.1539    0.0000 </r>
       <r>    1.2206    0.0000 </r>
       <r>    1.3273    0.0000 </r>
       <r>    1.3479    0.0000 </r>
       <r>    1.4667    0.0000 </r>
      </set>
      <set comment="kpoint 30">
       <r>  -13.6099    1.0000 </r>
       <r>  -13.1057    1.0000 </r>
       <r>  -12.4438    1.0000 </r>
       <r>  -12.1185    1.0000 </r>
       <r>  -11.6329    1.0000 </r>
       <r>  -11.0115    1.0000 </r>
       <r>  -10.9550    1.0000 </r>
       <r>   -9.7157    1.0000 </r>
       <r>   -9.7126    1.0000 </r>
       <r>   -8.9033    1.0000 </r>
       <r>   -8.8647    1.0000 </r>
       <r>   -8.4472    1.0000 </r>
       <r>   -7.9100    1.0000 </r>
       <r>   -7.1105    1.0000 </r>
       <r>   -7.0644    1.0000 </r>
       <r>   -6.5741    1.0000 </r>
       <r>   -4.8107    1.0000 </r>
       <r>   -1.6737    0.0000 </r>
       <r>   -0.5424    0.0000 </r>
       <r>   -0.4716    0.0000 </r>
       <r>   -0.4353    0.0000 </r>
       <r>    0.1133    0.0000 </r>
       <r>    0.6303    0.0000 </r>
       <r>    1.1761    0.0000 </r>
       <r>    1.2419    0.0000 </r>
       <r>    1.2472    0.0000 </r>
       <r>    1.3024    0.0000 </r>
       <r>    1.3867    0.0000 </r>
      </set>
      <set comment="kpoint 31">
       <r>  -13.5859    1.0000 </r>
       <r>  -13.1861    1.0000 </r>
       <r>  -12.3161    1.0000 </r>
       <r>  -12.0952    1.0000 </r>
       <r>  -11.7097    1.0000 </r>
       <r>  -11.1347    1.0000 </r>
       <r>  -10.8940    1.0000 </r>
       <r>   -9.8592    1.0000 </r>
       <r>   -9.5159    1.0000 </r>
       <r>   -8.8808    1.0000 </r>
       <r>   -8.7814    1.0000 </r>
       <r>   -8.5176    1.0000 </r>
       <r>   -7.8164    1.0000 </r>
       <r>   -7.1673    1.0000 </r>
       <r>   -7.1093    1.0000 </r>
       <r>   -6.7775    1.0000 </r>
       <r>   -4.4954    1.0000 </r>
       <r>   -1.9862    0.0000 </r>
       <r>   -0.5256    0.0000 </r>
       <r>   -0.4749    0.0000 </r>
       <r>   -0.4003    0.0000 </r>
       <r>    0.2973    0.0000 </r>
       <r>    0.6600    0.0000 </r>
       <r>    1.1249    0.0000 </r>
       <r>    1.1502    0.0000 </r>
       <r>    1.2066    0.0000 </r>
       <r>    1.2710    0.0000 </r>
       <r>    1.4482    0.0000 </r>
      </set>
      <set comment="kpoint 32">
       <r>  -13.5553    1.0000 </r>
       <r>  -13.2600    1.0000 </r>
       <r>  -12.1820    1.0000 </r>
       <r>  -12.0655    1.0000 </r>
       <r>  -11.7806    1.0000 </r>
       <r>  -11.3089    1.0000 </r>
       <r>  -10.7717    1.0000 </r>
       <r>  -10.0046    1.0000 </r>
       <r>   -9.3219    1.0000 </r>
       <r>   -8.8523    1.0000 </r>
       <r>   -8.7326    1.0000 </r>
       <r>   -8.5832    1.0000 </r>
       <r>   -7.7223    1.0000 </r>
       <r>   -7.2341    1.0000 </r>
       <r>   -7.1661    1.0000 </r>
       <r>   -6.9370    1.0000 </r>
       <r>   -4.1742    1.0000 </r>
       <r>   -2.3094    0.0000 </r>
       <r>   -0.5052    0.0000 </r>
       <r>   -0.4635    0.0000 </r>
       <r>   -0.3916    0.0000 </r>
       <r>    0.5017    0.0000 </r>
       <r>    0.6977    0.0000 </r>
       <r>    0.9728    0.0000 </r>
       <r>    1.0603    0.0000 </r>
       <r>    1.2454    0.0000 </r>
       <r>    1.3079    0.0000 </r>
       <r>    1.5920    0.0000 </r>
      </set>
      <set comment="kpoint 33">
       <r>  -13.5182    1.0000 </r>
       <r>  -13.3275    1.0000 </r>
       <r>  -12.0416    1.0000 </r>
       <r>  -12.0295    1.0000 </r>
       <r>  -11.8454    1.0000 </r>
       <r>  -11.4774    1.0000 </r>
       <r>  -10.6447    1.0000 </r>
       <r>  -10.1480    1.0000 </r>
       <r>   -9.1396    1.0000 </r>
       <r>   -8.8179    1.0000 </r>
       <r>   -8.7296    1.0000 </r>
       <r>   -8.6436    1.0000 </r>
       <r>   -7.6286    1.0000 </r>
       <r>   -7.3093    1.0000 </r>
       <r>   -7.2278    1.0000 </r>
       <r>   -7.0421    1.0000 </r>
       <r>   -3.8482    1.0000 </r>
       <r>   -2.6387    0.0000 </r>
       <r>   -0.4820    0.0000 </r>
       <r>   -0.4452    0.0000 </r>
       <r>   -0.3999    0.0000 </r>
       <r>    0.7232    0.0000 </r>
       <r>    0.7435    0.0000 </r>
       <r>    0.8556    0.0000 </r>
       <r>    0.9778    0.0000 </r>
       <r>    1.2926    0.0000 </r>
       <r>    1.3522    0.0000 </r>
       <r>    1.4895    0.0000 </r>
      </set>
      <set comment="kpoint 34">
       <r>  -13.4746    1.0000 </r>
       <r>  -13.3884    1.0000 </r>
       <r>  -11.9873    1.0000 </r>
       <r>  -11.9040    1.0000 </r>
       <r>  -11.8951    1.0000 </r>
       <r>  -11.6400    1.0000 </r>
       <r>  -10.5135    1.0000 </r>
       <r>  -10.2887    1.0000 </r>
       <r>   -8.9790    1.0000 </r>
       <r>   -8.7788    1.0000 </r>
       <r>   -8.7776    1.0000 </r>
       <r>   -8.6988    1.0000 </r>
       <r>   -7.5364    1.0000 </r>
       <r>   -7.3912    1.0000 </r>
       <r>   -7.2744    1.0000 </r>
       <r>   -7.0965    1.0000 </r>
       <r>   -3.5186    1.0000 </r>
       <r>   -2.9709    0.0000 </r>
       <r>   -0.4573    0.0000 </r>
       <r>   -0.4297    0.0000 </r>
       <r>   -0.4180    0.0000 </r>
       <r>    0.7834    0.0000 </r>
       <r>    0.7972    0.0000 </r>
       <r>    0.9032    0.0000 </r>
       <r>    0.9566    0.0000 </r>
       <r>    1.3340    0.0000 </r>
       <r>    1.3480    0.0000 </r>
       <r>    1.4034    0.0000 </r>
      </set>
      <set comment="kpoint 35">
       <r>  -13.4428    1.0000 </r>
       <r>  -13.4244    1.0000 </r>
       <r>  -11.9565    1.0000 </r>
       <r>  -11.9388    1.0000 </r>
       <r>  -11.7967    1.0000 </r>
       <r>  -11.7423    1.0000 </r>
       <r>  -10.4263    1.0000 </r>
       <r>  -10.3783    1.0000 </r>
       <r>   -8.8999    1.0000 </r>
       <r>   -8.8299    1.0000 </r>
       <r>   -8.7484    1.0000 </r>
       <r>   -8.7316    1.0000 </r>
       <r>   -7.4781    1.0000 </r>
       <r>   -7.4470    1.0000 </r>
       <r>   -7.2871    1.0000 </r>
       <r>   -7.1093    1.0000 </r>
       <r>   -3.3035    1.0000 </r>
       <r>   -3.1867    1.0000 </r>
       <r>   -0.4412    0.0000 </r>
       <r>   -0.4327    0.0000 </r>
       <r>   -0.4252    0.0000 </r>
       <r>    0.7651    0.0000 </r>
       <r>    0.8363    0.0000 </r>
       <r>    0.8589    0.0000 </r>
       <r>    1.1099    0.0000 </r>
       <r>    1.1917    0.0000 </r>
       <r>    1.3886    0.0000 </r>
       <r>    1.4333    0.0000 </r>
      </set>
      <set comment="kpoint 36">
       <r>  -13.4907    1.0000 </r>
       <r>  -13.3677    1.0000 </r>
       <r>  -12.0028    1.0000 </r>
       <r>  -11.9473    1.0000 </r>
       <r>  -11.8841    1.0000 </r>
       <r>  -11.5836    1.0000 </r>
       <r>  -10.5601    1.0000 </r>
       <r>  -10.2396    1.0000 </r>
       <r>   -9.0320    1.0000 </r>
       <r>   -8.7924    1.0000 </r>
       <r>   -8.7557    1.0000 </r>
       <r>   -8.6800    1.0000 </r>
       <r>   -7.5686    1.0000 </r>
       <r>   -7.3617    1.0000 </r>
       <r>   -7.2612    1.0000 </r>
       <r>   -7.0825    1.0000 </r>
       <r>   -3.6348    1.0000 </r>
       <r>   -2.8540    0.0000 </r>
       <r>   -0.4661    0.0000 </r>
       <r>   -0.4342    0.0000 </r>
       <r>   -0.4109    0.0000 </r>
       <r>    0.7774    0.0000 </r>
       <r>    0.8030    0.0000 </r>
       <r>    0.8737    0.0000 </r>
       <r>    0.9285    0.0000 </r>
       <r>    1.3276    0.0000 </r>
       <r>    1.3847    0.0000 </r>
       <r>    1.4013    0.0000 </r>
      </set>
      <set comment="kpoint 37">
       <r>  -13.5320    1.0000 </r>
       <r>  -13.3045    1.0000 </r>
       <r>  -12.0917    1.0000 </r>
       <r>  -12.0429    1.0000 </r>
       <r>  -11.8233    1.0000 </r>
       <r>  -11.4188    1.0000 </r>
       <r>  -10.6898    1.0000 </r>
       <r>  -10.0979    1.0000 </r>
       <r>   -9.2019    1.0000 </r>
       <r>   -8.8307    1.0000 </r>
       <r>   -8.7249    1.0000 </r>
       <r>   -8.6230    1.0000 </r>
       <r>   -7.6614    1.0000 </r>
       <r>   -7.2821    1.0000 </r>
       <r>   -7.2066    1.0000 </r>
       <r>   -7.0114    1.0000 </r>
       <r>   -3.9632    1.0000 </r>
       <r>   -2.5225    0.0000 </r>
       <r>   -0.4904    0.0000 </r>
       <r>   -0.4518    0.0000 </r>
       <r>   -0.3956    0.0000 </r>
       <r>    0.6437    0.0000 </r>
       <r>    0.7265    0.0000 </r>
       <r>    0.8922    0.0000 </r>
       <r>    1.0059    0.0000 </r>
       <r>    1.2751    0.0000 </r>
       <r>    1.3358    0.0000 </r>
       <r>    1.5643    0.0000 </r>
      </set>
      <set comment="kpoint 38">
       <r>  -13.5668    1.0000 </r>
       <r>  -13.2348    1.0000 </r>
       <r>  -12.2298    1.0000 </r>
       <r>  -12.0766    1.0000 </r>
       <r>  -11.7564    1.0000 </r>
       <r>  -11.2483    1.0000 </r>
       <r>  -10.8152    1.0000 </r>
       <r>   -9.9537    1.0000 </r>
       <r>   -9.3891    1.0000 </r>
       <r>   -8.8630    1.0000 </r>
       <r>   -8.7451    1.0000 </r>
       <r>   -8.5607    1.0000 </r>
       <r>   -7.7554    1.0000 </r>
       <r>   -7.2096    1.0000 </r>
       <r>   -7.1450    1.0000 </r>
       <r>   -6.8868    1.0000 </r>
       <r>   -4.2876    1.0000 </r>
       <r>   -2.1949    0.0000 </r>
       <r>   -0.5128    0.0000 </r>
       <r>   -0.4687    0.0000 </r>
       <r>   -0.3923    0.0000 </r>
       <r>    0.4278    0.0000 </r>
       <r>    0.6835    0.0000 </r>
       <r>    1.0228    0.0000 </r>
       <r>    1.0910    0.0000 </r>
       <r>    1.2309    0.0000 </r>
       <r>    1.2941    0.0000 </r>
       <r>    1.5775    0.0000 </r>
      </set>
      <set comment="kpoint 39">
       <r>  -13.5951    1.0000 </r>
       <r>  -13.1586    1.0000 </r>
       <r>  -12.3617    1.0000 </r>
       <r>  -12.1041    1.0000 </r>
       <r>  -11.6834    1.0000 </r>
       <r>  -11.0721    1.0000 </r>
       <r>  -10.9359    1.0000 </r>
       <r>   -9.8078    1.0000 </r>
       <r>   -9.5857    1.0000 </r>
       <r>   -8.8894    1.0000 </r>
       <r>   -8.8073    1.0000 </r>
       <r>   -8.4934    1.0000 </r>
       <r>   -7.8494    1.0000 </r>
       <r>   -7.1461    1.0000 </r>
       <r>   -7.0921    1.0000 </r>
       <r>   -6.7103    1.0000 </r>
       <r>   -4.6069    1.0000 </r>
       <r>   -1.8749    0.0000 </r>
       <r>   -0.5320    0.0000 </r>
       <r>   -0.4758    0.0000 </r>
       <r>   -0.4090    0.0000 </r>
       <r>    0.2302    0.0000 </r>
       <r>    0.6486    0.0000 </r>
       <r>    1.1835    0.0000 </r>
       <r>    1.1848    0.0000 </r>
       <r>    1.1949    0.0000 </r>
       <r>    1.2599    0.0000 </r>
       <r>    1.4412    0.0000 </r>
      </set>
      <set comment="kpoint 40">
       <r>  -13.6168    1.0000 </r>
       <r>  -13.0758    1.0000 </r>
       <r>  -12.4872    1.0000 </r>
       <r>  -12.1252    1.0000 </r>
       <r>  -11.6045    1.0000 </r>
       <r>  -11.0516    1.0000 </r>
       <r>  -10.8906    1.0000 </r>
       <r>   -9.7864    1.0000 </r>
       <r>   -9.6610    1.0000 </r>
       <r>   -8.9098    1.0000 </r>
       <r>   -8.9002    1.0000 </r>
       <r>   -8.4214    1.0000 </r>
       <r>   -7.9426    1.0000 </r>
       <r>   -7.0932    1.0000 </r>
       <r>   -7.0517    1.0000 </r>
       <r>   -6.4946    1.0000 </r>
       <r>   -4.9200    1.0000 </r>
       <r>   -1.5675    0.0000 </r>
       <r>   -0.5474    0.0000 </r>
       <r>   -0.4658    0.0000 </r>
       <r>   -0.4559    0.0000 </r>
       <r>    0.0540    0.0000 </r>
       <r>    0.6218    0.0000 </r>
       <r>    1.1673    0.0000 </r>
       <r>    1.2335    0.0000 </r>
       <r>    1.2826    0.0000 </r>
       <r>    1.3600    0.0000 </r>
       <r>    1.3693    0.0000 </r>
      </set>
      <set comment="kpoint 41">
       <r>  -13.6320    1.0000 </r>
       <r>  -12.9866    1.0000 </r>
       <r>  -12.6064    1.0000 </r>
       <r>  -12.1400    1.0000 </r>
       <r>  -11.5197    1.0000 </r>
       <r>  -11.1622    1.0000 </r>
       <r>  -10.7039    1.0000 </r>
       <r>   -9.9881    1.0000 </r>
       <r>   -9.5147    1.0000 </r>
       <r>   -9.0140    1.0000 </r>
       <r>   -8.9240    1.0000 </r>
       <r>   -8.3449    1.0000 </r>
       <r>   -8.0343    1.0000 </r>
       <r>   -7.0525    1.0000 </r>
       <r>   -7.0249    1.0000 </r>
       <r>   -6.2514    1.0000 </r>
       <r>   -5.2257    1.0000 </r>
       <r>   -1.2795    0.0000 </r>
       <r>   -0.5584    0.0000 </r>
       <r>   -0.5442    0.0000 </r>
       <r>   -0.4340    0.0000 </r>
       <r>   -0.0985    0.0000 </r>
       <r>    0.6030    0.0000 </r>
       <r>    1.1481    0.0000 </r>
       <r>    1.2150    0.0000 </r>
       <r>    1.3137    0.0000 </r>
       <r>    1.3778    0.0000 </r>
       <r>    1.4524    0.0000 </r>
      </set>
      <set comment="kpoint 42">
       <r>  -13.6248    1.0000 </r>
       <r>  -12.9182    1.0000 </r>
       <r>  -12.6605    1.0000 </r>
       <r>  -12.1317    1.0000 </r>
       <r>  -11.4534    1.0000 </r>
       <r>  -11.2111    1.0000 </r>
       <r>  -10.5795    1.0000 </r>
       <r>  -10.0939    1.0000 </r>
       <r>   -9.4167    1.0000 </r>
       <r>   -9.0755    1.0000 </r>
       <r>   -8.9119    1.0000 </r>
       <r>   -8.2804    1.0000 </r>
       <r>   -8.0695    1.0000 </r>
       <r>   -7.0177    1.0000 </r>
       <r>   -6.9989    1.0000 </r>
       <r>   -6.0826    1.0000 </r>
       <r>   -5.3856    1.0000 </r>
       <r>   -1.1060    0.0000 </r>
       <r>   -0.6024    0.0000 </r>
       <r>   -0.5482    0.0000 </r>
       <r>   -0.3904    0.0000 </r>
       <r>   -0.1635    0.0000 </r>
       <r>    0.6138    0.0000 </r>
       <r>    1.1590    0.0000 </r>
       <r>    1.2261    0.0000 </r>
       <r>    1.3107    0.0000 </r>
       <r>    1.3819    0.0000 </r>
       <r>    1.5059    0.0000 </r>
      </set>
      <set comment="kpoint 43">
       <r>  -13.6296    1.0000 </r>
       <r>  -12.8187    1.0000 </r>
       <r>  -12.7694    1.0000 </r>
       <r>  -12.1364    1.0000 </r>
       <r>  -11.3595    1.0000 </r>
       <r>  -11.3132    1.0000 </r>
       <r>  -10.3858    1.0000 </r>
       <r>  -10.2928    1.0000 </r>
       <r>   -9.2744    1.0000 </r>
       <r>   -9.2088    1.0000 </r>
       <r>   -8.9165    1.0000 </r>
       <r>   -8.1976    1.0000 </r>
       <r>   -8.1572    1.0000 </r>
       <r>   -6.9991    1.0000 </r>
       <r>   -6.9955    1.0000 </r>
       <r>   -5.8102    1.0000 </r>
       <r>   -5.6765    1.0000 </r>
       <r>   -0.8683    0.0000 </r>
       <r>   -0.7711    0.0000 </r>
       <r>   -0.5517    0.0000 </r>
       <r>   -0.3184    0.0000 </r>
       <r>   -0.2750    0.0000 </r>
       <r>    0.6078    0.0000 </r>
       <r>    1.1529    0.0000 </r>
       <r>    1.2202    0.0000 </r>
       <r>    1.3128    0.0000 </r>
       <r>    1.3269    0.0000 </r>
       <r>    1.4998    0.0000 </r>
      </set>
      <set comment="kpoint 44">
       <r>  -13.6279    1.0000 </r>
       <r>  -12.8719    1.0000 </r>
       <r>  -12.7128    1.0000 </r>
       <r>  -12.1347    1.0000 </r>
       <r>  -11.4097    1.0000 </r>
       <r>  -11.2601    1.0000 </r>
       <r>  -10.4884    1.0000 </r>
       <r>  -10.1883    1.0000 </r>
       <r>   -9.3489    1.0000 </r>
       <r>   -9.1375    1.0000 </r>
       <r>   -8.9148    1.0000 </r>
       <r>   -8.2417    1.0000 </r>
       <r>   -8.1114    1.0000 </r>
       <r>   -7.0071    1.0000 </r>
       <r>   -6.9954    1.0000 </r>
       <r>   -5.9556    1.0000 </r>
       <r>   -5.5245    1.0000 </r>
       <r>   -0.9886    0.0000 </r>
       <r>   -0.6757    0.0000 </r>
       <r>   -0.5504    0.0000 </r>
       <r>   -0.3596    0.0000 </r>
       <r>   -0.2195    0.0000 </r>
       <r>    0.6099    0.0000 </r>
       <r>    1.1551    0.0000 </r>
       <r>    1.2223    0.0000 </r>
       <r>    1.3072    0.0000 </r>
       <r>    1.3525    0.0000 </r>
       <r>    1.5019    0.0000 </r>
      </set>
      <set comment="kpoint 45">
       <r>  -13.6196    1.0000 </r>
       <r>  -12.9680    1.0000 </r>
       <r>  -12.6004    1.0000 </r>
       <r>  -12.1267    1.0000 </r>
       <r>  -11.5006    1.0000 </r>
       <r>  -11.1551    1.0000 </r>
       <r>  -10.6799    1.0000 </r>
       <r>   -9.9882    1.0000 </r>
       <r>   -9.4931    1.0000 </r>
       <r>   -9.0093    1.0000 </r>
       <r>   -8.9071    1.0000 </r>
       <r>   -8.3225    1.0000 </r>
       <r>   -8.0222    1.0000 </r>
       <r>   -7.0333    1.0000 </r>
       <r>   -7.0067    1.0000 </r>
       <r>   -6.2197    1.0000 </r>
       <r>   -5.2282    1.0000 </r>
       <r>   -1.2460    0.0000 </r>
       <r>   -0.5443    0.0000 </r>
       <r>   -0.5345    0.0000 </r>
       <r>   -0.4178    0.0000 </r>
       <r>   -0.0942    0.0000 </r>
       <r>    0.6201    0.0000 </r>
       <r>    1.1656    0.0000 </r>
       <r>    1.2324    0.0000 </r>
       <r>    1.3232    0.0000 </r>
       <r>    1.3977    0.0000 </r>
       <r>    1.5114    0.0000 </r>
      </set>
      <set comment="kpoint 46">
       <r>  -13.6048    1.0000 </r>
       <r>  -13.0576    1.0000 </r>
       <r>  -12.4817    1.0000 </r>
       <r>  -12.1123    1.0000 </r>
       <r>  -11.5857    1.0000 </r>
       <r>  -11.0449    1.0000 </r>
       <r>  -10.8668    1.0000 </r>
       <r>   -9.7867    1.0000 </r>
       <r>   -9.6392    1.0000 </r>
       <r>   -8.8948    1.0000 </r>
       <r>   -8.8932    1.0000 </r>
       <r>   -8.3993    1.0000 </r>
       <r>   -7.9307    1.0000 </r>
       <r>   -7.0732    1.0000 </r>
       <r>   -7.0327    1.0000 </r>
       <r>   -6.4641    1.0000 </r>
       <r>   -4.9231    1.0000 </r>
       <r>   -1.5326    0.0000 </r>
       <r>   -0.5336    0.0000 </r>
       <r>   -0.4510    0.0000 </r>
       <r>   -0.4437    0.0000 </r>
       <r>    0.0566    0.0000 </r>
       <r>    0.6384    0.0000 </r>
       <r>    1.1844    0.0000 </r>
       <r>    1.2504    0.0000 </r>
       <r>    1.3066    0.0000 </r>
       <r>    1.3678    0.0000 </r>
       <r>    1.3939    0.0000 </r>
      </set>
      <set comment="kpoint 47">
       <r>  -13.5835    1.0000 </r>
       <r>  -13.1407    1.0000 </r>
       <r>  -12.3566    1.0000 </r>
       <r>  -12.0916    1.0000 </r>
       <r>  -11.6650    1.0000 </r>
       <r>  -11.0486    1.0000 </r>
       <r>  -10.9295    1.0000 </r>
       <r>   -9.7859    1.0000 </r>
       <r>   -9.5860    1.0000 </r>
       <r>   -8.8732    1.0000 </r>
       <r>   -8.8008    1.0000 </r>
       <r>   -8.4716    1.0000 </r>
       <r>   -7.8376    1.0000 </r>
       <r>   -7.1253    1.0000 </r>
       <r>   -7.0722    1.0000 </r>
       <r>   -6.6813    1.0000 </r>
       <r>   -4.6104    1.0000 </r>
       <r>   -1.8392    0.0000 </r>
       <r>   -0.5184    0.0000 </r>
       <r>   -0.4620    0.0000 </r>
       <r>   -0.3950    0.0000 </r>
       <r>    0.2313    0.0000 </r>
       <r>    0.6648    0.0000 </r>
       <r>    1.2072    0.0000 </r>
       <r>    1.2085    0.0000 </r>
       <r>    1.2115    0.0000 </r>
       <r>    1.2764    0.0000 </r>
       <r>    1.4308    0.0000 </r>
      </set>
      <set comment="kpoint 48">
       <r>  -13.5556    1.0000 </r>
       <r>  -13.2173    1.0000 </r>
       <r>  -12.2251    1.0000 </r>
       <r>  -12.0645    1.0000 </r>
       <r>  -11.7382    1.0000 </r>
       <r>  -11.2251    1.0000 </r>
       <r>  -10.8091    1.0000 </r>
       <r>   -9.9318    1.0000 </r>
       <r>   -9.3893    1.0000 </r>
       <r>   -8.8472    1.0000 </r>
       <r>   -8.7367    1.0000 </r>
       <r>   -8.5392    1.0000 </r>
       <r>   -7.7436    1.0000 </r>
       <r>   -7.1882    1.0000 </r>
       <r>   -7.1243    1.0000 </r>
       <r>   -6.8602    1.0000 </r>
       <r>   -4.2915    1.0000 </r>
       <r>   -2.1589    0.0000 </r>
       <r>   -0.4994    0.0000 </r>
       <r>   -0.4556    0.0000 </r>
       <r>   -0.3771    0.0000 </r>
       <r>    0.4275    0.0000 </r>
       <r>    0.6992    0.0000 </r>
       <r>    1.0451    0.0000 </r>
       <r>    1.1143    0.0000 </r>
       <r>    1.2469    0.0000 </r>
       <r>    1.3101    0.0000 </r>
       <r>    1.4970    0.0000 </r>
      </set>
      <set comment="kpoint 49">
       <r>  -13.5212    1.0000 </r>
       <r>  -13.2874    1.0000 </r>
       <r>  -12.0874    1.0000 </r>
       <r>  -12.0311    1.0000 </r>
       <r>  -11.8055    1.0000 </r>
       <r>  -11.3959    1.0000 </r>
       <r>  -10.6841    1.0000 </r>
       <r>  -10.0760    1.0000 </r>
       <r>   -9.2015    1.0000 </r>
       <r>   -8.8152    1.0000 </r>
       <r>   -8.7139    1.0000 </r>
       <r>   -8.6017    1.0000 </r>
       <r>   -7.6496    1.0000 </r>
       <r>   -7.2601    1.0000 </r>
       <r>   -7.1855    1.0000 </r>
       <r>   -6.9879    1.0000 </r>
       <r>   -3.9673    1.0000 </r>
       <r>   -2.4862    0.0000 </r>
       <r>   -0.4772    0.0000 </r>
       <r>   -0.4389    0.0000 </r>
       <r>   -0.3797    0.0000 </r>
       <r>    0.6422    0.0000 </r>
       <r>    0.7416    0.0000 </r>
       <r>    0.9124    0.0000 </r>
       <r>    1.0288    0.0000 </r>
       <r>    1.2906    0.0000 </r>
       <r>    1.3513    0.0000 </r>
       <r>    1.5875    0.0000 </r>
      </set>
      <set comment="kpoint 50">
       <r>  -13.4803    1.0000 </r>
       <r>  -13.3510    1.0000 </r>
       <r>  -11.9915    1.0000 </r>
       <r>  -11.9434    1.0000 </r>
       <r>  -11.8667    1.0000 </r>
       <r>  -11.5610    1.0000 </r>
       <r>  -10.5547    1.0000 </r>
       <r>  -10.2179    1.0000 </r>
       <r>   -9.0305    1.0000 </r>
       <r>   -8.7773    1.0000 </r>
       <r>   -8.7417    1.0000 </r>
       <r>   -8.6591    1.0000 </r>
       <r>   -7.5567    1.0000 </r>
       <r>   -7.3394    1.0000 </r>
       <r>   -7.2411    1.0000 </r>
       <r>   -7.0618    1.0000 </r>
       <r>   -3.6390    1.0000 </r>
       <r>   -2.8177    0.0000 </r>
       <r>   -0.4528    0.0000 </r>
       <r>   -0.4210    0.0000 </r>
       <r>   -0.3946    0.0000 </r>
       <r>    0.7920    0.0000 </r>
       <r>    0.8204    0.0000 </r>
       <r>    0.8713    0.0000 </r>
       <r>    0.9509    0.0000 </r>
       <r>    1.3426    0.0000 </r>
       <r>    1.3998    0.0000 </r>
       <r>    1.4231    0.0000 </r>
      </set>
      <set comment="kpoint 51">
       <r>  -13.4328    1.0000 </r>
       <r>  -13.4081    1.0000 </r>
       <r>  -11.9456    1.0000 </r>
       <r>  -11.9217    1.0000 </r>
       <r>  -11.7932    1.0000 </r>
       <r>  -11.7201    1.0000 </r>
       <r>  -10.4212    1.0000 </r>
       <r>  -10.3567    1.0000 </r>
       <r>   -8.8941    1.0000 </r>
       <r>   -8.8153    1.0000 </r>
       <r>   -8.7336    1.0000 </r>
       <r>   -8.7110    1.0000 </r>
       <r>   -7.4661    1.0000 </r>
       <r>   -7.4243    1.0000 </r>
       <r>   -7.2691    1.0000 </r>
       <r>   -7.0910    1.0000 </r>
       <r>   -3.3078    1.0000 </r>
       <r>   -3.1505    1.0000 </r>
       <r>   -0.4278    0.0000 </r>
       <r>   -0.4163    0.0000 </r>
       <r>   -0.4112    0.0000 </r>
       <r>    0.7792    0.0000 </r>
       <r>    0.8505    0.0000 </r>
       <r>    0.8809    0.0000 </r>
       <r>    1.1074    0.0000 </r>
       <r>    1.2173    0.0000 </r>
       <r>    1.4029    0.0000 </r>
       <r>    1.4494    0.0000 </r>
      </set>
      <set comment="kpoint 52">
       <r>  -13.4586    1.0000 </r>
       <r>  -13.3788    1.0000 </r>
       <r>  -11.9706    1.0000 </r>
       <r>  -11.8935    1.0000 </r>
       <r>  -11.8731    1.0000 </r>
       <r>  -11.6370    1.0000 </r>
       <r>  -10.4920    1.0000 </r>
       <r>  -10.2839    1.0000 </r>
       <r>   -8.9593    1.0000 </r>
       <r>   -8.7728    1.0000 </r>
       <r>   -8.7574    1.0000 </r>
       <r>   -8.6843    1.0000 </r>
       <r>   -7.5135    1.0000 </r>
       <r>   -7.3789    1.0000 </r>
       <r>   -7.2588    1.0000 </r>
       <r>   -7.0807    1.0000 </r>
       <r>   -3.4827    1.0000 </r>
       <r>   -2.9751    0.0000 </r>
       <r>   -0.4410    0.0000 </r>
       <r>   -0.4149    0.0000 </r>
       <r>   -0.4043    0.0000 </r>
       <r>    0.7941    0.0000 </r>
       <r>    0.8187    0.0000 </r>
       <r>    0.9168    0.0000 </r>
       <r>    0.9828    0.0000 </r>
       <r>    1.3329    0.0000 </r>
       <r>    1.3701    0.0000 </r>
       <r>    1.4250    0.0000 </r>
      </set>
      <set comment="kpoint 53">
       <r>  -13.5027    1.0000 </r>
       <r>  -13.3183    1.0000 </r>
       <r>  -12.0201    1.0000 </r>
       <r>  -12.0132    1.0000 </r>
       <r>  -11.8352    1.0000 </r>
       <r>  -11.4747    1.0000 </r>
       <r>  -10.6234    1.0000 </r>
       <r>  -10.1434    1.0000 </r>
       <r>   -9.1179    1.0000 </r>
       <r>   -8.7980    1.0000 </r>
       <r>   -8.7205    1.0000 </r>
       <r>   -8.6295    1.0000 </r>
       <r>   -7.6055    1.0000 </r>
       <r>   -7.2968    1.0000 </r>
       <r>   -7.2140    1.0000 </r>
       <r>   -7.0291    1.0000 </r>
       <r>   -3.8125    1.0000 </r>
       <r>   -2.6427    0.0000 </r>
       <r>   -0.4659    0.0000 </r>
       <r>   -0.4300    0.0000 </r>
       <r>   -0.3856    0.0000 </r>
       <r>    0.7491    0.0000 </r>
       <r>    0.7645    0.0000 </r>
       <r>    0.8632    0.0000 </r>
       <r>    0.9910    0.0000 </r>
       <r>    1.3141    0.0000 </r>
       <r>    1.3734    0.0000 </r>
       <r>    1.5484    0.0000 </r>
      </set>
      <set comment="kpoint 54">
       <r>  -13.5402    1.0000 </r>
       <r>  -13.2513    1.0000 </r>
       <r>  -12.1608    1.0000 </r>
       <r>  -12.0495    1.0000 </r>
       <r>  -11.7708    1.0000 </r>
       <r>  -11.3066    1.0000 </r>
       <r>  -10.7506    1.0000 </r>
       <r>  -10.0002    1.0000 </r>
       <r>   -9.2990    1.0000 </r>
       <r>   -8.8328    1.0000 </r>
       <r>   -8.7201    1.0000 </r>
       <r>   -8.5694    1.0000 </r>
       <r>   -7.6991    1.0000 </r>
       <r>   -7.2212    1.0000 </r>
       <r>   -7.1527    1.0000 </r>
       <r>   -6.9276    1.0000 </r>
       <r>   -4.1388    1.0000 </r>
       <r>   -2.3130    0.0000 </r>
       <r>   -0.4892    0.0000 </r>
       <r>   -0.4485    0.0000 </r>
       <r>   -0.3764    0.0000 </r>
       <r>    0.5269    0.0000 </r>
       <r>    0.7182    0.0000 </r>
       <r>    0.9779    0.0000 </r>
       <r>    1.0730    0.0000 </r>
       <r>    1.2665    0.0000 </r>
       <r>    1.3286    0.0000 </r>
       <r>    1.5205    0.0000 </r>
      </set>
      <set comment="kpoint 55">
       <r>  -13.5711    1.0000 </r>
       <r>  -13.1777    1.0000 </r>
       <r>  -12.2952    1.0000 </r>
       <r>  -12.0796    1.0000 </r>
       <r>  -11.7004    1.0000 </r>
       <r>  -11.1328    1.0000 </r>
       <r>  -10.8732    1.0000 </r>
       <r>   -9.8550    1.0000 </r>
       <r>   -9.4922    1.0000 </r>
       <r>   -8.8616    1.0000 </r>
       <r>   -8.7661    1.0000 </r>
       <r>   -8.5042    1.0000 </r>
       <r>   -7.7932    1.0000 </r>
       <r>   -7.1538    1.0000 </r>
       <r>   -7.0954    1.0000 </r>
       <r>   -6.7716    1.0000 </r>
       <r>   -4.4603    1.0000 </r>
       <r>   -1.9891    0.0000 </r>
       <r>   -0.5099    0.0000 </r>
       <r>   -0.4608    0.0000 </r>
       <r>   -0.3834    0.0000 </r>
       <r>    0.3215    0.0000 </r>
       <r>    0.6800    0.0000 </r>
       <r>    1.1280    0.0000 </r>
       <r>    1.1624    0.0000 </r>
       <r>    1.2272    0.0000 </r>
       <r>    1.2913    0.0000 </r>
       <r>    1.5735    0.0000 </r>
      </set>
      <set comment="kpoint 56">
       <r>  -13.5956    1.0000 </r>
       <r>  -13.0977    1.0000 </r>
       <r>  -12.4233    1.0000 </r>
       <r>  -12.1033    1.0000 </r>
       <r>  -11.6239    1.0000 </r>
       <r>  -10.9909    1.0000 </r>
       <r>  -10.9535    1.0000 </r>
       <r>   -9.7086    1.0000 </r>
       <r>   -9.6915    1.0000 </r>
       <r>   -8.8845    1.0000 </r>
       <r>   -8.8473    1.0000 </r>
       <r>   -8.4340    1.0000 </r>
       <r>   -7.8868    1.0000 </r>
       <r>   -7.0964    1.0000 </r>
       <r>   -7.0497    1.0000 </r>
       <r>   -6.5708    1.0000 </r>
       <r>   -4.7761    1.0000 </r>
       <r>   -1.6756    0.0000 </r>
       <r>   -0.5269    0.0000 </r>
       <r>   -0.4587    0.0000 </r>
       <r>   -0.4161    0.0000 </r>
       <r>    0.1364    0.0000 </r>
       <r>    0.6499    0.0000 </r>
       <r>    1.1961    0.0000 </r>
       <r>    1.2589    0.0000 </r>
       <r>    1.2617    0.0000 </r>
       <r>    1.3040    0.0000 </r>
       <r>    1.3960    0.0000 </r>
      </set>
      <set comment="kpoint 57">
       <r>  -13.6135    1.0000 </r>
       <r>  -13.0112    1.0000 </r>
       <r>  -12.5451    1.0000 </r>
       <r>  -12.1207    1.0000 </r>
       <r>  -11.5416    1.0000 </r>
       <r>  -11.1036    1.0000 </r>
       <r>  -10.7689    1.0000 </r>
       <r>   -9.8930    1.0000 </r>
       <r>   -9.5621    1.0000 </r>
       <r>   -8.9531    1.0000 </r>
       <r>   -8.9013    1.0000 </r>
       <r>   -8.3594    1.0000 </r>
       <r>   -7.9792    1.0000 </r>
       <r>   -7.0505    1.0000 </r>
       <r>   -7.0172    1.0000 </r>
       <r>   -6.3381    1.0000 </r>
       <r>   -5.0849    1.0000 </r>
       <r>   -1.3785    0.0000 </r>
       <r>   -0.5398    0.0000 </r>
       <r>   -0.4857    0.0000 </r>
       <r>   -0.4365    0.0000 </r>
       <r>   -0.0260    0.0000 </r>
       <r>    0.6278    0.0000 </r>
       <r>    1.1734    0.0000 </r>
       <r>    1.2399    0.0000 </r>
       <r>    1.3413    0.0000 </r>
       <r>    1.3597    0.0000 </r>
       <r>    1.4871    0.0000 </r>
      </set>
      <set comment="kpoint 58">
       <r>  -13.6026    1.0000 </r>
       <r>  -12.9391    1.0000 </r>
       <r>  -12.5956    1.0000 </r>
       <r>  -12.1084    1.0000 </r>
       <r>  -11.4712    1.0000 </r>
       <r>  -11.1484    1.0000 </r>
       <r>  -10.6407    1.0000 </r>
       <r>   -9.9943    1.0000 </r>
       <r>   -9.4586    1.0000 </r>
       <r>   -9.0066    1.0000 </r>
       <r>   -8.8836    1.0000 </r>
       <r>   -8.2889    1.0000 </r>
       <r>   -8.0081    1.0000 </r>
       <r>   -7.0056    1.0000 </r>
       <r>   -6.9809    1.0000 </r>
       <r>   -6.1675    1.0000 </r>
       <r>   -5.2407    1.0000 </r>
       <r>   -1.1910    0.0000 </r>
       <r>   -0.5249    0.0000 </r>
       <r>   -0.5248    0.0000 </r>
       <r>   -0.3937    0.0000 </r>
       <r>   -0.0920    0.0000 </r>
       <r>    0.6437    0.0000 </r>
       <r>    1.1897    0.0000 </r>
       <r>    1.2564    0.0000 </r>
       <r>    1.3359    0.0000 </r>
       <r>    1.4220    0.0000 </r>
       <r>    1.4858    0.0000 </r>
      </set>
      <set comment="kpoint 59">
       <r>  -13.6101    1.0000 </r>
       <r>  -12.8423    1.0000 </r>
       <r>  -12.7072    1.0000 </r>
       <r>  -12.1157    1.0000 </r>
       <r>  -11.3797    1.0000 </r>
       <r>  -11.2526    1.0000 </r>
       <r>  -10.4488    1.0000 </r>
       <r>  -10.1940    1.0000 </r>
       <r>   -9.3150    1.0000 </r>
       <r>   -9.1356    1.0000 </r>
       <r>   -8.8907    1.0000 </r>
       <r>   -8.2076    1.0000 </r>
       <r>   -8.0969    1.0000 </r>
       <r>   -6.9811    1.0000 </r>
       <r>   -6.9712    1.0000 </r>
       <r>   -5.9018    1.0000 </r>
       <r>   -5.5358    1.0000 </r>
       <r>   -0.9376    0.0000 </r>
       <r>   -0.6716    0.0000 </r>
       <r>   -0.5305    0.0000 </r>
       <r>   -0.3328    0.0000 </r>
       <r>   -0.2141    0.0000 </r>
       <r>    0.6345    0.0000 </r>
       <r>    1.1802    0.0000 </r>
       <r>    1.2472    0.0000 </r>
       <r>    1.3243    0.0000 </r>
       <r>    1.3645    0.0000 </r>
       <r>    1.5270    0.0000 </r>
      </set>
      <set comment="kpoint 60">
       <r>  -13.6111    1.0000 </r>
       <r>  -12.8123    1.0000 </r>
       <r>  -12.7391    1.0000 </r>
       <r>  -12.1166    1.0000 </r>
       <r>  -11.3514    1.0000 </r>
       <r>  -11.2826    1.0000 </r>
       <r>  -10.3909    1.0000 </r>
       <r>  -10.2529    1.0000 </r>
       <r>   -9.2730    1.0000 </r>
       <r>   -9.1757    1.0000 </r>
       <r>   -8.8916    1.0000 </r>
       <r>   -8.1827    1.0000 </r>
       <r>   -8.1227    1.0000 </r>
       <r>   -6.9766    1.0000 </r>
       <r>   -6.9713    1.0000 </r>
       <r>   -5.8199    1.0000 </r>
       <r>   -5.6215    1.0000 </r>
       <r>   -0.8698    0.0000 </r>
       <r>   -0.7253    0.0000 </r>
       <r>   -0.5312    0.0000 </r>
       <r>   -0.3096    0.0000 </r>
       <r>   -0.2453    0.0000 </r>
       <r>    0.6333    0.0000 </r>
       <r>    1.1790    0.0000 </r>
       <r>    1.2460    0.0000 </r>
       <r>    1.3278    0.0000 </r>
       <r>    1.3496    0.0000 </r>
       <r>    1.5258    0.0000 </r>
      </set>
      <set comment="kpoint 61">
       <r>  -13.6055    1.0000 </r>
       <r>  -12.9110    1.0000 </r>
       <r>  -12.6294    1.0000 </r>
       <r>  -12.1112    1.0000 </r>
       <r>  -11.4446    1.0000 </r>
       <r>  -11.1799    1.0000 </r>
       <r>  -10.5841    1.0000 </r>
       <r>  -10.0539    1.0000 </r>
       <r>   -9.4156    1.0000 </r>
       <r>   -9.0438    1.0000 </r>
       <r>   -8.8864    1.0000 </r>
       <r>   -8.2651    1.0000 </r>
       <r>   -8.0347    1.0000 </r>
       <r>   -6.9969    1.0000 </r>
       <r>   -6.9765    1.0000 </r>
       <r>   -6.0903    1.0000 </r>
       <r>   -5.3294    1.0000 </r>
       <r>   -1.1120    0.0000 </r>
       <r>   -0.5629    0.0000 </r>
       <r>   -0.5271    0.0000 </r>
       <r>   -0.3783    0.0000 </r>
       <r>   -0.1311    0.0000 </r>
       <r>    0.6401    0.0000 </r>
       <r>    1.1860    0.0000 </r>
       <r>    1.2528    0.0000 </r>
       <r>    1.3290    0.0000 </r>
       <r>    1.4089    0.0000 </r>
       <r>    1.4985    0.0000 </r>
      </set>
      <set comment="kpoint 62">
       <r>  -13.5934    1.0000 </r>
       <r>  -13.0033    1.0000 </r>
       <r>  -12.5133    1.0000 </r>
       <r>  -12.0994    1.0000 </r>
       <r>  -11.5321    1.0000 </r>
       <r>  -11.0719    1.0000 </r>
       <r>  -10.7729    1.0000 </r>
       <r>   -9.8529    1.0000 </r>
       <r>   -9.5610    1.0000 </r>
       <r>   -8.9234    1.0000 </r>
       <r>   -8.8750    1.0000 </r>
       <r>   -8.3436    1.0000 </r>
       <r>   -7.9441    1.0000 </r>
       <r>   -7.0312    1.0000 </r>
       <r>   -6.9965    1.0000 </r>
       <r>   -6.3432    1.0000 </r>
       <r>   -5.0278    1.0000 </r>
       <r>   -1.3880    0.0000 </r>
       <r>   -0.5182    0.0000 </r>
       <r>   -0.4525    0.0000 </r>
       <r>   -0.4213    0.0000 </r>
       <r>    0.0092    0.0000 </r>
       <r>    0.6551    0.0000 </r>
       <r>    1.2014    0.0000 </r>
       <r>    1.2676    0.0000 </r>
       <r>    1.3623    0.0000 </r>
       <r>    1.3731    0.0000 </r>
       <r>    1.4924    0.0000 </r>
      </set>
      <set comment="kpoint 63">
       <r>  -13.5748    1.0000 </r>
       <r>  -13.0890    1.0000 </r>
       <r>  -12.3909    1.0000 </r>
       <r>  -12.0813    1.0000 </r>
       <r>  -11.6137    1.0000 </r>
       <r>  -10.9586    1.0000 </r>
       <r>  -10.9567    1.0000 </r>
       <r>   -9.7074    1.0000 </r>
       <r>   -9.6519    1.0000 </r>
       <r>   -8.8575    1.0000 </r>
       <r>   -8.8204    1.0000 </r>
       <r>   -8.4177    1.0000 </r>
       <r>   -7.8516    1.0000 </r>
       <r>   -7.0784    1.0000 </r>
       <r>   -7.0305    1.0000 </r>
       <r>   -6.5723    1.0000 </r>
       <r>   -4.7182    1.0000 </r>
       <r>   -1.6877    0.0000 </r>
       <r>   -0.5048    0.0000 </r>
       <r>   -0.4407    0.0000 </r>
       <r>   -0.3883    0.0000 </r>
       <r>    0.1740    0.0000 </r>
       <r>    0.6781    0.0000 </r>
       <r>    1.2251    0.0000 </r>
       <r>    1.2725    0.0000 </r>
       <r>    1.2903    0.0000 </r>
       <r>    1.3008    0.0000 </r>
       <r>    1.4186    0.0000 </r>
      </set>
      <set comment="kpoint 64">
       <r>  -13.5496    1.0000 </r>
       <r>  -13.1683    1.0000 </r>
       <r>  -12.2621    1.0000 </r>
       <r>  -12.0569    1.0000 </r>
       <r>  -11.6894    1.0000 </r>
       <r>  -11.1354    1.0000 </r>
       <r>  -10.8404    1.0000 </r>
       <r>   -9.8536    1.0000 </r>
       <r>   -9.4533    1.0000 </r>
       <r>   -8.8340    1.0000 </r>
       <r>   -8.7431    1.0000 </r>
       <r>   -8.4873    1.0000 </r>
       <r>   -7.7579    1.0000 </r>
       <r>   -7.1370    1.0000 </r>
       <r>   -7.0775    1.0000 </r>
       <r>   -6.7681    1.0000 </r>
       <r>   -4.4017    1.0000 </r>
       <r>   -2.0029    0.0000 </r>
       <r>   -0.4872    0.0000 </r>
       <r>   -0.4406    0.0000 </r>
       <r>   -0.3596    0.0000 </r>
       <r>    0.3614    0.0000 </r>
       <r>    0.7092    0.0000 </r>
       <r>    1.1276    0.0000 </r>
       <r>    1.1768    0.0000 </r>
       <r>    1.2571    0.0000 </r>
       <r>    1.3208    0.0000 </r>
       <r>    1.4868    0.0000 </r>
      </set>
      <set comment="kpoint 65">
       <r>  -13.5179    1.0000 </r>
       <r>  -13.2411    1.0000 </r>
       <r>  -12.1269    1.0000 </r>
       <r>  -12.0261    1.0000 </r>
       <r>  -11.7591    1.0000 </r>
       <r>  -11.3085    1.0000 </r>
       <r>  -10.7173    1.0000 </r>
       <r>   -9.9985    1.0000 </r>
       <r>   -9.2614    1.0000 </r>
       <r>   -8.8044    1.0000 </r>
       <r>   -8.7024    1.0000 </r>
       <r>   -8.5519    1.0000 </r>
       <r>   -7.6638    1.0000 </r>
       <r>   -7.2053    1.0000 </r>
       <r>   -7.1357    1.0000 </r>
       <r>   -6.9177    1.0000 </r>
       <r>   -4.0795    1.0000 </r>
       <r>   -2.3279    0.0000 </r>
       <r>   -0.4662    0.0000 </r>
       <r>   -0.4270    0.0000 </r>
       <r>   -0.3553    0.0000 </r>
       <r>    0.5687    0.0000 </r>
       <r>    0.7483    0.0000 </r>
       <r>    0.9813    0.0000 </r>
       <r>    1.0882    0.0000 </r>
       <r>    1.2974    0.0000 </r>
       <r>    1.3590    0.0000 </r>
       <r>    1.6448    0.0000 </r>
      </set>
      <set comment="kpoint 66">
       <r>  -13.4796    1.0000 </r>
       <r>  -13.3073    1.0000 </r>
       <r>  -11.9891    1.0000 </r>
       <r>  -11.9855    1.0000 </r>
       <r>  -11.8228    1.0000 </r>
       <r>  -11.4759    1.0000 </r>
       <r>  -10.5898    1.0000 </r>
       <r>  -10.1413    1.0000 </r>
       <r>   -9.0826    1.0000 </r>
       <r>   -8.7690    1.0000 </r>
       <r>   -8.7090    1.0000 </r>
       <r>   -8.6115    1.0000 </r>
       <r>   -7.5704    1.0000 </r>
       <r>   -7.2817    1.0000 </r>
       <r>   -7.1961    1.0000 </r>
       <r>   -7.0126    1.0000 </r>
       <r>   -3.7527    1.0000 </r>
       <r>   -2.6583    0.0000 </r>
       <r>   -0.4425    0.0000 </r>
       <r>   -0.4082    0.0000 </r>
       <r>   -0.3662    0.0000 </r>
       <r>    0.7923    0.0000 </r>
       <r>    0.7954    0.0000 </r>
       <r>    0.8714    0.0000 </r>
       <r>    1.0072    0.0000 </r>
       <r>    1.3459    0.0000 </r>
       <r>    1.4046    0.0000 </r>
       <r>    1.4980    0.0000 </r>
      </set>
      <set comment="kpoint 67">
       <r>  -13.4349    1.0000 </r>
       <r>  -13.3671    1.0000 </r>
       <r>  -11.9458    1.0000 </r>
       <r>  -11.8803    1.0000 </r>
       <r>  -11.8379    1.0000 </r>
       <r>  -11.6374    1.0000 </r>
       <r>  -10.4580    1.0000 </r>
       <r>  -10.2813    1.0000 </r>
       <r>   -8.9280    1.0000 </r>
       <r>   -8.7670    1.0000 </r>
       <r>   -8.7277    1.0000 </r>
       <r>   -8.6657    1.0000 </r>
       <r>   -7.4787    1.0000 </r>
       <r>   -7.3644    1.0000 </r>
       <r>   -7.2374    1.0000 </r>
       <r>   -7.0590    1.0000 </r>
       <r>   -3.4224    1.0000 </r>
       <r>   -2.9910    0.0000 </r>
       <r>   -0.4174    0.0000 </r>
       <r>   -0.3940    0.0000 </r>
       <r>   -0.3860    0.0000 </r>
       <r>    0.8083    0.0000 </r>
       <r>    0.8506    0.0000 </r>
       <r>    0.9339    0.0000 </r>
       <r>    1.0265    0.0000 </r>
       <r>    1.3247    0.0000 </r>
       <r>    1.4028    0.0000 </r>
       <r>    1.4570    0.0000 </r>
      </set>
      <set comment="kpoint 68">
       <r>  -13.4203    1.0000 </r>
       <r>  -13.3836    1.0000 </r>
       <r>  -11.9317    1.0000 </r>
       <r>  -11.8962    1.0000 </r>
       <r>  -11.7929    1.0000 </r>
       <r>  -11.6842    1.0000 </r>
       <r>  -10.4180    1.0000 </r>
       <r>  -10.3223    1.0000 </r>
       <r>   -8.8907    1.0000 </r>
       <r>   -8.7916    1.0000 </r>
       <r>   -8.7143    1.0000 </r>
       <r>   -8.6807    1.0000 </r>
       <r>   -7.4520    1.0000 </r>
       <r>   -7.3900    1.0000 </r>
       <r>   -7.2432    1.0000 </r>
       <r>   -7.0647    1.0000 </r>
       <r>   -3.3238    1.0000 </r>
       <r>   -3.0900    0.3667 </r>
       <r>   -0.4099    0.0000 </r>
       <r>   -0.3928    0.0000 </r>
       <r>   -0.3919    0.0000 </r>
       <r>    0.7998    0.0000 </r>
       <r>    0.8685    0.0000 </r>
       <r>    0.9136    0.0000 </r>
       <r>    1.0967    0.0000 </r>
       <r>    1.2595    0.0000 </r>
       <r>    1.4213    0.0000 </r>
       <r>    1.4737    0.0000 </r>
      </set>
      <set comment="kpoint 69">
       <r>  -13.4670    1.0000 </r>
       <r>  -13.3258    1.0000 </r>
       <r>  -11.9769    1.0000 </r>
       <r>  -11.9423    1.0000 </r>
       <r>  -11.8405    1.0000 </r>
       <r>  -11.5245    1.0000 </r>
       <r>  -10.5510    1.0000 </r>
       <r>  -10.1832    1.0000 </r>
       <r>   -9.0334    1.0000 </r>
       <r>   -8.7573    1.0000 </r>
       <r>   -8.7211    1.0000 </r>
       <r>   -8.6281    1.0000 </r>
       <r>   -7.5429    1.0000 </r>
       <r>   -7.3057    1.0000 </r>
       <r>   -7.2114    1.0000 </r>
       <r>   -7.0310    1.0000 </r>
       <r>   -3.6548    1.0000 </r>
       <r>   -2.7570    0.0000 </r>
       <r>   -0.4351    0.0000 </r>
       <r>   -0.4031    0.0000 </r>
       <r>   -0.3714    0.0000 </r>
       <r>    0.8110    0.0000 </r>
       <r>    0.8473    0.0000 </r>
       <r>    0.8611    0.0000 </r>
       <r>    0.9846    0.0000 </r>
       <r>    1.3620    0.0000 </r>
       <r>    1.4195    0.0000 </r>
       <r>    1.4576    0.0000 </r>
      </set>
      <set comment="kpoint 70">
       <r>  -13.5072    1.0000 </r>
       <r>  -13.2614    1.0000 </r>
       <r>  -12.0856    1.0000 </r>
       <r>  -12.0158    1.0000 </r>
       <r>  -11.7787    1.0000 </r>
       <r>  -11.3588    1.0000 </r>
       <r>  -10.6799    1.0000 </r>
       <r>  -10.0412    1.0000 </r>
       <r>   -9.2065    1.0000 </r>
       <r>   -8.7945    1.0000 </r>
       <r>   -8.6990    1.0000 </r>
       <r>   -8.5702    1.0000 </r>
       <r>   -7.6360    1.0000 </r>
       <r>   -7.2272    1.0000 </r>
       <r>   -7.1542    1.0000 </r>
       <r>   -6.9516    1.0000 </r>
       <r>   -3.9828    1.0000 </r>
       <r>   -2.4256    0.0000 </r>
       <r>   -0.4593    0.0000 </r>
       <r>   -0.4215    0.0000 </r>
       <r>   -0.3573    0.0000 </r>
       <r>    0.6336    0.0000 </r>
       <r>    0.7615    0.0000 </r>
       <r>    0.9444    0.0000 </r>
       <r>    1.0633    0.0000 </r>
       <r>    1.3109    0.0000 </r>
       <r>    1.3718    0.0000 </r>
       <r>    1.5461    0.0000 </r>
      </set>
      <set comment="kpoint 71">
       <r>  -13.5409    1.0000 </r>
       <r>  -13.1906    1.0000 </r>
       <r>  -12.2225    1.0000 </r>
       <r>  -12.0484    1.0000 </r>
       <r>  -11.7107    1.0000 </r>
       <r>  -11.1874    1.0000 </r>
       <r>  -10.8043    1.0000 </r>
       <r>   -9.8968    1.0000 </r>
       <r>   -9.3953    1.0000 </r>
       <r>   -8.8258    1.0000 </r>
       <r>   -8.7267    1.0000 </r>
       <r>   -8.5070    1.0000 </r>
       <r>   -7.7299    1.0000 </r>
       <r>   -7.1563    1.0000 </r>
       <r>   -7.0938    1.0000 </r>
       <r>   -6.8180    1.0000 </r>
       <r>   -4.3065    1.0000 </r>
       <r>   -2.0987    0.0000 </r>
       <r>   -0.4813    0.0000 </r>
       <r>   -0.4376    0.0000 </r>
       <r>   -0.3563    0.0000 </r>
       <r>    0.4211    0.0000 </r>
       <r>    0.7200    0.0000 </r>
       <r>    1.0809    0.0000 </r>
       <r>    1.1497    0.0000 </r>
       <r>    1.2682    0.0000 </r>
       <r>    1.3314    0.0000 </r>
       <r>    1.5114    0.0000 </r>
      </set>
      <set comment="kpoint 72">
       <r>  -13.5680    1.0000 </r>
       <r>  -13.1133    1.0000 </r>
       <r>  -12.3532    1.0000 </r>
       <r>  -12.0747    1.0000 </r>
       <r>  -11.6368    1.0000 </r>
       <r>  -11.0104    1.0000 </r>
       <r>  -10.9240    1.0000 </r>
       <r>   -9.7509    1.0000 </r>
       <r>   -9.5924    1.0000 </r>
       <r>   -8.8512    1.0000 </r>
       <r>   -8.7943    1.0000 </r>
       <r>   -8.4389    1.0000 </r>
       <r>   -7.8239    1.0000 </r>
       <r>   -7.0947    1.0000 </r>
       <r>   -7.0432    1.0000 </r>
       <r>   -6.6345    1.0000 </r>
       <r>   -4.6248    1.0000 </r>
       <r>   -1.7800    0.0000 </r>
       <r>   -0.5000    0.0000 </r>
       <r>   -0.4425    0.0000 </r>
       <r>   -0.3766    0.0000 </r>
       <r>    0.2274    0.0000 </r>
       <r>    0.6865    0.0000 </r>
       <r>    1.2337    0.0000 </r>
       <r>    1.2434    0.0000 </r>
       <r>    1.2470    0.0000 </r>
       <r>    1.2986    0.0000 </r>
       <r>    1.4382    0.0000 </r>
      </set>
      <set comment="kpoint 73">
       <r>  -13.5886    1.0000 </r>
       <r>  -13.0294    1.0000 </r>
       <r>  -12.4776    1.0000 </r>
       <r>  -12.0947    1.0000 </r>
       <r>  -11.5569    1.0000 </r>
       <r>  -11.0388    1.0000 </r>
       <r>  -10.8280    1.0000 </r>
       <r>   -9.7931    1.0000 </r>
       <r>   -9.6044    1.0000 </r>
       <r>   -8.8906    1.0000 </r>
       <r>   -8.8704    1.0000 </r>
       <r>   -8.3661    1.0000 </r>
       <r>   -7.9168    1.0000 </r>
       <r>   -7.0439    1.0000 </r>
       <r>   -7.0052    1.0000 </r>
       <r>   -6.4141    1.0000 </r>
       <r>   -4.9366    1.0000 </r>
       <r>   -1.4750    0.0000 </r>
       <r>   -0.5146    0.0000 </r>
       <r>   -0.4294    0.0000 </r>
       <r>   -0.4291    0.0000 </r>
       <r>    0.0557    0.0000 </r>
       <r>    0.6611    0.0000 </r>
       <r>    1.2076    0.0000 </r>
       <r>    1.2735    0.0000 </r>
       <r>    1.3431    0.0000 </r>
       <r>    1.3771    0.0000 </r>
       <r>    1.5543    0.0000 </r>
      </set>
      <set comment="kpoint 74">
       <r>  -13.5741    1.0000 </r>
       <r>  -12.9537    1.0000 </r>
       <r>  -12.5245    1.0000 </r>
       <r>  -12.0784    1.0000 </r>
       <r>  -11.4825    1.0000 </r>
       <r>  -11.0793    1.0000 </r>
       <r>  -10.6961    1.0000 </r>
       <r>   -9.8898    1.0000 </r>
       <r>   -9.4956    1.0000 </r>
       <r>   -8.9355    1.0000 </r>
       <r>   -8.8472    1.0000 </r>
       <r>   -8.2896    1.0000 </r>
       <r>   -7.9392    1.0000 </r>
       <r>   -6.9890    1.0000 </r>
       <r>   -6.9586    1.0000 </r>
       <r>   -6.2425    1.0000 </r>
       <r>   -5.0881    1.0000 </r>
       <r>   -1.2746    0.0000 </r>
       <r>   -0.4951    0.0000 </r>
       <r>   -0.4498    0.0000 </r>
       <r>   -0.3872    0.0000 </r>
       <r>   -0.0114    0.0000 </r>
       <r>    0.6823    0.0000 </r>
       <r>    1.2293    0.0000 </r>
       <r>    1.2954    0.0000 </r>
       <r>    1.3700    0.0000 </r>
       <r>    1.4324    0.0000 </r>
       <r>    1.5197    0.0000 </r>
      </set>
      <set comment="kpoint 75">
       <r>  -13.5843    1.0000 </r>
       <r>  -12.8597    1.0000 </r>
       <r>  -12.6387    1.0000 </r>
       <r>  -12.0883    1.0000 </r>
       <r>  -11.3934    1.0000 </r>
       <r>  -11.1857    1.0000 </r>
       <r>  -10.5061    1.0000 </r>
       <r>  -10.0901    1.0000 </r>
       <r>   -9.3512    1.0000 </r>
       <r>   -9.0593    1.0000 </r>
       <r>   -8.8568    1.0000 </r>
       <r>   -8.2099    1.0000 </r>
       <r>   -8.0290    1.0000 </r>
       <r>   -6.9587    1.0000 </r>
       <r>   -6.9428    1.0000 </r>
       <r>   -5.9844    1.0000 </r>
       <r>   -5.3870    1.0000 </r>
       <r>   -1.0071    0.0000 </r>
       <r>   -0.5745    0.0000 </r>
       <r>   -0.5026    0.0000 </r>
       <r>   -0.3372    0.0000 </r>
       <r>   -0.1439    0.0000 </r>
       <r>    0.6697    0.0000 </r>
       <r>    1.2163    0.0000 </r>
       <r>    1.2829    0.0000 </r>
       <r>    1.3460    0.0000 </r>
       <r>    1.4140    0.0000 </r>
       <r>    1.5630    0.0000 </r>
      </set>
      <set comment="kpoint 76">
       <r>  -13.5879    1.0000 </r>
       <r>  -12.7591    1.0000 </r>
       <r>  -12.7464    1.0000 </r>
       <r>  -12.0919    1.0000 </r>
       <r>  -11.2986    1.0000 </r>
       <r>  -11.2867    1.0000 </r>
       <r>  -10.3119    1.0000 </r>
       <r>  -10.2881    1.0000 </r>
       <r>   -9.2101    1.0000 </r>
       <r>   -9.1933    1.0000 </r>
       <r>   -8.8603    1.0000 </r>
       <r>   -8.1265    1.0000 </r>
       <r>   -8.1162    1.0000 </r>
       <r>   -6.9429    1.0000 </r>
       <r>   -6.9420    1.0000 </r>
       <r>   -5.7099    1.0000 </r>
       <r>   -5.6756    1.0000 </r>
       <r>   -0.7766    0.0000 </r>
       <r>   -0.7517    0.0000 </r>
       <r>   -0.5054    0.0000 </r>
       <r>   -0.2611    0.0000 </r>
       <r>   -0.2500    0.0000 </r>
       <r>    0.6652    0.0000 </r>
       <r>    1.2116    0.0000 </r>
       <r>    1.2784    0.0000 </r>
       <r>    1.3566    0.0000 </r>
       <r>    1.3606    0.0000 </r>
       <r>    1.5583    0.0000 </r>
      </set>
      <set comment="kpoint 77">
       <r>  -13.5851    1.0000 </r>
       <r>  -12.8478    1.0000 </r>
       <r>  -12.6521    1.0000 </r>
       <r>  -12.0891    1.0000 </r>
       <r>  -11.3822    1.0000 </r>
       <r>  -11.1983    1.0000 </r>
       <r>  -10.4827    1.0000 </r>
       <r>  -10.1143    1.0000 </r>
       <r>   -9.3338    1.0000 </r>
       <r>   -9.0752    1.0000 </r>
       <r>   -8.8576    1.0000 </r>
       <r>   -8.2000    1.0000 </r>
       <r>   -8.0398    1.0000 </r>
       <r>   -6.9561    1.0000 </r>
       <r>   -6.9419    1.0000 </r>
       <r>   -5.9518    1.0000 </r>
       <r>   -5.4226    1.0000 </r>
       <r>   -0.9769    0.0000 </r>
       <r>   -0.5932    0.0000 </r>
       <r>   -0.5032    0.0000 </r>
       <r>   -0.3294    0.0000 </r>
       <r>   -0.1582    0.0000 </r>
       <r>    0.6687    0.0000 </r>
       <r>    1.2153    0.0000 </r>
       <r>    1.2819    0.0000 </r>
       <r>    1.3453    0.0000 </r>
       <r>    1.4058    0.0000 </r>
       <r>    1.5620    0.0000 </r>
      </set>
      <set comment="kpoint 78">
       <r>  -13.5757    1.0000 </r>
       <r>  -12.9427    1.0000 </r>
       <r>  -12.5387    1.0000 </r>
       <r>  -12.0799    1.0000 </r>
       <r>  -11.4720    1.0000 </r>
       <r>  -11.0925    1.0000 </r>
       <r>  -10.6732    1.0000 </r>
       <r>   -9.9142    1.0000 </r>
       <r>   -9.4780    1.0000 </r>
       <r>   -8.9498    1.0000 </r>
       <r>   -8.8487    1.0000 </r>
       <r>   -8.2801    1.0000 </r>
       <r>   -7.9502    1.0000 </r>
       <r>   -6.9846    1.0000 </r>
       <r>   -6.9559    1.0000 </r>
       <r>   -6.2121    1.0000 </r>
       <r>   -5.1249    1.0000 </r>
       <r>   -1.2405    0.0000 </r>
       <r>   -0.4963    0.0000 </r>
       <r>   -0.4622    0.0000 </r>
       <r>   -0.3825    0.0000 </r>
       <r>   -0.0289    0.0000 </r>
       <r>    0.6803    0.0000 </r>
       <r>    1.2272    0.0000 </r>
       <r>    1.2934    0.0000 </r>
       <r>    1.3655    0.0000 </r>
       <r>    1.4419    0.0000 </r>
       <r>    1.5112    0.0000 </r>
      </set>
      <set comment="kpoint 79">
       <r>  -13.5597    1.0000 </r>
       <r>  -13.0311    1.0000 </r>
       <r>  -12.4189    1.0000 </r>
       <r>  -12.0644    1.0000 </r>
       <r>  -11.5559    1.0000 </r>
       <r>  -10.9815    1.0000 </r>
       <r>  -10.8590    1.0000 </r>
       <r>   -9.7132    1.0000 </r>
       <r>   -9.6239    1.0000 </r>
       <r>   -8.8393    1.0000 </r>
       <r>   -8.8338    1.0000 </r>
       <r>   -8.3561    1.0000 </r>
       <r>   -7.8584    1.0000 </r>
       <r>   -7.0266    1.0000 </r>
       <r>   -6.9843    1.0000 </r>
       <r>   -6.4515    1.0000 </r>
       <r>   -4.8185    1.0000 </r>
       <r>   -1.5318    0.0000 </r>
       <r>   -0.4846    0.0000 </r>
       <r>   -0.4109    0.0000 </r>
       <r>   -0.3808    0.0000 </r>
       <r>    0.1257    0.0000 </r>
       <r>    0.7000    0.0000 </r>
       <r>    1.2475    0.0000 </r>
       <r>    1.3129    0.0000 </r>
       <r>    1.3458    0.0000 </r>
       <r>    1.4009    0.0000 </r>
       <r>    1.4162    0.0000 </r>
      </set>
      <set comment="kpoint 80">
       <r>  -13.5372    1.0000 </r>
       <r>  -13.1130    1.0000 </r>
       <r>  -12.2927    1.0000 </r>
       <r>  -12.0426    1.0000 </r>
       <r>  -11.6340    1.0000 </r>
       <r>  -11.0397    1.0000 </r>
       <r>  -10.8654    1.0000 </r>
       <r>   -9.7701    1.0000 </r>
       <r>   -9.5135    1.0000 </r>
       <r>   -8.8127    1.0000 </r>
       <r>   -8.7509    1.0000 </r>
       <r>   -8.4276    1.0000 </r>
       <r>   -7.7651    1.0000 </r>
       <r>   -7.0806    1.0000 </r>
       <r>   -7.0260    1.0000 </r>
       <r>   -6.6618    1.0000 </r>
       <r>   -4.5047    1.0000 </r>
       <r>   -1.8418    0.0000 </r>
       <r>   -0.4687    0.0000 </r>
       <r>   -0.4179    0.0000 </r>
       <r>   -0.3395    0.0000 </r>
       <r>    0.3038    0.0000 </r>
       <r>    0.7278    0.0000 </r>
       <r>    1.2197    0.0000 </r>
       <r>    1.2476    0.0000 </r>
       <r>    1.2761    0.0000 </r>
       <r>    1.3402    0.0000 </r>
       <r>    1.4772    0.0000 </r>
      </set>
      <set comment="kpoint 81">
       <r>  -13.5082    1.0000 </r>
       <r>  -13.1884    1.0000 </r>
       <r>  -12.1602    1.0000 </r>
       <r>  -12.0145    1.0000 </r>
       <r>  -11.7062    1.0000 </r>
       <r>  -11.2151    1.0000 </r>
       <r>  -10.7444    1.0000 </r>
       <r>   -9.9155    1.0000 </r>
       <r>   -9.3186    1.0000 </r>
       <r>   -8.7856    1.0000 </r>
       <r>   -8.6944    1.0000 </r>
       <r>   -8.4943    1.0000 </r>
       <r>   -7.6711    1.0000 </r>
       <r>   -7.1450    1.0000 </r>
       <r>   -7.0798    1.0000 </r>
       <r>   -6.8314    1.0000 </r>
       <r>   -4.1847    1.0000 </r>
       <r>   -2.1637    0.0000 </r>
       <r>   -0.4489    0.0000 </r>
       <r>   -0.4087    0.0000 </r>
       <r>   -0.3270    0.0000 </r>
       <r>    0.5029    0.0000 </r>
       <r>    0.7636    0.0000 </r>
       <r>    1.0615    0.0000 </r>
       <r>    1.1560    0.0000 </r>
       <r>    1.3129    0.0000 </r>
       <r>    1.3752    0.0000 </r>
       <r>    1.6593    0.0000 </r>
      </set>
      <set comment="kpoint 82">
       <r>  -13.4727    1.0000 </r>
       <r>  -13.2574    1.0000 </r>
       <r>  -12.0215    1.0000 </r>
       <r>  -11.9800    1.0000 </r>
       <r>  -11.7723    1.0000 </r>
       <r>  -11.3847    1.0000 </r>
       <r>  -10.6187    1.0000 </r>
       <r>  -10.0591    1.0000 </r>
       <r>   -9.1339    1.0000 </r>
       <r>   -8.7526    1.0000 </r>
       <r>   -8.6809    1.0000 </r>
       <r>   -8.5559    1.0000 </r>
       <r>   -7.5774    1.0000 </r>
       <r>   -7.2182    1.0000 </r>
       <r>   -7.1410    1.0000 </r>
       <r>   -6.9483    1.0000 </r>
       <r>   -3.8596    1.0000 </r>
       <r>   -2.4926    0.0000 </r>
       <r>   -0.4261    0.0000 </r>
       <r>   -0.3907    0.0000 </r>
       <r>   -0.3330    0.0000 </r>
       <r>    0.7200    0.0000 </r>
       <r>    0.8074    0.0000 </r>
       <r>    0.9355    0.0000 </r>
       <r>    1.0719    0.0000 </r>
       <r>    1.3581    0.0000 </r>
       <r>    1.4178    0.0000 </r>
       <r>    1.6317    0.0000 </r>
      </set>
      <set comment="kpoint 83">
       <r>  -13.4306    1.0000 </r>
       <r>  -13.3198    1.0000 </r>
       <r>  -11.9393    1.0000 </r>
       <r>  -11.8765    1.0000 </r>
       <r>  -11.8324    1.0000 </r>
       <r>  -11.5486    1.0000 </r>
       <r>  -10.4888    1.0000 </r>
       <r>  -10.2002    1.0000 </r>
       <r>   -8.9679    1.0000 </r>
       <r>   -8.7184    1.0000 </r>
       <r>   -8.7137    1.0000 </r>
       <r>   -8.6123    1.0000 </r>
       <r>   -7.4849    1.0000 </r>
       <r>   -7.2984    1.0000 </r>
       <r>   -7.1927    1.0000 </r>
       <r>   -7.0131    1.0000 </r>
       <r>   -3.5305    1.0000 </r>
       <r>   -2.8249    0.0000 </r>
       <r>   -0.4013    0.0000 </r>
       <r>   -0.3733    0.0000 </r>
       <r>   -0.3501    0.0000 </r>
       <r>    0.8520    0.0000 </r>
       <r>    0.8592    0.0000 </r>
       <r>    0.9505    0.0000 </r>
       <r>    0.9954    0.0000 </r>
       <r>    1.4115    0.0000 </r>
       <r>    1.4279    0.0000 </r>
       <r>    1.4675    0.0000 </r>
      </set>
      <set comment="kpoint 84">
       <r>  -13.3820    1.0000 </r>
       <r>  -13.3757    1.0000 </r>
       <r>  -11.8924    1.0000 </r>
       <r>  -11.8863    1.0000 </r>
       <r>  -11.7254    1.0000 </r>
       <r>  -11.7066    1.0000 </r>
       <r>  -10.3547    1.0000 </r>
       <r>  -10.3382    1.0000 </r>
       <r>   -8.8473    1.0000 </r>
       <r>   -8.7914    1.0000 </r>
       <r>   -8.6691    1.0000 </r>
       <r>   -8.6633    1.0000 </r>
       <r>   -7.3948    1.0000 </r>
       <r>   -7.3841    1.0000 </r>
       <r>   -7.2140    1.0000 </r>
       <r>   -7.0350    1.0000 </r>
       <r>   -3.1986    1.0000 </r>
       <r>   -3.1581    1.0000 </r>
       <r>   -0.3760    0.0000 </r>
       <r>   -0.3731    0.0000 </r>
       <r>   -0.3656    0.0000 </r>
       <r>    0.8204    0.0000 </r>
       <r>    0.9190    0.0000 </r>
       <r>    0.9268    0.0000 </r>
       <r>    1.1858    0.0000 </r>
       <r>    1.2140    0.0000 </r>
       <r>    1.4734    0.0000 </r>
       <r>    1.4815    0.0000 </r>
      </set>
      <set comment="kpoint 85">
       <r>  -13.4251    1.0000 </r>
       <r>  -13.3269    1.0000 </r>
       <r>  -11.9339    1.0000 </r>
       <r>  -11.8585    1.0000 </r>
       <r>  -11.8392    1.0000 </r>
       <r>  -11.5681    1.0000 </r>
       <r>  -10.4727    1.0000 </r>
       <r>  -10.2171    1.0000 </r>
       <r>   -8.9497    1.0000 </r>
       <r>   -8.7264    1.0000 </r>
       <r>   -8.7086    1.0000 </r>
       <r>   -8.6188    1.0000 </r>
       <r>   -7.4738    1.0000 </r>
       <r>   -7.3086    1.0000 </r>
       <r>   -7.1972    1.0000 </r>
       <r>   -7.0179    1.0000 </r>
       <r>   -3.4903    1.0000 </r>
       <r>   -2.8654    0.0000 </r>
       <r>   -0.3982    0.0000 </r>
       <r>   -0.3717    0.0000 </r>
       <r>   -0.3527    0.0000 </r>
       <r>    0.8452    0.0000 </r>
       <r>    0.8660    0.0000 </r>
       <r>    0.9791    0.0000 </r>
       <r>    0.9867    0.0000 </r>
       <r>    1.4048    0.0000 </r>
       <r>    1.4186    0.0000 </r>
       <r>    1.4740    0.0000 </r>
      </set>
      <set comment="kpoint 86">
       <r>  -13.4679    1.0000 </r>
       <r>  -13.2653    1.0000 </r>
       <r>  -12.0042    1.0000 </r>
       <r>  -11.9754    1.0000 </r>
       <r>  -11.7799    1.0000 </r>
       <r>  -11.4050    1.0000 </r>
       <r>  -10.6032    1.0000 </r>
       <r>  -10.0764    1.0000 </r>
       <r>   -9.1125    1.0000 </r>
       <r>   -8.7482    1.0000 </r>
       <r>   -8.6826    1.0000 </r>
       <r>   -8.5630    1.0000 </r>
       <r>   -7.5660    1.0000 </r>
       <r>   -7.2276    1.0000 </r>
       <r>   -7.1483    1.0000 </r>
       <r>   -6.9588    1.0000 </r>
       <r>   -3.8198    1.0000 </r>
       <r>   -2.5328    0.0000 </r>
       <r>   -0.4232    0.0000 </r>
       <r>   -0.3884    0.0000 </r>
       <r>   -0.3347    0.0000 </r>
       <r>    0.7474    0.0000 </r>
       <r>    0.8133    0.0000 </r>
       <r>    0.9229    0.0000 </r>
       <r>    1.0622    0.0000 </r>
       <r>    1.3641    0.0000 </r>
       <r>    1.4235    0.0000 </r>
       <r>    1.6218    0.0000 </r>
      </set>
      <set comment="kpoint 87">
       <r>  -13.5043    1.0000 </r>
       <r>  -13.1971    1.0000 </r>
       <r>  -12.1437    1.0000 </r>
       <r>  -12.0106    1.0000 </r>
       <r>  -11.7146    1.0000 </r>
       <r>  -11.2360    1.0000 </r>
       <r>  -10.7294    1.0000 </r>
       <r>   -9.9330    1.0000 </r>
       <r>   -9.2955    1.0000 </r>
       <r>   -8.7819    1.0000 </r>
       <r>   -8.6902    1.0000 </r>
       <r>   -8.5020    1.0000 </r>
       <r>   -7.6597    1.0000 </r>
       <r>   -7.1534    1.0000 </r>
       <r>   -7.0871    1.0000 </r>
       <r>   -6.8485    1.0000 </r>
       <r>   -4.1454    1.0000 </r>
       <r>   -2.2034    0.0000 </r>
       <r>   -0.4463    0.0000 </r>
       <r>   -0.4068    0.0000 </r>
       <r>   -0.3269    0.0000 </r>
       <r>    0.5284    0.0000 </r>
       <r>    0.7685    0.0000 </r>
       <r>    1.0443    0.0000 </r>
       <r>    1.1454    0.0000 </r>
       <r>    1.3180    0.0000 </r>
       <r>    1.3800    0.0000 </r>
       <r>    1.6643    0.0000 </r>
      </set>
      <set comment="kpoint 88">
       <r>  -13.5341    1.0000 </r>
       <r>  -13.1225    1.0000 </r>
       <r>  -12.2770    1.0000 </r>
       <r>  -12.0395    1.0000 </r>
       <r>  -11.6431    1.0000 </r>
       <r>  -11.0613    1.0000 </r>
       <r>  -10.8509    1.0000 </r>
       <r>   -9.7879    1.0000 </r>
       <r>   -9.4895    1.0000 </r>
       <r>   -8.8097    1.0000 </r>
       <r>   -8.7421    1.0000 </r>
       <r>   -8.4359    1.0000 </r>
       <r>   -7.7537    1.0000 </r>
       <r>   -7.0879    1.0000 </r>
       <r>   -7.0319    1.0000 </r>
       <r>   -6.6849    1.0000 </r>
       <r>   -4.4661    1.0000 </r>
       <r>   -1.8804    0.0000 </r>
       <r>   -0.4665    0.0000 </r>
       <r>   -0.4175    0.0000 </r>
       <r>   -0.3367    0.0000 </r>
       <r>    0.3269    0.0000 </r>
       <r>    0.7317    0.0000 </r>
       <r>    1.1990    0.0000 </r>
       <r>    1.2361    0.0000 </r>
       <r>    1.2801    0.0000 </r>
       <r>    1.3440    0.0000 </r>
       <r>    1.4853    0.0000 </r>
      </set>
      <set comment="kpoint 89">
       <r>  -13.5573    1.0000 </r>
       <r>  -13.0414    1.0000 </r>
       <r>  -12.4039    1.0000 </r>
       <r>  -12.0621    1.0000 </r>
       <r>  -11.5657    1.0000 </r>
       <r>  -10.9677    1.0000 </r>
       <r>  -10.8813    1.0000 </r>
       <r>   -9.6888    1.0000 </r>
       <r>   -9.6417    1.0000 </r>
       <r>   -8.8315    1.0000 </r>
       <r>   -8.8272    1.0000 </r>
       <r>   -8.3650    1.0000 </r>
       <r>   -7.8472    1.0000 </r>
       <r>   -7.0325    1.0000 </r>
       <r>   -6.9887    1.0000 </r>
       <r>   -6.4788    1.0000 </r>
       <r>   -4.7807    1.0000 </r>
       <r>   -1.5686    0.0000 </r>
       <r>   -0.4829    0.0000 </r>
       <r>   -0.4128    0.0000 </r>
       <r>   -0.3739    0.0000 </r>
       <r>    0.1461    0.0000 </r>
       <r>    0.7030    0.0000 </r>
       <r>    1.2505    0.0000 </r>
       <r>    1.3158    0.0000 </r>
       <r>    1.3336    0.0000 </r>
       <r>    1.3779    0.0000 </r>
       <r>    1.4201    0.0000 </r>
      </set>
      <set comment="kpoint 90">
       <r>  -13.5392    1.0000 </r>
       <r>  -12.9621    1.0000 </r>
       <r>  -12.4472    1.0000 </r>
       <r>  -12.0418    1.0000 </r>
       <r>  -11.4872    1.0000 </r>
       <r>  -11.0041    1.0000 </r>
       <r>  -10.7456    1.0000 </r>
       <r>   -9.7806    1.0000 </r>
       <r>   -9.5277    1.0000 </r>
       <r>   -8.8628    1.0000 </r>
       <r>   -8.8028    1.0000 </r>
       <r>   -8.2825    1.0000 </r>
       <r>   -7.8629    1.0000 </r>
       <r>   -6.9677    1.0000 </r>
       <r>   -6.9320    1.0000 </r>
       <r>   -6.3068    1.0000 </r>
       <r>   -4.9279    1.0000 </r>
       <r>   -1.3563    0.0000 </r>
       <r>   -0.4587    0.0000 </r>
       <r>   -0.3772    0.0000 </r>
       <r>   -0.3709    0.0000 </r>
       <r>    0.0782    0.0000 </r>
       <r>    0.7294    0.0000 </r>
       <r>    1.2776    0.0000 </r>
       <r>    1.3430    0.0000 </r>
       <r>    1.4121    0.0000 </r>
       <r>    1.4319    0.0000 </r>
       <r>    1.5184    0.0000 </r>
      </set>
      <set comment="kpoint 91">
       <r>  -13.5521    1.0000 </r>
       <r>  -12.8707    1.0000 </r>
       <r>  -12.5640    1.0000 </r>
       <r>  -12.0543    1.0000 </r>
       <r>  -11.4006    1.0000 </r>
       <r>  -11.1126    1.0000 </r>
       <r>  -10.5577    1.0000 </r>
       <r>   -9.9811    1.0000 </r>
       <r>   -9.3827    1.0000 </r>
       <r>   -8.9804    1.0000 </r>
       <r>   -8.8149    1.0000 </r>
       <r>   -8.2046    1.0000 </r>
       <r>   -7.9537    1.0000 </r>
       <r>   -6.9319    1.0000 </r>
       <r>   -6.9102    1.0000 </r>
       <r>   -6.0574    1.0000 </r>
       <r>   -5.2303    1.0000 </r>
       <r>   -1.0763    0.0000 </r>
       <r>   -0.4801    0.0000 </r>
       <r>   -0.4682    0.0000 </r>
       <r>   -0.3317    0.0000 </r>
       <r>   -0.0644    0.0000 </r>
       <r>    0.7135    0.0000 </r>
       <r>    1.2612    0.0000 </r>
       <r>    1.3273    0.0000 </r>
       <r>    1.3770    0.0000 </r>
       <r>    1.4735    0.0000 </r>
       <r>    1.6064    0.0000 </r>
      </set>
      <set comment="kpoint 92">
       <r>  -13.5585    1.0000 </r>
       <r>  -12.7728    1.0000 </r>
       <r>  -12.6744    1.0000 </r>
       <r>  -12.0605    1.0000 </r>
       <r>  -11.3083    1.0000 </r>
       <r>  -11.2157    1.0000 </r>
       <r>  -10.3653    1.0000 </r>
       <r>  -10.1800    1.0000 </r>
       <r>   -9.2404    1.0000 </r>
       <r>   -9.1102    1.0000 </r>
       <r>   -8.8208    1.0000 </r>
       <r>   -8.1227    1.0000 </r>
       <r>   -8.0420    1.0000 </r>
       <r>   -6.9101    1.0000 </r>
       <r>   -6.9031    1.0000 </r>
       <r>   -5.7896    1.0000 </r>
       <r>   -5.5232    1.0000 </r>
       <r>   -0.8291    0.0000 </r>
       <r>   -0.6352    0.0000 </r>
       <r>   -0.4730    0.0000 </r>
       <r>   -0.2669    0.0000 </r>
       <r>   -0.1811    0.0000 </r>
       <r>    0.7056    0.0000 </r>
       <r>    1.2531    0.0000 </r>
       <r>    1.3195    0.0000 </r>
       <r>    1.3738    0.0000 </r>
       <r>    1.4062    0.0000 </r>
       <r>    1.5997    0.0000 </r>
      </set>
      <set comment="kpoint 93">
       <r>  -13.5583    1.0000 </r>
       <r>  -12.7783    1.0000 </r>
       <r>  -12.6685    1.0000 </r>
       <r>  -12.0603    1.0000 </r>
       <r>  -11.3134    1.0000 </r>
       <r>  -11.2103    1.0000 </r>
       <r>  -10.3759    1.0000 </r>
       <r>  -10.1692    1.0000 </r>
       <r>   -9.2480    1.0000 </r>
       <r>   -9.1030    1.0000 </r>
       <r>   -8.8207    1.0000 </r>
       <r>   -8.1273    1.0000 </r>
       <r>   -8.0373    1.0000 </r>
       <r>   -6.9110    1.0000 </r>
       <r>   -6.9031    1.0000 </r>
       <r>   -5.8045    1.0000 </r>
       <r>   -5.5076    1.0000 </r>
       <r>   -0.8415    0.0000 </r>
       <r>   -0.6254    0.0000 </r>
       <r>   -0.4728    0.0000 </r>
       <r>   -0.2711    0.0000 </r>
       <r>   -0.1754    0.0000 </r>
       <r>    0.7058    0.0000 </r>
       <r>    1.2533    0.0000 </r>
       <r>    1.3197    0.0000 </r>
       <r>    1.3730    0.0000 </r>
       <r>    1.4091    0.0000 </r>
       <r>    1.5999    0.0000 </r>
      </set>
      <set comment="kpoint 94">
       <r>  -13.5516    1.0000 </r>
       <r>  -12.8758    1.0000 </r>
       <r>  -12.5578    1.0000 </r>
       <r>  -12.0538    1.0000 </r>
       <r>  -11.4055    1.0000 </r>
       <r>  -11.1068    1.0000 </r>
       <r>  -10.5680    1.0000 </r>
       <r>   -9.9703    1.0000 </r>
       <r>   -9.3905    1.0000 </r>
       <r>   -8.9736    1.0000 </r>
       <r>   -8.8144    1.0000 </r>
       <r>   -8.2090    1.0000 </r>
       <r>   -7.9489    1.0000 </r>
       <r>   -6.9336    1.0000 </r>
       <r>   -6.9110    1.0000 </r>
       <r>   -6.0714    1.0000 </r>
       <r>   -5.2141    1.0000 </r>
       <r>   -1.0908    0.0000 </r>
       <r>   -0.4732    0.0000 </r>
       <r>   -0.4678    0.0000 </r>
       <r>   -0.3344    0.0000 </r>
       <r>   -0.0573    0.0000 </r>
       <r>    0.7141    0.0000 </r>
       <r>    1.2619    0.0000 </r>
       <r>    1.3279    0.0000 </r>
       <r>    1.3782    0.0000 </r>
       <r>    1.4768    0.0000 </r>
       <r>    1.5519    0.0000 </r>
      </set>
      <set comment="kpoint 95">
       <r>  -13.5383    1.0000 </r>
       <r>  -12.9669    1.0000 </r>
       <r>  -12.4407    1.0000 </r>
       <r>  -12.0409    1.0000 </r>
       <r>  -11.4918    1.0000 </r>
       <r>  -10.9981    1.0000 </r>
       <r>  -10.7556    1.0000 </r>
       <r>   -9.7697    1.0000 </r>
       <r>   -9.5356    1.0000 </r>
       <r>   -8.8569    1.0000 </r>
       <r>   -8.8019    1.0000 </r>
       <r>   -8.2867    1.0000 </r>
       <r>   -7.8580    1.0000 </r>
       <r>   -6.9700    1.0000 </r>
       <r>   -6.9336    1.0000 </r>
       <r>   -6.3196    1.0000 </r>
       <r>   -4.9112    1.0000 </r>
       <r>   -1.3722    0.0000 </r>
       <r>   -0.4581    0.0000 </r>
       <r>   -0.3730    0.0000 </r>
       <r>   -0.3723    0.0000 </r>
       <r>    0.0866    0.0000 </r>
       <r>    0.7305    0.0000 </r>
       <r>    1.2787    0.0000 </r>
       <r>    1.3441    0.0000 </r>
       <r>    1.4148    0.0000 </r>
       <r>    1.4264    0.0000 </r>
       <r>    1.5963    0.0000 </r>
      </set>
      <set comment="kpoint 96">
       <r>  -13.5186    1.0000 </r>
       <r>  -13.0514    1.0000 </r>
       <r>  -12.3172    1.0000 </r>
       <r>  -12.0217    1.0000 </r>
       <r>  -11.5723    1.0000 </r>
       <r>  -10.9383    1.0000 </r>
       <r>  -10.8841    1.0000 </r>
       <r>   -9.6816    1.0000 </r>
       <r>   -9.5696    1.0000 </r>
       <r>   -8.7834    1.0000 </r>
       <r>   -8.7591    1.0000 </r>
       <r>   -8.3600    1.0000 </r>
       <r>   -7.7652    1.0000 </r>
       <r>   -7.0192    1.0000 </r>
       <r>   -6.9698    1.0000 </r>
       <r>   -6.5424    1.0000 </r>
       <r>   -4.6004    1.0000 </r>
       <r>   -1.6758    0.0000 </r>
       <r>   -0.4438    0.0000 </r>
       <r>   -0.3873    0.0000 </r>
       <r>   -0.3175    0.0000 </r>
       <r>    0.2549    0.0000 </r>
       <r>    0.7549    0.0000 </r>
       <r>    1.3038    0.0000 </r>
       <r>    1.3202    0.0000 </r>
       <r>    1.3266    0.0000 </r>
       <r>    1.3682    0.0000 </r>
       <r>    1.4729    0.0000 </r>
      </set>
      <set comment="kpoint 97">
       <r>  -13.4922    1.0000 </r>
       <r>  -13.1295    1.0000 </r>
       <r>  -12.1874    1.0000 </r>
       <r>  -11.9962    1.0000 </r>
       <r>  -11.6468    1.0000 </r>
       <r>  -11.1158    1.0000 </r>
       <r>  -10.7652    1.0000 </r>
       <r>   -9.8272    1.0000 </r>
       <r>   -9.3727    1.0000 </r>
       <r>   -8.7588    1.0000 </r>
       <r>   -8.6888    1.0000 </r>
       <r>   -8.4287    1.0000 </r>
       <r>   -7.6715    1.0000 </r>
       <r>   -7.0794    1.0000 </r>
       <r>   -7.0187    1.0000 </r>
       <r>   -6.7296    1.0000 </r>
       <r>   -4.2828    1.0000 </r>
       <r>   -1.9939    0.0000 </r>
       <r>   -0.4255    0.0000 </r>
       <r>   -0.3836    0.0000 </r>
       <r>   -0.2953    0.0000 </r>
       <r>    0.4453    0.0000 </r>
       <r>    0.7874    0.0000 </r>
       <r>    1.1520    0.0000 </r>
       <r>    1.2322    0.0000 </r>
       <r>    1.3373    0.0000 </r>
       <r>    1.4001    0.0000 </r>
       <r>    1.5391    0.0000 </r>
      </set>
      <set comment="kpoint 98">
       <r>  -13.4594    1.0000 </r>
       <r>  -13.2011    1.0000 </r>
       <r>  -12.0512    1.0000 </r>
       <r>  -11.9644    1.0000 </r>
       <r>  -11.7154    1.0000 </r>
       <r>  -11.2877    1.0000 </r>
       <r>  -10.6416    1.0000 </r>
       <r>   -9.9714    1.0000 </r>
       <r>   -9.1835    1.0000 </r>
       <r>   -8.7282    1.0000 </r>
       <r>   -8.6570    1.0000 </r>
       <r>   -8.4924    1.0000 </r>
       <r>   -7.5775    1.0000 </r>
       <r>   -7.1490    1.0000 </r>
       <r>   -7.0778    1.0000 </r>
       <r>   -6.8684    1.0000 </r>
       <r>   -3.9596    1.0000 </r>
       <r>   -2.3208    0.0000 </r>
       <r>   -0.4037    0.0000 </r>
       <r>   -0.3679    0.0000 </r>
       <r>   -0.2953    0.0000 </r>
       <r>    0.6550    0.0000 </r>
       <r>    0.8279    0.0000 </r>
       <r>    1.0119    0.0000 </r>
       <r>    1.1450    0.0000 </r>
       <r>    1.3790    0.0000 </r>
       <r>    1.4396    0.0000 </r>
       <r>    1.7072    0.0000 </r>
      </set>
      <set comment="kpoint 99">
       <r>  -13.4200    1.0000 </r>
       <r>  -13.2662    1.0000 </r>
       <r>  -11.9263    1.0000 </r>
       <r>  -11.9089    1.0000 </r>
       <r>  -11.7779    1.0000 </r>
       <r>  -11.4539    1.0000 </r>
       <r>  -10.5135    1.0000 </r>
       <r>  -10.1135    1.0000 </r>
       <r>   -9.0090    1.0000 </r>
       <r>   -8.6917    1.0000 </r>
       <r>   -8.6735    1.0000 </r>
       <r>   -8.5510    1.0000 </r>
       <r>   -7.4844    1.0000 </r>
       <r>   -7.2265    1.0000 </r>
       <r>   -7.1358    1.0000 </r>
       <r>   -6.9532    1.0000 </r>
       <r>   -3.6319    1.0000 </r>
       <r>   -2.6524    0.0000 </r>
       <r>   -0.3794    0.0000 </r>
       <r>   -0.3488    0.0000 </r>
       <r>   -0.3091    0.0000 </r>
       <r>    0.8764    0.0000 </r>
       <r>    0.8803    0.0000 </r>
       <r>    0.9097    0.0000 </r>
       <r>    1.0654    0.0000 </r>
       <r>    1.4290    0.0000 </r>
       <r>    1.4864    0.0000 </r>
       <r>    1.6248    0.0000 </r>
      </set>
      <set comment="kpoint 100">
       <r>  -13.3742    1.0000 </r>
       <r>  -13.3248    1.0000 </r>
       <r>  -11.8819    1.0000 </r>
       <r>  -11.8343    1.0000 </r>
       <r>  -11.7603    1.0000 </r>
       <r>  -11.6142    1.0000 </r>
       <r>  -10.3812    1.0000 </r>
       <r>  -10.2526    1.0000 </r>
       <r>   -8.8617    1.0000 </r>
       <r>   -8.7396    1.0000 </r>
       <r>   -8.6494    1.0000 </r>
       <r>   -8.6042    1.0000 </r>
       <r>   -7.3933    1.0000 </r>
       <r>   -7.3100    1.0000 </r>
       <r>   -7.1712    1.0000 </r>
       <r>   -6.9916    1.0000 </r>
       <r>   -3.3008    1.0000 </r>
       <r>   -2.9858    0.0000 </r>
       <r>   -0.3539    0.0000 </r>
       <r>   -0.3361    0.0000 </r>
       <r>   -0.3305    0.0000 </r>
       <r>    0.8559    0.0000 </r>
       <r>    0.9329    0.0000 </r>
       <r>    0.9936    0.0000 </r>
       <r>    1.1147    0.0000 </r>
       <r>    1.3324    0.0000 </r>
       <r>    1.4874    0.0000 </r>
       <r>    1.5399    0.0000 </r>
      </set>
      <set comment="kpoint 101">
       <r>  -13.3768    1.0000 </r>
       <r>  -13.3217    1.0000 </r>
       <r>  -11.8845    1.0000 </r>
       <r>  -11.8314    1.0000 </r>
       <r>  -11.7685    1.0000 </r>
       <r>  -11.6057    1.0000 </r>
       <r>  -10.3885    1.0000 </r>
       <r>  -10.2452    1.0000 </r>
       <r>   -8.8685    1.0000 </r>
       <r>   -8.7351    1.0000 </r>
       <r>   -8.6519    1.0000 </r>
       <r>   -8.6015    1.0000 </r>
       <r>   -7.3982    1.0000 </r>
       <r>   -7.3054    1.0000 </r>
       <r>   -7.1701    1.0000 </r>
       <r>   -6.9906    1.0000 </r>
       <r>   -3.3188    1.0000 </r>
       <r>   -2.9677    0.0000 </r>
       <r>   -0.3553    0.0000 </r>
       <r>   -0.3365    0.0000 </r>
       <r>   -0.3292    0.0000 </r>
       <r>    0.8574    0.0000 </r>
       <r>    0.9296    0.0000 </r>
       <r>    0.9973    0.0000 </r>
       <r>    1.1020    0.0000 </r>
       <r>    1.3443    0.0000 </r>
       <r>    1.4840    0.0000 </r>
       <r>    1.5369    0.0000 </r>
      </set>
      <set comment="kpoint 102">
       <r>  -13.4223    1.0000 </r>
       <r>  -13.2628    1.0000 </r>
       <r>  -11.9285    1.0000 </r>
       <r>  -11.9167    1.0000 </r>
       <r>  -11.7746    1.0000 </r>
       <r>  -11.4450    1.0000 </r>
       <r>  -10.5205    1.0000 </r>
       <r>  -10.1058    1.0000 </r>
       <r>   -9.0179    1.0000 </r>
       <r>   -8.6939    1.0000 </r>
       <r>   -8.6713    1.0000 </r>
       <r>   -8.5480    1.0000 </r>
       <r>   -7.4894    1.0000 </r>
       <r>   -7.2221    1.0000 </r>
       <r>   -7.1330    1.0000 </r>
       <r>   -6.9499    1.0000 </r>
       <r>   -3.6498    1.0000 </r>
       <r>   -2.6344    0.0000 </r>
       <r>   -0.3808    0.0000 </r>
       <r>   -0.3498    0.0000 </r>
       <r>   -0.3081    0.0000 </r>
       <r>    0.8678    0.0000 </r>
       <r>    0.8735    0.0000 </r>
       <r>    0.9141    0.0000 </r>
       <r>    1.0695    0.0000 </r>
       <r>    1.4261    0.0000 </r>
       <r>    1.4837    0.0000 </r>
       <r>    1.5270    0.0000 </r>
      </set>
      <set comment="kpoint 103">
       <r>  -13.4614    1.0000 </r>
       <r>  -13.1974    1.0000 </r>
       <r>  -12.0588    1.0000 </r>
       <r>  -11.9662    1.0000 </r>
       <r>  -11.7118    1.0000 </r>
       <r>  -11.2785    1.0000 </r>
       <r>  -10.6484    1.0000 </r>
       <r>   -9.9637    1.0000 </r>
       <r>   -9.1934    1.0000 </r>
       <r>   -8.7300    1.0000 </r>
       <r>   -8.6576    1.0000 </r>
       <r>   -8.4891    1.0000 </r>
       <r>   -7.5826    1.0000 </r>
       <r>   -7.1450    1.0000 </r>
       <r>   -7.0745    1.0000 </r>
       <r>   -6.8623    1.0000 </r>
       <r>   -3.9773    1.0000 </r>
       <r>   -2.3029    0.0000 </r>
       <r>   -0.4050    0.0000 </r>
       <r>   -0.3689    0.0000 </r>
       <r>   -0.2949    0.0000 </r>
       <r>    0.6432    0.0000 </r>
       <r>    0.8255    0.0000 </r>
       <r>    1.0186    0.0000 </r>
       <r>    1.1496    0.0000 </r>
       <r>    1.3765    0.0000 </r>
       <r>    1.4373    0.0000 </r>
       <r>    1.5813    0.0000 </r>
      </set>
      <set comment="kpoint 104">
       <r>  -13.4938    1.0000 </r>
       <r>  -13.1254    1.0000 </r>
       <r>  -12.1946    1.0000 </r>
       <r>  -11.9977    1.0000 </r>
       <r>  -11.6429    1.0000 </r>
       <r>  -11.1063    1.0000 </r>
       <r>  -10.7718    1.0000 </r>
       <r>   -9.8194    1.0000 </r>
       <r>   -9.3832    1.0000 </r>
       <r>   -8.7603    1.0000 </r>
       <r>   -8.6917    1.0000 </r>
       <r>   -8.4251    1.0000 </r>
       <r>   -7.6766    1.0000 </r>
       <r>   -7.0758    1.0000 </r>
       <r>   -7.0158    1.0000 </r>
       <r>   -6.7206    1.0000 </r>
       <r>   -4.3002    1.0000 </r>
       <r>   -1.9764    0.0000 </r>
       <r>   -0.4266    0.0000 </r>
       <r>   -0.3842    0.0000 </r>
       <r>   -0.2958    0.0000 </r>
       <r>    0.4344    0.0000 </r>
       <r>    0.7854    0.0000 </r>
       <r>    1.1605    0.0000 </r>
       <r>    1.2371    0.0000 </r>
       <r>    1.3352    0.0000 </r>
       <r>    1.3981    0.0000 </r>
       <r>    1.5591    0.0000 </r>
      </set>
      <set comment="kpoint 105">
       <r>  -13.5198    1.0000 </r>
       <r>  -13.0470    1.0000 </r>
       <r>  -12.3240    1.0000 </r>
       <r>  -12.0229    1.0000 </r>
       <r>  -11.5680    1.0000 </r>
       <r>  -10.9285    1.0000 </r>
       <r>  -10.8904    1.0000 </r>
       <r>   -9.6737    1.0000 </r>
       <r>   -9.5804    1.0000 </r>
       <r>   -8.7845    1.0000 </r>
       <r>   -8.7637    1.0000 </r>
       <r>   -8.3561    1.0000 </r>
       <r>   -7.7703    1.0000 </r>
       <r>   -7.0162    1.0000 </r>
       <r>   -6.9675    1.0000 </r>
       <r>   -6.5312    1.0000 </r>
       <r>   -4.6174    1.0000 </r>
       <r>   -1.6589    0.0000 </r>
       <r>   -0.4447    0.0000 </r>
       <r>   -0.3870    0.0000 </r>
       <r>   -0.3196    0.0000 </r>
       <r>    0.2452    0.0000 </r>
       <r>    0.7534    0.0000 </r>
       <r>    1.3023    0.0000 </r>
       <r>    1.3300    0.0000 </r>
       <r>    1.3319    0.0000 </r>
       <r>    1.3667    0.0000 </r>
       <r>    1.4694    0.0000 </r>
      </set>
      <set comment="kpoint 106">
       <r>  -13.4981    1.0000 </r>
       <r>  -12.9642    1.0000 </r>
       <r>  -12.3638    1.0000 </r>
       <r>  -11.9986    1.0000 </r>
       <r>  -11.4855    1.0000 </r>
       <r>  -10.9227    1.0000 </r>
       <r>  -10.7892    1.0000 </r>
       <r>   -9.6671    1.0000 </r>
       <r>   -9.5548    1.0000 </r>
       <r>   -8.7893    1.0000 </r>
       <r>   -8.7502    1.0000 </r>
       <r>   -8.2677    1.0000 </r>
       <r>   -7.7795    1.0000 </r>
       <r>   -6.9416    1.0000 </r>
       <r>   -6.9009    1.0000 </r>
       <r>   -6.3597    1.0000 </r>
       <r>   -4.7601    1.0000 </r>
       <r>   -1.4354    0.0000 </r>
       <r>   -0.4159    0.0000 </r>
       <r>   -0.3450    0.0000 </r>
       <r>   -0.3067    0.0000 </r>
       <r>    0.1765    0.0000 </r>
       <r>    0.7850    0.0000 </r>
       <r>    1.3347    0.0000 </r>
       <r>    1.3993    0.0000 </r>
       <r>    1.4366    0.0000 </r>
       <r>    1.4614    0.0000 </r>
       <r>    1.4715    0.0000 </r>
      </set>
      <set comment="kpoint 107">
       <r>  -13.5136    1.0000 </r>
       <r>  -12.8755    1.0000 </r>
       <r>  -12.4831    1.0000 </r>
       <r>  -12.0137    1.0000 </r>
       <r>  -11.4014    1.0000 </r>
       <r>  -11.0333    1.0000 </r>
       <r>  -10.6034    1.0000 </r>
       <r>   -9.8674    1.0000 </r>
       <r>   -9.4095    1.0000 </r>
       <r>   -8.8994    1.0000 </r>
       <r>   -8.7648    1.0000 </r>
       <r>   -8.1916    1.0000 </r>
       <r>   -7.8711    1.0000 </r>
       <r>   -6.9006    1.0000 </r>
       <r>   -6.8734    1.0000 </r>
       <r>   -6.1204    1.0000 </r>
       <r>   -5.0659    1.0000 </r>
       <r>   -1.1445    0.0000 </r>
       <r>   -0.4273    0.0000 </r>
       <r>   -0.3887    0.0000 </r>
       <r>   -0.3162    0.0000 </r>
       <r>    0.0241    0.0000 </r>
       <r>    0.7658    0.0000 </r>
       <r>    1.3148    0.0000 </r>
       <r>    1.3803    0.0000 </r>
       <r>    1.4168    0.0000 </r>
       <r>    1.5254    0.0000 </r>
       <r>    1.5813    0.0000 </r>
      </set>
      <set comment="kpoint 108">
       <r>  -13.5227    1.0000 </r>
       <r>  -12.7803    1.0000 </r>
       <r>  -12.5961    1.0000 </r>
       <r>  -12.0225    1.0000 </r>
       <r>  -11.3115    1.0000 </r>
       <r>  -11.1385    1.0000 </r>
       <r>  -10.4131    1.0000 </r>
       <r>  -10.0668    1.0000 </r>
       <r>   -9.2662    1.0000 </r>
       <r>   -9.0241    1.0000 </r>
       <r>   -8.7733    1.0000 </r>
       <r>   -8.1113    1.0000 </r>
       <r>   -7.9604    1.0000 </r>
       <r>   -6.8731    1.0000 </r>
       <r>   -6.8601    1.0000 </r>
       <r>   -5.8602    1.0000 </r>
       <r>   -5.3627    1.0000 </r>
       <r>   -0.8822    0.0000 </r>
       <r>   -0.5211    0.0000 </r>
       <r>   -0.4340    0.0000 </r>
       <r>   -0.2626    0.0000 </r>
       <r>   -0.1029    0.0000 </r>
       <r>    0.7546    0.0000 </r>
       <r>    1.3033    0.0000 </r>
       <r>    1.3692    0.0000 </r>
       <r>    1.4005    0.0000 </r>
       <r>    1.4648    0.0000 </r>
       <r>    1.6497    0.0000 </r>
      </set>
      <set comment="kpoint 109">
       <r>  -13.5252    1.0000 </r>
       <r>  -12.7026    1.0000 </r>
       <r>  -12.6787    1.0000 </r>
       <r>  -12.0249    1.0000 </r>
       <r>  -11.2384    1.0000 </r>
       <r>  -11.2159    1.0000 </r>
       <r>  -10.2637    1.0000 </r>
       <r>  -10.2187    1.0000 </r>
       <r>   -9.1585    1.0000 </r>
       <r>   -9.1269    1.0000 </r>
       <r>   -8.7757    1.0000 </r>
       <r>   -8.0469    1.0000 </r>
       <r>   -8.0273    1.0000 </r>
       <r>   -6.8617    1.0000 </r>
       <r>   -6.8600    1.0000 </r>
       <r>   -5.6487    1.0000 </r>
       <r>   -5.5841    1.0000 </r>
       <r>   -0.7066    0.0000 </r>
       <r>   -0.6594    0.0000 </r>
       <r>   -0.4359    0.0000 </r>
       <r>   -0.2034    0.0000 </r>
       <r>   -0.1827    0.0000 </r>
       <r>    0.7515    0.0000 </r>
       <r>    1.3001    0.0000 </r>
       <r>    1.3661    0.0000 </r>
       <r>    1.4130    0.0000 </r>
       <r>    1.4213    0.0000 </r>
       <r>    1.6466    0.0000 </r>
      </set>
      <set comment="kpoint 110">
       <r>  -13.5212    1.0000 </r>
       <r>  -12.8028    1.0000 </r>
       <r>  -12.5707    1.0000 </r>
       <r>  -12.0210    1.0000 </r>
       <r>  -11.3327    1.0000 </r>
       <r>  -11.1148    1.0000 </r>
       <r>  -10.4572    1.0000 </r>
       <r>  -10.0211    1.0000 </r>
       <r>   -9.2989    1.0000 </r>
       <r>   -8.9944    1.0000 </r>
       <r>   -8.7719    1.0000 </r>
       <r>   -8.1301    1.0000 </r>
       <r>   -7.9401    1.0000 </r>
       <r>   -6.8782    1.0000 </r>
       <r>   -6.8618    1.0000 </r>
       <r>   -5.9216    1.0000 </r>
       <r>   -5.2953    1.0000 </r>
       <r>   -0.9395    0.0000 </r>
       <r>   -0.4859    0.0000 </r>
       <r>   -0.4329    0.0000 </r>
       <r>   -0.2772    0.0000 </r>
       <r>   -0.0760    0.0000 </r>
       <r>    0.7565    0.0000 </r>
       <r>    1.3053    0.0000 </r>
       <r>    1.3711    0.0000 </r>
       <r>    1.4013    0.0000 </r>
       <r>    1.4818    0.0000 </r>
       <r>    1.6517    0.0000 </r>
      </set>
      <set comment="kpoint 111">
       <r>  -13.5106    1.0000 </r>
       <r>  -12.8964    1.0000 </r>
       <r>  -12.4562    1.0000 </r>
       <r>  -12.0108    1.0000 </r>
       <r>  -11.4213    1.0000 </r>
       <r>  -11.0083    1.0000 </r>
       <r>  -10.6466    1.0000 </r>
       <r>   -9.8214    1.0000 </r>
       <r>   -9.4428    1.0000 </r>
       <r>   -8.8725    1.0000 </r>
       <r>   -8.7620    1.0000 </r>
       <r>   -8.2095    1.0000 </r>
       <r>   -7.8502    1.0000 </r>
       <r>   -6.9089    1.0000 </r>
       <r>   -6.8784    1.0000 </r>
       <r>   -6.1775    1.0000 </r>
       <r>   -4.9963    1.0000 </r>
       <r>   -1.2093    0.0000 </r>
       <r>   -0.4251    0.0000 </r>
       <r>   -0.3656    0.0000 </r>
       <r>   -0.3249    0.0000 </r>
       <r>    0.0569    0.0000 </r>
       <r>    0.7695    0.0000 </r>
       <r>    1.3187    0.0000 </r>
       <r>    1.3840    0.0000 </r>
       <r>    1.4249    0.0000 </r>
       <r>    1.5113    0.0000 </r>
       <r>    1.5950    0.0000 </r>
      </set>
      <set comment="kpoint 112">
       <r>  -13.4936    1.0000 </r>
       <r>  -12.9836    1.0000 </r>
       <r>  -12.3354    1.0000 </r>
       <r>  -11.9942    1.0000 </r>
       <r>  -11.5041    1.0000 </r>
       <r>  -10.8966    1.0000 </r>
       <r>  -10.8312    1.0000 </r>
       <r>   -9.6212    1.0000 </r>
       <r>   -9.5882    1.0000 </r>
       <r>   -8.7668    1.0000 </r>
       <r>   -8.7460    1.0000 </r>
       <r>   -8.2846    1.0000 </r>
       <r>   -7.7581    1.0000 </r>
       <r>   -6.9529    1.0000 </r>
       <r>   -6.9091    1.0000 </r>
       <r>   -6.4110    1.0000 </r>
       <r>   -4.6887    1.0000 </r>
       <r>   -1.5054    0.0000 </r>
       <r>   -0.4126    0.0000 </r>
       <r>   -0.3484    0.0000 </r>
       <r>   -0.2940    0.0000 </r>
       <r>    0.2149    0.0000 </r>
       <r>    0.7906    0.0000 </r>
       <r>    1.3404    0.0000 </r>
       <r>    1.4048    0.0000 </r>
       <r>    1.4136    0.0000 </r>
       <r>    1.4284    0.0000 </r>
       <r>    1.4746    0.0000 </r>
      </set>
      <set comment="kpoint 113">
       <r>  -13.4700    1.0000 </r>
       <r>  -13.0644    1.0000 </r>
       <r>  -12.2083    1.0000 </r>
       <r>  -11.9713    1.0000 </r>
       <r>  -11.5810    1.0000 </r>
       <r>  -11.0107    1.0000 </r>
       <r>  -10.7798    1.0000 </r>
       <r>   -9.7338    1.0000 </r>
       <r>   -9.4230    1.0000 </r>
       <r>   -8.7239    1.0000 </r>
       <r>   -8.6849    1.0000 </r>
       <r>   -8.3553    1.0000 </r>
       <r>   -7.6647    1.0000 </r>
       <r>   -7.0086    1.0000 </r>
       <r>   -6.9528    1.0000 </r>
       <r>   -6.6134    1.0000 </r>
       <r>   -4.3738    1.0000 </r>
       <r>   -1.8188    0.0000 </r>
       <r>   -0.3958    0.0000 </r>
       <r>   -0.3513    0.0000 </r>
       <r>   -0.2605    0.0000 </r>
       <r>    0.3960    0.0000 </r>
       <r>    0.8197    0.0000 </r>
       <r>    1.2520    0.0000 </r>
       <r>    1.3166    0.0000 </r>
       <r>    1.3704    0.0000 </r>
       <r>    1.4335    0.0000 </r>
       <r>    1.5391    0.0000 </r>
      </set>
      <set comment="kpoint 114">
       <r>  -13.4398    1.0000 </r>
       <r>  -13.1386    1.0000 </r>
       <r>  -12.0748    1.0000 </r>
       <r>  -11.9421    1.0000 </r>
       <r>  -11.6520    1.0000 </r>
       <r>  -11.1848    1.0000 </r>
       <r>  -10.6582    1.0000 </r>
       <r>   -9.8785    1.0000 </r>
       <r>   -9.2306    1.0000 </r>
       <r>   -8.6958    1.0000 </r>
       <r>   -8.6368    1.0000 </r>
       <r>   -8.4211    1.0000 </r>
       <r>   -7.5708    1.0000 </r>
       <r>   -7.0744    1.0000 </r>
       <r>   -7.0080    1.0000 </r>
       <r>   -6.7726    1.0000 </r>
       <r>   -4.0528    1.0000 </r>
       <r>   -2.1431    0.0000 </r>
       <r>   -0.3753    0.0000 </r>
       <r>   -0.3393    0.0000 </r>
       <r>   -0.2534    0.0000 </r>
       <r>    0.5977    0.0000 </r>
       <r>    0.8569    0.0000 </r>
       <r>    1.0995    0.0000 </r>
       <r>    1.2265    0.0000 </r>
       <r>    1.4087    0.0000 </r>
       <r>    1.4699    0.0000 </r>
       <r>    1.5977    0.0000 </r>
      </set>
      <set comment="kpoint 115">
       <r>  -13.4032    1.0000 </r>
       <r>  -13.2063    1.0000 </r>
       <r>  -11.9351    1.0000 </r>
       <r>  -11.9066    1.0000 </r>
       <r>  -11.7169    1.0000 </r>
       <r>  -11.3532    1.0000 </r>
       <r>  -10.5321    1.0000 </r>
       <r>  -10.0212    1.0000 </r>
       <r>   -9.0497    1.0000 </r>
       <r>   -8.6617    1.0000 </r>
       <r>   -8.6331    1.0000 </r>
       <r>   -8.4818    1.0000 </r>
       <r>   -7.4773    1.0000 </r>
       <r>   -7.1488    1.0000 </r>
       <r>   -7.0683    1.0000 </r>
       <r>   -6.8787    1.0000 </r>
       <r>   -3.7266    1.0000 </r>
       <r>   -2.4736    0.0000 </r>
       <r>   -0.3518    0.0000 </r>
       <r>   -0.3201    0.0000 </r>
       <r>   -0.2631    0.0000 </r>
       <r>    0.8167    0.0000 </r>
       <r>    0.9021    0.0000 </r>
       <r>    0.9807    0.0000 </r>
       <r>    1.1438    0.0000 </r>
       <r>    1.4553    0.0000 </r>
       <r>    1.5138    0.0000 </r>
       <r>    1.7058    0.0000 </r>
      </set>
      <set comment="kpoint 116">
       <r>  -13.3600    1.0000 </r>
       <r>  -13.2676    1.0000 </r>
       <r>  -11.8649    1.0000 </r>
       <r>  -11.7891    1.0000 </r>
       <r>  -11.7758    1.0000 </r>
       <r>  -11.5159    1.0000 </r>
       <r>  -10.4017    1.0000 </r>
       <r>  -10.1615    1.0000 </r>
       <r>   -8.8895    1.0000 </r>
       <r>   -8.6801    1.0000 </r>
       <r>   -8.6218    1.0000 </r>
       <r>   -8.5372    1.0000 </r>
       <r>   -7.3853    1.0000 </r>
       <r>   -7.2299    1.0000 </r>
       <r>   -7.1151    1.0000 </r>
       <r>   -6.9346    1.0000 </r>
       <r>   -3.3966    1.0000 </r>
       <r>   -2.8069    0.0000 </r>
       <r>   -0.3264    0.0000 </r>
       <r>   -0.3034    0.0000 </r>
       <r>   -0.2824    0.0000 </r>
       <r>    0.9059    0.0000 </r>
       <r>    0.9553    0.0000 </r>
       <r>    1.0480    0.0000 </r>
       <r>    1.0688    0.0000 </r>
       <r>    1.4481    0.0000 </r>
       <r>    1.5103    0.0000 </r>
       <r>    1.5647    0.0000 </r>
      </set>
      <set comment="kpoint 117">
       <r>  -13.3223    1.0000 </r>
       <r>  -13.3103    1.0000 </r>
       <r>  -11.8285    1.0000 </r>
       <r>  -11.8169    1.0000 </r>
       <r>  -11.6726    1.0000 </r>
       <r>  -11.6371    1.0000 </r>
       <r>  -10.2985    1.0000 </r>
       <r>  -10.2673    1.0000 </r>
       <r>   -8.7978    1.0000 </r>
       <r>   -8.7396    1.0000 </r>
       <r>   -8.5872    1.0000 </r>
       <r>   -8.5762    1.0000 </r>
       <r>   -7.3162    1.0000 </r>
       <r>   -7.2959    1.0000 </r>
       <r>   -7.1297    1.0000 </r>
       <r>   -6.9494    1.0000 </r>
       <r>   -3.1406    0.9994 </r>
       <r>   -3.0639    0.0146 </r>
       <r>   -0.3066    0.0000 </r>
       <r>   -0.3008    0.0000 </r>
       <r>   -0.2979    0.0000 </r>
       <r>    0.8842    0.0000 </r>
       <r>    1.0016    0.0000 </r>
       <r>    1.0164    0.0000 </r>
       <r>    1.2286    0.0000 </r>
       <r>    1.2817    0.0000 </r>
       <r>    1.5583    0.0000 </r>
       <r>    1.5894    0.0000 </r>
      </set>
      <set comment="kpoint 118">
       <r>  -13.3705    1.0000 </r>
       <r>  -13.2541    1.0000 </r>
       <r>  -11.8750    1.0000 </r>
       <r>  -11.8232    1.0000 </r>
       <r>  -11.7628    1.0000 </r>
       <r>  -11.4790    1.0000 </r>
       <r>  -10.4320    1.0000 </r>
       <r>  -10.1295    1.0000 </r>
       <r>   -8.9238    1.0000 </r>
       <r>   -8.6649    1.0000 </r>
       <r>   -8.6315    1.0000 </r>
       <r>   -8.5249    1.0000 </r>
       <r>   -7.4063    1.0000 </r>
       <r>   -7.2107    1.0000 </r>
       <r>   -7.1067    1.0000 </r>
       <r>   -6.9256    1.0000 </r>
       <r>   -3.4728    1.0000 </r>
       <r>   -2.7301    0.0000 </r>
       <r>   -0.3323    0.0000 </r>
       <r>   -0.3065    0.0000 </r>
       <r>   -0.2774    0.0000 </r>
       <r>    0.9187    0.0000 </r>
       <r>    0.9423    0.0000 </r>
       <r>    0.9941    0.0000 </r>
       <r>    1.0854    0.0000 </r>
       <r>    1.4914    0.0000 </r>
       <r>    1.4969    0.0000 </r>
       <r>    1.5524    0.0000 </r>
      </set>
      <set comment="kpoint 119">
       <r>  -13.4122    1.0000 </r>
       <r>  -13.1913    1.0000 </r>
       <r>  -11.9677    1.0000 </r>
       <r>  -11.9153    1.0000 </r>
       <r>  -11.7025    1.0000 </r>
       <r>  -11.3150    1.0000 </r>
       <r>  -10.5615    1.0000 </r>
       <r>   -9.9886    1.0000 </r>
       <r>   -9.0899    1.0000 </r>
       <r>   -8.6701    1.0000 </r>
       <r>   -8.6296    1.0000 </r>
       <r>   -8.4683    1.0000 </r>
       <r>   -7.4987    1.0000 </r>
       <r>   -7.1310    1.0000 </r>
       <r>   -7.0548    1.0000 </r>
       <r>   -6.8591    1.0000 </r>
       <r>   -3.8020    1.0000 </r>
       <r>   -2.3972    0.0000 </r>
       <r>   -0.3574    0.0000 </r>
       <r>   -0.3246    0.0000 </r>
       <r>   -0.2598    0.0000 </r>
       <r>    0.7651    0.0000 </r>
       <r>    0.8910    0.0000 </r>
       <r>    1.0045    0.0000 </r>
       <r>    1.1622    0.0000 </r>
       <r>    1.4439    0.0000 </r>
       <r>    1.5030    0.0000 </r>
       <r>    1.7250    0.0000 </r>
      </set>
      <set comment="kpoint 120">
       <r>  -13.4473    1.0000 </r>
       <r>  -13.1221    1.0000 </r>
       <r>  -12.1060    1.0000 </r>
       <r>  -11.9494    1.0000 </r>
       <r>  -11.6362    1.0000 </r>
       <r>  -11.1452    1.0000 </r>
       <r>  -10.6866    1.0000 </r>
       <r>   -9.8454    1.0000 </r>
       <r>   -9.2741    1.0000 </r>
       <r>   -8.7028    1.0000 </r>
       <r>   -8.6443    1.0000 </r>
       <r>   -8.4064    1.0000 </r>
       <r>   -7.5924    1.0000 </r>
       <r>   -7.0585    1.0000 </r>
       <r>   -6.9945    1.0000 </r>
       <r>   -6.7405    1.0000 </r>
       <r>   -4.1270    1.0000 </r>
       <r>   -2.0678    0.0000 </r>
       <r>   -0.3803    0.0000 </r>
       <r>   -0.3430    0.0000 </r>
       <r>   -0.2533    0.0000 </r>
       <r>    0.5497    0.0000 </r>
       <r>    0.8476    0.0000 </r>
       <r>    1.1320    0.0000 </r>
       <r>    1.2466    0.0000 </r>
       <r>    1.3992    0.0000 </r>
       <r>    1.4609    0.0000 </r>
       <r>    1.5868    0.0000 </r>
      </set>
      <set comment="kpoint 121">
       <r>  -13.4760    1.0000 </r>
       <r>  -13.0464    1.0000 </r>
       <r>  -12.2381    1.0000 </r>
       <r>  -11.9771    1.0000 </r>
       <r>  -11.5638    1.0000 </r>
       <r>  -10.9699    1.0000 </r>
       <r>  -10.8071    1.0000 </r>
       <r>   -9.7004    1.0000 </r>
       <r>   -9.4682    1.0000 </r>
       <r>   -8.7295    1.0000 </r>
       <r>   -8.7011    1.0000 </r>
       <r>   -8.3394    1.0000 </r>
       <r>   -7.6863    1.0000 </r>
       <r>   -6.9948    1.0000 </r>
       <r>   -6.9417    1.0000 </r>
       <r>   -6.5702    1.0000 </r>
       <r>   -4.4468    1.0000 </r>
       <r>   -1.7455    0.0000 </r>
       <r>   -0.4000    0.0000 </r>
       <r>   -0.3522    0.0000 </r>
       <r>   -0.2655    0.0000 </r>
       <r>    0.3524    0.0000 </r>
       <r>    0.8123    0.0000 </r>
       <r>    1.2907    0.0000 </r>
       <r>    1.3384    0.0000 </r>
       <r>    1.3628    0.0000 </r>
       <r>    1.4262    0.0000 </r>
       <r>    1.5237    0.0000 </r>
      </set>
      <set comment="kpoint 122">
       <r>  -13.4506    1.0000 </r>
       <r>  -12.9600    1.0000 </r>
       <r>  -12.2742    1.0000 </r>
       <r>  -11.9488    1.0000 </r>
       <r>  -11.4774    1.0000 </r>
       <r>  -10.8353    1.0000 </r>
       <r>  -10.8269    1.0000 </r>
       <r>   -9.5766    1.0000 </r>
       <r>   -9.5497    1.0000 </r>
       <r>   -8.7159    1.0000 </r>
       <r>   -8.6896    1.0000 </r>
       <r>   -8.2452    1.0000 </r>
       <r>   -7.6888    1.0000 </r>
       <r>   -6.9107    1.0000 </r>
       <r>   -6.8652    1.0000 </r>
       <r>   -6.4004    1.0000 </r>
       <r>   -4.5849    1.0000 </r>
       <r>   -1.5117    0.0000 </r>
       <r>   -0.3666    0.0000 </r>
       <r>   -0.3097    0.0000 </r>
       <r>   -0.2378    0.0000 </r>
       <r>    0.2831    0.0000 </r>
       <r>    0.8492    0.0000 </r>
       <r>    1.4005    0.0000 </r>
       <r>    1.4325    0.0000 </r>
       <r>    1.4488    0.0000 </r>
       <r>    1.4642    0.0000 </r>
       <r>    1.5167    0.0000 </r>
      </set>
      <set comment="kpoint 123">
       <r>  -13.4689    1.0000 </r>
       <r>  -12.8740    1.0000 </r>
       <r>  -12.3961    1.0000 </r>
       <r>  -11.9665    1.0000 </r>
       <r>  -11.3957    1.0000 </r>
       <r>  -10.9478    1.0000 </r>
       <r>  -10.6434    1.0000 </r>
       <r>   -9.7492    1.0000 </r>
       <r>   -9.4314    1.0000 </r>
       <r>   -8.8170    1.0000 </r>
       <r>   -8.7067    1.0000 </r>
       <r>   -8.1708    1.0000 </r>
       <r>   -7.7810    1.0000 </r>
       <r>   -6.8647    1.0000 </r>
       <r>   -6.8322    1.0000 </r>
       <r>   -6.1728    1.0000 </r>
       <r>   -4.8939    1.0000 </r>
       <r>   -1.2113    0.0000 </r>
       <r>   -0.3799    0.0000 </r>
       <r>   -0.3004    0.0000 </r>
       <r>   -0.2908    0.0000 </r>
       <r>    0.1213    0.0000 </r>
       <r>    0.8266    0.0000 </r>
       <r>    1.3773    0.0000 </r>
       <r>    1.4420    0.0000 </r>
       <r>    1.4642    0.0000 </r>
       <r>    1.5477    0.0000 </r>
       <r>    1.6558    0.0000 </r>
      </set>
      <set comment="kpoint 124">
       <r>  -13.4806    1.0000 </r>
       <r>  -12.7815    1.0000 </r>
       <r>  -12.5117    1.0000 </r>
       <r>  -11.9779    1.0000 </r>
       <r>  -11.3083    1.0000 </r>
       <r>  -11.0551    1.0000 </r>
       <r>  -10.4552    1.0000 </r>
       <r>   -9.9487    1.0000 </r>
       <r>   -9.2876    1.0000 </r>
       <r>   -8.9355    1.0000 </r>
       <r>   -8.7178    1.0000 </r>
       <r>   -8.0922    1.0000 </r>
       <r>   -7.8713    1.0000 </r>
       <r>   -6.8316    1.0000 </r>
       <r>   -6.8129    1.0000 </r>
       <r>   -5.9212    1.0000 </r>
       <r>   -5.1943    1.0000 </r>
       <r>   -0.9355    0.0000 </r>
       <r>   -0.4101    0.0000 </r>
       <r>   -0.3887    0.0000 </r>
       <r>   -0.2483    0.0000 </r>
       <r>   -0.0157    0.0000 </r>
       <r>    0.8121    0.0000 </r>
       <r>    1.3624    0.0000 </r>
       <r>    1.4276    0.0000 </r>
       <r>    1.4364    0.0000 </r>
       <r>    1.5362    0.0000 </r>
       <r>    1.6709    0.0000 </r>
      </set>
      <set comment="kpoint 125">
       <r>  -13.4858    1.0000 </r>
       <r>  -12.6826    1.0000 </r>
       <r>  -12.6208    1.0000 </r>
       <r>  -11.9830    1.0000 </r>
       <r>  -11.2151    1.0000 </r>
       <r>  -11.1571    1.0000 </r>
       <r>  -10.2626    1.0000 </r>
       <r>  -10.1465    1.0000 </r>
       <r>   -9.1469    1.0000 </r>
       <r>   -9.0657    1.0000 </r>
       <r>   -8.7227    1.0000 </r>
       <r>   -8.0097    1.0000 </r>
       <r>   -7.9591    1.0000 </r>
       <r>   -6.8126    1.0000 </r>
       <r>   -6.8083    1.0000 </r>
       <r>   -5.6517    1.0000 </r>
       <r>   -5.4847    1.0000 </r>
       <r>   -0.6949    0.0000 </r>
       <r>   -0.5733    0.0000 </r>
       <r>   -0.3926    0.0000 </r>
       <r>   -0.1799    0.0000 </r>
       <r>   -0.1267    0.0000 </r>
       <r>    0.8057    0.0000 </r>
       <r>    1.3557    0.0000 </r>
       <r>    1.4212    0.0000 </r>
       <r>    1.4428    0.0000 </r>
       <r>    1.4659    0.0000 </r>
       <r>    1.7020    0.0000 </r>
      </set>
      <set comment="kpoint 126">
       <r>  -13.4845    1.0000 </r>
       <r>  -12.7235    1.0000 </r>
       <r>  -12.5773    1.0000 </r>
       <r>  -11.9817    1.0000 </r>
       <r>  -11.2536    1.0000 </r>
       <r>  -11.1164    1.0000 </r>
       <r>  -10.3412    1.0000 </r>
       <r>  -10.0666    1.0000 </r>
       <r>   -9.2034    1.0000 </r>
       <r>   -9.0118    1.0000 </r>
       <r>   -8.7214    1.0000 </r>
       <r>   -8.0437    1.0000 </r>
       <r>   -7.9238    1.0000 </r>
       <r>   -6.8185    1.0000 </r>
       <r>   -6.8083    1.0000 </r>
       <r>   -5.7629    1.0000 </r>
       <r>   -5.3683    1.0000 </r>
       <r>   -0.7876    0.0000 </r>
       <r>   -0.5005    0.0000 </r>
       <r>   -0.3916    0.0000 </r>
       <r>   -0.2108    0.0000 </r>
       <r>   -0.0849    0.0000 </r>
       <r>    0.8073    0.0000 </r>
       <r>    1.3574    0.0000 </r>
       <r>    1.4229    0.0000 </r>
       <r>    1.4355    0.0000 </r>
       <r>    1.4901    0.0000 </r>
       <r>    1.7037    0.0000 </r>
      </set>
      <set comment="kpoint 127">
       <r>  -13.4767    1.0000 </r>
       <r>  -12.8198    1.0000 </r>
       <r>  -12.4656    1.0000 </r>
       <r>  -11.9740    1.0000 </r>
       <r>  -11.3444    1.0000 </r>
       <r>  -11.0122    1.0000 </r>
       <r>  -10.5321    1.0000 </r>
       <r>   -9.8679    1.0000 </r>
       <r>   -9.3457    1.0000 </r>
       <r>   -8.8858    1.0000 </r>
       <r>   -8.7140    1.0000 </r>
       <r>   -8.1246    1.0000 </r>
       <r>   -7.8350    1.0000 </r>
       <r>   -6.8434    1.0000 </r>
       <r>   -6.8190    1.0000 </r>
       <r>   -6.0257    1.0000 </r>
       <r>   -5.0736    1.0000 </r>
       <r>   -1.0438    0.0000 </r>
       <r>   -0.3857    0.0000 </r>
       <r>   -0.3593    0.0000 </r>
       <r>   -0.2685    0.0000 </r>
       <r>    0.0368    0.0000 </r>
       <r>    0.8170    0.0000 </r>
       <r>    1.3674    0.0000 </r>
       <r>    1.4325    0.0000 </r>
       <r>    1.4441    0.0000 </r>
       <r>    1.5682    0.0000 </r>
       <r>    1.6338    0.0000 </r>
      </set>
      <set comment="kpoint 128">
       <r>  -13.4623    1.0000 </r>
       <r>  -12.9096    1.0000 </r>
       <r>  -12.3475    1.0000 </r>
       <r>  -11.9601    1.0000 </r>
       <r>  -11.4295    1.0000 </r>
       <r>  -10.9028    1.0000 </r>
       <r>  -10.7184    1.0000 </r>
       <r>   -9.6682    1.0000 </r>
       <r>   -9.4902    1.0000 </r>
       <r>   -8.7735    1.0000 </r>
       <r>   -8.7005    1.0000 </r>
       <r>   -8.2015    1.0000 </r>
       <r>   -7.7438    1.0000 </r>
       <r>   -6.8819    1.0000 </r>
       <r>   -6.8439    1.0000 </r>
       <r>   -6.2684    1.0000 </r>
       <r>   -4.7695    1.0000 </r>
       <r>   -1.3308    0.0000 </r>
       <r>   -0.3750    0.0000 </r>
       <r>   -0.3011    0.0000 </r>
       <r>   -0.2698    0.0000 </r>
       <r>    0.1840    0.0000 </r>
       <r>    0.8348    0.0000 </r>
       <r>    1.3857    0.0000 </r>
       <r>    1.4500    0.0000 </r>
       <r>    1.4832    0.0000 </r>
       <r>    1.5081    0.0000 </r>
       <r>    1.5433    0.0000 </r>
      </set>
      <set comment="kpoint 129">
       <r>  -13.4414    1.0000 </r>
       <r>  -12.9930    1.0000 </r>
       <r>  -12.2230    1.0000 </r>
       <r>  -11.9398    1.0000 </r>
       <r>  -11.5088    1.0000 </r>
       <r>  -10.8999    1.0000 </r>
       <r>  -10.7882    1.0000 </r>
       <r>   -9.6356    1.0000 </r>
       <r>   -9.4694    1.0000 </r>
       <r>   -8.6817    1.0000 </r>
       <r>   -8.6809    1.0000 </r>
       <r>   -8.2740    1.0000 </r>
       <r>   -7.6509    1.0000 </r>
       <r>   -6.9328    1.0000 </r>
       <r>   -6.8823    1.0000 </r>
       <r>   -6.4839    1.0000 </r>
       <r>   -4.4576    1.0000 </r>
       <r>   -1.6385    0.0000 </r>
       <r>   -0.3599    0.0000 </r>
       <r>   -0.3114    0.0000 </r>
       <r>   -0.2233    0.0000 </r>
       <r>    0.3553    0.0000 </r>
       <r>    0.8606    0.0000 </r>
       <r>    1.3603    0.0000 </r>
       <r>    1.4093    0.0000 </r>
       <r>    1.4123    0.0000 </r>
       <r>    1.4755    0.0000 </r>
       <r>    1.5425    0.0000 </r>
      </set>
      <set comment="kpoint 130">
       <r>  -13.4139    1.0000 </r>
       <r>  -13.0699    1.0000 </r>
       <r>  -12.0922    1.0000 </r>
       <r>  -11.9132    1.0000 </r>
       <r>  -11.5822    1.0000 </r>
       <r>  -11.0761    1.0000 </r>
       <r>  -10.6688    1.0000 </r>
       <r>   -9.7804    1.0000 </r>
       <r>   -9.2747    1.0000 </r>
       <r>   -8.6553    1.0000 </r>
       <r>   -8.6193    1.0000 </r>
       <r>   -8.3418    1.0000 </r>
       <r>   -7.5572    1.0000 </r>
       <r>   -6.9945    1.0000 </r>
       <r>   -6.9328    1.0000 </r>
       <r>   -6.6614    1.0000 </r>
       <r>   -4.1389    1.0000 </r>
       <r>   -1.9596    0.0000 </r>
       <r>   -0.3408    0.0000 </r>
       <r>   -0.3043    0.0000 </r>
       <r>   -0.2077    0.0000 </r>
       <r>    0.5483    0.0000 </r>
       <r>    0.8945    0.0000 </r>
       <r>    1.1975    0.0000 </r>
       <r>    1.3163    0.0000 </r>
       <r>    1.4472    0.0000 </r>
       <r>    1.5088    0.0000 </r>
       <r>    1.6069    0.0000 </r>
      </set>
      <set comment="kpoint 131">
       <r>  -13.3800    1.0000 </r>
       <r>  -13.1402    1.0000 </r>
       <r>  -11.9551    1.0000 </r>
       <r>  -11.8804    1.0000 </r>
       <r>  -11.6495    1.0000 </r>
       <r>  -11.2467    1.0000 </r>
       <r>  -10.5446    1.0000 </r>
       <r>   -9.9237    1.0000 </r>
       <r>   -9.0889    1.0000 </r>
       <r>   -8.6237    1.0000 </r>
       <r>   -8.5971    1.0000 </r>
       <r>   -8.4047    1.0000 </r>
       <r>   -7.4634    1.0000 </r>
       <r>   -7.0654    1.0000 </r>
       <r>   -6.9921    1.0000 </r>
       <r>   -6.7890    1.0000 </r>
       <r>   -3.8147    1.0000 </r>
       <r>   -2.2885    0.0000 </r>
       <r>   -0.3182    0.0000 </r>
       <r>   -0.2865    0.0000 </r>
       <r>   -0.2123    0.0000 </r>
       <r>    0.7601    0.0000 </r>
       <r>    0.9363    0.0000 </r>
       <r>    1.0640    0.0000 </r>
       <r>    1.2306    0.0000 </r>
       <r>    1.4904    0.0000 </r>
       <r>    1.5496    0.0000 </r>
       <r>    1.7952    0.0000 </r>
      </set>
      <set comment="kpoint 132">
       <r>  -13.3395    1.0000 </r>
       <r>  -13.2041    1.0000 </r>
       <r>  -11.8413    1.0000 </r>
       <r>  -11.8118    1.0000 </r>
       <r>  -11.7108    1.0000 </r>
       <r>  -11.4116    1.0000 </r>
       <r>  -10.4161    1.0000 </r>
       <r>  -10.0648    1.0000 </r>
       <r>   -8.9196    1.0000 </r>
       <r>   -8.6236    1.0000 </r>
       <r>   -8.5862    1.0000 </r>
       <r>   -8.4623    1.0000 </r>
       <r>   -7.3707    1.0000 </r>
       <r>   -7.1438    1.0000 </r>
       <r>   -7.0467    1.0000 </r>
       <r>   -6.8638    1.0000 </r>
       <r>   -3.4859    1.0000 </r>
       <r>   -2.6215    0.0000 </r>
       <r>   -0.2933    0.0000 </r>
       <r>   -0.2673    0.0000 </r>
       <r>   -0.2290    0.0000 </r>
       <r>    0.9700    0.0000 </r>
       <r>    0.9862    0.0000 </r>
       <r>    0.9866    0.0000 </r>
       <r>    1.1525    0.0000 </r>
       <r>    1.5419    0.0000 </r>
       <r>    1.5550    0.0000 </r>
       <r>    1.5977    0.0000 </r>
      </set>
      <set comment="kpoint 133">
       <r>  -13.2925    1.0000 </r>
       <r>  -13.2615    1.0000 </r>
       <r>  -11.7959    1.0000 </r>
       <r>  -11.7660    1.0000 </r>
       <r>  -11.6624    1.0000 </r>
       <r>  -11.5707    1.0000 </r>
       <r>  -10.2836    1.0000 </r>
       <r>  -10.2030    1.0000 </r>
       <r>   -8.7812    1.0000 </r>
       <r>   -8.6962    1.0000 </r>
       <r>   -8.5429    1.0000 </r>
       <r>   -8.5145    1.0000 </r>
       <r>   -7.2802    1.0000 </r>
       <r>   -7.2280    1.0000 </r>
       <r>   -7.0757    1.0000 </r>
       <r>   -6.8946    1.0000 </r>
       <r>   -3.1539    1.0000 </r>
       <r>   -2.9556    0.0000 </r>
       <r>   -0.2672    0.0000 </r>
       <r>   -0.2562    0.0000 </r>
       <r>   -0.2521    0.0000 </r>
       <r>    0.9257    0.0000 </r>
       <r>    1.0440    0.0000 </r>
       <r>    1.0821    0.0000 </r>
       <r>    1.2205    0.0000 </r>
       <r>    1.3570    0.0000 </r>
       <r>    1.6017    0.0000 </r>
       <r>    1.6522    0.0000 </r>
      </set>
      <set comment="kpoint 134">
       <r>  -13.3124    1.0000 </r>
       <r>  -13.2390    1.0000 </r>
       <r>  -11.8151    1.0000 </r>
       <r>  -11.7444    1.0000 </r>
       <r>  -11.7237    1.0000 </r>
       <r>  -11.5069    1.0000 </r>
       <r>  -10.3378    1.0000 </r>
       <r>  -10.1473    1.0000 </r>
       <r>   -8.8315    1.0000 </r>
       <r>   -8.6627    1.0000 </r>
       <r>   -8.5612    1.0000 </r>
       <r>   -8.4940    1.0000 </r>
       <r>   -7.3166    1.0000 </r>
       <r>   -7.1932    1.0000 </r>
       <r>   -7.0680    1.0000 </r>
       <r>   -6.8869    1.0000 </r>
       <r>   -3.2889    1.0000 </r>
       <r>   -2.8201    0.0000 </r>
       <r>   -0.2778    0.0000 </r>
       <r>   -0.2592    0.0000 </r>
       <r>   -0.2422    0.0000 </r>
       <r>    0.9371    0.0000 </r>
       <r>    1.0196    0.0000 </r>
       <r>    1.1097    0.0000 </r>
       <r>    1.1255    0.0000 </r>
       <r>    1.4448    0.0000 </r>
       <r>    1.5764    0.0000 </r>
       <r>    1.6295    0.0000 </r>
      </set>
      <set comment="kpoint 135">
       <r>  -13.3567    1.0000 </r>
       <r>  -13.1790    1.0000 </r>
       <r>  -11.8707    1.0000 </r>
       <r>  -11.8579    1.0000 </r>
       <r>  -11.6867    1.0000 </r>
       <r>  -11.3455    1.0000 </r>
       <r>  -10.4688    1.0000 </r>
       <r>  -10.0079    1.0000 </r>
       <r>   -8.9857    1.0000 </r>
       <r>   -8.6067    1.0000 </r>
       <r>   -8.6021    1.0000 </r>
       <r>   -8.4395    1.0000 </r>
       <r>   -7.4082    1.0000 </r>
       <r>   -7.1112    1.0000 </r>
       <r>   -7.0265    1.0000 </r>
       <r>   -6.8393    1.0000 </r>
       <r>   -3.6197    1.0000 </r>
       <r>   -2.4861    0.0000 </r>
       <r>   -0.3036    0.0000 </r>
       <r>   -0.2746    0.0000 </r>
       <r>   -0.2212    0.0000 </r>
       <r>    0.8934    0.0000 </r>
       <r>    0.9650    0.0000 </r>
       <r>    1.0027    0.0000 </r>
       <r>    1.1833    0.0000 </r>
       <r>    1.5200    0.0000 </r>
       <r>    1.5774    0.0000 </r>
       <r>    1.6077    0.0000 </r>
      </set>
      <set comment="kpoint 136">
       <r>  -13.3945    1.0000 </r>
       <r>  -13.1125    1.0000 </r>
       <r>  -12.0115    1.0000 </r>
       <r>  -11.8945    1.0000 </r>
       <r>  -11.6229    1.0000 </r>
       <r>  -11.1782    1.0000 </r>
       <r>  -10.5955    1.0000 </r>
       <r>   -9.8658    1.0000 </r>
       <r>   -9.1628    1.0000 </r>
       <r>   -8.6372    1.0000 </r>
       <r>   -8.6006    1.0000 </r>
       <r>   -8.3798    1.0000 </r>
       <r>   -7.5014    1.0000 </r>
       <r>   -7.0356    1.0000 </r>
       <r>   -6.9675    1.0000 </r>
       <r>   -6.7438    1.0000 </r>
       <r>   -3.9468    1.0000 </r>
       <r>   -2.1544    0.0000 </r>
       <r>   -0.3277    0.0000 </r>
       <r>   -0.2944    0.0000 </r>
       <r>   -0.2086    0.0000 </r>
       <r>    0.6722    0.0000 </r>
       <r>    0.9184    0.0000 </r>
       <r>    1.1140    0.0000 </r>
       <r>    1.2645    0.0000 </r>
       <r>    1.4719    0.0000 </r>
       <r>    1.5322    0.0000 </r>
       <r>    1.6349    0.0000 </r>
      </set>
      <set comment="kpoint 137">
       <r>  -13.4259    1.0000 </r>
       <r>  -13.0395    1.0000 </r>
       <r>  -12.1460    1.0000 </r>
       <r>  -11.9248    1.0000 </r>
       <r>  -11.5531    1.0000 </r>
       <r>  -11.0053    1.0000 </r>
       <r>  -10.7178    1.0000 </r>
       <r>   -9.7218    1.0000 </r>
       <r>   -9.3529    1.0000 </r>
       <r>   -8.6664    1.0000 </r>
       <r>   -8.6404    1.0000 </r>
       <r>   -8.3149    1.0000 </r>
       <r>   -7.5953    1.0000 </r>
       <r>   -6.9682    1.0000 </r>
       <r>   -6.9110    1.0000 </r>
       <r>   -6.5948    1.0000 </r>
       <r>   -4.2689    1.0000 </r>
       <r>   -1.8281    0.0000 </r>
       <r>   -0.3490    0.0000 </r>
       <r>   -0.3089    0.0000 </r>
       <r>   -0.2111    0.0000 </r>
       <r>    0.4676    0.0000 </r>
       <r>    0.8798    0.0000 </r>
       <r>    1.2606    0.0000 </r>
       <r>    1.3532    0.0000 </r>
       <r>    1.4320    0.0000 </r>
       <r>    1.4944    0.0000 </r>
       <r>    1.5816    0.0000 </r>
      </set>
      <set comment="kpoint 138">
       <r>  -13.3969    1.0000 </r>
       <r>  -12.9495    1.0000 </r>
       <r>  -12.1786    1.0000 </r>
       <r>  -11.8925    1.0000 </r>
       <r>  -11.4627    1.0000 </r>
       <r>  -10.8588    1.0000 </r>
       <r>  -10.7419    1.0000 </r>
       <r>   -9.5933    1.0000 </r>
       <r>   -9.4288    1.0000 </r>
       <r>   -8.6434    1.0000 </r>
       <r>   -8.6210    1.0000 </r>
       <r>   -8.2148    1.0000 </r>
       <r>   -7.5909    1.0000 </r>
       <r>   -6.8748    1.0000 </r>
       <r>   -6.8248    1.0000 </r>
       <r>   -6.4279    1.0000 </r>
       <r>   -4.4024    1.0000 </r>
       <r>   -1.5847    0.0000 </r>
       <r>   -0.3109    0.0000 </r>
       <r>   -0.2653    0.0000 </r>
       <r>   -0.1699    0.0000 </r>
       <r>    0.3977    0.0000 </r>
       <r>    0.9218    0.0000 </r>
       <r>    1.4018    0.0000 </r>
       <r>    1.4692    0.0000 </r>
       <r>    1.4752    0.0000 </r>
       <r>    1.5378    0.0000 </r>
       <r>    1.5771    0.0000 </r>
      </set>
      <set comment="kpoint 139">
       <r>  -13.4179    1.0000 </r>
       <r>  -12.8662    1.0000 </r>
       <r>  -12.3031    1.0000 </r>
       <r>  -11.9128    1.0000 </r>
       <r>  -11.3836    1.0000 </r>
       <r>  -10.8563    1.0000 </r>
       <r>  -10.6776    1.0000 </r>
       <r>   -9.6269    1.0000 </r>
       <r>   -9.4484    1.0000 </r>
       <r>   -8.7339    1.0000 </r>
       <r>   -8.6406    1.0000 </r>
       <r>   -8.1423    1.0000 </r>
       <r>   -7.6837    1.0000 </r>
       <r>   -6.8240    1.0000 </r>
       <r>   -6.7866    1.0000 </r>
       <r>   -6.2138    1.0000 </r>
       <r>   -4.7144    1.0000 </r>
       <r>   -1.2761    0.0000 </r>
       <r>   -0.3261    0.0000 </r>
       <r>   -0.2557    0.0000 </r>
       <r>   -0.2148    0.0000 </r>
       <r>    0.2270    0.0000 </r>
       <r>    0.8960    0.0000 </r>
       <r>    1.4485    0.0000 </r>
       <r>    1.5123    0.0000 </r>
       <r>    1.5185    0.0000 </r>
       <r>    1.5676    0.0000 </r>
       <r>    1.5835    0.0000 </r>
      </set>
      <set comment="kpoint 140">
       <r>  -13.4323    1.0000 </r>
       <r>  -12.7765    1.0000 </r>
       <r>  -12.4212    1.0000 </r>
       <r>  -11.9268    1.0000 </r>
       <r>  -11.2987    1.0000 </r>
       <r>  -10.9657    1.0000 </r>
       <r>  -10.4915    1.0000 </r>
       <r>   -9.8261    1.0000 </r>
       <r>   -9.3043    1.0000 </r>
       <r>   -8.8451    1.0000 </r>
       <r>   -8.6541    1.0000 </r>
       <r>   -8.0655    1.0000 </r>
       <r>   -7.7749    1.0000 </r>
       <r>   -6.7856    1.0000 </r>
       <r>   -6.7615    1.0000 </r>
       <r>   -5.9722    1.0000 </r>
       <r>   -5.0183    1.0000 </r>
       <r>   -0.9884    0.0000 </r>
       <r>   -0.3369    0.0000 </r>
       <r>   -0.3025    0.0000 </r>
       <r>   -0.2239    0.0000 </r>
       <r>    0.0802    0.0000 </r>
       <r>    0.8782    0.0000 </r>
       <r>    1.4302    0.0000 </r>
       <r>    1.4804    0.0000 </r>
       <r>    1.4946    0.0000 </r>
       <r>    1.6171    0.0000 </r>
       <r>    1.6906    0.0000 </r>
      </set>
      <set comment="kpoint 141">
       <r>  -13.4402    1.0000 </r>
       <r>  -12.6803    1.0000 </r>
       <r>  -12.5329    1.0000 </r>
       <r>  -11.9345    1.0000 </r>
       <r>  -11.2080    1.0000 </r>
       <r>  -11.0697    1.0000 </r>
       <r>  -10.3010    1.0000 </r>
       <r>  -10.0243    1.0000 </r>
       <r>   -9.1626    1.0000 </r>
       <r>   -8.9702    1.0000 </r>
       <r>   -8.6616    1.0000 </r>
       <r>   -7.9846    1.0000 </r>
       <r>   -7.8637    1.0000 </r>
       <r>   -6.7608    1.0000 </r>
       <r>   -6.7507    1.0000 </r>
       <r>   -5.7103    1.0000 </r>
       <r>   -5.3127    1.0000 </r>
       <r>   -0.7316    0.0000 </r>
       <r>   -0.4424    0.0000 </r>
       <r>   -0.3428    0.0000 </r>
       <r>   -0.1671    0.0000 </r>
       <r>   -0.0409    0.0000 </r>
       <r>    0.8684    0.0000 </r>
       <r>    1.4201    0.0000 </r>
       <r>    1.4733    0.0000 </r>
       <r>    1.4850    0.0000 </r>
       <r>    1.5324    0.0000 </r>
       <r>    1.7662    0.0000 </r>
      </set>
      <set comment="kpoint 142">
       <r>  -13.4416    1.0000 </r>
       <r>  -12.6382    1.0000 </r>
       <r>  -12.5777    1.0000 </r>
       <r>  -11.9358    1.0000 </r>
       <r>  -11.1683    1.0000 </r>
       <r>  -11.1117    1.0000 </r>
       <r>  -10.2200    1.0000 </r>
       <r>  -10.1066    1.0000 </r>
       <r>   -9.1045    1.0000 </r>
       <r>   -9.0256    1.0000 </r>
       <r>   -8.6629    1.0000 </r>
       <r>   -7.9496    1.0000 </r>
       <r>   -7.9000    1.0000 </r>
       <r>   -6.7548    1.0000 </r>
       <r>   -6.7506    1.0000 </r>
       <r>   -5.5957    1.0000 </r>
       <r>   -5.4327    1.0000 </r>
       <r>   -0.6360    0.0000 </r>
       <r>   -0.5171    0.0000 </r>
       <r>   -0.3438    0.0000 </r>
       <r>   -0.1355    0.0000 </r>
       <r>   -0.0838    0.0000 </r>
       <r>    0.8668    0.0000 </r>
       <r>    1.4184    0.0000 </r>
       <r>    1.4818    0.0000 </r>
       <r>    1.4833    0.0000 </r>
       <r>    1.5060    0.0000 </r>
       <r>    1.7644    0.0000 </r>
      </set>
      <set comment="kpoint 143">
       <r>  -13.4364    1.0000 </r>
       <r>  -12.7370    1.0000 </r>
       <r>  -12.4687    1.0000 </r>
       <r>  -11.9308    1.0000 </r>
       <r>  -11.2614    1.0000 </r>
       <r>  -11.0099    1.0000 </r>
       <r>  -10.4122    1.0000 </r>
       <r>   -9.9093    1.0000 </r>
       <r>   -9.2446    1.0000 </r>
       <r>   -8.8961    1.0000 </r>
       <r>   -8.6580    1.0000 </r>
       <r>   -8.0321    1.0000 </r>
       <r>   -7.8124    1.0000 </r>
       <r>   -6.7735    1.0000 </r>
       <r>   -6.7552    1.0000 </r>
       <r>   -5.8647    1.0000 </r>
       <r>   -5.1428    1.0000 </r>
       <r>   -0.8765    0.0000 </r>
       <r>   -0.3543    0.0000 </r>
       <r>   -0.3399    0.0000 </r>
       <r>   -0.2033    0.0000 </r>
       <r>    0.0263    0.0000 </r>
       <r>    0.8731    0.0000 </r>
       <r>    1.4250    0.0000 </r>
       <r>    1.4731    0.0000 </r>
       <r>    1.4896    0.0000 </r>
       <r>    1.5801    0.0000 </r>
       <r>    1.7309    0.0000 </r>
      </set>
      <set comment="kpoint 144">
       <r>  -13.4247    1.0000 </r>
       <r>  -12.8295    1.0000 </r>
       <r>  -12.3533    1.0000 </r>
       <r>  -11.9195    1.0000 </r>
       <r>  -11.3487    1.0000 </r>
       <r>  -10.9027    1.0000 </r>
       <r>  -10.6002    1.0000 </r>
       <r>   -9.7103    1.0000 </r>
       <r>   -9.3879    1.0000 </r>
       <r>   -8.7784    1.0000 </r>
       <r>   -8.6470    1.0000 </r>
       <r>   -8.1107    1.0000 </r>
       <r>   -7.7221    1.0000 </r>
       <r>   -6.8063    1.0000 </r>
       <r>   -6.7744    1.0000 </r>
       <r>   -6.1155    1.0000 </r>
       <r>   -4.8427    1.0000 </r>
       <r>   -1.1527    0.0000 </r>
       <r>   -0.3312    0.0000 </r>
       <r>   -0.2456    0.0000 </r>
       <r>   -0.2453    0.0000 </r>
       <r>    0.1625    0.0000 </r>
       <r>    0.8876    0.0000 </r>
       <r>    1.4398    0.0000 </r>
       <r>    1.4995    0.0000 </r>
       <r>    1.5039    0.0000 </r>
       <r>    1.6077    0.0000 </r>
       <r>    1.6635    0.0000 </r>
      </set>
      <set comment="kpoint 145">
       <r>  -13.4065    1.0000 </r>
       <r>  -12.9154    1.0000 </r>
       <r>  -12.2315    1.0000 </r>
       <r>  -11.9018    1.0000 </r>
       <r>  -11.4303    1.0000 </r>
       <r>  -10.7904    1.0000 </r>
       <r>  -10.7835    1.0000 </r>
       <r>   -9.5326    1.0000 </r>
       <r>   -9.5114    1.0000 </r>
       <r>   -8.6783    1.0000 </r>
       <r>   -8.6299    1.0000 </r>
       <r>   -8.1850    1.0000 </r>
       <r>   -7.6299    1.0000 </r>
       <r>   -6.8521    1.0000 </r>
       <r>   -6.8072    1.0000 </r>
       <r>   -6.3422    1.0000 </r>
       <r>   -4.5339    1.0000 </r>
       <r>   -1.4535    0.0000 </r>
       <r>   -0.3178    0.0000 </r>
       <r>   -0.2637    0.0000 </r>
       <r>   -0.1842    0.0000 </r>
       <r>    0.3234    0.0000 </r>
       <r>    0.9100    0.0000 </r>
       <r>    1.4630    0.0000 </r>
       <r>    1.4760    0.0000 </r>
       <r>    1.5099    0.0000 </r>
       <r>    1.5262    0.0000 </r>
       <r>    1.5509    0.0000 </r>
      </set>
      <set comment="kpoint 146">
       <r>  -13.3818    1.0000 </r>
       <r>  -12.9949    1.0000 </r>
       <r>  -12.1034    1.0000 </r>
       <r>  -11.8779    1.0000 </r>
       <r>  -11.5060    1.0000 </r>
       <r>  -10.9617    1.0000 </r>
       <r>  -10.6731    1.0000 </r>
       <r>   -9.6774    1.0000 </r>
       <r>   -9.3153    1.0000 </r>
       <r>   -8.6068    1.0000 </r>
       <r>   -8.6038    1.0000 </r>
       <r>   -8.2548    1.0000 </r>
       <r>   -7.5365    1.0000 </r>
       <r>   -6.9094    1.0000 </r>
       <r>   -6.8527    1.0000 </r>
       <r>   -6.5356    1.0000 </r>
       <r>   -4.2180    1.0000 </r>
       <r>   -1.7706    0.0000 </r>
       <r>   -0.3002    0.0000 </r>
       <r>   -0.2624    0.0000 </r>
       <r>   -0.1586    0.0000 </r>
       <r>    0.5071    0.0000 </r>
       <r>    0.9406    0.0000 </r>
       <r>    1.3048    0.0000 </r>
       <r>    1.4144    0.0000 </r>
       <r>    1.4945    0.0000 </r>
       <r>    1.5562    0.0000 </r>
       <r>    1.6150    0.0000 </r>
      </set>
      <set comment="kpoint 147">
       <r>  -13.3505    1.0000 </r>
       <r>  -13.0680    1.0000 </r>
       <r>  -11.9690    1.0000 </r>
       <r>  -11.8476    1.0000 </r>
       <r>  -11.5758    1.0000 </r>
       <r>  -11.1344    1.0000 </r>
       <r>  -10.5511    1.0000 </r>
       <r>   -9.8211    1.0000 </r>
       <r>   -9.1260    1.0000 </r>
       <r>   -8.5776    1.0000 </r>
       <r>   -8.5649    1.0000 </r>
       <r>   -8.3196    1.0000 </r>
       <r>   -7.4427    1.0000 </r>
       <r>   -6.9766    1.0000 </r>
       <r>   -6.9088    1.0000 </r>
       <r>   -6.6838    1.0000 </r>
       <r>   -3.8958    1.0000 </r>
       <r>   -2.0974    0.0000 </r>
       <r>   -0.2788    0.0000 </r>
       <r>   -0.2475    0.0000 </r>
       <r>   -0.1571    0.0000 </r>
       <r>    0.7110    0.0000 </r>
       <r>    0.9791    0.0000 </r>
       <r>    1.1586    0.0000 </r>
       <r>    1.3257    0.0000 </r>
       <r>    1.5342    0.0000 </r>
       <r>    1.5940    0.0000 </r>
       <r>    1.6909    0.0000 </r>
      </set>
      <set comment="kpoint 148">
       <r>  -13.3128    1.0000 </r>
       <r>  -13.1345    1.0000 </r>
       <r>  -11.8284    1.0000 </r>
       <r>  -11.8111    1.0000 </r>
       <r>  -11.6395    1.0000 </r>
       <r>  -11.3016    1.0000 </r>
       <r>  -10.4246    1.0000 </r>
       <r>   -9.9628    1.0000 </r>
       <r>   -8.9497    1.0000 </r>
       <r>   -8.5714    1.0000 </r>
       <r>   -8.5425    1.0000 </r>
       <r>   -8.3794    1.0000 </r>
       <r>   -7.3496    1.0000 </r>
       <r>   -7.0519    1.0000 </r>
       <r>   -6.9672    1.0000 </r>
       <r>   -6.7788    1.0000 </r>
       <r>   -3.5687    1.0000 </r>
       <r>   -2.4296    0.0000 </r>
       <r>   -0.2545    0.0000 </r>
       <r>   -0.2273    0.0000 </r>
       <r>   -0.1704    0.0000 </r>
       <r>    0.9314    0.0000 </r>
       <r>    1.0256    0.0000 </r>
       <r>    1.0473    0.0000 </r>
       <r>    1.2445    0.0000 </r>
       <r>    1.5823    0.0000 </r>
       <r>    1.6392    0.0000 </r>
       <r>    1.6442    0.0000 </r>
      </set>
      <set comment="kpoint 149">
       <r>  -13.2685    1.0000 </r>
       <r>  -13.1945    1.0000 </r>
       <r>  -11.7684    1.0000 </r>
       <r>  -11.6972    1.0000 </r>
       <r>  -11.6816    1.0000 </r>
       <r>  -11.4629    1.0000 </r>
       <r>  -10.2939    1.0000 </r>
       <r>  -10.1020    1.0000 </r>
       <r>   -8.7962    1.0000 </r>
       <r>   -8.6273    1.0000 </r>
       <r>   -8.5016    1.0000 </r>
       <r>   -8.4339    1.0000 </r>
       <r>   -7.2581    1.0000 </r>
       <r>   -7.1338    1.0000 </r>
       <r>   -7.0084    1.0000 </r>
       <r>   -6.8263    1.0000 </r>
       <r>   -3.2376    1.0000 </r>
       <r>   -2.7640    0.0000 </r>
       <r>   -0.2285    0.0000 </r>
       <r>   -0.2116    0.0000 </r>
       <r>   -0.1920    0.0000 </r>
       <r>    0.9815    0.0000 </r>
       <r>    1.0801    0.0000 </r>
       <r>    1.1629    0.0000 </r>
       <r>    1.1710    0.0000 </r>
       <r>    1.4839    0.0000 </r>
       <r>    1.6387    0.0000 </r>
       <r>    1.6912    0.0000 </r>
      </set>
      <set comment="kpoint 150">
       <r>  -13.2480    1.0000 </r>
       <r>  -13.2177    1.0000 </r>
       <r>  -11.7487    1.0000 </r>
       <r>  -11.7195    1.0000 </r>
       <r>  -11.6183    1.0000 </r>
       <r>  -11.5287    1.0000 </r>
       <r>  -10.2380    1.0000 </r>
       <r>  -10.1594    1.0000 </r>
       <r>   -8.7444    1.0000 </r>
       <r>   -8.6619    1.0000 </r>
       <r>   -8.4828    1.0000 </r>
       <r>   -8.4550    1.0000 </r>
       <r>   -7.2206    1.0000 </r>
       <r>   -7.1696    1.0000 </r>
       <r>   -7.0162    1.0000 </r>
       <r>   -6.8342    1.0000 </r>
       <r>   -3.0982    0.5957 </r>
       <r>   -2.9040    0.0000 </r>
       <r>   -0.2174    0.0000 </r>
       <r>   -0.2085    0.0000 </r>
       <r>   -0.2024    0.0000 </r>
       <r>    0.9697    0.0000 </r>
       <r>    1.1053    0.0000 </r>
       <r>    1.1425    0.0000 </r>
       <r>    1.2607    0.0000 </r>
       <r>    1.3938    0.0000 </r>
       <r>    1.6648    0.0000 </r>
       <r>    1.7148    0.0000 </r>
      </set>
      <set comment="kpoint 151">
       <r>  -13.2950    1.0000 </r>
       <r>  -13.1604    1.0000 </r>
       <r>  -11.7940    1.0000 </r>
       <r>  -11.7677    1.0000 </r>
       <r>  -11.6644    1.0000 </r>
       <r>  -11.3699    1.0000 </r>
       <r>  -10.3703    1.0000 </r>
       <r>  -10.0215    1.0000 </r>
       <r>   -8.8818    1.0000 </r>
       <r>   -8.5889    1.0000 </r>
       <r>   -8.5261    1.0000 </r>
       <r>   -8.4029    1.0000 </r>
       <r>   -7.3110    1.0000 </r>
       <r>   -7.0855    1.0000 </r>
       <r>   -6.9878    1.0000 </r>
       <r>   -6.8039    1.0000 </r>
       <r>   -3.4305    1.0000 </r>
       <r>   -2.5695    0.0000 </r>
       <r>   -0.2437    0.0000 </r>
       <r>   -0.2196    0.0000 </r>
       <r>   -0.1787    0.0000 </r>
       <r>    1.0136    0.0000 </r>
       <r>    1.0275    0.0000 </r>
       <r>    1.0475    0.0000 </r>
       <r>    1.2128    0.0000 </r>
       <r>    1.5908    0.0000 </r>
       <r>    1.6049    0.0000 </r>
       <r>    1.6602    0.0000 </r>
      </set>
      <set comment="kpoint 152">
       <r>  -13.3355    1.0000 </r>
       <r>  -13.0966    1.0000 </r>
       <r>  -11.9109    1.0000 </r>
       <r>  -11.8331    1.0000 </r>
       <r>  -11.6032    1.0000 </r>
       <r>  -11.2051    1.0000 </r>
       <r>  -10.4987    1.0000 </r>
       <r>   -9.8807    1.0000 </r>
       <r>   -9.0501    1.0000 </r>
       <r>   -8.5636    1.0000 </r>
       <r>   -8.5616    1.0000 </r>
       <r>   -8.3453    1.0000 </r>
       <r>   -7.4036    1.0000 </r>
       <r>   -7.0072    1.0000 </r>
       <r>   -6.9339    1.0000 </r>
       <r>   -6.7300    1.0000 </r>
       <r>   -3.7594    1.0000 </r>
       <r>   -2.2360    0.0000 </r>
       <r>   -0.2689    0.0000 </r>
       <r>   -0.2391    0.0000 </r>
       <r>   -0.1613    0.0000 </r>
       <r>    0.8015    0.0000 </r>
       <r>    0.9976    0.0000 </r>
       <r>    1.1071    0.0000 </r>
       <r>    1.2908    0.0000 </r>
       <r>    1.5534    0.0000 </r>
       <r>    1.6120    0.0000 </r>
       <r>    1.8580    0.0000 </r>
      </set>
      <set comment="kpoint 153">
       <r>  -13.3695    1.0000 </r>
       <r>  -13.0263    1.0000 </r>
       <r>  -12.0479    1.0000 </r>
       <r>  -11.8660    1.0000 </r>
       <r>  -11.5360    1.0000 </r>
       <r>  -11.0347    1.0000 </r>
       <r>  -10.6226    1.0000 </r>
       <r>   -9.7377    1.0000 </r>
       <r>   -9.2349    1.0000 </r>
       <r>   -8.5953    1.0000 </r>
       <r>   -8.5826    1.0000 </r>
       <r>   -8.2825    1.0000 </r>
       <r>   -7.4973    1.0000 </r>
       <r>   -6.9364    1.0000 </r>
       <r>   -6.8751    1.0000 </r>
       <r>   -6.6039    1.0000 </r>
       <r>   -4.0838    1.0000 </r>
       <r>   -1.9065    0.0000 </r>
       <r>   -0.2916    0.0000 </r>
       <r>   -0.2574    0.0000 </r>
       <r>   -0.1557    0.0000 </r>
       <r>    0.5902    0.0000 </r>
       <r>    0.9557    0.0000 </r>
       <r>    1.2400    0.0000 </r>
       <r>    1.3764    0.0000 </r>
       <r>    1.5101    0.0000 </r>
       <r>    1.5711    0.0000 </r>
       <r>    1.6410    0.0000 </r>
      </set>
      <set comment="kpoint 154">
       <r>  -13.3370    1.0000 </r>
       <r>  -12.9328    1.0000 </r>
       <r>  -12.0770    1.0000 </r>
       <r>  -11.8298    1.0000 </r>
       <r>  -11.4417    1.0000 </r>
       <r>  -10.8847    1.0000 </r>
       <r>  -10.6427    1.0000 </r>
       <r>   -9.6047    1.0000 </r>
       <r>   -9.3048    1.0000 </r>
       <r>   -8.5730    1.0000 </r>
       <r>   -8.5443    1.0000 </r>
       <r>   -8.1766    1.0000 </r>
       <r>   -7.4861    1.0000 </r>
       <r>   -6.8337    1.0000 </r>
       <r>   -6.7796    1.0000 </r>
       <r>   -6.4411    1.0000 </r>
       <r>   -4.2127    1.0000 </r>
       <r>   -1.6541    0.0000 </r>
       <r>   -0.2490    0.0000 </r>
       <r>   -0.2121    0.0000 </r>
       <r>   -0.1023    0.0000 </r>
       <r>    0.5200    0.0000 </r>
       <r>    1.0030    0.0000 </r>
       <r>    1.3797    0.0000 </r>
       <r>    1.4977    0.0000 </r>
       <r>    1.5586    0.0000 </r>
       <r>    1.6200    0.0000 </r>
       <r>    1.6410    0.0000 </r>
      </set>
      <set comment="kpoint 155">
       <r>  -13.3606    1.0000 </r>
       <r>  -12.8523    1.0000 </r>
       <r>  -12.2040    1.0000 </r>
       <r>  -11.8527    1.0000 </r>
       <r>  -11.3651    1.0000 </r>
       <r>  -10.7589    1.0000 </r>
       <r>  -10.7059    1.0000 </r>
       <r>   -9.5008    1.0000 </r>
       <r>   -9.4603    1.0000 </r>
       <r>   -8.6512    1.0000 </r>
       <r>   -8.5664    1.0000 </r>
       <r>   -8.1060    1.0000 </r>
       <r>   -7.5793    1.0000 </r>
       <r>   -6.7785    1.0000 </r>
       <r>   -6.7364    1.0000 </r>
       <r>   -6.2426    1.0000 </r>
       <r>   -4.5275    1.0000 </r>
       <r>   -1.3385    0.0000 </r>
       <r>   -0.2661    0.0000 </r>
       <r>   -0.2111    0.0000 </r>
       <r>   -0.1315    0.0000 </r>
       <r>    0.3407    0.0000 </r>
       <r>    0.9738    0.0000 </r>
       <r>    1.5285    0.0000 </r>
       <r>    1.5531    0.0000 </r>
       <r>    1.5787    0.0000 </r>
       <r>    1.5912    0.0000 </r>
       <r>    1.5940    0.0000 </r>
      </set>
      <set comment="kpoint 156">
       <r>  -13.3777    1.0000 </r>
       <r>  -12.7653    1.0000 </r>
       <r>  -12.3246    1.0000 </r>
       <r>  -11.8692    1.0000 </r>
       <r>  -11.2827    1.0000 </r>
       <r>  -10.8702    1.0000 </r>
       <r>  -10.5221    1.0000 </r>
       <r>   -9.6992    1.0000 </r>
       <r>   -9.3163    1.0000 </r>
       <r>   -8.7535    1.0000 </r>
       <r>   -8.5825    1.0000 </r>
       <r>   -8.0310    1.0000 </r>
       <r>   -7.6711    1.0000 </r>
       <r>   -6.7350    1.0000 </r>
       <r>   -6.7058    1.0000 </r>
       <r>   -6.0125    1.0000 </r>
       <r>   -4.8346    1.0000 </r>
       <r>   -1.0404    0.0000 </r>
       <r>   -0.2787    0.0000 </r>
       <r>   -0.1985    0.0000 </r>
       <r>   -0.1897    0.0000 </r>
       <r>    0.1846    0.0000 </r>
       <r>    0.9527    0.0000 </r>
       <r>    1.5068    0.0000 </r>
       <r>    1.5318    0.0000 </r>
       <r>    1.5703    0.0000 </r>
       <r>    1.6851    0.0000 </r>
       <r>    1.7409    0.0000 </r>
      </set>
      <set comment="kpoint 157">
       <r>  -13.3883    1.0000 </r>
       <r>  -12.6718    1.0000 </r>
       <r>  -12.4388    1.0000 </r>
       <r>  -11.8795    1.0000 </r>
       <r>  -11.1945    1.0000 </r>
       <r>  -10.9763    1.0000 </r>
       <r>  -10.3337    1.0000 </r>
       <r>   -9.8975    1.0000 </r>
       <r>   -9.1740    1.0000 </r>
       <r>   -8.8725    1.0000 </r>
       <r>   -8.5924    1.0000 </r>
       <r>   -7.9518    1.0000 </r>
       <r>   -7.7609    1.0000 </r>
       <r>   -6.7046    1.0000 </r>
       <r>   -6.6891    1.0000 </r>
       <r>   -5.7592    1.0000 </r>
       <r>   -5.1328    1.0000 </r>
       <r>   -0.7689    0.0000 </r>
       <r>   -0.3148    0.0000 </r>
       <r>   -0.2867    0.0000 </r>
       <r>   -0.1442    0.0000 </r>
       <r>    0.0535    0.0000 </r>
       <r>    0.9397    0.0000 </r>
       <r>    1.4933    0.0000 </r>
       <r>    1.5123    0.0000 </r>
       <r>    1.5574    0.0000 </r>
       <r>    1.6129    0.0000 </r>
       <r>    1.8391    0.0000 </r>
      </set>
      <set comment="kpoint 158">
       <r>  -13.3923    1.0000 </r>
       <r>  -12.5719    1.0000 </r>
       <r>  -12.5467    1.0000 </r>
       <r>  -11.8834    1.0000 </r>
       <r>  -11.1006    1.0000 </r>
       <r>  -11.0770    1.0000 </r>
       <r>  -10.1412    1.0000 </r>
       <r>  -10.0939    1.0000 </r>
       <r>   -9.0355    1.0000 </r>
       <r>   -9.0026    1.0000 </r>
       <r>   -8.5962    1.0000 </r>
       <r>   -7.8687    1.0000 </r>
       <r>   -7.8480    1.0000 </r>
       <r>   -6.6885    1.0000 </r>
       <r>   -6.6868    1.0000 </r>
       <r>   -5.4883    1.0000 </r>
       <r>   -5.4203    1.0000 </r>
       <r>   -0.5355    0.0000 </r>
       <r>   -0.4859    0.0000 </r>
       <r>   -0.2898    0.0000 </r>
       <r>   -0.0727    0.0000 </r>
       <r>   -0.0513    0.0000 </r>
       <r>    0.9347    0.0000 </r>
       <r>    1.4881    0.0000 </r>
       <r>    1.5301    0.0000 </r>
       <r>    1.5410    0.0000 </r>
       <r>    1.5524    0.0000 </r>
       <r>    1.8339    0.0000 </r>
      </set>
      <set comment="kpoint 159">
       <r>  -13.3899    1.0000 </r>
       <r>  -12.6482    1.0000 </r>
       <r>  -12.4656    1.0000 </r>
       <r>  -11.8810    1.0000 </r>
       <r>  -11.1722    1.0000 </r>
       <r>  -11.0012    1.0000 </r>
       <r>  -10.2872    1.0000 </r>
       <r>   -9.9454    1.0000 </r>
       <r>   -9.1399    1.0000 </r>
       <r>   -8.9033    1.0000 </r>
       <r>   -8.5939    1.0000 </r>
       <r>   -7.9319    1.0000 </r>
       <r>   -7.7823    1.0000 </r>
       <r>   -6.6994    1.0000 </r>
       <r>   -6.6871    1.0000 </r>
       <r>   -5.6948    1.0000 </r>
       <r>   -5.2038    1.0000 </r>
       <r>   -0.7083    0.0000 </r>
       <r>   -0.3513    0.0000 </r>
       <r>   -0.2879    0.0000 </r>
       <r>   -0.1292    0.0000 </r>
       <r>    0.0256    0.0000 </r>
       <r>    0.9377    0.0000 </r>
       <r>    1.4913    0.0000 </r>
       <r>    1.5129    0.0000 </r>
       <r>    1.5554    0.0000 </r>
       <r>    1.5916    0.0000 </r>
       <r>    1.8371    0.0000 </r>
      </set>
      <set comment="kpoint 160">
       <r>  -13.3809    1.0000 </r>
       <r>  -12.7432    1.0000 </r>
       <r>  -12.3529    1.0000 </r>
       <r>  -11.8723    1.0000 </r>
       <r>  -11.2618    1.0000 </r>
       <r>  -10.8964    1.0000 </r>
       <r>  -10.4767    1.0000 </r>
       <r>   -9.7475    1.0000 </r>
       <r>   -9.2815    1.0000 </r>
       <r>   -8.7812    1.0000 </r>
       <r>   -8.5854    1.0000 </r>
       <r>   -8.0121    1.0000 </r>
       <r>   -7.6931    1.0000 </r>
       <r>   -6.7264    1.0000 </r>
       <r>   -6.7004    1.0000 </r>
       <r>   -5.9528    1.0000 </r>
       <r>   -4.9080    1.0000 </r>
       <r>   -0.9716    0.0000 </r>
       <r>   -0.2811    0.0000 </r>
       <r>   -0.2218    0.0000 </r>
       <r>   -0.1809    0.0000 </r>
       <r>    0.1503    0.0000 </r>
       <r>    0.9488    0.0000 </r>
       <r>    1.5027    0.0000 </r>
       <r>    1.5242    0.0000 </r>
       <r>    1.5665    0.0000 </r>
       <r>    1.6830    0.0000 </r>
       <r>    1.7432    0.0000 </r>
      </set>
      <set comment="kpoint 161">
       <r>  -13.3654    1.0000 </r>
       <r>  -12.8317    1.0000 </r>
       <r>  -12.2339    1.0000 </r>
       <r>  -11.8573    1.0000 </r>
       <r>  -11.3456    1.0000 </r>
       <r>  -10.7864    1.0000 </r>
       <r>  -10.6617    1.0000 </r>
       <r>   -9.5490    1.0000 </r>
       <r>   -9.4252    1.0000 </r>
       <r>   -8.6742    1.0000 </r>
       <r>   -8.5709    1.0000 </r>
       <r>   -8.0882    1.0000 </r>
       <r>   -7.6017    1.0000 </r>
       <r>   -6.7668    1.0000 </r>
       <r>   -6.7277    1.0000 </r>
       <r>   -6.1892    1.0000 </r>
       <r>   -4.6029    1.0000 </r>
       <r>   -1.2642    0.0000 </r>
       <r>   -0.2696    0.0000 </r>
       <r>   -0.2079    0.0000 </r>
       <r>   -0.1438    0.0000 </r>
       <r>    0.3005    0.0000 </r>
       <r>    0.9680    0.0000 </r>
       <r>    1.5225    0.0000 </r>
       <r>    1.5654    0.0000 </r>
       <r>    1.5854    0.0000 </r>
       <r>    1.5977    0.0000 </r>
       <r>    1.6180    0.0000 </r>
      </set>
      <set comment="kpoint 162">
       <r>  -13.3434    1.0000 </r>
       <r>  -12.9139    1.0000 </r>
       <r>  -12.1085    1.0000 </r>
       <r>  -11.8360    1.0000 </r>
       <r>  -11.4236    1.0000 </r>
       <r>  -10.8417    1.0000 </r>
       <r>  -10.6714    1.0000 </r>
       <r>   -9.5696    1.0000 </r>
       <r>   -9.3521    1.0000 </r>
       <r>   -8.5893    1.0000 </r>
       <r>   -8.5502    1.0000 </r>
       <r>   -8.1599    1.0000 </r>
       <r>   -7.5088    1.0000 </r>
       <r>   -6.8193    1.0000 </r>
       <r>   -6.7679    1.0000 </r>
       <r>   -6.3964    1.0000 </r>
       <r>   -4.2898    1.0000 </r>
       <r>   -1.5762    0.0000 </r>
       <r>   -0.2535    0.0000 </r>
       <r>   -0.2135    0.0000 </r>
       <r>   -0.1066    0.0000 </r>
       <r>    0.4743    0.0000 </r>
       <r>    0.9952    0.0000 </r>
       <r>    1.4201    0.0000 </r>
       <r>    1.5205    0.0000 </r>
       <r>    1.5505    0.0000 </r>
       <r>    1.6123    0.0000 </r>
       <r>    1.6252    0.0000 </r>
      </set>
      <set comment="kpoint 163">
       <r>  -13.3148    1.0000 </r>
       <r>  -12.9895    1.0000 </r>
       <r>  -11.9768    1.0000 </r>
       <r>  -11.8083    1.0000 </r>
       <r>  -11.4957    1.0000 </r>
       <r>  -11.0165    1.0000 </r>
       <r>  -10.5515    1.0000 </r>
       <r>   -9.7135    1.0000 </r>
       <r>   -9.1602    1.0000 </r>
       <r>   -8.5358    1.0000 </r>
       <r>   -8.5235    1.0000 </r>
       <r>   -8.2268    1.0000 </r>
       <r>   -7.4151    1.0000 </r>
       <r>   -6.8824    1.0000 </r>
       <r>   -6.8197    1.0000 </r>
       <r>   -6.5632    1.0000 </r>
       <r>   -3.9701    1.0000 </r>
       <r>   -1.9004    0.0000 </r>
       <r>   -0.2335    0.0000 </r>
       <r>   -0.2027    0.0000 </r>
       <r>   -0.0977    0.0000 </r>
       <r>    0.6695    0.0000 </r>
       <r>    1.0304    0.0000 </r>
       <r>    1.2633    0.0000 </r>
       <r>    1.4291    0.0000 </r>
       <r>    1.5869    0.0000 </r>
       <r>    1.6469    0.0000 </r>
       <r>    1.6874    0.0000 </r>
      </set>
      <set comment="kpoint 164">
       <r>  -13.2798    1.0000 </r>
       <r>  -13.0586    1.0000 </r>
       <r>  -11.8388    1.0000 </r>
       <r>  -11.7745    1.0000 </r>
       <r>  -11.5619    1.0000 </r>
       <r>  -11.1858    1.0000 </r>
       <r>  -10.4270    1.0000 </r>
       <r>   -9.8557    1.0000 </r>
       <r>   -8.9787    1.0000 </r>
       <r>   -8.5236    1.0000 </r>
       <r>   -8.4909    1.0000 </r>
       <r>   -8.2887    1.0000 </r>
       <r>   -7.3217    1.0000 </r>
       <r>   -6.9544    1.0000 </r>
       <r>   -6.8783    1.0000 </r>
       <r>   -6.6792    1.0000 </r>
       <r>   -3.6448    1.0000 </r>
       <r>   -2.2315    0.0000 </r>
       <r>   -0.2101    0.0000 </r>
       <r>   -0.1829    0.0000 </r>
       <r>   -0.1069    0.0000 </r>
       <r>    0.8830    0.0000 </r>
       <r>    1.0736    0.0000 </r>
       <r>    1.1368    0.0000 </r>
       <r>    1.3449    0.0000 </r>
       <r>    1.6315    0.0000 </r>
       <r>    1.6891    0.0000 </r>
       <r>    1.7087    0.0000 </r>
      </set>
      <set comment="kpoint 165">
       <r>  -13.2382    1.0000 </r>
       <r>  -13.1213    1.0000 </r>
       <r>  -11.7344    1.0000 </r>
       <r>  -11.6947    1.0000 </r>
       <r>  -11.6219    1.0000 </r>
       <r>  -11.3494    1.0000 </r>
       <r>  -10.2983    1.0000 </r>
       <r>   -9.9957    1.0000 </r>
       <r>   -8.8152    1.0000 </r>
       <r>   -8.5598    1.0000 </r>
       <r>   -8.4524    1.0000 </r>
       <r>   -8.3453    1.0000 </r>
       <r>   -7.2295    1.0000 </r>
       <r>   -7.0336    1.0000 </r>
       <r>   -6.9286    1.0000 </r>
       <r>   -6.7445    1.0000 </r>
       <r>   -3.3150    1.0000 </r>
       <r>   -2.5658    0.0000 </r>
       <r>   -0.1844    0.0000 </r>
       <r>   -0.1638    0.0000 </r>
       <r>   -0.1265    0.0000 </r>
       <r>    1.0513    0.0000 </r>
       <r>    1.1101    0.0000 </r>
       <r>    1.1248    0.0000 </r>
       <r>    1.2683    0.0000 </r>
       <r>    1.6040    0.0000 </r>
       <r>    1.6845    0.0000 </r>
       <r>    1.7384    0.0000 </r>
      </set>
      <set comment="kpoint 166">
       <r>  -13.1901    1.0000 </r>
       <r>  -13.1775    1.0000 </r>
       <r>  -11.6881    1.0000 </r>
       <r>  -11.6759    1.0000 </r>
       <r>  -11.5445    1.0000 </r>
       <r>  -11.5071    1.0000 </r>
       <r>  -10.1656    1.0000 </r>
       <r>  -10.1328    1.0000 </r>
       <r>   -8.6896    1.0000 </r>
       <r>   -8.6351    1.0000 </r>
       <r>   -8.4081    1.0000 </r>
       <r>   -8.3965    1.0000 </r>
       <r>   -7.1397    1.0000 </r>
       <r>   -7.1185    1.0000 </r>
       <r>   -6.9509    1.0000 </r>
       <r>   -6.7679    1.0000 </r>
       <r>   -2.9820    0.0000 </r>
       <r>   -2.9007    0.0000 </r>
       <r>   -0.1577    0.0000 </r>
       <r>   -0.1547    0.0000 </r>
       <r>   -0.1513    0.0000 </r>
       <r>    1.0166    0.0000 </r>
       <r>    1.1839    0.0000 </r>
       <r>    1.1994    0.0000 </r>
       <r>    1.3426    0.0000 </r>
       <r>    1.3981    0.0000 </r>
       <r>    1.7458    0.0000 </r>
       <r>    1.7900    0.0000 </r>
      </set>
      <set comment="kpoint 167">
       <r>  -13.2271    1.0000 </r>
       <r>  -13.1355    1.0000 </r>
       <r>  -11.7237    1.0000 </r>
       <r>  -11.6588    1.0000 </r>
       <r>  -11.6356    1.0000 </r>
       <r>  -11.3882    1.0000 </r>
       <r>  -10.2664    1.0000 </r>
       <r>  -10.0293    1.0000 </r>
       <r>   -8.7795    1.0000 </r>
       <r>   -8.5759    1.0000 </r>
       <r>   -8.4422    1.0000 </r>
       <r>   -8.3582    1.0000 </r>
       <r>   -7.2074    1.0000 </r>
       <r>   -7.0537    1.0000 </r>
       <r>   -6.9371    1.0000 </r>
       <r>   -6.7537    1.0000 </r>
       <r>   -3.2343    1.0000 </r>
       <r>   -2.6472    0.0000 </r>
       <r>   -0.1779    0.0000 </r>
       <r>   -0.1604    0.0000 </r>
       <r>   -0.1322    0.0000 </r>
       <r>    1.0379    0.0000 </r>
       <r>    1.1384    0.0000 </r>
       <r>    1.1666    0.0000 </r>
       <r>    1.2508    0.0000 </r>
       <r>    1.5595    0.0000 </r>
       <r>    1.6986    0.0000 </r>
       <r>    1.7514    0.0000 </r>
      </set>
      <set comment="kpoint 168">
       <r>  -13.2703    1.0000 </r>
       <r>  -13.0745    1.0000 </r>
       <r>  -11.8044    1.0000 </r>
       <r>  -11.7653    1.0000 </r>
       <r>  -11.5770    1.0000 </r>
       <r>  -11.2261    1.0000 </r>
       <r>  -10.3961    1.0000 </r>
       <r>   -9.8900    1.0000 </r>
       <r>   -8.9369    1.0000 </r>
       <r>   -8.5278    1.0000 </r>
       <r>   -8.4821    1.0000 </r>
       <r>   -8.3029    1.0000 </r>
       <r>   -7.2991    1.0000 </r>
       <r>   -6.9730    1.0000 </r>
       <r>   -6.8922    1.0000 </r>
       <r>   -6.6994    1.0000 </r>
       <r>   -3.5650    1.0000 </r>
       <r>   -2.3125    0.0000 </r>
       <r>   -0.2040    0.0000 </r>
       <r>   -0.1779    0.0000 </r>
       <r>   -0.1109    0.0000 </r>
       <r>    0.9371    0.0000 </r>
       <r>    1.0853    0.0000 </r>
       <r>    1.1119    0.0000 </r>
       <r>    1.3256    0.0000 </r>
       <r>    1.6436    0.0000 </r>
       <r>    1.6972    0.0000 </r>
       <r>    1.7004    0.0000 </r>
      </set>
      <set comment="kpoint 169">
       <r>  -13.3069    1.0000 </r>
       <r>  -13.0069    1.0000 </r>
       <r>  -11.9438    1.0000 </r>
       <r>  -11.8007    1.0000 </r>
       <r>  -11.5123    1.0000 </r>
       <r>  -11.0582    1.0000 </r>
       <r>  -10.5217    1.0000 </r>
       <r>   -9.7482    1.0000 </r>
       <r>   -9.1149    1.0000 </r>
       <r>   -8.5286    1.0000 </r>
       <r>   -8.5161    1.0000 </r>
       <r>   -8.2423    1.0000 </r>
       <r>   -7.3924    1.0000 </r>
       <r>   -6.8991    1.0000 </r>
       <r>   -6.8337    1.0000 </r>
       <r>   -6.5964    1.0000 </r>
       <r>   -3.8915    1.0000 </r>
       <r>   -1.9803    0.0000 </r>
       <r>   -0.2281    0.0000 </r>
       <r>   -0.1984    0.0000 </r>
       <r>   -0.0987    0.0000 </r>
       <r>    0.7199    0.0000 </r>
       <r>    1.0401    0.0000 </r>
       <r>    1.2294    0.0000 </r>
       <r>    1.4080    0.0000 </r>
       <r>    1.5970    0.0000 </r>
       <r>    1.6565    0.0000 </r>
       <r>    1.6992    0.0000 </r>
      </set>
      <set comment="kpoint 170">
       <r>  -13.2709    1.0000 </r>
       <r>  -12.9099    1.0000 </r>
       <r>  -11.9695    1.0000 </r>
       <r>  -11.7607    1.0000 </r>
       <r>  -11.4142    1.0000 </r>
       <r>  -10.9048    1.0000 </r>
       <r>  -10.5378    1.0000 </r>
       <r>   -9.6108    1.0000 </r>
       <r>   -9.1784    1.0000 </r>
       <r>   -8.5056    1.0000 </r>
       <r>   -8.4596    1.0000 </r>
       <r>   -8.1305    1.0000 </r>
       <r>   -7.3743    1.0000 </r>
       <r>   -6.7874    1.0000 </r>
       <r>   -6.7291    1.0000 </r>
       <r>   -6.4389    1.0000 </r>
       <r>   -4.0158    1.0000 </r>
       <r>   -1.7196    0.0000 </r>
       <r>   -0.1809    0.0000 </r>
       <r>   -0.1506    0.0000 </r>
       <r>   -0.0344    0.0000 </r>
       <r>    0.6494    0.0000 </r>
       <r>    1.0926    0.0000 </r>
       <r>    1.3666    0.0000 </r>
       <r>    1.5345    0.0000 </r>
       <r>    1.6508    0.0000 </r>
       <r>    1.7070    0.0000 </r>
       <r>    1.7108    0.0000 </r>
      </set>
      <set comment="kpoint 171">
       <r>  -13.2972    1.0000 </r>
       <r>  -12.8321    1.0000 </r>
       <r>  -12.0989    1.0000 </r>
       <r>  -11.7861    1.0000 </r>
       <r>  -11.3402    1.0000 </r>
       <r>  -10.7284    1.0000 </r>
       <r>  -10.6558    1.0000 </r>
       <r>   -9.4672    1.0000 </r>
       <r>   -9.3715    1.0000 </r>
       <r>   -8.5696    1.0000 </r>
       <r>   -8.4842    1.0000 </r>
       <r>   -8.0620    1.0000 </r>
       <r>   -7.4677    1.0000 </r>
       <r>   -6.7280    1.0000 </r>
       <r>   -6.6815    1.0000 </r>
       <r>   -6.2583    1.0000 </r>
       <r>   -4.3333    1.0000 </r>
       <r>   -1.3981    0.0000 </r>
       <r>   -0.1998    0.0000 </r>
       <r>   -0.1573    0.0000 </r>
       <r>   -0.0500    0.0000 </r>
       <r>    0.4621    0.0000 </r>
       <r>    1.0601    0.0000 </r>
       <r>    1.5305    0.0000 </r>
       <r>    1.6173    0.0000 </r>
       <r>    1.6281    0.0000 </r>
       <r>    1.6435    0.0000 </r>
       <r>    1.6788    0.0000 </r>
      </set>
      <set comment="kpoint 172">
       <r>  -13.3169    1.0000 </r>
       <r>  -12.7478    1.0000 </r>
       <r>  -12.2220    1.0000 </r>
       <r>  -11.8052    1.0000 </r>
       <r>  -11.2603    1.0000 </r>
       <r>  -10.7689    1.0000 </r>
       <r>  -10.5469    1.0000 </r>
       <r>   -9.5685    1.0000 </r>
       <r>   -9.3235    1.0000 </r>
       <r>   -8.6616    1.0000 </r>
       <r>   -8.5027    1.0000 </r>
       <r>   -7.9888    1.0000 </r>
       <r>   -7.5601    1.0000 </r>
       <r>   -6.6797    1.0000 </r>
       <r>   -6.6458    1.0000 </r>
       <r>   -6.0414    1.0000 </r>
       <r>   -4.6435    1.0000 </r>
       <r>   -1.0909    0.0000 </r>
       <r>   -0.2144    0.0000 </r>
       <r>   -0.1456    0.0000 </r>
       <r>   -0.0981    0.0000 </r>
       <r>    0.2970    0.0000 </r>
       <r>    1.0358    0.0000 </r>
       <r>    1.5896    0.0000 </r>
       <r>    1.5921    0.0000 </r>
       <r>    1.6547    0.0000 </r>
       <r>    1.7117    0.0000 </r>
       <r>    1.7256    0.0000 </r>
      </set>
      <set comment="kpoint 173">
       <r>  -13.3302    1.0000 </r>
       <r>  -12.6571    1.0000 </r>
       <r>  -12.3388    1.0000 </r>
       <r>  -11.8180    1.0000 </r>
       <r>  -11.1746    1.0000 </r>
       <r>  -10.8769    1.0000 </r>
       <r>  -10.3607    1.0000 </r>
       <r>   -9.7663    1.0000 </r>
       <r>   -9.1809    1.0000 </r>
       <r>   -8.7733    1.0000 </r>
       <r>   -8.5152    1.0000 </r>
       <r>   -7.9113    1.0000 </r>
       <r>   -7.6507    1.0000 </r>
       <r>   -6.6440    1.0000 </r>
       <r>   -6.6232    1.0000 </r>
       <r>   -5.7979    1.0000 </r>
       <r>   -4.9452    1.0000 </r>
       <r>   -0.8064    0.0000 </r>
       <r>   -0.2244    0.0000 </r>
       <r>   -0.1911    0.0000 </r>
       <r>   -0.1113    0.0000 </r>
       <r>    0.1564    0.0000 </r>
       <r>    1.0194    0.0000 </r>
       <r>    1.5590    0.0000 </r>
       <r>    1.5752    0.0000 </r>
       <r>    1.6384    0.0000 </r>
       <r>    1.7070    0.0000 </r>
       <r>    1.8447    0.0000 </r>
      </set>
      <set comment="kpoint 174">
       <r>  -13.3369    1.0000 </r>
       <r>  -12.5600    1.0000 </r>
       <r>  -12.4492    1.0000 </r>
       <r>  -11.8246    1.0000 </r>
       <r>  -11.0833    1.0000 </r>
       <r>  -10.9796    1.0000 </r>
       <r>  -10.1703    1.0000 </r>
       <r>   -9.9631    1.0000 </r>
       <r>   -9.0413    1.0000 </r>
       <r>   -8.8983    1.0000 </r>
       <r>   -8.5215    1.0000 </r>
       <r>   -7.8298    1.0000 </r>
       <r>   -7.7390    1.0000 </r>
       <r>   -6.6221    1.0000 </r>
       <r>   -6.6149    1.0000 </r>
       <r>   -5.5347    1.0000 </r>
       <r>   -5.2369    1.0000 </r>
       <r>   -0.5555    0.0000 </r>
       <r>   -0.3384    0.0000 </r>
       <r>   -0.2295    0.0000 </r>
       <r>   -0.0515    0.0000 </r>
       <r>    0.0416    0.0000 </r>
       <r>    1.0111    0.0000 </r>
       <r>    1.5625    0.0000 </r>
       <r>    1.5666    0.0000 </r>
       <r>    1.6140    0.0000 </r>
       <r>    1.6302    0.0000 </r>
       <r>    1.9122    0.0000 </r>
      </set>
      <set comment="kpoint 175">
       <r>  -13.3371    1.0000 </r>
       <r>  -12.5532    1.0000 </r>
       <r>  -12.4564    1.0000 </r>
       <r>  -11.8248    1.0000 </r>
       <r>  -11.0769    1.0000 </r>
       <r>  -10.9863    1.0000 </r>
       <r>  -10.1573    1.0000 </r>
       <r>   -9.9763    1.0000 </r>
       <r>   -9.0321    1.0000 </r>
       <r>   -8.9071    1.0000 </r>
       <r>   -8.5217    1.0000 </r>
       <r>   -7.8242    1.0000 </r>
       <r>   -7.7448    1.0000 </r>
       <r>   -6.6212    1.0000 </r>
       <r>   -6.6148    1.0000 </r>
       <r>   -5.5164    1.0000 </r>
       <r>   -5.2561    1.0000 </r>
       <r>   -0.5402    0.0000 </r>
       <r>   -0.3502    0.0000 </r>
       <r>   -0.2297    0.0000 </r>
       <r>   -0.0465    0.0000 </r>
       <r>    0.0348    0.0000 </r>
       <r>    1.0108    0.0000 </r>
       <r>    1.5643    0.0000 </r>
       <r>    1.5664    0.0000 </r>
       <r>    1.6091    0.0000 </r>
       <r>    1.6299    0.0000 </r>
       <r>    1.9138    0.0000 </r>
      </set>
      <set comment="kpoint 176">
       <r>  -13.3308    1.0000 </r>
       <r>  -12.6508    1.0000 </r>
       <r>  -12.3464    1.0000 </r>
       <r>  -11.8187    1.0000 </r>
       <r>  -11.1687    1.0000 </r>
       <r>  -10.8840    1.0000 </r>
       <r>  -10.3480    1.0000 </r>
       <r>   -9.7797    1.0000 </r>
       <r>   -9.1714    1.0000 </r>
       <r>   -8.7814    1.0000 </r>
       <r>   -8.5158    1.0000 </r>
       <r>   -7.9059    1.0000 </r>
       <r>   -7.6567    1.0000 </r>
       <r>   -6.6421    1.0000 </r>
       <r>   -6.6221    1.0000 </r>
       <r>   -5.7808    1.0000 </r>
       <r>   -4.9652    1.0000 </r>
       <r>   -0.7884    0.0000 </r>
       <r>   -0.2249    0.0000 </r>
       <r>   -0.1992    0.0000 </r>
       <r>   -0.1080    0.0000 </r>
       <r>    0.1478    0.0000 </r>
       <r>    1.0186    0.0000 </r>
       <r>    1.5581    0.0000 </r>
       <r>    1.5744    0.0000 </r>
       <r>    1.6376    0.0000 </r>
       <r>    1.6997    0.0000 </r>
       <r>    1.8516    0.0000 </r>
      </set>
      <set comment="kpoint 177">
       <r>  -13.3180    1.0000 </r>
       <r>  -12.7420    1.0000 </r>
       <r>  -12.2301    1.0000 </r>
       <r>  -11.8063    1.0000 </r>
       <r>  -11.2547    1.0000 </r>
       <r>  -10.7763    1.0000 </r>
       <r>  -10.5346    1.0000 </r>
       <r>   -9.5818    1.0000 </r>
       <r>   -9.3138    1.0000 </r>
       <r>   -8.6686    1.0000 </r>
       <r>   -8.5037    1.0000 </r>
       <r>   -7.9837    1.0000 </r>
       <r>   -7.5662    1.0000 </r>
       <r>   -6.6769    1.0000 </r>
       <r>   -6.6438    1.0000 </r>
       <r>   -6.0257    1.0000 </r>
       <r>   -4.6641    1.0000 </r>
       <r>   -1.0710    0.0000 </r>
       <r>   -0.2152    0.0000 </r>
       <r>   -0.1441    0.0000 </r>
       <r>   -0.1027    0.0000 </r>
       <r>    0.2867    0.0000 </r>
       <r>    1.0344    0.0000 </r>
       <r>    1.5867    0.0000 </r>
       <r>    1.5907    0.0000 </r>
       <r>    1.6533    0.0000 </r>
       <r>    1.7243    0.0000 </r>
       <r>    1.7317    0.0000 </r>
      </set>
      <set comment="kpoint 178">
       <r>  -13.2987    1.0000 </r>
       <r>  -12.8267    1.0000 </r>
       <r>  -12.1074    1.0000 </r>
       <r>  -11.7876    1.0000 </r>
       <r>  -11.3350    1.0000 </r>
       <r>  -10.7164    1.0000 </r>
       <r>  -10.6635    1.0000 </r>
       <r>   -9.4575    1.0000 </r>
       <r>   -9.3847    1.0000 </r>
       <r>   -8.5750    1.0000 </r>
       <r>   -8.4856    1.0000 </r>
       <r>   -8.0572    1.0000 </r>
       <r>   -7.4739    1.0000 </r>
       <r>   -6.7244    1.0000 </r>
       <r>   -6.6787    1.0000 </r>
       <r>   -6.2447    1.0000 </r>
       <r>   -4.3544    1.0000 </r>
       <r>   -1.3769    0.0000 </r>
       <r>   -0.2009    0.0000 </r>
       <r>   -0.1571    0.0000 </r>
       <r>   -0.0521    0.0000 </r>
       <r>    0.4502    0.0000 </r>
       <r>    1.0583    0.0000 </r>
       <r>    1.5422    0.0000 </r>
       <r>    1.6153    0.0000 </r>
       <r>    1.6346    0.0000 </r>
       <r>    1.6394    0.0000 </r>
       <r>    1.6769    0.0000 </r>
      </set>
      <set comment="kpoint 179">
       <r>  -13.2729    1.0000 </r>
       <r>  -12.9049    1.0000 </r>
       <r>  -11.9784    1.0000 </r>
       <r>  -11.7626    1.0000 </r>
       <r>  -11.4095    1.0000 </r>
       <r>  -10.8931    1.0000 </r>
       <r>  -10.5459    1.0000 </r>
       <r>   -9.6012    1.0000 </r>
       <r>   -9.1912    1.0000 </r>
       <r>   -8.5088    1.0000 </r>
       <r>   -8.4614    1.0000 </r>
       <r>   -8.1261    1.0000 </r>
       <r>   -7.3805    1.0000 </r>
       <r>   -6.7831    1.0000 </r>
       <r>   -6.7256    1.0000 </r>
       <r>   -6.4281    1.0000 </r>
       <r>   -4.0374    1.0000 </r>
       <r>   -1.6976    0.0000 </r>
       <r>   -0.1823    0.0000 </r>
       <r>   -0.1515    0.0000 </r>
       <r>   -0.0346    0.0000 </r>
       <r>    0.6361    0.0000 </r>
       <r>    1.0901    0.0000 </r>
       <r>    1.3769    0.0000 </r>
       <r>    1.5406    0.0000 </r>
       <r>    1.6483    0.0000 </r>
       <r>    1.7028    0.0000 </r>
       <r>    1.7084    0.0000 </r>
      </set>
      <set comment="kpoint 180">
       <r>  -13.2405    1.0000 </r>
       <r>  -12.9767    1.0000 </r>
       <r>  -11.8432    1.0000 </r>
       <r>  -11.7314    1.0000 </r>
       <r>  -11.4779    1.0000 </r>
       <r>  -11.0644    1.0000 </r>
       <r>  -10.4235    1.0000 </r>
       <r>   -9.7437    1.0000 </r>
       <r>   -9.0058    1.0000 </r>
       <r>   -8.4797    1.0000 </r>
       <r>   -8.4312    1.0000 </r>
       <r>   -8.1900    1.0000 </r>
       <r>   -7.2870    1.0000 </r>
       <r>   -6.8514    1.0000 </r>
       <r>   -6.7819    1.0000 </r>
       <r>   -6.5645    1.0000 </r>
       <r>   -3.7142    1.0000 </r>
       <r>   -2.0271    0.0000 </r>
       <r>   -0.1601    0.0000 </r>
       <r>   -0.1337    0.0000 </r>
       <r>   -0.0387    0.0000 </r>
       <r>    0.8416    0.0000 </r>
       <r>    1.1300    0.0000 </r>
       <r>    1.2375    0.0000 </r>
       <r>    1.4535    0.0000 </r>
       <r>    1.6895    0.0000 </r>
       <r>    1.7475    0.0000 </r>
       <r>    1.7505    0.0000 </r>
      </set>
      <set comment="kpoint 181">
       <r>  -13.2017    1.0000 </r>
       <r>  -13.0419    1.0000 </r>
       <r>  -11.7018    1.0000 </r>
       <r>  -11.6939    1.0000 </r>
       <r>  -11.5404    1.0000 </r>
       <r>  -11.2301    1.0000 </r>
       <r>  -10.2968    1.0000 </r>
       <r>   -9.8843    1.0000 </r>
       <r>   -8.8348    1.0000 </r>
       <r>   -8.4963    1.0000 </r>
       <r>   -8.3951    1.0000 </r>
       <r>   -8.2488    1.0000 </r>
       <r>   -7.1943    1.0000 </r>
       <r>   -6.9277    1.0000 </r>
       <r>   -6.8374    1.0000 </r>
       <r>   -6.6489    1.0000 </r>
       <r>   -3.3859    1.0000 </r>
       <r>   -2.3611    0.0000 </r>
       <r>   -0.1349    0.0000 </r>
       <r>   -0.1126    0.0000 </r>
       <r>   -0.0557    0.0000 </r>
       <r>    1.0630    0.0000 </r>
       <r>    1.1341    0.0000 </r>
       <r>    1.1779    0.0000 </r>
       <r>    1.3739    0.0000 </r>
       <r>    1.7087    0.0000 </r>
       <r>    1.7390    0.0000 </r>
       <r>    1.7939    0.0000 </r>
      </set>
      <set comment="kpoint 182">
       <r>  -13.1563    1.0000 </r>
       <r>  -13.1007    1.0000 </r>
       <r>  -11.6502    1.0000 </r>
       <r>  -11.5968    1.0000 </r>
       <r>  -11.5542    1.0000 </r>
       <r>  -11.3900    1.0000 </r>
       <r>  -10.1659    1.0000 </r>
       <r>  -10.0223    1.0000 </r>
       <r>   -8.6890    1.0000 </r>
       <r>   -8.5604    1.0000 </r>
       <r>   -8.3533    1.0000 </r>
       <r>   -8.3023    1.0000 </r>
       <r>   -7.1035    1.0000 </r>
       <r>   -7.0102    1.0000 </r>
       <r>   -6.8725    1.0000 </r>
       <r>   -6.6882    1.0000 </r>
       <r>   -3.0538    0.0019 </r>
       <r>   -2.6966    0.0000 </r>
       <r>   -0.1081    0.0000 </r>
       <r>   -0.0981    0.0000 </r>
       <r>   -0.0795    0.0000 </r>
       <r>    1.0776    0.0000 </r>
       <r>    1.2337    0.0000 </r>
       <r>    1.2940    0.0000 </r>
       <r>    1.3019    0.0000 </r>
       <r>    1.5350    0.0000 </r>
       <r>    1.7969    0.0000 </r>
       <r>    1.8472    0.0000 </r>
      </set>
      <set comment="kpoint 183">
       <r>  -13.1530    1.0000 </r>
       <r>  -13.1044    1.0000 </r>
       <r>  -11.6470    1.0000 </r>
       <r>  -11.6003    1.0000 </r>
       <r>  -11.5440    1.0000 </r>
       <r>  -11.4006    1.0000 </r>
       <r>  -10.1570    1.0000 </r>
       <r>  -10.0314    1.0000 </r>
       <r>   -8.6807    1.0000 </r>
       <r>   -8.5660    1.0000 </r>
       <r>   -8.3502    1.0000 </r>
       <r>   -8.3057    1.0000 </r>
       <r>   -7.0975    1.0000 </r>
       <r>   -7.0159    1.0000 </r>
       <r>   -6.8737    1.0000 </r>
       <r>   -6.6894    1.0000 </r>
       <r>   -3.0314    0.0000 </r>
       <r>   -2.7192    0.0000 </r>
       <r>   -0.1062    0.0000 </r>
       <r>   -0.0976    0.0000 </r>
       <r>   -0.0813    0.0000 </r>
       <r>    1.0757    0.0000 </r>
       <r>    1.2377    0.0000 </r>
       <r>    1.2973    0.0000 </r>
       <r>    1.3096    0.0000 </r>
       <r>    1.5206    0.0000 </r>
       <r>    1.8011    0.0000 </r>
       <r>    1.8510    0.0000 </r>
      </set>
      <set comment="kpoint 184">
       <r>  -13.1988    1.0000 </r>
       <r>  -13.0461    1.0000 </r>
       <r>  -11.6920    1.0000 </r>
       <r>  -11.6911    1.0000 </r>
       <r>  -11.5444    1.0000 </r>
       <r>  -11.2411    1.0000 </r>
       <r>  -10.2881    1.0000 </r>
       <r>   -9.8937    1.0000 </r>
       <r>   -8.8241    1.0000 </r>
       <r>   -8.4992    1.0000 </r>
       <r>   -8.3925    1.0000 </r>
       <r>   -8.2526    1.0000 </r>
       <r>   -7.1881    1.0000 </r>
       <r>   -6.9330    1.0000 </r>
       <r>   -6.8406    1.0000 </r>
       <r>   -6.6528    1.0000 </r>
       <r>   -3.3637    1.0000 </r>
       <r>   -2.3837    0.0000 </r>
       <r>   -0.1331    0.0000 </r>
       <r>   -0.1113    0.0000 </r>
       <r>   -0.0571    0.0000 </r>
       <r>    1.0784    0.0000 </r>
       <r>    1.1287    0.0000 </r>
       <r>    1.1814    0.0000 </r>
       <r>    1.3688    0.0000 </r>
       <r>    1.7005    0.0000 </r>
       <r>    1.7427    0.0000 </r>
       <r>    1.7973    0.0000 </r>
      </set>
      <set comment="kpoint 185">
       <r>  -13.2381    1.0000 </r>
       <r>  -12.9812    1.0000 </r>
       <r>  -11.8339    1.0000 </r>
       <r>  -11.7290    1.0000 </r>
       <r>  -11.4823    1.0000 </r>
       <r>  -11.0757    1.0000 </r>
       <r>  -10.4151    1.0000 </r>
       <r>   -9.7533    1.0000 </r>
       <r>   -8.9937    1.0000 </r>
       <r>   -8.4793    1.0000 </r>
       <r>   -8.4290    1.0000 </r>
       <r>   -8.1941    1.0000 </r>
       <r>   -7.2807    1.0000 </r>
       <r>   -6.8563    1.0000 </r>
       <r>   -6.7858    1.0000 </r>
       <r>   -6.5718    1.0000 </r>
       <r>   -3.6922    1.0000 </r>
       <r>   -2.0495    0.0000 </r>
       <r>   -0.1585    0.0000 </r>
       <r>   -0.1323    0.0000 </r>
       <r>   -0.0396    0.0000 </r>
       <r>    0.8561    0.0000 </r>
       <r>    1.1330    0.0000 </r>
       <r>    1.2293    0.0000 </r>
       <r>    1.4479    0.0000 </r>
       <r>    1.6926    0.0000 </r>
       <r>    1.7504    0.0000 </r>
       <r>    1.7518    0.0000 </r>
      </set>
      <set comment="kpoint 186">
       <r>  -13.1986    1.0000 </r>
       <r>  -12.8808    1.0000 </r>
       <r>  -11.8562    1.0000 </r>
       <r>  -11.6852    1.0000 </r>
       <r>  -11.3804    1.0000 </r>
       <r>  -10.9190    1.0000 </r>
       <r>  -10.4273    1.0000 </r>
       <r>   -9.6117    1.0000 </r>
       <r>   -9.0503    1.0000 </r>
       <r>   -8.4422    1.0000 </r>
       <r>   -8.3668    1.0000 </r>
       <r>   -8.0766    1.0000 </r>
       <r>   -7.2556    1.0000 </r>
       <r>   -6.7357    1.0000 </r>
       <r>   -6.6732    1.0000 </r>
       <r>   -6.4203    1.0000 </r>
       <r>   -3.8118    1.0000 </r>
       <r>   -1.7809    0.0000 </r>
       <r>   -0.1068    0.0000 </r>
       <r>   -0.0813    0.0000 </r>
       <r>    0.0345    0.0000 </r>
       <r>    0.7854    0.0000 </r>
       <r>    1.1906    0.0000 </r>
       <r>    1.3629    0.0000 </r>
       <r>    1.5797    0.0000 </r>
       <r>    1.7518    0.0000 </r>
       <r>    1.7729    0.0000 </r>
       <r>    1.8102    0.0000 </r>
      </set>
      <set comment="kpoint 187">
       <r>  -13.2275    1.0000 </r>
       <r>  -12.8058    1.0000 </r>
       <r>  -11.9880    1.0000 </r>
       <r>  -11.7132    1.0000 </r>
       <r>  -11.3090    1.0000 </r>
       <r>  -10.7451    1.0000 </r>
       <r>  -10.5469    1.0000 </r>
       <r>   -9.4690    1.0000 </r>
       <r>   -9.2395    1.0000 </r>
       <r>   -8.4903    1.0000 </r>
       <r>   -8.3939    1.0000 </r>
       <r>   -8.0101    1.0000 </r>
       <r>   -7.3491    1.0000 </r>
       <r>   -6.6724    1.0000 </r>
       <r>   -6.6217    1.0000 </r>
       <r>   -6.2597    1.0000 </r>
       <r>   -4.1319    1.0000 </r>
       <r>   -1.4545    0.0000 </r>
       <r>   -0.1274    0.0000 </r>
       <r>   -0.0945    0.0000 </r>
       <r>    0.0303    0.0000 </r>
       <r>    0.5907    0.0000 </r>
       <r>    1.1549    0.0000 </r>
       <r>    1.5159    0.0000 </r>
       <r>    1.6703    0.0000 </r>
       <r>    1.7117    0.0000 </r>
       <r>    1.7149    0.0000 </r>
       <r>    1.7750    0.0000 </r>
      </set>
      <set comment="kpoint 188">
       <r>  -13.2500    1.0000 </r>
       <r>  -12.7242    1.0000 </r>
       <r>  -12.1136    1.0000 </r>
       <r>  -11.7348    1.0000 </r>
       <r>  -11.2317    1.0000 </r>
       <r>  -10.6618    1.0000 </r>
       <r>  -10.5661    1.0000 </r>
       <r>   -9.4343    1.0000 </r>
       <r>   -9.3258    1.0000 </r>
       <r>   -8.5703    1.0000 </r>
       <r>   -8.4150    1.0000 </r>
       <r>   -7.9389    1.0000 </r>
       <r>   -7.4419    1.0000 </r>
       <r>   -6.6196    1.0000 </r>
       <r>   -6.5811    1.0000 </r>
       <r>   -6.0580    1.0000 </r>
       <r>   -4.4450    1.0000 </r>
       <r>   -1.1396    0.0000 </r>
       <r>   -0.1439    0.0000 </r>
       <r>   -0.0920    0.0000 </r>
       <r>   -0.0009    0.0000 </r>
       <r>    0.4172    0.0000 </r>
       <r>    1.1272    0.0000 </r>
       <r>    1.6527    0.0000 </r>
       <r>    1.6863    0.0000 </r>
       <r>    1.6893    0.0000 </r>
       <r>    1.7476    0.0000 </r>
       <r>    1.7668    0.0000 </r>
      </set>
      <set comment="kpoint 189">
       <r>  -13.2659    1.0000 </r>
       <r>  -12.6363    1.0000 </r>
       <r>  -12.2328    1.0000 </r>
       <r>  -11.7502    1.0000 </r>
       <r>  -11.1485    1.0000 </r>
       <r>  -10.7717    1.0000 </r>
       <r>  -10.3822    1.0000 </r>
       <r>   -9.6312    1.0000 </r>
       <r>   -9.1833    1.0000 </r>
       <r>   -8.6732    1.0000 </r>
       <r>   -8.4299    1.0000 </r>
       <r>   -7.8631    1.0000 </r>
       <r>   -7.5333    1.0000 </r>
       <r>   -6.5788    1.0000 </r>
       <r>   -6.5531    1.0000 </r>
       <r>   -5.8260    1.0000 </r>
       <r>   -4.7501    1.0000 </r>
       <r>   -0.8437    0.0000 </r>
       <r>   -0.1559    0.0000 </r>
       <r>   -0.0718    0.0000 </r>
       <r>   -0.0684    0.0000 </r>
       <r>    0.2673    0.0000 </r>
       <r>    1.1076    0.0000 </r>
       <r>    1.6125    0.0000 </r>
       <r>    1.6659    0.0000 </r>
       <r>    1.7281    0.0000 </r>
       <r>    1.8117    0.0000 </r>
       <r>    1.8742    0.0000 </r>
      </set>
      <set comment="kpoint 190">
       <r>  -13.2753    1.0000 </r>
       <r>  -12.5418    1.0000 </r>
       <r>  -12.3457    1.0000 </r>
       <r>  -11.7593    1.0000 </r>
       <r>  -11.0597    1.0000 </r>
       <r>  -10.8764    1.0000 </r>
       <r>  -10.1938    1.0000 </r>
       <r>   -9.8279    1.0000 </r>
       <r>   -9.0430    1.0000 </r>
       <r>   -8.7921    1.0000 </r>
       <r>   -8.4388    1.0000 </r>
       <r>   -7.7833    1.0000 </r>
       <r>   -7.6225    1.0000 </r>
       <r>   -6.5514    1.0000 </r>
       <r>   -6.5388    1.0000 </r>
       <r>   -5.5714    1.0000 </r>
       <r>   -5.0457    1.0000 </r>
       <r>   -0.5768    0.0000 </r>
       <r>   -0.1944    0.0000 </r>
       <r>   -0.1630    0.0000 </r>
       <r>   -0.0204    0.0000 </r>
       <r>    0.1427    0.0000 </r>
       <r>    1.0959    0.0000 </r>
       <r>    1.6026    0.0000 </r>
       <r>    1.6539    0.0000 </r>
       <r>    1.7014    0.0000 </r>
       <r>    1.7166    0.0000 </r>
       <r>    1.9992    0.0000 </r>
      </set>
      <set comment="kpoint 191">
       <r>  -13.2782    1.0000 </r>
       <r>  -12.4523    1.0000 </r>
       <r>  -12.4410    1.0000 </r>
       <r>  -11.7621    1.0000 </r>
       <r>  -10.9757    1.0000 </r>
       <r>  -10.9652    1.0000 </r>
       <r>  -10.0227    1.0000 </r>
       <r>  -10.0017    1.0000 </r>
       <r>   -8.9216    1.0000 </r>
       <r>   -8.9072    1.0000 </r>
       <r>   -8.4415    1.0000 </r>
       <r>   -7.7090    1.0000 </r>
       <r>   -7.6997    1.0000 </r>
       <r>   -6.5389    1.0000 </r>
       <r>   -6.5382    1.0000 </r>
       <r>   -5.3298    1.0000 </r>
       <r>   -5.2996    1.0000 </r>
       <r>   -0.3735    0.0000 </r>
       <r>   -0.3514    0.0000 </r>
       <r>   -0.1653    0.0000 </r>
       <r>    0.0446    0.0000 </r>
       <r>    0.0539    0.0000 </r>
       <r>    1.0924    0.0000 </r>
       <r>    1.6282    0.0000 </r>
       <r>    1.6337    0.0000 </r>
       <r>    1.6502    0.0000 </r>
       <r>    1.7130    0.0000 </r>
       <r>    1.9955    0.0000 </r>
      </set>
      <set comment="kpoint 192">
       <r>  -13.2746    1.0000 </r>
       <r>  -12.5524    1.0000 </r>
       <r>  -12.3338    1.0000 </r>
       <r>  -11.7586    1.0000 </r>
       <r>  -11.0696    1.0000 </r>
       <r>  -10.8653    1.0000 </r>
       <r>  -10.2144    1.0000 </r>
       <r>   -9.8067    1.0000 </r>
       <r>   -9.0580    1.0000 </r>
       <r>   -8.7786    1.0000 </r>
       <r>   -8.4381    1.0000 </r>
       <r>   -7.7921    1.0000 </r>
       <r>   -7.6129    1.0000 </r>
       <r>   -6.5537    1.0000 </r>
       <r>   -6.5396    1.0000 </r>
       <r>   -5.5999    1.0000 </r>
       <r>   -5.0142    1.0000 </r>
       <r>   -0.6041    0.0000 </r>
       <r>   -0.1783    0.0000 </r>
       <r>   -0.1625    0.0000 </r>
       <r>   -0.0268    0.0000 </r>
       <r>    0.1549    0.0000 </r>
       <r>    1.0968    0.0000 </r>
       <r>    1.6019    0.0000 </r>
       <r>    1.6548    0.0000 </r>
       <r>    1.7120    0.0000 </r>
       <r>    1.7174    0.0000 </r>
       <r>    1.9765    0.0000 </r>
      </set>
      <set comment="kpoint 193">
       <r>  -13.2645    1.0000 </r>
       <r>  -12.6461    1.0000 </r>
       <r>  -12.2202    1.0000 </r>
       <r>  -11.7488    1.0000 </r>
       <r>  -11.1578    1.0000 </r>
       <r>  -10.7600    1.0000 </r>
       <r>  -10.4023    1.0000 </r>
       <r>   -9.6099    1.0000 </r>
       <r>   -9.1986    1.0000 </r>
       <r>   -8.6612    1.0000 </r>
       <r>   -8.4286    1.0000 </r>
       <r>   -7.8716    1.0000 </r>
       <r>   -7.5234    1.0000 </r>
       <r>   -6.5827    1.0000 </r>
       <r>   -6.5555    1.0000 </r>
       <r>   -5.8523    1.0000 </r>
       <r>   -4.7175    1.0000 </r>
       <r>   -0.8746    0.0000 </r>
       <r>   -0.1548    0.0000 </r>
       <r>   -0.0721    0.0000 </r>
       <r>   -0.0618    0.0000 </r>
       <r>    0.2823    0.0000 </r>
       <r>    1.1093    0.0000 </r>
       <r>    1.6156    0.0000 </r>
       <r>    1.6677    0.0000 </r>
       <r>    1.7298    0.0000 </r>
       <r>    1.8213    0.0000 </r>
       <r>    1.8539    0.0000 </r>
      </set>
      <set comment="kpoint 194">
       <r>  -13.2478    1.0000 </r>
       <r>  -12.7334    1.0000 </r>
       <r>  -12.1002    1.0000 </r>
       <r>  -11.7328    1.0000 </r>
       <r>  -11.2403    1.0000 </r>
       <r>  -10.6496    1.0000 </r>
       <r>  -10.5857    1.0000 </r>
       <r>   -9.4130    1.0000 </r>
       <r>   -9.3413    1.0000 </r>
       <r>   -8.5604    1.0000 </r>
       <r>   -8.4130    1.0000 </r>
       <r>   -7.9468    1.0000 </r>
       <r>   -7.4319    1.0000 </r>
       <r>   -6.6248    1.0000 </r>
       <r>   -6.5849    1.0000 </r>
       <r>   -6.0815    1.0000 </r>
       <r>   -4.4115    1.0000 </r>
       <r>   -1.1730    0.0000 </r>
       <r>   -0.1423    0.0000 </r>
       <r>   -0.0932    0.0000 </r>
       <r>    0.0042    0.0000 </r>
       <r>    0.4348    0.0000 </r>
       <r>    1.1298    0.0000 </r>
       <r>    1.6585    0.0000 </r>
       <r>    1.6698    0.0000 </r>
       <r>    1.6890    0.0000 </r>
       <r>    1.7502    0.0000 </r>
       <r>    1.7562    0.0000 </r>
      </set>
      <set comment="kpoint 195">
       <r>  -13.2247    1.0000 </r>
       <r>  -12.8142    1.0000 </r>
       <r>  -11.9740    1.0000 </r>
       <r>  -11.7104    1.0000 </r>
       <r>  -11.3170    1.0000 </r>
       <r>  -10.7642    1.0000 </r>
       <r>  -10.5342    1.0000 </r>
       <r>   -9.4845    1.0000 </r>
       <r>   -9.2186    1.0000 </r>
       <r>   -8.4834    1.0000 </r>
       <r>   -8.3913    1.0000 </r>
       <r>   -8.0176    1.0000 </r>
       <r>   -7.3389    1.0000 </r>
       <r>   -6.6789    1.0000 </r>
       <r>   -6.6267    1.0000 </r>
       <r>   -6.2793    1.0000 </r>
       <r>   -4.0975    1.0000 </r>
       <r>   -1.4894    0.0000 </r>
       <r>   -0.1254    0.0000 </r>
       <r>   -0.0937    0.0000 </r>
       <r>    0.0319    0.0000 </r>
       <r>    0.6108    0.0000 </r>
       <r>    1.1584    0.0000 </r>
       <r>    1.4982    0.0000 </r>
       <r>    1.6601    0.0000 </r>
       <r>    1.7185    0.0000 </r>
       <r>    1.7187    0.0000 </r>
       <r>    1.7785    0.0000 </r>
      </set>
      <set comment="kpoint 196">
       <r>  -13.1951    1.0000 </r>
       <r>  -12.8886    1.0000 </r>
       <r>  -11.8415    1.0000 </r>
       <r>  -11.6818    1.0000 </r>
       <r>  -11.3878    1.0000 </r>
       <r>  -10.9375    1.0000 </r>
       <r>  -10.4140    1.0000 </r>
       <r>   -9.6270    1.0000 </r>
       <r>   -9.0304    1.0000 </r>
       <r>   -8.4393    1.0000 </r>
       <r>   -8.3635    1.0000 </r>
       <r>   -8.0836    1.0000 </r>
       <r>   -7.2454    1.0000 </r>
       <r>   -6.7432    1.0000 </r>
       <r>   -6.6792    1.0000 </r>
       <r>   -6.4347    1.0000 </r>
       <r>   -3.7767    1.0000 </r>
       <r>   -1.8168    0.0000 </r>
       <r>   -0.1044    0.0000 </r>
       <r>   -0.0792    0.0000 </r>
       <r>    0.0338    0.0000 </r>
       <r>    0.8076    0.0000 </r>
       <r>    1.1949    0.0000 </r>
       <r>    1.3479    0.0000 </r>
       <r>    1.5703    0.0000 </r>
       <r>    1.7563    0.0000 </r>
       <r>    1.7783    0.0000 </r>
       <r>    1.8144    0.0000 </r>
      </set>
      <set comment="kpoint 197">
       <r>  -13.1589    1.0000 </r>
       <r>  -12.9565    1.0000 </r>
       <r>  -11.7028    1.0000 </r>
       <r>  -11.6470    1.0000 </r>
       <r>  -11.4526    1.0000 </r>
       <r>  -11.1053    1.0000 </r>
       <r>  -10.2894    1.0000 </r>
       <r>   -9.7680    1.0000 </r>
       <r>   -8.8538    1.0000 </r>
       <r>   -8.4373    1.0000 </r>
       <r>   -8.3299    1.0000 </r>
       <r>   -8.1445    1.0000 </r>
       <r>   -7.1524    1.0000 </r>
       <r>   -6.8162    1.0000 </r>
       <r>   -6.7363    1.0000 </r>
       <r>   -6.5391    1.0000 </r>
       <r>   -3.4504    1.0000 </r>
       <r>   -2.1501    0.0000 </r>
       <r>   -0.0801    0.0000 </r>
       <r>   -0.0576    0.0000 </r>
       <r>    0.0201    0.0000 </r>
       <r>    1.0221    0.0000 </r>
       <r>    1.2289    0.0000 </r>
       <r>    1.2394    0.0000 </r>
       <r>    1.4877    0.0000 </r>
       <r>    1.7887    0.0000 </r>
       <r>    1.8024    0.0000 </r>
       <r>    1.8579    0.0000 </r>
      </set>
      <set comment="kpoint 198">
       <r>  -13.1163    1.0000 </r>
       <r>  -13.0179    1.0000 </r>
       <r>  -11.6059    1.0000 </r>
       <r>  -11.5579    1.0000 </r>
       <r>  -11.5114    1.0000 </r>
       <r>  -11.2674    1.0000 </r>
       <r>  -10.1605    1.0000 </r>
       <r>   -9.9067    1.0000 </r>
       <r>   -8.6971    1.0000 </r>
       <r>   -8.4828    1.0000 </r>
       <r>   -8.2904    1.0000 </r>
       <r>   -8.2002    1.0000 </r>
       <r>   -7.0608    1.0000 </r>
       <r>   -6.8961    1.0000 </r>
       <r>   -6.7814    1.0000 </r>
       <r>   -6.5952    1.0000 </r>
       <r>   -3.1195    0.9596 </r>
       <r>   -2.4859    0.0000 </r>
       <r>   -0.0534    0.0000 </r>
       <r>   -0.0388    0.0000 </r>
       <r>   -0.0024    0.0000 </r>
       <r>    1.1521    0.0000 </r>
       <r>    1.2494    0.0000 </r>
       <r>    1.2919    0.0000 </r>
       <r>    1.4126    0.0000 </r>
       <r>    1.6665    0.0000 </r>
       <r>    1.8568    0.0000 </r>
       <r>    1.9085    0.0000 </r>
      </set>
      <set comment="kpoint 199">
       <r>  -13.0728    1.0000 </r>
       <r>  -13.0672    1.0000 </r>
       <r>  -11.5641    1.0000 </r>
       <r>  -11.5587    1.0000 </r>
       <r>  -11.4236    1.0000 </r>
       <r>  -11.4070    1.0000 </r>
       <r>  -10.0424    1.0000 </r>
       <r>  -10.0279    1.0000 </r>
       <r>   -8.5948    1.0000 </r>
       <r>   -8.5499    1.0000 </r>
       <r>   -8.2504    1.0000 </r>
       <r>   -8.2452    1.0000 </r>
       <r>   -6.9814    1.0000 </r>
       <r>   -6.9719    1.0000 </r>
       <r>   -6.7971    1.0000 </r>
       <r>   -6.6116    1.0000 </r>
       <r>   -2.8217    0.0000 </r>
       <r>   -2.7853    0.0000 </r>
       <r>   -0.0318    0.0000 </r>
       <r>   -0.0289    0.0000 </r>
       <r>   -0.0259    0.0000 </r>
       <r>    1.1273    0.0000 </r>
       <r>    1.3453    0.0000 </r>
       <r>    1.3523    0.0000 </r>
       <r>    1.4550    0.0000 </r>
       <r>    1.4796    0.0000 </r>
       <r>    1.9131    0.0000 </r>
       <r>    1.9331    0.0000 </r>
      </set>
      <set comment="kpoint 200">
       <r>  -13.1212    1.0000 </r>
       <r>  -13.0115    1.0000 </r>
       <r>  -11.6107    1.0000 </r>
       <r>  -11.5739    1.0000 </r>
       <r>  -11.5053    1.0000 </r>
       <r>  -11.2501    1.0000 </r>
       <r>  -10.1747    1.0000 </r>
       <r>   -9.8918    1.0000 </r>
       <r>   -8.7127    1.0000 </r>
       <r>   -8.4756    1.0000 </r>
       <r>   -8.2950    1.0000 </r>
       <r>   -8.1944    1.0000 </r>
       <r>   -7.0706    1.0000 </r>
       <r>   -6.8871    1.0000 </r>
       <r>   -6.7777    1.0000 </r>
       <r>   -6.5912    1.0000 </r>
       <r>   -3.1555    1.0000 </r>
       <r>   -2.4495    0.0000 </r>
       <r>   -0.0564    0.0000 </r>
       <r>   -0.0404    0.0000 </r>
       <r>    0.0003    0.0000 </r>
       <r>    1.1581    0.0000 </r>
       <r>    1.2244    0.0000 </r>
       <r>    1.2858    0.0000 </r>
       <r>    1.4204    0.0000 </r>
       <r>    1.6860    0.0000 </r>
       <r>    1.8505    0.0000 </r>
       <r>    1.9027    0.0000 </r>
      </set>
      <set comment="kpoint 201">
       <r>  -13.1632    1.0000 </r>
       <r>  -12.9494    1.0000 </r>
       <r>  -11.7181    1.0000 </r>
       <r>  -11.6511    1.0000 </r>
       <r>  -11.4459    1.0000 </r>
       <r>  -11.0874    1.0000 </r>
       <r>  -10.3031    1.0000 </r>
       <r>   -9.7529    1.0000 </r>
       <r>   -8.8721    1.0000 </r>
       <r>   -8.4353    1.0000 </r>
       <r>   -8.3338    1.0000 </r>
       <r>   -8.1381    1.0000 </r>
       <r>   -7.1624    1.0000 </r>
       <r>   -6.8078    1.0000 </r>
       <r>   -6.7303    1.0000 </r>
       <r>   -6.5303    1.0000 </r>
       <r>   -3.4860    1.0000 </r>
       <r>   -2.1138    0.0000 </r>
       <r>   -0.0828    0.0000 </r>
       <r>   -0.0600    0.0000 </r>
       <r>    0.0221    0.0000 </r>
       <r>    0.9982    0.0000 </r>
       <r>    1.2342    0.0000 </r>
       <r>    1.2400    0.0000 </r>
       <r>    1.4963    0.0000 </r>
       <r>    1.7930    0.0000 </r>
       <r>    1.7970    0.0000 </r>
       <r>    1.8529    0.0000 </r>
      </set>
      <set comment="kpoint 202">
       <r>  -13.1202    1.0000 </r>
       <r>  -12.8456    1.0000 </r>
       <r>  -11.7370    1.0000 </r>
       <r>  -11.6035    1.0000 </r>
       <r>  -11.3403    1.0000 </r>
       <r>  -10.9274    1.0000 </r>
       <r>  -10.3114    1.0000 </r>
       <r>   -9.6072    1.0000 </r>
       <r>   -8.9213    1.0000 </r>
       <r>   -8.3835    1.0000 </r>
       <r>   -8.2661    1.0000 </r>
       <r>   -8.0149    1.0000 </r>
       <r>   -7.1302    1.0000 </r>
       <r>   -6.6786    1.0000 </r>
       <r>   -6.6109    1.0000 </r>
       <r>   -6.3847    1.0000 </r>
       <r>   -3.6008    1.0000 </r>
       <r>   -1.8380    0.0000 </r>
       <r>   -0.0268    0.0000 </r>
       <r>   -0.0048    0.0000 </r>
       <r>    0.1048    0.0000 </r>
       <r>    0.9276    0.0000 </r>
       <r>    1.2969    0.0000 </r>
       <r>    1.3687    0.0000 </r>
       <r>    1.6332    0.0000 </r>
       <r>    1.8358    0.0000 </r>
       <r>    1.8615    0.0000 </r>
       <r>    1.9181    0.0000 </r>
      </set>
      <set comment="kpoint 203">
       <r>  -13.1518    1.0000 </r>
       <r>  -12.7732    1.0000 </r>
       <r>  -11.8713    1.0000 </r>
       <r>  -11.6339    1.0000 </r>
       <r>  -11.2715    1.0000 </r>
       <r>  -10.7561    1.0000 </r>
       <r>  -10.4326    1.0000 </r>
       <r>   -9.4656    1.0000 </r>
       <r>   -9.1053    1.0000 </r>
       <r>   -8.4141    1.0000 </r>
       <r>   -8.2956    1.0000 </r>
       <r>   -7.9505    1.0000 </r>
       <r>   -7.2235    1.0000 </r>
       <r>   -6.6117    1.0000 </r>
       <r>   -6.5567    1.0000 </r>
       <r>   -6.2458    1.0000 </r>
       <r>   -3.9234    1.0000 </r>
       <r>   -1.5074    0.0000 </r>
       <r>   -0.0490    0.0000 </r>
       <r>   -0.0233    0.0000 </r>
       <r>    0.1101    0.0000 </r>
       <r>    0.7260    0.0000 </r>
       <r>    1.2580    0.0000 </r>
       <r>    1.5095    0.0000 </r>
       <r>    1.7207    0.0000 </r>
       <r>    1.7822    0.0000 </r>
       <r>    1.8212    0.0000 </r>
       <r>    1.8798    0.0000 </r>
      </set>
      <set comment="kpoint 204">
       <r>  -13.1768    1.0000 </r>
       <r>  -12.6945    1.0000 </r>
       <r>  -11.9992    1.0000 </r>
       <r>  -11.6581    1.0000 </r>
       <r>  -11.1967    1.0000 </r>
       <r>  -10.5795    1.0000 </r>
       <r>  -10.5491    1.0000 </r>
       <r>   -9.3232    1.0000 </r>
       <r>   -9.2971    1.0000 </r>
       <r>   -8.4804    1.0000 </r>
       <r>   -8.3192    1.0000 </r>
       <r>   -7.8812    1.0000 </r>
       <r>   -7.3166    1.0000 </r>
       <r>   -6.5547    1.0000 </r>
       <r>   -6.5118    1.0000 </r>
       <r>   -6.0615    1.0000 </r>
       <r>   -4.2394    1.0000 </r>
       <r>   -1.1860    0.0000 </r>
       <r>   -0.0674    0.0000 </r>
       <r>   -0.0291    0.0000 </r>
       <r>    0.0936    0.0000 </r>
       <r>    0.5445    0.0000 </r>
       <r>    1.2271    0.0000 </r>
       <r>    1.6739    0.0000 </r>
       <r>    1.7201    0.0000 </r>
       <r>    1.7892    0.0000 </r>
       <r>    1.8148    0.0000 </r>
       <r>    1.8492    0.0000 </r>
      </set>
      <set comment="kpoint 205">
       <r>  -13.1954    1.0000 </r>
       <r>  -12.6092    1.0000 </r>
       <r>  -12.1210    1.0000 </r>
       <r>  -11.6761    1.0000 </r>
       <r>  -11.1162    1.0000 </r>
       <r>  -10.6608    1.0000 </r>
       <r>  -10.3980    1.0000 </r>
       <r>   -9.4925    1.0000 </r>
       <r>   -9.1810    1.0000 </r>
       <r>   -8.5732    1.0000 </r>
       <r>   -8.3366    1.0000 </r>
       <r>   -7.8073    1.0000 </r>
       <r>   -7.4086    1.0000 </r>
       <r>   -6.5090    1.0000 </r>
       <r>   -6.4787    1.0000 </r>
       <r>   -5.8425    1.0000 </r>
       <r>   -4.5476    1.0000 </r>
       <r>   -0.8801    0.0000 </r>
       <r>   -0.0813    0.0000 </r>
       <r>   -0.0157    0.0000 </r>
       <r>    0.0430    0.0000 </r>
       <r>    0.3858    0.0000 </r>
       <r>    1.2042    0.0000 </r>
       <r>    1.6717    0.0000 </r>
       <r>    1.7654    0.0000 </r>
       <r>    1.8264    0.0000 </r>
       <r>    1.8527    0.0000 </r>
       <r>    1.9039    0.0000 </r>
      </set>
      <set comment="kpoint 206">
       <r>  -13.2075    1.0000 </r>
       <r>  -12.5176    1.0000 </r>
       <r>  -12.2363    1.0000 </r>
       <r>  -11.6877    1.0000 </r>
       <r>  -11.0299    1.0000 </r>
       <r>  -10.7674    1.0000 </r>
       <r>  -10.2119    1.0000 </r>
       <r>   -9.6887    1.0000 </r>
       <r>   -9.0405    1.0000 </r>
       <r>   -8.6848    1.0000 </r>
       <r>   -8.3480    1.0000 </r>
       <r>   -7.7291    1.0000 </r>
       <r>   -7.4987    1.0000 </r>
       <r>   -6.4762    1.0000 </r>
       <r>   -6.4586    1.0000 </r>
       <r>   -5.5979    1.0000 </r>
       <r>   -4.8468    1.0000 </r>
       <r>   -0.5990    0.0000 </r>
       <r>   -0.0906    0.0000 </r>
       <r>   -0.0550    0.0000 </r>
       <r>    0.0208    0.0000 </r>
       <r>    0.2518    0.0000 </r>
       <r>    1.1892    0.0000 </r>
       <r>    1.6497    0.0000 </r>
       <r>    1.7500    0.0000 </r>
       <r>    1.8036    0.0000 </r>
       <r>    1.8116    0.0000 </r>
       <r>    2.0369    0.0000 </r>
      </set>
      <set comment="kpoint 207">
       <r>  -13.2131    1.0000 </r>
       <r>  -12.4195    1.0000 </r>
       <r>  -12.3454    1.0000 </r>
       <r>  -11.6931    1.0000 </r>
       <r>  -10.9379    1.0000 </r>
       <r>  -10.8687    1.0000 </r>
       <r>  -10.0218    1.0000 </r>
       <r>   -9.8837    1.0000 </r>
       <r>   -8.9036    1.0000 </r>
       <r>   -8.8091    1.0000 </r>
       <r>   -8.3533    1.0000 </r>
       <r>   -7.6471    1.0000 </r>
       <r>   -7.5863    1.0000 </r>
       <r>   -6.4573    1.0000 </r>
       <r>   -6.4526    1.0000 </r>
       <r>   -5.3338    1.0000 </r>
       <r>   -5.1352    1.0000 </r>
       <r>   -0.3546    0.0000 </r>
       <r>   -0.2094    0.0000 </r>
       <r>   -0.0949    0.0000 </r>
       <r>    0.0830    0.0000 </r>
       <r>    0.1439    0.0000 </r>
       <r>    1.1824    0.0000 </r>
       <r>    1.6655    0.0000 </r>
       <r>    1.7056    0.0000 </r>
       <r>    1.7429    0.0000 </r>
       <r>    1.8047    0.0000 </r>
       <r>    2.0878    0.0000 </r>
      </set>
      <set comment="kpoint 208">
       <r>  -13.2122    1.0000 </r>
       <r>  -12.4480    1.0000 </r>
       <r>  -12.3150    1.0000 </r>
       <r>  -11.6922    1.0000 </r>
       <r>  -10.9646    1.0000 </r>
       <r>  -10.8405    1.0000 </r>
       <r>  -10.0762    1.0000 </r>
       <r>   -9.8285    1.0000 </r>
       <r>   -8.9419    1.0000 </r>
       <r>   -8.7728    1.0000 </r>
       <r>   -8.3524    1.0000 </r>
       <r>   -7.6708    1.0000 </r>
       <r>   -7.5617    1.0000 </r>
       <r>   -6.4612    1.0000 </r>
       <r>   -6.4528    1.0000 </r>
       <r>   -5.4105    1.0000 </r>
       <r>   -5.0545    1.0000 </r>
       <r>   -0.4196    0.0000 </r>
       <r>   -0.1596    0.0000 </r>
       <r>   -0.0942    0.0000 </r>
       <r>    0.0627    0.0000 </r>
       <r>    0.1718    0.0000 </r>
       <r>    1.1835    0.0000 </r>
       <r>    1.6566    0.0000 </r>
       <r>    1.7286    0.0000 </r>
       <r>    1.7441    0.0000 </r>
       <r>    1.8059    0.0000 </r>
       <r>    2.0890    0.0000 </r>
      </set>
      <set comment="kpoint 209">
       <r>  -13.2047    1.0000 </r>
       <r>  -12.5443    1.0000 </r>
       <r>  -12.2042    1.0000 </r>
       <r>  -11.6851    1.0000 </r>
       <r>  -11.0550    1.0000 </r>
       <r>  -10.7376    1.0000 </r>
       <r>  -10.2652    1.0000 </r>
       <r>   -9.6330    1.0000 </r>
       <r>   -9.0801    1.0000 </r>
       <r>   -8.6516    1.0000 </r>
       <r>   -8.3454    1.0000 </r>
       <r>   -7.7518    1.0000 </r>
       <r>   -7.4733    1.0000 </r>
       <r>   -6.4842    1.0000 </r>
       <r>   -6.4628    1.0000 </r>
       <r>   -5.6696    1.0000 </r>
       <r>   -4.7629    1.0000 </r>
       <r>   -0.6758    0.0000 </r>
       <r>   -0.0884    0.0000 </r>
       <r>   -0.0215    0.0000 </r>
       <r>    0.0080    0.0000 </r>
       <r>    0.2872    0.0000 </r>
       <r>    1.1927    0.0000 </r>
       <r>    1.6527    0.0000 </r>
       <r>    1.7536    0.0000 </r>
       <r>    1.8150    0.0000 </r>
       <r>    1.8388    0.0000 </r>
       <r>    1.9846    0.0000 </r>
      </set>
      <set comment="kpoint 210">
       <r>  -13.1908    1.0000 </r>
       <r>  -12.6341    1.0000 </r>
       <r>  -12.0870    1.0000 </r>
       <r>  -11.6716    1.0000 </r>
       <r>  -11.1397    1.0000 </r>
       <r>  -10.6296    1.0000 </r>
       <r>  -10.4500    1.0000 </r>
       <r>   -9.4368    1.0000 </r>
       <r>   -9.2213    1.0000 </r>
       <r>   -8.5447    1.0000 </r>
       <r>   -8.3323    1.0000 </r>
       <r>   -7.8287    1.0000 </r>
       <r>   -7.3826    1.0000 </r>
       <r>   -6.5208    1.0000 </r>
       <r>   -6.4868    1.0000 </r>
       <r>   -5.9076    1.0000 </r>
       <r>   -4.4609    1.0000 </r>
       <r>   -0.9650    0.0000 </r>
       <r>   -0.0779    0.0000 </r>
       <r>   -0.0217    0.0000 </r>
       <r>    0.0617    0.0000 </r>
       <r>    0.4284    0.0000 </r>
       <r>    1.2099    0.0000 </r>
       <r>    1.6834    0.0000 </r>
       <r>    1.7713    0.0000 </r>
       <r>    1.8010    0.0000 </r>
       <r>    1.8321    0.0000 </r>
       <r>    1.8833    0.0000 </r>
      </set>
      <set comment="kpoint 211">
       <r>  -13.1704    1.0000 </r>
       <r>  -12.7175    1.0000 </r>
       <r>  -11.9635    1.0000 </r>
       <r>  -11.6519    1.0000 </r>
       <r>  -11.2186    1.0000 </r>
       <r>  -10.6302    1.0000 </r>
       <r>  -10.5165    1.0000 </r>
       <r>   -9.3637    1.0000 </r>
       <r>   -9.2421    1.0000 </r>
       <r>   -8.4585    1.0000 </r>
       <r>   -8.3131    1.0000 </r>
       <r>   -7.9013    1.0000 </r>
       <r>   -7.2902    1.0000 </r>
       <r>   -6.5698    1.0000 </r>
       <r>   -6.5234    1.0000 </r>
       <r>   -6.1178    1.0000 </r>
       <r>   -4.1504    1.0000 </r>
       <r>   -1.2761    0.0000 </r>
       <r>   -0.0626    0.0000 </r>
       <r>   -0.0291    0.0000 </r>
       <r>    0.1012    0.0000 </r>
       <r>    0.5938    0.0000 </r>
       <r>    1.2351    0.0000 </r>
       <r>    1.6254    0.0000 </r>
       <r>    1.7370    0.0000 </r>
       <r>    1.7875    0.0000 </r>
       <r>    1.7974    0.0000 </r>
       <r>    1.8571    0.0000 </r>
      </set>
      <set comment="kpoint 212">
       <r>  -13.1434    1.0000 </r>
       <r>  -12.7945    1.0000 </r>
       <r>  -11.8337    1.0000 </r>
       <r>  -11.6259    1.0000 </r>
       <r>  -11.2916    1.0000 </r>
       <r>  -10.8053    1.0000 </r>
       <r>  -10.3986    1.0000 </r>
       <r>   -9.5060    1.0000 </r>
       <r>   -9.0520    1.0000 </r>
       <r>   -8.4014    1.0000 </r>
       <r>   -8.2879    1.0000 </r>
       <r>   -7.9693    1.0000 </r>
       <r>   -7.1970    1.0000 </r>
       <r>   -6.6299    1.0000 </r>
       <r>   -6.5713    1.0000 </r>
       <r>   -6.2903    1.0000 </r>
       <r>   -3.8324    1.0000 </r>
       <r>   -1.6007    0.0000 </r>
       <r>   -0.0431    0.0000 </r>
       <r>   -0.0190    0.0000 </r>
       <r>    0.1104    0.0000 </r>
       <r>    0.7813    0.0000 </r>
       <r>    1.2683    0.0000 </r>
       <r>    1.4667    0.0000 </r>
       <r>    1.6951    0.0000 </r>
       <r>    1.7998    0.0000 </r>
       <r>    1.8318    0.0000 </r>
       <r>    1.8899    0.0000 </r>
      </set>
      <set comment="kpoint 213">
       <r>  -13.1100    1.0000 </r>
       <r>  -12.8649    1.0000 </r>
       <r>  -11.6978    1.0000 </r>
       <r>  -11.5937    1.0000 </r>
       <r>  -11.3588    1.0000 </r>
       <r>  -10.9751    1.0000 </r>
       <r>  -10.2761    1.0000 </r>
       <r>   -9.6471    1.0000 </r>
       <r>   -8.8712    1.0000 </r>
       <r>   -8.3825    1.0000 </r>
       <r>   -8.2567    1.0000 </r>
       <r>   -8.0323    1.0000 </r>
       <r>   -7.1037    1.0000 </r>
       <r>   -6.6992    1.0000 </r>
       <r>   -6.6271    1.0000 </r>
       <r>   -6.4147    1.0000 </r>
       <r>   -3.5082    1.0000 </r>
       <r>   -1.9329    0.0000 </r>
       <r>   -0.0199    0.0000 </r>
       <r>    0.0016    0.0000 </r>
       <r>    0.1007    0.0000 </r>
       <r>    0.9880    0.0000 </r>
       <r>    1.3095    0.0000 </r>
       <r>    1.3344    0.0000 </r>
       <r>    1.6097    0.0000 </r>
       <r>    1.8424    0.0000 </r>
       <r>    1.8745    0.0000 </r>
       <r>    1.9304    0.0000 </r>
      </set>
      <set comment="kpoint 214">
       <r>  -13.0701    1.0000 </r>
       <r>  -12.9289    1.0000 </r>
       <r>  -11.5556    1.0000 </r>
       <r>  -11.5553    1.0000 </r>
       <r>  -11.4199    1.0000 </r>
       <r>  -11.1392    1.0000 </r>
       <r>  -10.1494    1.0000 </r>
       <r>   -9.7863    1.0000 </r>
       <r>   -8.7065    1.0000 </r>
       <r>   -8.4089    1.0000 </r>
       <r>   -8.2196    1.0000 </r>
       <r>   -8.0901    1.0000 </r>
       <r>   -7.0116    1.0000 </r>
       <r>   -6.7762    1.0000 </r>
       <r>   -6.6787    1.0000 </r>
       <r>   -6.4888    1.0000 </r>
       <r>   -3.1788    1.0000 </r>
       <r>   -2.2687    0.0000 </r>
       <r>    0.0062    0.0000 </r>
       <r>    0.0235    0.0000 </r>
       <r>    0.0801    0.0000 </r>
       <r>    1.2097    0.0000 </r>
       <r>    1.2393    0.0000 </r>
       <r>    1.3586    0.0000 </r>
       <r>    1.5316    0.0000 </r>
       <r>    1.7847    0.0000 </r>
       <r>    1.9255    0.0000 </r>
       <r>    1.9781    0.0000 </r>
      </set>
      <set comment="kpoint 215">
       <r>  -13.0237    1.0000 </r>
       <r>  -12.9865    1.0000 </r>
       <r>  -11.5107    1.0000 </r>
       <r>  -11.4750    1.0000 </r>
       <r>  -11.4074    1.0000 </r>
       <r>  -11.2976    1.0000 </r>
       <r>  -10.0186    1.0000 </r>
       <r>   -9.9228    1.0000 </r>
       <r>   -8.5696    1.0000 </r>
       <r>   -8.4798    1.0000 </r>
       <r>   -8.1767    1.0000 </r>
       <r>   -8.1426    1.0000 </r>
       <r>   -6.9216    1.0000 </r>
       <r>   -6.8593    1.0000 </r>
       <r>   -6.7074    1.0000 </r>
       <r>   -6.5204    1.0000 </r>
       <r>   -2.8455    0.0000 </r>
       <r>   -2.6053    0.0000 </r>
       <r>    0.0340    0.0000 </r>
       <r>    0.0365    0.0000 </r>
       <r>    0.0540    0.0000 </r>
       <r>    1.1923    0.0000 </r>
       <r>    1.4156    0.0000 </r>
       <r>    1.4396    0.0000 </r>
       <r>    1.4612    0.0000 </r>
       <r>    1.6005    0.0000 </r>
       <r>    1.9853    0.0000 </r>
       <r>    2.0324    0.0000 </r>
      </set>
      <set comment="kpoint 216">
       <r>  -13.0375    1.0000 </r>
       <r>  -12.9708    1.0000 </r>
       <r>  -11.5240    1.0000 </r>
       <r>  -11.4600    1.0000 </r>
       <r>  -11.4501    1.0000 </r>
       <r>  -11.2532    1.0000 </r>
       <r>  -10.0562    1.0000 </r>
       <r>   -9.8844    1.0000 </r>
       <r>   -8.6043    1.0000 </r>
       <r>   -8.4561    1.0000 </r>
       <r>   -8.1895    1.0000 </r>
       <r>   -8.1282    1.0000 </r>
       <r>   -6.9469    1.0000 </r>
       <r>   -6.8351    1.0000 </r>
       <r>   -6.7024    1.0000 </r>
       <r>   -6.5153    1.0000 </r>
       <r>   -2.9405    0.0000 </r>
       <r>   -2.5097    0.0000 </r>
       <r>    0.0261    0.0000 </r>
       <r>    0.0342    0.0000 </r>
       <r>    0.0617    0.0000 </r>
       <r>    1.2002    0.0000 </r>
       <r>    1.3742    0.0000 </r>
       <r>    1.3986    0.0000 </r>
       <r>    1.4805    0.0000 </r>
       <r>    1.6602    0.0000 </r>
       <r>    1.9671    0.0000 </r>
       <r>    2.0164    0.0000 </r>
      </set>
      <set comment="kpoint 217">
       <r>  -13.0821    1.0000 </r>
       <r>  -12.9114    1.0000 </r>
       <r>  -11.5966    1.0000 </r>
       <r>  -11.5668    1.0000 </r>
       <r>  -11.4032    1.0000 </r>
       <r>  -11.0932    1.0000 </r>
       <r>  -10.1858    1.0000 </r>
       <r>   -9.7470    1.0000 </r>
       <r>   -8.7511    1.0000 </r>
       <r>   -8.3966    1.0000 </r>
       <r>   -8.2307    1.0000 </r>
       <r>   -8.0742    1.0000 </r>
       <r>   -7.0376    1.0000 </r>
       <r>   -6.7536    1.0000 </r>
       <r>   -6.6656    1.0000 </r>
       <r>   -6.4725    1.0000 </r>
       <r>   -3.2728    1.0000 </r>
       <r>   -2.1731    0.0000 </r>
       <r>   -0.0014    0.0000 </r>
       <r>    0.0177    0.0000 </r>
       <r>    0.0866    0.0000 </r>
       <r>    1.1456    0.0000 </r>
       <r>    1.2619    0.0000 </r>
       <r>    1.3438    0.0000 </r>
       <r>    1.5530    0.0000 </r>
       <r>    1.8168    0.0000 </r>
       <r>    1.9102    0.0000 </r>
       <r>    1.9638    0.0000 </r>
      </set>
      <set comment="kpoint 218">
       <r>  -13.0357    1.0000 </r>
       <r>  -12.8042    1.0000 </r>
       <r>  -11.6123    1.0000 </r>
       <r>  -11.5155    1.0000 </r>
       <r>  -11.2939    1.0000 </r>
       <r>  -10.9300    1.0000 </r>
       <r>  -10.1903    1.0000 </r>
       <r>   -9.5975    1.0000 </r>
       <r>   -8.7922    1.0000 </r>
       <r>   -8.3301    1.0000 </r>
       <r>   -8.1575    1.0000 </r>
       <r>   -7.9453    1.0000 </r>
       <r>   -6.9982    1.0000 </r>
       <r>   -6.6159    1.0000 </r>
       <r>   -6.5414    1.0000 </r>
       <r>   -6.3321    1.0000 </r>
       <r>   -3.3830    1.0000 </r>
       <r>   -1.8905    0.0000 </r>
       <r>    0.0590    0.0000 </r>
       <r>    0.0782    0.0000 </r>
       <r>    0.1771    0.0000 </r>
       <r>    1.0751    0.0000 </r>
       <r>    1.3843    0.0000 </r>
       <r>    1.4116    0.0000 </r>
       <r>    1.6950    0.0000 </r>
       <r>    1.8916    0.0000 </r>
       <r>    1.9801    0.0000 </r>
       <r>    2.0346    0.0000 </r>
      </set>
      <set comment="kpoint 219">
       <r>  -13.0699    1.0000 </r>
       <r>  -12.7346    1.0000 </r>
       <r>  -11.7488    1.0000 </r>
       <r>  -11.5485    1.0000 </r>
       <r>  -11.2277    1.0000 </r>
       <r>  -10.7613    1.0000 </r>
       <r>  -10.3129    1.0000 </r>
       <r>   -9.4572    1.0000 </r>
       <r>   -8.9698    1.0000 </r>
       <r>   -8.3422    1.0000 </r>
       <r>   -8.1894    1.0000 </r>
       <r>   -7.8830    1.0000 </r>
       <r>   -7.0912    1.0000 </r>
       <r>   -6.5457    1.0000 </r>
       <r>   -6.4862    1.0000 </r>
       <r>   -6.2158    1.0000 </r>
       <r>   -3.7079    1.0000 </r>
       <r>   -1.5567    0.0000 </r>
       <r>    0.0351    0.0000 </r>
       <r>    0.0559    0.0000 </r>
       <r>    0.1901    0.0000 </r>
       <r>    0.8674    0.0000 </r>
       <r>    1.3695    0.0000 </r>
       <r>    1.5115    0.0000 </r>
       <r>    1.7793    0.0000 </r>
       <r>    1.8531    0.0000 </r>
       <r>    1.9363    0.0000 </r>
       <r>    1.9932    0.0000 </r>
      </set>
      <set comment="kpoint 220">
       <r>  -13.0976    1.0000 </r>
       <r>  -12.6586    1.0000 </r>
       <r>  -11.8792    1.0000 </r>
       <r>  -11.5752    1.0000 </r>
       <r>  -11.1556    1.0000 </r>
       <r>  -10.5873    1.0000 </r>
       <r>  -10.4311    1.0000 </r>
       <r>   -9.3157    1.0000 </r>
       <r>   -9.1576    1.0000 </r>
       <r>   -8.3931    1.0000 </r>
       <r>   -8.2154    1.0000 </r>
       <r>   -7.8157    1.0000 </r>
       <r>   -7.1843    1.0000 </r>
       <r>   -6.4847    1.0000 </r>
       <r>   -6.4376    1.0000 </r>
       <r>   -6.0508    1.0000 </r>
       <r>   -4.0266    1.0000 </r>
       <r>   -1.2297    0.0000 </r>
       <r>    0.0150    0.0000 </r>
       <r>    0.0429    0.0000 </r>
       <r>    0.1860    0.0000 </r>
       <r>    0.6785    0.0000 </r>
       <r>    1.3353    0.0000 </r>
       <r>    1.6658    0.0000 </r>
       <r>    1.7905    0.0000 </r>
       <r>    1.8706    0.0000 </r>
       <r>    1.9009    0.0000 </r>
       <r>    1.9594    0.0000 </r>
      </set>
      <set comment="kpoint 221">
       <r>  -13.1188    1.0000 </r>
       <r>  -12.5761    1.0000 </r>
       <r>  -12.0033    1.0000 </r>
       <r>  -11.5957    1.0000 </r>
       <r>  -11.0776    1.0000 </r>
       <r>  -10.5444    1.0000 </r>
       <r>  -10.4082    1.0000 </r>
       <r>   -9.3507    1.0000 </r>
       <r>   -9.1741    1.0000 </r>
       <r>   -8.4742    1.0000 </r>
       <r>   -8.2354    1.0000 </r>
       <r>   -7.7437    1.0000 </r>
       <r>   -7.2768    1.0000 </r>
       <r>   -6.4345    1.0000 </r>
       <r>   -6.3997    1.0000 </r>
       <r>   -5.8468    1.0000 </r>
       <r>   -4.3379    1.0000 </r>
       <r>   -0.9153    0.0000 </r>
       <r>   -0.0009    0.0000 </r>
       <r>    0.0466    0.0000 </r>
       <r>    0.1536    0.0000 </r>
       <r>    0.5114    0.0000 </r>
       <r>    1.3091    0.0000 </r>
       <r>    1.7357    0.0000 </r>
       <r>    1.8373    0.0000 </r>
       <r>    1.8737    0.0000 </r>
       <r>    1.9334    0.0000 </r>
       <r>    1.9658    0.0000 </r>
      </set>
      <set comment="kpoint 222">
       <r>  -13.1336    1.0000 </r>
       <r>  -12.4872    1.0000 </r>
       <r>  -12.1211    1.0000 </r>
       <r>  -11.6099    1.0000 </r>
       <r>  -10.9939    1.0000 </r>
       <r>  -10.6528    1.0000 </r>
       <r>  -10.2245    1.0000 </r>
       <r>   -9.5458    1.0000 </r>
       <r>   -9.0336    1.0000 </r>
       <r>   -8.5771    1.0000 </r>
       <r>   -8.2492    1.0000 </r>
       <r>   -7.6673    1.0000 </r>
       <r>   -7.3676    1.0000 </r>
       <r>   -6.3965    1.0000 </r>
       <r>   -6.3742    1.0000 </r>
       <r>   -5.6135    1.0000 </r>
       <r>   -4.6405    1.0000 </r>
       <r>   -0.6216    0.0000 </r>
       <r>   -0.0122    0.0000 </r>
       <r>    0.0719    0.0000 </r>
       <r>    0.0793    0.0000 </r>
       <r>    0.3684    0.0000 </r>
       <r>    1.2909    0.0000 </r>
       <r>    1.7028    0.0000 </r>
       <r>    1.8549    0.0000 </r>
       <r>    1.9152    0.0000 </r>
       <r>    1.9204    0.0000 </r>
       <r>    2.0169    0.0000 </r>
      </set>
      <set comment="kpoint 223">
       <r>  -13.1418    1.0000 </r>
       <r>  -12.3919    1.0000 </r>
       <r>  -12.2326    1.0000 </r>
       <r>  -11.6178    1.0000 </r>
       <r>  -10.9045    1.0000 </r>
       <r>  -10.7560    1.0000 </r>
       <r>  -10.0366    1.0000 </r>
       <r>   -9.7406    1.0000 </r>
       <r>   -8.8960    1.0000 </r>
       <r>   -8.6952    1.0000 </r>
       <r>   -8.2570    1.0000 </r>
       <r>   -7.5869    1.0000 </r>
       <r>   -7.4562    1.0000 </r>
       <r>   -6.3720    1.0000 </r>
       <r>   -6.3623    1.0000 </r>
       <r>   -5.3582    1.0000 </r>
       <r>   -4.9328    1.0000 </r>
       <r>   -0.3598    0.0000 </r>
       <r>   -0.0493    0.0000 </r>
       <r>   -0.0186    0.0000 </r>
       <r>    0.1220    0.0000 </r>
       <r>    0.2509    0.0000 </r>
       <r>    1.2808    0.0000 </r>
       <r>    1.7040    0.0000 </r>
       <r>    1.7975    0.0000 </r>
       <r>    1.8443    0.0000 </r>
       <r>    1.9051    0.0000 </r>
       <r>    2.1889    0.0000 </r>
      </set>
      <set comment="kpoint 224">
       <r>  -13.1436    1.0000 </r>
       <r>  -12.3378    1.0000 </r>
       <r>  -12.2902    1.0000 </r>
       <r>  -11.6195    1.0000 </r>
       <r>  -10.8539    1.0000 </r>
       <r>  -10.8096    1.0000 </r>
       <r>   -9.9335    1.0000 </r>
       <r>   -9.8452    1.0000 </r>
       <r>   -8.8236    1.0000 </r>
       <r>   -8.7636    1.0000 </r>
       <r>   -8.2587    1.0000 </r>
       <r>   -7.5420    1.0000 </r>
       <r>   -7.5029    1.0000 </r>
       <r>   -6.3647    1.0000 </r>
       <r>   -6.3618    1.0000 </r>
       <r>   -5.2129    1.0000 </r>
       <r>   -5.0858    1.0000 </r>
       <r>   -0.2364    0.0000 </r>
       <r>   -0.1432    0.0000 </r>
       <r>   -0.0199    0.0000 </r>
       <r>    0.1600    0.0000 </r>
       <r>    0.1984    0.0000 </r>
       <r>    1.2786    0.0000 </r>
       <r>    1.7230    0.0000 </r>
       <r>    1.7507    0.0000 </r>
       <r>    1.8421    0.0000 </r>
       <r>    1.9029    0.0000 </r>
       <r>    2.1866    0.0000 </r>
      </set>
      <set comment="kpoint 225">
       <r>  -13.1388    1.0000 </r>
       <r>  -12.4365    1.0000 </r>
       <r>  -12.1821    1.0000 </r>
       <r>  -11.6150    1.0000 </r>
       <r>  -10.9463    1.0000 </r>
       <r>  -10.7092    1.0000 </r>
       <r>  -10.1234    1.0000 </r>
       <r>   -9.6512    1.0000 </r>
       <r>   -8.9588    1.0000 </r>
       <r>   -8.6393    1.0000 </r>
       <r>   -8.2542    1.0000 </r>
       <r>   -7.6244    1.0000 </r>
       <r>   -7.4158    1.0000 </r>
       <r>   -6.3816    1.0000 </r>
       <r>   -6.3660    1.0000 </r>
       <r>   -5.4779    1.0000 </r>
       <r>   -4.7998    1.0000 </r>
       <r>   -0.4754    0.0000 </r>
       <r>   -0.0163    0.0000 </r>
       <r>    0.0172    0.0000 </r>
       <r>    0.0958    0.0000 </r>
       <r>    0.3016    0.0000 </r>
       <r>    1.2844    0.0000 </r>
       <r>    1.6985    0.0000 </r>
       <r>    1.8482    0.0000 </r>
       <r>    1.8488    0.0000 </r>
       <r>    1.9088    0.0000 </r>
       <r>    2.1139    0.0000 </r>
      </set>
      <set comment="kpoint 226">
       <r>  -13.1276    1.0000 </r>
       <r>  -12.5289    1.0000 </r>
       <r>  -12.0677    1.0000 </r>
       <r>  -11.6041    1.0000 </r>
       <r>  -11.0331    1.0000 </r>
       <r>  -10.6036    1.0000 </r>
       <r>  -10.3095    1.0000 </r>
       <r>   -9.4560    1.0000 </r>
       <r>   -9.0979    1.0000 </r>
       <r>   -8.5275    1.0000 </r>
       <r>   -8.2436    1.0000 </r>
       <r>   -7.7030    1.0000 </r>
       <r>   -7.3260    1.0000 </r>
       <r>   -6.4124    1.0000 </r>
       <r>   -6.3842    1.0000 </r>
       <r>   -5.7238    1.0000 </r>
       <r>   -4.5025    1.0000 </r>
       <r>   -0.7535    0.0000 </r>
       <r>   -0.0076    0.0000 </r>
       <r>    0.0574    0.0000 </r>
       <r>    0.1197    0.0000 </r>
       <r>    0.4310    0.0000 </r>
       <r>    1.2983    0.0000 </r>
       <r>    1.7145    0.0000 </r>
       <r>    1.8625    0.0000 </r>
       <r>    1.9226    0.0000 </r>
       <r>    1.9339    0.0000 </r>
       <r>    1.9814    0.0000 </r>
      </set>
      <set comment="kpoint 227">
       <r>  -13.1099    1.0000 </r>
       <r>  -12.6148    1.0000 </r>
       <r>  -11.9470    1.0000 </r>
       <r>  -11.5870    1.0000 </r>
       <r>  -11.1142    1.0000 </r>
       <r>  -10.4929    1.0000 </r>
       <r>  -10.4912    1.0000 </r>
       <r>   -9.2615    1.0000 </r>
       <r>   -9.2391    1.0000 </r>
       <r>   -8.4337    1.0000 </r>
       <r>   -8.2269    1.0000 </r>
       <r>   -7.7774    1.0000 </r>
       <r>   -7.2344    1.0000 </r>
       <r>   -6.4562    1.0000 </r>
       <r>   -6.4156    1.0000 </r>
       <r>   -5.9447    1.0000 </r>
       <r>   -4.1958    1.0000 </r>
       <r>   -1.0579    0.0000 </r>
       <r>    0.0058    0.0000 </r>
       <r>    0.0425    0.0000 </r>
       <r>    0.1729    0.0000 </r>
       <r>    0.5853    0.0000 </r>
       <r>    1.3202    0.0000 </r>
       <r>    1.7569    0.0000 </r>
       <r>    1.7590    0.0000 </r>
       <r>    1.8852    0.0000 </r>
       <r>    1.9221    0.0000 </r>
       <r>    1.9444    0.0000 </r>
      </set>
      <set comment="kpoint 228">
       <r>  -13.0857    1.0000 </r>
       <r>  -12.6943    1.0000 </r>
       <r>  -11.8200    1.0000 </r>
       <r>  -11.5637    1.0000 </r>
       <r>  -11.1895    1.0000 </r>
       <r>  -10.6680    1.0000 </r>
       <r>  -10.3773    1.0000 </r>
       <r>   -9.3809    1.0000 </r>
       <r>   -9.0703    1.0000 </r>
       <r>   -8.3654    1.0000 </r>
       <r>   -8.2042    1.0000 </r>
       <r>   -7.8473    1.0000 </r>
       <r>   -7.1415    1.0000 </r>
       <r>   -6.5116    1.0000 </r>
       <r>   -6.4587    1.0000 </r>
       <r>   -6.1321    1.0000 </r>
       <r>   -3.8809    1.0000 </r>
       <r>   -1.3789    0.0000 </r>
       <r>    0.0237    0.0000 </r>
       <r>    0.0472    0.0000 </r>
       <r>    0.1907    0.0000 </r>
       <r>    0.7628    0.0000 </r>
       <r>    1.3501    0.0000 </r>
       <r>    1.5921    0.0000 </r>
       <r>    1.8196    0.0000 </r>
       <r>    1.8278    0.0000 </r>
       <r>    1.9161    0.0000 </r>
       <r>    1.9740    0.0000 </r>
      </set>
      <set comment="kpoint 229">
       <r>  -13.0550    1.0000 </r>
       <r>  -12.7674    1.0000 </r>
       <r>  -11.6868    1.0000 </r>
       <r>  -11.5341    1.0000 </r>
       <r>  -11.2589    1.0000 </r>
       <r>  -10.8396    1.0000 </r>
       <r>  -10.2571    1.0000 </r>
       <r>   -9.5219    1.0000 </r>
       <r>   -8.8865    1.0000 </r>
       <r>   -8.3313    1.0000 </r>
       <r>   -8.1754    1.0000 </r>
       <r>   -7.9123    1.0000 </r>
       <r>   -7.0483    1.0000 </r>
       <r>   -6.5770    1.0000 </r>
       <r>   -6.5113    1.0000 </r>
       <r>   -6.2756    1.0000 </r>
       <r>   -3.5592    1.0000 </r>
       <r>   -1.7096    0.0000 </r>
       <r>    0.0457    0.0000 </r>
       <r>    0.0655    0.0000 </r>
       <r>    0.1858    0.0000 </r>
       <r>    0.9607    0.0000 </r>
       <r>    1.3879    0.0000 </r>
       <r>    1.4490    0.0000 </r>
       <r>    1.7397    0.0000 </r>
       <r>    1.8774    0.0000 </r>
       <r>    1.9554    0.0000 </r>
       <r>    2.0113    0.0000 </r>
      </set>
      <set comment="kpoint 230">
       <r>  -13.0178    1.0000 </r>
       <r>  -12.8340    1.0000 </r>
       <r>  -11.5474    1.0000 </r>
       <r>  -11.4983    1.0000 </r>
       <r>  -11.3224    1.0000 </r>
       <r>  -11.0057    1.0000 </r>
       <r>  -10.1324    1.0000 </r>
       <r>   -9.6614    1.0000 </r>
       <r>   -8.7157    1.0000 </r>
       <r>   -8.3396    1.0000 </r>
       <r>   -8.1408    1.0000 </r>
       <r>   -7.9722    1.0000 </r>
       <r>   -6.9557    1.0000 </r>
       <r>   -6.6508    1.0000 </r>
       <r>   -6.5657    1.0000 </r>
       <r>   -6.3687    1.0000 </r>
       <r>   -3.2318    1.0000 </r>
       <r>   -2.0452    0.0000 </r>
       <r>    0.0710    0.0000 </r>
       <r>    0.0890    0.0000 </r>
       <r>    0.1675    0.0000 </r>
       <r>    1.1758    0.0000 </r>
       <r>    1.3379    0.0000 </r>
       <r>    1.4337    0.0000 </r>
       <r>    1.6587    0.0000 </r>
       <r>    1.8786    0.0000 </r>
       <r>    2.0030    0.0000 </r>
       <r>    2.0561    0.0000 </r>
      </set>
      <set comment="kpoint 231">
       <r>  -12.9741    1.0000 </r>
       <r>  -12.8941    1.0000 </r>
       <r>  -11.4564    1.0000 </r>
       <r>  -11.4019    1.0000 </r>
       <r>  -11.3798    1.0000 </r>
       <r>  -11.1662    1.0000 </r>
       <r>  -10.0038    1.0000 </r>
       <r>   -9.7985    1.0000 </r>
       <r>   -8.5666    1.0000 </r>
       <r>   -8.3935    1.0000 </r>
       <r>   -8.1003    1.0000 </r>
       <r>   -8.0269    1.0000 </r>
       <r>   -6.8649    1.0000 </r>
       <r>   -6.7313    1.0000 </r>
       <r>   -6.6051    1.0000 </r>
       <r>   -6.4162    1.0000 </r>
       <r>   -2.8997    0.0000 </r>
       <r>   -2.3824    0.0000 </r>
       <r>    0.0986    0.0000 </r>
       <r>    0.1073    0.0000 </r>
       <r>    0.1422    0.0000 </r>
       <r>    1.2702    0.0000 </r>
       <r>    1.4025    0.0000 </r>
       <r>    1.4874    0.0000 </r>
       <r>    1.5853    0.0000 </r>
       <r>    1.7419    0.0000 </r>
       <r>    2.0588    0.0000 </r>
       <r>    2.1079    0.0000 </r>
      </set>
      <set comment="kpoint 232">
       <r>  -12.9478    1.0000 </r>
       <r>  -12.9239    1.0000 </r>
       <r>  -11.4312    1.0000 </r>
       <r>  -11.4083    1.0000 </r>
       <r>  -11.3208    1.0000 </r>
       <r>  -11.2505    1.0000 </r>
       <r>   -9.9327    1.0000 </r>
       <r>   -9.8714    1.0000 </r>
       <r>   -8.5020    1.0000 </r>
       <r>   -8.4375    1.0000 </r>
       <r>   -8.0761    1.0000 </r>
       <r>   -8.0541    1.0000 </r>
       <r>   -6.8170    1.0000 </r>
       <r>   -6.7770    1.0000 </r>
       <r>   -6.6143    1.0000 </r>
       <r>   -6.4258    1.0000 </r>
       <r>   -2.7189    0.0000 </r>
       <r>   -2.5644    0.0000 </r>
       <r>    0.1118    0.0000 </r>
       <r>    0.1140    0.0000 </r>
       <r>    0.1271    0.0000 </r>
       <r>    1.2552    0.0000 </r>
       <r>    1.5196    0.0000 </r>
       <r>    1.5263    0.0000 </r>
       <r>    1.5489    0.0000 </r>
       <r>    1.6294    0.0000 </r>
       <r>    2.0925    0.0000 </r>
       <r>    2.1230    0.0000 </r>
      </set>
      <set comment="kpoint 233">
       <r>  -12.9950    1.0000 </r>
       <r>  -12.8673    1.0000 </r>
       <r>  -11.4764    1.0000 </r>
       <r>  -11.4696    1.0000 </r>
       <r>  -11.3541    1.0000 </r>
       <r>  -11.0931    1.0000 </r>
       <r>  -10.0634    1.0000 </r>
       <r>   -9.7358    1.0000 </r>
       <r>   -8.6318    1.0000 </r>
       <r>   -8.3631    1.0000 </r>
       <r>   -8.1196    1.0000 </r>
       <r>   -8.0024    1.0000 </r>
       <r>   -6.9064    1.0000 </r>
       <r>   -6.6935    1.0000 </r>
       <r>   -6.5901    1.0000 </r>
       <r>   -6.3994    1.0000 </r>
       <r>   -3.0529    0.0015 </r>
       <r>   -2.2273    0.0000 </r>
       <r>    0.0857    0.0000 </r>
       <r>    0.1001    0.0000 </r>
       <r>    0.1544    0.0000 </r>
       <r>    1.2953    0.0000 </r>
       <r>    1.2973    0.0000 </r>
       <r>    1.4617    0.0000 </r>
       <r>    1.6182    0.0000 </r>
       <r>    1.8212    0.0000 </r>
       <r>    2.0321    0.0000 </r>
       <r>    2.0833    0.0000 </r>
      </set>
      <set comment="kpoint 234">
       <r>  -12.9451    1.0000 </r>
       <r>  -12.7567    1.0000 </r>
       <r>  -11.4820    1.0000 </r>
       <r>  -11.4215    1.0000 </r>
       <r>  -11.2413    1.0000 </r>
       <r>  -10.9268    1.0000 </r>
       <r>  -10.0642    1.0000 </r>
       <r>   -9.5826    1.0000 </r>
       <r>   -8.6639    1.0000 </r>
       <r>   -8.2823    1.0000 </r>
       <r>   -8.0408    1.0000 </r>
       <r>   -7.8678    1.0000 </r>
       <r>   -6.8597    1.0000 </r>
       <r>   -6.5475    1.0000 </r>
       <r>   -6.4631    1.0000 </r>
       <r>   -6.2631    1.0000 </r>
       <r>   -3.1583    1.0000 </r>
       <r>   -1.9384    0.0000 </r>
       <r>    0.1503    0.0000 </r>
       <r>    0.1668    0.0000 </r>
       <r>    0.2516    0.0000 </r>
       <r>    1.2273    0.0000 </r>
       <r>    1.4098    0.0000 </r>
       <r>    1.5346    0.0000 </r>
       <r>    1.7652    0.0000 </r>
       <r>    1.9348    0.0000 </r>
       <r>    2.1074    0.0000 </r>
       <r>    2.1596    0.0000 </r>
      </set>
      <set comment="kpoint 235">
       <r>  -12.9820    1.0000 </r>
       <r>  -12.6899    1.0000 </r>
       <r>  -11.6208    1.0000 </r>
       <r>  -11.4569    1.0000 </r>
       <r>  -11.1778    1.0000 </r>
       <r>  -10.7608    1.0000 </r>
       <r>  -10.1881    1.0000 </r>
       <r>   -9.4437    1.0000 </r>
       <r>   -8.8337    1.0000 </r>
       <r>   -8.2752    1.0000 </r>
       <r>   -8.0752    1.0000 </r>
       <r>   -7.8077    1.0000 </r>
       <r>   -6.9521    1.0000 </r>
       <r>   -6.4743    1.0000 </r>
       <r>   -6.4095    1.0000 </r>
       <r>   -6.1688    1.0000 </r>
       <r>   -3.4856    1.0000 </r>
       <r>   -1.6020    0.0000 </r>
       <r>    0.1249    0.0000 </r>
       <r>    0.1424    0.0000 </r>
       <r>    0.2709    0.0000 </r>
       <r>    1.0142    0.0000 </r>
       <r>    1.4893    0.0000 </r>
       <r>    1.5219    0.0000 </r>
       <r>    1.8462    0.0000 </r>
       <r>    1.9227    0.0000 </r>
       <r>    2.0602    0.0000 </r>
       <r>    2.1152    0.0000 </r>
      </set>
      <set comment="kpoint 236">
       <r>  -13.0123    1.0000 </r>
       <r>  -12.6166    1.0000 </r>
       <r>  -11.7535    1.0000 </r>
       <r>  -11.4861    1.0000 </r>
       <r>  -11.1083    1.0000 </r>
       <r>  -10.5894    1.0000 </r>
       <r>  -10.3077    1.0000 </r>
       <r>   -9.3034    1.0000 </r>
       <r>   -9.0164    1.0000 </r>
       <r>   -8.3093    1.0000 </r>
       <r>   -8.1036    1.0000 </r>
       <r>   -7.7425    1.0000 </r>
       <r>   -7.0452    1.0000 </r>
       <r>   -6.4097    1.0000 </r>
       <r>   -6.3581    1.0000 </r>
       <r>   -6.0250    1.0000 </r>
       <r>   -3.8068    1.0000 </r>
       <r>   -1.2706    0.0000 </r>
       <r>    0.1030    0.0000 </r>
       <r>    0.1234    0.0000 </r>
       <r>    0.2770    0.0000 </r>
       <r>    0.8185    0.0000 </r>
       <r>    1.4519    0.0000 </r>
       <r>    1.6647    0.0000 </r>
       <r>    1.8628    0.0000 </r>
       <r>    1.9343    0.0000 </r>
       <r>    2.0213    0.0000 </r>
       <r>    2.0782    0.0000 </r>
      </set>
      <set comment="kpoint 237">
       <r>  -13.0362    1.0000 </r>
       <r>  -12.5369    1.0000 </r>
       <r>  -11.8800    1.0000 </r>
       <r>  -11.5091    1.0000 </r>
       <r>  -11.0329    1.0000 </r>
       <r>  -10.4227    1.0000 </r>
       <r>  -10.4129    1.0000 </r>
       <r>   -9.2064    1.0000 </r>
       <r>   -9.1626    1.0000 </r>
       <r>   -8.3770    1.0000 </r>
       <r>   -8.1261    1.0000 </r>
       <r>   -7.6724    1.0000 </r>
       <r>   -7.1379    1.0000 </r>
       <r>   -6.3552    1.0000 </r>
       <r>   -6.3160    1.0000 </r>
       <r>   -5.8378    1.0000 </r>
       <r>   -4.1210    1.0000 </r>
       <r>   -0.9489    0.0000 </r>
       <r>    0.0852    0.0000 </r>
       <r>    0.1182    0.0000 </r>
       <r>    0.2604    0.0000 </r>
       <r>    0.6436    0.0000 </r>
       <r>    1.4224    0.0000 </r>
       <r>    1.8032    0.0000 </r>
       <r>    1.8279    0.0000 </r>
       <r>    1.9908    0.0000 </r>
       <r>    2.0283    0.0000 </r>
       <r>    2.0489    0.0000 </r>
      </set>
      <set comment="kpoint 238">
       <r>  -13.0536    1.0000 </r>
       <r>  -12.4508    1.0000 </r>
       <r>  -12.0002    1.0000 </r>
       <r>  -11.5258    1.0000 </r>
       <r>  -10.9518    1.0000 </r>
       <r>  -10.5328    1.0000 </r>
       <r>  -10.2316    1.0000 </r>
       <r>   -9.3998    1.0000 </r>
       <r>   -9.0224    1.0000 </r>
       <r>   -8.4699    1.0000 </r>
       <r>   -8.1425    1.0000 </r>
       <r>   -7.5979    1.0000 </r>
       <r>   -7.2293    1.0000 </r>
       <r>   -6.3123    1.0000 </r>
       <r>   -6.2855    1.0000 </r>
       <r>   -5.6175    1.0000 </r>
       <r>   -4.4268    1.0000 </r>
       <r>   -0.6441    0.0000 </r>
       <r>    0.0719    0.0000 </r>
       <r>    0.1328    0.0000 </r>
       <r>    0.2081    0.0000 </r>
       <r>    0.4919    0.0000 </r>
       <r>    1.4010    0.0000 </r>
       <r>    1.7609    0.0000 </r>
       <r>    1.9685    0.0000 </r>
       <r>    2.0017    0.0000 </r>
       <r>    2.0275    0.0000 </r>
       <r>    2.0502    0.0000 </r>
      </set>
      <set comment="kpoint 239">
       <r>  -13.0645    1.0000 </r>
       <r>  -12.3583    1.0000 </r>
       <r>  -12.1141    1.0000 </r>
       <r>  -11.5363    1.0000 </r>
       <r>  -10.8650    1.0000 </r>
       <r>  -10.6378    1.0000 </r>
       <r>  -10.0459    1.0000 </r>
       <r>   -9.5939    1.0000 </r>
       <r>   -8.8845    1.0000 </r>
       <r>   -8.5806    1.0000 </r>
       <r>   -8.1528    1.0000 </r>
       <r>   -7.5192    1.0000 </r>
       <r>   -7.3188    1.0000 </r>
       <r>   -6.2824    1.0000 </r>
       <r>   -6.2679    1.0000 </r>
       <r>   -5.3722    1.0000 </r>
       <r>   -4.7229    1.0000 </r>
       <r>   -0.3666    0.0000 </r>
       <r>    0.0634    0.0000 </r>
       <r>    0.1057    0.0000 </r>
       <r>    0.1709    0.0000 </r>
       <r>    0.3652    0.0000 </r>
       <r>    1.3875    0.0000 </r>
       <r>    1.7486    0.0000 </r>
       <r>    1.9045    0.0000 </r>
       <r>    1.9545    0.0000 </r>
       <r>    2.0141    0.0000 </r>
       <r>    2.2459    0.0000 </r>
      </set>
      <set comment="kpoint 240">
       <r>  -13.0689    1.0000 </r>
       <r>  -12.2594    1.0000 </r>
       <r>  -12.2217    1.0000 </r>
       <r>  -11.5406    1.0000 </r>
       <r>  -10.7726    1.0000 </r>
       <r>  -10.7376    1.0000 </r>
       <r>   -9.8566    1.0000 </r>
       <r>   -9.7868    1.0000 </r>
       <r>   -8.7509    1.0000 </r>
       <r>   -8.7038    1.0000 </r>
       <r>   -8.1569    1.0000 </r>
       <r>   -7.4367    1.0000 </r>
       <r>   -7.4058    1.0000 </r>
       <r>   -6.2665    1.0000 </r>
       <r>   -6.2643    1.0000 </r>
       <r>   -5.1078    1.0000 </r>
       <r>   -5.0074    1.0000 </r>
       <r>   -0.1295    0.0000 </r>
       <r>   -0.0560    0.0000 </r>
       <r>    0.0600    0.0000 </r>
       <r>    0.2349    0.0000 </r>
       <r>    0.2649    0.0000 </r>
       <r>    1.3821    0.0000 </r>
       <r>    1.7785    0.0000 </r>
       <r>    1.8023    0.0000 </r>
       <r>    1.9489    0.0000 </r>
       <r>    2.0086    0.0000 </r>
       <r>    2.2932    0.0000 </r>
      </set>
      <set comment="kpoint 241">
       <r>  -13.0669    1.0000 </r>
       <r>  -12.3230    1.0000 </r>
       <r>  -12.1541    1.0000 </r>
       <r>  -11.5386    1.0000 </r>
       <r>  -10.8320    1.0000 </r>
       <r>  -10.6748    1.0000 </r>
       <r>   -9.9773    1.0000 </r>
       <r>   -9.6644    1.0000 </r>
       <r>   -8.8352    1.0000 </r>
       <r>   -8.6243    1.0000 </r>
       <r>   -8.1550    1.0000 </r>
       <r>   -7.4895    1.0000 </r>
       <r>   -7.3508    1.0000 </r>
       <r>   -6.2750    1.0000 </r>
       <r>   -6.2649    1.0000 </r>
       <r>   -5.2778    1.0000 </r>
       <r>   -4.8281    1.0000 </r>
       <r>   -0.2748    0.0000 </r>
       <r>    0.0539    0.0000 </r>
       <r>    0.0616    0.0000 </r>
       <r>    0.1912    0.0000 </r>
       <r>    0.3255    0.0000 </r>
       <r>    1.3846    0.0000 </r>
       <r>    1.7540    0.0000 </r>
       <r>    1.8609    0.0000 </r>
       <r>    1.9515    0.0000 </r>
       <r>    2.0112    0.0000 </r>
       <r>    2.2956    0.0000 </r>
      </set>
      <set comment="kpoint 242">
       <r>  -13.0583    1.0000 </r>
       <r>  -12.4178    1.0000 </r>
       <r>  -12.0424    1.0000 </r>
       <r>  -11.5304    1.0000 </r>
       <r>  -10.9208    1.0000 </r>
       <r>  -10.5717    1.0000 </r>
       <r>  -10.1644    1.0000 </r>
       <r>   -9.4706    1.0000 </r>
       <r>   -8.9718    1.0000 </r>
       <r>   -8.5085    1.0000 </r>
       <r>   -8.1469    1.0000 </r>
       <r>   -7.5697    1.0000 </r>
       <r>   -7.2622    1.0000 </r>
       <r>   -6.2999    1.0000 </r>
       <r>   -6.2775    1.0000 </r>
       <r>   -5.5306    1.0000 </r>
       <r>   -4.5360    1.0000 </r>
       <r>   -0.5392    0.0000 </r>
       <r>    0.0682    0.0000 </r>
       <r>    0.1439    0.0000 </r>
       <r>    0.1773    0.0000 </r>
       <r>    0.4427    0.0000 </r>
       <r>    1.3952    0.0000 </r>
       <r>    1.7524    0.0000 </r>
       <r>    1.9625    0.0000 </r>
       <r>    1.9944    0.0000 </r>
       <r>    2.0217    0.0000 </r>
       <r>    2.0659    0.0000 </r>
      </set>
      <set comment="kpoint 243">
       <r>  -13.0433    1.0000 </r>
       <r>  -12.5063    1.0000 </r>
       <r>  -11.9245    1.0000 </r>
       <r>  -11.5159    1.0000 </r>
       <r>  -11.0040    1.0000 </r>
       <r>  -10.4634    1.0000 </r>
       <r>  -10.3473    1.0000 </r>
       <r>   -9.2767    1.0000 </r>
       <r>   -9.1113    1.0000 </r>
       <r>   -8.4084    1.0000 </r>
       <r>   -8.1327    1.0000 </r>
       <r>   -7.6458    1.0000 </r>
       <r>   -7.1714    1.0000 </r>
       <r>   -6.3382    1.0000 </r>
       <r>   -6.3034    1.0000 </r>
       <r>   -5.7608    1.0000 </r>
       <r>   -4.2335    1.0000 </r>
       <r>   -0.8354    0.0000 </r>
       <r>    0.0798    0.0000 </r>
       <r>    0.1210    0.0000 </r>
       <r>    0.2463    0.0000 </r>
       <r>    0.5854    0.0000 </r>
       <r>    1.4137    0.0000 </r>
       <r>    1.7852    0.0000 </r>
       <r>    1.8905    0.0000 </r>
       <r>    1.9817    0.0000 </r>
       <r>    2.0402    0.0000 </r>
       <r>    2.0621    0.0000 </r>
      </set>
      <set comment="kpoint 244">
       <r>  -13.0218    1.0000 </r>
       <r>  -12.5883    1.0000 </r>
       <r>  -11.8003    1.0000 </r>
       <r>  -11.4952    1.0000 </r>
       <r>  -11.0815    1.0000 </r>
       <r>  -10.5256    1.0000 </r>
       <r>  -10.3502    1.0000 </r>
       <r>   -9.2521    1.0000 </r>
       <r>   -9.0851    1.0000 </r>
       <r>   -8.3306    1.0000 </r>
       <r>   -8.1125    1.0000 </r>
       <r>   -7.7175    1.0000 </r>
       <r>   -7.0790    1.0000 </r>
       <r>   -6.3886    1.0000 </r>
       <r>   -6.3415    1.0000 </r>
       <r>   -5.9612    1.0000 </r>
       <r>   -3.9222    1.0000 </r>
       <r>   -1.1519    0.0000 </r>
       <r>    0.0960    0.0000 </r>
       <r>    0.1196    0.0000 </r>
       <r>    0.2742    0.0000 </r>
       <r>    0.7521    0.0000 </r>
       <r>    1.4402    0.0000 </r>
       <r>    1.7224    0.0000 </r>
       <r>    1.8399    0.0000 </r>
       <r>    1.9680    0.0000 </r>
       <r>    2.0092    0.0000 </r>
       <r>    2.0666    0.0000 </r>
      </set>
      <set comment="kpoint 245">
       <r>  -12.9938    1.0000 </r>
       <r>  -12.6639    1.0000 </r>
       <r>  -11.6699    1.0000 </r>
       <r>  -11.4683    1.0000 </r>
       <r>  -11.1531    1.0000 </r>
       <r>  -10.6990    1.0000 </r>
       <r>  -10.2322    1.0000 </r>
       <r>   -9.3927    1.0000 </r>
       <r>   -8.8992    1.0000 </r>
       <r>   -8.2832    1.0000 </r>
       <r>   -8.0862    1.0000 </r>
       <r>   -7.7845    1.0000 </r>
       <r>   -6.9860    1.0000 </r>
       <r>   -6.4498    1.0000 </r>
       <r>   -6.3899    1.0000 </r>
       <r>   -6.1220    1.0000 </r>
       <r>   -3.6034    1.0000 </r>
       <r>   -1.4805    0.0000 </r>
       <r>    0.1165    0.0000 </r>
       <r>    0.1344    0.0000 </r>
       <r>    0.2751    0.0000 </r>
       <r>    0.9406    0.0000 </r>
       <r>    1.4747    0.0000 </r>
       <r>    1.5710    0.0000 </r>
       <r>    1.8775    0.0000 </r>
       <r>    1.9026    0.0000 </r>
       <r>    2.0451    0.0000 </r>
       <r>    2.1008    0.0000 </r>
      </set>
      <set comment="kpoint 246">
       <r>  -12.9593    1.0000 </r>
       <r>  -12.7331    1.0000 </r>
       <r>  -11.5333    1.0000 </r>
       <r>  -11.4351    1.0000 </r>
       <r>  -11.2188    1.0000 </r>
       <r>  -10.8670    1.0000 </r>
       <r>  -10.1098    1.0000 </r>
       <r>   -9.5322    1.0000 </r>
       <r>   -8.7239    1.0000 </r>
       <r>   -8.2746    1.0000 </r>
       <r>   -8.0540    1.0000 </r>
       <r>   -7.8465    1.0000 </r>
       <r>   -6.8932    1.0000 </r>
       <r>   -6.5200    1.0000 </r>
       <r>   -6.4442    1.0000 </r>
       <r>   -6.2344    1.0000 </r>
       <r>   -3.2782    1.0000 </r>
       <r>   -1.8155    0.0000 </r>
       <r>    0.1407    0.0000 </r>
       <r>    0.1580    0.0000 </r>
       <r>    0.2597    0.0000 </r>
       <r>    1.1478    0.0000 </r>
       <r>    1.4464    0.0000 </r>
       <r>    1.5172    0.0000 </r>
       <r>    1.7938    0.0000 </r>
       <r>    1.9421    0.0000 </r>
       <r>    2.0892    0.0000 </r>
       <r>    2.1426    0.0000 </r>
      </set>
      <set comment="kpoint 247">
       <r>  -12.9183    1.0000 </r>
       <r>  -12.7958    1.0000 </r>
       <r>  -11.3958    1.0000 </r>
       <r>  -11.3906    1.0000 </r>
       <r>  -11.2786    1.0000 </r>
       <r>  -11.0294    1.0000 </r>
       <r>   -9.9833    1.0000 </r>
       <r>   -9.6697    1.0000 </r>
       <r>   -8.5663    1.0000 </r>
       <r>   -8.3103    1.0000 </r>
       <r>   -8.0160    1.0000 </r>
       <r>   -7.9034    1.0000 </r>
       <r>   -6.8017    1.0000 </r>
       <r>   -6.5977    1.0000 </r>
       <r>   -6.4910    1.0000 </r>
       <r>   -6.2988    1.0000 </r>
       <r>   -2.9478    0.0000 </r>
       <r>   -2.1531    0.0000 </r>
       <r>    0.1679    0.0000 </r>
       <r>    0.1805    0.0000 </r>
       <r>    0.2355    0.0000 </r>
       <r>    1.3600    0.0000 </r>
       <r>    1.3694    0.0000 </r>
       <r>    1.5675    0.0000 </r>
       <r>    1.7175    0.0000 </r>
       <r>    1.8717    0.0000 </r>
       <r>    2.1417    0.0000 </r>
       <r>    2.1916    0.0000 </r>
      </set>
      <set comment="kpoint 248">
       <r>  -12.8709    1.0000 </r>
       <r>  -12.8520    1.0000 </r>
       <r>  -11.3504    1.0000 </r>
       <r>  -11.3323    1.0000 </r>
       <r>  -11.2418    1.0000 </r>
       <r>  -11.1862    1.0000 </r>
       <r>   -9.8529    1.0000 </r>
       <r>   -9.8045    1.0000 </r>
       <r>   -8.4404    1.0000 </r>
       <r>   -8.3852    1.0000 </r>
       <r>   -7.9721    1.0000 </r>
       <r>   -7.9548    1.0000 </r>
       <r>   -6.7127    1.0000 </r>
       <r>   -6.6811    1.0000 </r>
       <r>   -6.5133    1.0000 </r>
       <r>   -6.3232    1.0000 </r>
       <r>   -2.6134    0.0000 </r>
       <r>   -2.4907    0.0000 </r>
       <r>    0.1918    0.0000 </r>
       <r>    0.1967    0.0000 </r>
       <r>    0.2074    0.0000 </r>
       <r>    1.3226    0.0000 </r>
       <r>    1.5974    0.0000 </r>
       <r>    1.6257    0.0000 </r>
       <r>    1.6488    0.0000 </r>
       <r>    1.6789    0.0000 </r>
       <r>    2.2080    0.0000 </r>
       <r>    2.2266    0.0000 </r>
      </set>
      <set comment="kpoint 249">
       <r>  -12.9018    1.0000 </r>
       <r>  -12.8170    1.0000 </r>
       <r>  -11.3800    1.0000 </r>
       <r>  -11.3370    1.0000 </r>
       <r>  -11.2989    1.0000 </r>
       <r>  -11.0872    1.0000 </r>
       <r>   -9.9362    1.0000 </r>
       <r>   -9.7192    1.0000 </r>
       <r>   -8.5152    1.0000 </r>
       <r>   -8.3343    1.0000 </r>
       <r>   -8.0007    1.0000 </r>
       <r>   -7.9227    1.0000 </r>
       <r>   -6.7689    1.0000 </r>
       <r>   -6.6274    1.0000 </r>
       <r>   -6.5027    1.0000 </r>
       <r>   -6.3119    1.0000 </r>
       <r>   -2.8263    0.0000 </r>
       <r>   -2.2763    0.0000 </r>
       <r>    0.1783    0.0000 </r>
       <r>    0.1863    0.0000 </r>
       <r>    0.2255    0.0000 </r>
       <r>    1.3402    0.0000 </r>
       <r>    1.4525    0.0000 </r>
       <r>    1.5878    0.0000 </r>
       <r>    1.6916    0.0000 </r>
       <r>    1.8100    0.0000 </r>
       <r>    2.1629    0.0000 </r>
       <r>    2.2111    0.0000 </r>
      </set>
      <set comment="kpoint 250">
       <r>  -12.8486    1.0000 </r>
       <r>  -12.7031    1.0000 </r>
       <r>  -11.3463    1.0000 </r>
       <r>  -11.3215    1.0000 </r>
       <r>  -11.1826    1.0000 </r>
       <r>  -10.9179    1.0000 </r>
       <r>   -9.9333    1.0000 </r>
       <r>   -9.5624    1.0000 </r>
       <r>   -8.5376    1.0000 </r>
       <r>   -8.2399    1.0000 </r>
       <r>   -7.9163    1.0000 </r>
       <r>   -7.7825    1.0000 </r>
       <r>   -6.7149    1.0000 </r>
       <r>   -6.4733    1.0000 </r>
       <r>   -6.3746    1.0000 </r>
       <r>   -6.1785    1.0000 </r>
       <r>   -2.9271    0.0000 </r>
       <r>   -1.9815    0.0000 </r>
       <r>    0.2470    0.0000 </r>
       <r>    0.2604    0.0000 </r>
       <r>    0.3287    0.0000 </r>
       <r>    1.3832    0.0000 </r>
       <r>    1.4454    0.0000 </r>
       <r>    1.6657    0.0000 </r>
       <r>    1.8435    0.0000 </r>
       <r>    1.9601    0.0000 </r>
       <r>    2.2435    0.0000 </r>
       <r>    2.2931    0.0000 </r>
      </set>
      <set comment="kpoint 251">
       <r>  -12.8880    1.0000 </r>
       <r>  -12.6391    1.0000 </r>
       <r>  -11.4873    1.0000 </r>
       <r>  -11.3593    1.0000 </r>
       <r>  -11.1217    1.0000 </r>
       <r>  -10.7547    1.0000 </r>
       <r>  -10.0585    1.0000 </r>
       <r>   -9.4252    1.0000 </r>
       <r>   -8.6980    1.0000 </r>
       <r>   -8.2136    1.0000 </r>
       <r>   -7.9530    1.0000 </r>
       <r>   -7.7246    1.0000 </r>
       <r>   -6.8065    1.0000 </r>
       <r>   -6.3974    1.0000 </r>
       <r>   -6.3258    1.0000 </r>
       <r>   -6.1050    1.0000 </r>
       <r>   -3.2565    1.0000 </r>
       <r>   -1.6433    0.0000 </r>
       <r>    0.2201    0.0000 </r>
       <r>    0.2357    0.0000 </r>
       <r>    0.3528    0.0000 </r>
       <r>    1.1656    0.0000 </r>
       <r>    1.5406    0.0000 </r>
       <r>    1.6172    0.0000 </r>
       <r>    1.9213    0.0000 </r>
       <r>    1.9886    0.0000 </r>
       <r>    2.1929    0.0000 </r>
       <r>    2.2457    0.0000 </r>
      </set>
      <set comment="kpoint 252">
       <r>  -12.9210    1.0000 </r>
       <r>  -12.5686    1.0000 </r>
       <r>  -11.6223    1.0000 </r>
       <r>  -11.3910    1.0000 </r>
       <r>  -11.0548    1.0000 </r>
       <r>  -10.5859    1.0000 </r>
       <r>  -10.1794    1.0000 </r>
       <r>   -9.2862    1.0000 </r>
       <r>   -8.8743    1.0000 </r>
       <r>   -8.2300    1.0000 </r>
       <r>   -7.9839    1.0000 </r>
       <r>   -7.6614    1.0000 </r>
       <r>   -6.8993    1.0000 </r>
       <r>   -6.3294    1.0000 </r>
       <r>   -6.2731    1.0000 </r>
       <r>   -5.9831    1.0000 </r>
       <r>   -3.5802    1.0000 </r>
       <r>   -1.3082    0.0000 </r>
       <r>    0.1965    0.0000 </r>
       <r>    0.2120    0.0000 </r>
       <r>    0.3672    0.0000 </r>
       <r>    0.9638    0.0000 </r>
       <r>    1.5766    0.0000 </r>
       <r>    1.6707    0.0000 </r>
       <r>    1.9356    0.0000 </r>
       <r>    2.0062    0.0000 </r>
       <r>    2.1506    0.0000 </r>
       <r>    2.2055    0.0000 </r>
      </set>
      <set comment="kpoint 253">
       <r>  -12.9475    1.0000 </r>
       <r>  -12.4917    1.0000 </r>
       <r>  -11.7511    1.0000 </r>
       <r>  -11.4164    1.0000 </r>
       <r>  -10.9821    1.0000 </r>
       <r>  -10.4120    1.0000 </r>
       <r>  -10.2958    1.0000 </r>
       <r>   -9.1464    1.0000 </r>
       <r>   -9.0602    1.0000 </r>
       <r>   -8.2828    1.0000 </r>
       <r>   -8.0088    1.0000 </r>
       <r>   -7.5934    1.0000 </r>
       <r>   -6.9921    1.0000 </r>
       <r>   -6.2709    1.0000 </r>
       <r>   -6.2274    1.0000 </r>
       <r>   -5.8148    1.0000 </r>
       <r>   -3.8971    1.0000 </r>
       <r>   -0.9805    0.0000 </r>
       <r>    0.1768    0.0000 </r>
       <r>    0.1989    0.0000 </r>
       <r>    0.3639    0.0000 </r>
       <r>    0.7816    0.0000 </r>
       <r>    1.5440    0.0000 </r>
       <r>    1.8243    0.0000 </r>
       <r>    1.8729    0.0000 </r>
       <r>    2.0976    0.0000 </r>
       <r>    2.1166    0.0000 </r>
       <r>    2.1731    0.0000 </r>
      </set>
      <set comment="kpoint 254">
       <r>  -12.9676    1.0000 </r>
       <r>  -12.4083    1.0000 </r>
       <r>  -11.8736    1.0000 </r>
       <r>  -11.4357    1.0000 </r>
       <r>  -10.9036    1.0000 </r>
       <r>  -10.4075    1.0000 </r>
       <r>  -10.2332    1.0000 </r>
       <r>   -9.2511    1.0000 </r>
       <r>   -9.0069    1.0000 </r>
       <r>   -8.3641    1.0000 </r>
       <r>   -8.0277    1.0000 </r>
       <r>   -7.5208    1.0000 </r>
       <r>   -7.0840    1.0000 </r>
       <r>   -6.2234    1.0000 </r>
       <r>   -6.1923    1.0000 </r>
       <r>   -5.6091    1.0000 </r>
       <r>   -4.2060    1.0000 </r>
       <r>   -0.6662    0.0000 </r>
       <r>    0.1615    0.0000 </r>
       <r>    0.2031    0.0000 </r>
       <r>    0.3313    0.0000 </r>
       <r>    0.6217    0.0000 </r>
       <r>    1.5193    0.0000 </r>
       <r>    1.8229    0.0000 </r>
       <r>    1.9912    0.0000 </r>
       <r>    2.0909    0.0000 </r>
       <r>    2.1484    0.0000 </r>
       <r>    2.1779    0.0000 </r>
      </set>
      <set comment="kpoint 255">
       <r>  -12.9811    1.0000 </r>
       <r>  -12.3186    1.0000 </r>
       <r>  -11.9899    1.0000 </r>
       <r>  -11.4487    1.0000 </r>
       <r>  -10.8194    1.0000 </r>
       <r>  -10.5142    1.0000 </r>
       <r>  -10.0500    1.0000 </r>
       <r>   -9.4439    1.0000 </r>
       <r>   -8.8690    1.0000 </r>
       <r>   -8.4663    1.0000 </r>
       <r>   -8.0405    1.0000 </r>
       <r>   -7.4438    1.0000 </r>
       <r>   -7.1742    1.0000 </r>
       <r>   -6.1884    1.0000 </r>
       <r>   -6.1694    1.0000 </r>
       <r>   -5.3753    1.0000 </r>
       <r>   -4.5056    1.0000 </r>
       <r>   -0.3747    0.0000 </r>
       <r>    0.1510    0.0000 </r>
       <r>    0.2296    0.0000 </r>
       <r>    0.2544    0.0000 </r>
       <r>    0.4863    0.0000 </r>
       <r>    1.5026    0.0000 </r>
       <r>    1.7983    0.0000 </r>
       <r>    2.0270    0.0000 </r>
       <r>    2.0735    0.0000 </r>
       <r>    2.1317    0.0000 </r>
       <r>    2.1620    0.0000 </r>
      </set>
      <set comment="kpoint 256">
       <r>  -12.9882    1.0000 </r>
       <r>  -12.2225    1.0000 </r>
       <r>  -12.1000    1.0000 </r>
       <r>  -11.4556    1.0000 </r>
       <r>  -10.7297    1.0000 </r>
       <r>  -10.6158    1.0000 </r>
       <r>   -9.8629    1.0000 </r>
       <r>   -9.6365    1.0000 </r>
       <r>   -8.7347    1.0000 </r>
       <r>   -8.5831    1.0000 </r>
       <r>   -8.0472    1.0000 </r>
       <r>   -7.3629    1.0000 </r>
       <r>   -7.2622    1.0000 </r>
       <r>   -6.1669    1.0000 </r>
       <r>   -6.1599    1.0000 </r>
       <r>   -5.1198    1.0000 </r>
       <r>   -4.7941    1.0000 </r>
       <r>   -0.1184    0.0000 </r>
       <r>    0.1201    0.0000 </r>
       <r>    0.1455    0.0000 </r>
       <r>    0.2811    0.0000 </r>
       <r>    0.3767    0.0000 </r>
       <r>    1.4938    0.0000 </r>
       <r>    1.8120    0.0000 </r>
       <r>    1.8955    0.0000 </r>
       <r>    2.0644    0.0000 </r>
       <r>    2.1229    0.0000 </r>
       <r>    2.4081    0.0000 </r>
      </set>
      <set comment="kpoint 257">
       <r>  -12.9888    1.0000 </r>
       <r>  -12.2036    1.0000 </r>
       <r>  -12.1200    1.0000 </r>
       <r>  -11.4561    1.0000 </r>
       <r>  -10.7121    1.0000 </r>
       <r>  -10.6344    1.0000 </r>
       <r>   -9.8272    1.0000 </r>
       <r>   -9.6727    1.0000 </r>
       <r>   -8.7099    1.0000 </r>
       <r>   -8.6064    1.0000 </r>
       <r>   -8.0478    1.0000 </r>
       <r>   -7.3472    1.0000 </r>
       <r>   -7.2785    1.0000 </r>
       <r>   -6.1645    1.0000 </r>
       <r>   -6.1596    1.0000 </r>
       <r>   -5.0695    1.0000 </r>
       <r>   -4.8473    1.0000 </r>
       <r>   -0.0754    0.0000 </r>
       <r>    0.0879    0.0000 </r>
       <r>    0.1450    0.0000 </r>
       <r>    0.2938    0.0000 </r>
       <r>    0.3589    0.0000 </r>
       <r>    1.4931    0.0000 </r>
       <r>    1.8201    0.0000 </r>
       <r>    1.8767    0.0000 </r>
       <r>    2.0637    0.0000 </r>
       <r>    2.1222    0.0000 </r>
       <r>    2.4073    0.0000 </r>
      </set>
      <set comment="kpoint 258">
       <r>  -12.9830    1.0000 </r>
       <r>  -12.3010    1.0000 </r>
       <r>  -12.0112    1.0000 </r>
       <r>  -11.4505    1.0000 </r>
       <r>  -10.8029    1.0000 </r>
       <r>  -10.5338    1.0000 </r>
       <r>  -10.0149    1.0000 </r>
       <r>   -9.4804    1.0000 </r>
       <r>   -8.8433    1.0000 </r>
       <r>   -8.4874    1.0000 </r>
       <r>   -8.0422    1.0000 </r>
       <r>   -7.4288    1.0000 </r>
       <r>   -7.1910    1.0000 </r>
       <r>   -6.1833    1.0000 </r>
       <r>   -6.1665    1.0000 </r>
       <r>   -5.3285    1.0000 </r>
       <r>   -4.5610    1.0000 </r>
       <r>   -0.3232    0.0000 </r>
       <r>    0.1496    0.0000 </r>
       <r>    0.2339    0.0000 </r>
       <r>    0.2374    0.0000 </r>
       <r>    0.4635    0.0000 </r>
       <r>    1.5003    0.0000 </r>
       <r>    1.7976    0.0000 </r>
       <r>    1.9982    0.0000 </r>
       <r>    2.0712    0.0000 </r>
       <r>    2.1294    0.0000 </r>
       <r>    2.1939    0.0000 </r>
      </set>
      <set comment="kpoint 259">
       <r>  -12.9706    1.0000 </r>
       <r>  -12.3919    1.0000 </r>
       <r>  -11.8961    1.0000 </r>
       <r>  -11.4386    1.0000 </r>
       <r>  -10.8882    1.0000 </r>
       <r>  -10.4280    1.0000 </r>
       <r>  -10.1989    1.0000 </r>
       <r>   -9.2875    1.0000 </r>
       <r>   -8.9806    1.0000 </r>
       <r>   -8.3821    1.0000 </r>
       <r>   -8.0306    1.0000 </r>
       <r>   -7.5066    1.0000 </r>
       <r>   -7.1011    1.0000 </r>
       <r>   -6.2159    1.0000 </r>
       <r>   -6.1869    1.0000 </r>
       <r>   -5.5669    1.0000 </r>
       <r>   -4.2634    1.0000 </r>
       <r>   -0.6092    0.0000 </r>
       <r>    0.1592    0.0000 </r>
       <r>    0.2064    0.0000 </r>
       <r>    0.3207    0.0000 </r>
       <r>    0.5941    0.0000 </r>
       <r>    1.5155    0.0000 </r>
       <r>    1.8160    0.0000 </r>
       <r>    2.0235    0.0000 </r>
       <r>    2.0870    0.0000 </r>
       <r>    2.1446    0.0000 </r>
       <r>    2.1597    0.0000 </r>
      </set>
      <set comment="kpoint 260">
       <r>  -12.9518    1.0000 </r>
       <r>  -12.4764    1.0000 </r>
       <r>  -11.7747    1.0000 </r>
       <r>  -11.4205    1.0000 </r>
       <r>  -10.9678    1.0000 </r>
       <r>  -10.3786    1.0000 </r>
       <r>  -10.3173    1.0000 </r>
       <r>   -9.1200    1.0000 </r>
       <r>   -9.0960    1.0000 </r>
       <r>   -8.2963    1.0000 </r>
       <r>   -8.0128    1.0000 </r>
       <r>   -7.5801    1.0000 </r>
       <r>   -7.0095    1.0000 </r>
       <r>   -6.2611    1.0000 </r>
       <r>   -6.2199    1.0000 </r>
       <r>   -5.7784    1.0000 </r>
       <r>   -3.9561    1.0000 </r>
       <r>   -0.9200    0.0000 </r>
       <r>    0.1736    0.0000 </r>
       <r>    0.1982    0.0000 </r>
       <r>    0.3605    0.0000 </r>
       <r>    0.7495    0.0000 </r>
       <r>    1.5387    0.0000 </r>
       <r>    1.8551    0.0000 </r>
       <r>    1.8622    0.0000 </r>
       <r>    2.1111    0.0000 </r>
       <r>    2.1153    0.0000 </r>
       <r>    2.1678    0.0000 </r>
      </set>
      <set comment="kpoint 261">
       <r>  -12.9265    1.0000 </r>
       <r>  -12.5546    1.0000 </r>
       <r>  -11.6470    1.0000 </r>
       <r>  -11.3962    1.0000 </r>
       <r>  -11.0416    1.0000 </r>
       <r>  -10.5535    1.0000 </r>
       <r>  -10.2017    1.0000 </r>
       <r>   -9.2598    1.0000 </r>
       <r>   -8.9088    1.0000 </r>
       <r>   -8.2374    1.0000 </r>
       <r>   -7.9890    1.0000 </r>
       <r>   -7.6490    1.0000 </r>
       <r>   -6.9168    1.0000 </r>
       <r>   -6.3177    1.0000 </r>
       <r>   -6.2637    1.0000 </r>
       <r>   -5.9546    1.0000 </r>
       <r>   -3.6406    1.0000 </r>
       <r>   -1.2457    0.0000 </r>
       <r>    0.1925    0.0000 </r>
       <r>    0.2085    0.0000 </r>
       <r>    0.3682    0.0000 </r>
       <r>    0.9276    0.0000 </r>
       <r>    1.5699    0.0000 </r>
       <r>    1.6982    0.0000 </r>
       <r>    1.9236    0.0000 </r>
       <r>    2.0229    0.0000 </r>
       <r>    2.1435    0.0000 </r>
       <r>    2.1988    0.0000 </r>
      </set>
      <set comment="kpoint 262">
       <r>  -12.8948    1.0000 </r>
       <r>  -12.6263    1.0000 </r>
       <r>  -11.5132    1.0000 </r>
       <r>  -11.3657    1.0000 </r>
       <r>  -11.1095    1.0000 </r>
       <r>  -10.7232    1.0000 </r>
       <r>  -10.0816    1.0000 </r>
       <r>   -9.3991    1.0000 </r>
       <r>   -8.7303    1.0000 </r>
       <r>   -8.2136    1.0000 </r>
       <r>   -7.9593    1.0000 </r>
       <r>   -7.7130    1.0000 </r>
       <r>   -6.8239    1.0000 </r>
       <r>   -6.3840    1.0000 </r>
       <r>   -6.3156    1.0000 </r>
       <r>   -6.0858    1.0000 </r>
       <r>   -3.3181    1.0000 </r>
       <r>   -1.5797    0.0000 </r>
       <r>    0.2154    0.0000 </r>
       <r>    0.2309    0.0000 </r>
       <r>    0.3565    0.0000 </r>
       <r>    1.1260    0.0000 </r>
       <r>    1.5629    0.0000 </r>
       <r>    1.6090    0.0000 </r>
       <r>    1.9367    0.0000 </r>
       <r>    1.9814    0.0000 </r>
       <r>    2.1843    0.0000 </r>
       <r>    2.2375    0.0000 </r>
      </set>
      <set comment="kpoint 263">
       <r>  -12.8565    1.0000 </r>
       <r>  -12.6915    1.0000 </r>
       <r>  -11.3733    1.0000 </r>
       <r>  -11.3291    1.0000 </r>
       <r>  -11.1715    1.0000 </r>
       <r>  -10.8875    1.0000 </r>
       <r>   -9.9573    1.0000 </r>
       <r>   -9.5367    1.0000 </r>
       <r>   -8.5663    1.0000 </r>
       <r>   -8.2316    1.0000 </r>
       <r>   -7.9237    1.0000 </r>
       <r>   -7.7720    1.0000 </r>
       <r>   -6.7320    1.0000 </r>
       <r>   -6.4585    1.0000 </r>
       <r>   -6.3665    1.0000 </r>
       <r>   -6.1680    1.0000 </r>
       <r>   -2.9897    0.0000 </r>
       <r>   -1.9175    0.0000 </r>
       <r>    0.2417    0.0000 </r>
       <r>    0.2561    0.0000 </r>
       <r>    0.3338    0.0000 </r>
       <r>    1.3410    0.0000 </r>
       <r>    1.4601    0.0000 </r>
       <r>    1.6559    0.0000 </r>
       <r>    1.8576    0.0000 </r>
       <r>    1.9773    0.0000 </r>
       <r>    2.2333    0.0000 </r>
       <r>    2.2836    0.0000 </r>
      </set>
      <set comment="kpoint 264">
       <r>  -12.8118    1.0000 </r>
       <r>  -12.7503    1.0000 </r>
       <r>  -11.2863    1.0000 </r>
       <r>  -11.2276    1.0000 </r>
       <r>  -11.2274    1.0000 </r>
       <r>  -11.0463    1.0000 </r>
       <r>   -9.8290    1.0000 </r>
       <r>   -9.6720    1.0000 </r>
       <r>   -8.4257    1.0000 </r>
       <r>   -8.2929    1.0000 </r>
       <r>   -7.8822    1.0000 </r>
       <r>   -7.8256    1.0000 </r>
       <r>   -6.6420    1.0000 </r>
       <r>   -6.5395    1.0000 </r>
       <r>   -6.3997    1.0000 </r>
       <r>   -6.2075    1.0000 </r>
       <r>   -2.6565    0.0000 </r>
       <r>   -2.2561    0.0000 </r>
       <r>    0.2705    0.0000 </r>
       <r>    0.2738    0.0000 </r>
       <r>    0.3058    0.0000 </r>
       <r>    1.4017    0.0000 </r>
       <r>    1.5667    0.0000 </r>
       <r>    1.7107    0.0000 </r>
       <r>    1.7860    0.0000 </r>
       <r>    1.8284    0.0000 </r>
       <r>    2.3060    0.0000 </r>
       <r>    2.3341    0.0000 </r>
      </set>
      <set comment="kpoint 265">
       <r>  -12.8027    1.0000 </r>
       <r>  -12.7607    1.0000 </r>
       <r>  -11.2776    1.0000 </r>
       <r>  -11.2375    1.0000 </r>
       <r>  -11.1992    1.0000 </r>
       <r>  -11.0756    1.0000 </r>
       <r>   -9.8044    1.0000 </r>
       <r>   -9.6972    1.0000 </r>
       <r>   -8.4032    1.0000 </r>
       <r>   -8.3084    1.0000 </r>
       <r>   -7.8738    1.0000 </r>
       <r>   -7.8351    1.0000 </r>
       <r>   -6.6254    1.0000 </r>
       <r>   -6.5553    1.0000 </r>
       <r>   -6.4028    1.0000 </r>
       <r>   -6.2108    1.0000 </r>
       <r>   -2.5931    0.0000 </r>
       <r>   -2.3199    0.0000 </r>
       <r>    0.2755    0.0000 </r>
       <r>    0.2761    0.0000 </r>
       <r>    0.3002    0.0000 </r>
       <r>    1.3965    0.0000 </r>
       <r>    1.6098    0.0000 </r>
       <r>    1.7219    0.0000 </r>
       <r>    1.7733    0.0000 </r>
       <r>    1.7894    0.0000 </r>
       <r>    2.3446    0.0000 </r>
       <r>    2.3562    0.0000 </r>
      </set>
      <set comment="kpoint 266">
       <r>  -12.7462    1.0000 </r>
       <r>  -12.6435    1.0000 </r>
       <r>  -11.2156    1.0000 </r>
       <r>  -11.2053    1.0000 </r>
       <r>  -11.1178    1.0000 </r>
       <r>  -10.9034    1.0000 </r>
       <r>   -9.7980    1.0000 </r>
       <r>   -9.5372    1.0000 </r>
       <r>   -8.4143    1.0000 </r>
       <r>   -8.2024    1.0000 </r>
       <r>   -7.7839    1.0000 </r>
       <r>   -7.6893    1.0000 </r>
       <r>   -6.5638    1.0000 </r>
       <r>   -6.3932    1.0000 </r>
       <r>   -6.2748    1.0000 </r>
       <r>   -6.0794    1.0000 </r>
       <r>   -2.6893    0.0000 </r>
       <r>   -2.0196    0.0000 </r>
       <r>    0.3488    0.0000 </r>
       <r>    0.3578    0.0000 </r>
       <r>    0.4087    0.0000 </r>
       <r>    1.4906    0.0000 </r>
       <r>    1.5417    0.0000 </r>
       <r>    1.8048    0.0000 </r>
       <r>    1.9301    0.0000 </r>
       <r>    1.9660    0.0000 </r>
       <r>    2.3452    0.0000 </r>
       <r>    2.4776    0.0000 </r>
      </set>
      <set comment="kpoint 267">
       <r>  -12.7882    1.0000 </r>
       <r>  -12.5822    1.0000 </r>
       <r>  -11.3485    1.0000 </r>
       <r>  -11.2558    1.0000 </r>
       <r>  -11.0595    1.0000 </r>
       <r>  -10.7429    1.0000 </r>
       <r>   -9.9242    1.0000 </r>
       <r>   -9.4017    1.0000 </r>
       <r>   -8.5635    1.0000 </r>
       <r>   -8.1578    1.0000 </r>
       <r>   -7.8230    1.0000 </r>
       <r>   -7.6336    1.0000 </r>
       <r>   -6.6545    1.0000 </r>
       <r>   -6.3149    1.0000 </r>
       <r>   -6.2337    1.0000 </r>
       <r>   -6.0246    1.0000 </r>
       <r>   -3.0208    0.0000 </r>
       <r>   -1.6803    0.0000 </r>
       <r>    0.3205    0.0000 </r>
       <r>    0.3349    0.0000 </r>
       <r>    0.4362    0.0000 </r>
       <r>    1.3206    0.0000 </r>
       <r>    1.5674    0.0000 </r>
       <r>    1.7532    0.0000 </r>
       <r>    2.0045    0.0000 </r>
       <r>    2.0474    0.0000 </r>
       <r>    2.4179    0.0000 </r>
       <r>    2.5423    0.0000 </r>
      </set>
      <set comment="kpoint 268">
       <r>  -12.8238    1.0000 </r>
       <r>  -12.5145    1.0000 </r>
       <r>  -11.4857    1.0000 </r>
       <r>  -11.2899    1.0000 </r>
       <r>  -10.9954    1.0000 </r>
       <r>  -10.5769    1.0000 </r>
       <r>  -10.0463    1.0000 </r>
       <r>   -9.2642    1.0000 </r>
       <r>   -8.7321    1.0000 </r>
       <r>   -8.1558    1.0000 </r>
       <r>   -7.8562    1.0000 </r>
       <r>   -7.5726    1.0000 </r>
       <r>   -6.7467    1.0000 </r>
       <r>   -6.2439    1.0000 </r>
       <r>   -6.1820    1.0000 </r>
       <r>   -5.9246    1.0000 </r>
       <r>   -3.3469    1.0000 </r>
       <r>   -1.3425    0.0000 </r>
       <r>    0.2952    0.0000 </r>
       <r>    0.3082    0.0000 </r>
       <r>    0.4571    0.0000 </r>
       <r>    1.1134    0.0000 </r>
       <r>    1.6833    0.0000 </r>
       <r>    1.7095    0.0000 </r>
       <r>    2.0075    0.0000 </r>
       <r>    2.0861    0.0000 </r>
       <r>    2.2886    0.0000 </r>
       <r>    2.3415    0.0000 </r>
      </set>
      <set comment="kpoint 269">
       <r>  -12.8529    1.0000 </r>
       <r>  -12.4404    1.0000 </r>
       <r>  -11.6167    1.0000 </r>
       <r>  -11.3178    1.0000 </r>
       <r>  -10.9253    1.0000 </r>
       <r>  -10.4057    1.0000 </r>
       <r>  -10.1640    1.0000 </r>
       <r>   -9.1257    1.0000 </r>
       <r>   -8.9128    1.0000 </r>
       <r>   -8.1926    1.0000 </r>
       <r>   -7.8836    1.0000 </r>
       <r>   -7.5067    1.0000 </r>
       <r>   -6.8394    1.0000 </r>
       <r>   -6.1816    1.0000 </r>
       <r>   -6.1336    1.0000 </r>
       <r>   -5.7766    1.0000 </r>
       <r>   -3.6664    1.0000 </r>
       <r>   -1.0098    0.0000 </r>
       <r>    0.2737    0.0000 </r>
       <r>    0.2881    0.0000 </r>
       <r>    0.4649    0.0000 </r>
       <r>    0.9245    0.0000 </r>
       <r>    1.6737    0.0000 </r>
       <r>    1.8262    0.0000 </r>
       <r>    1.9436    0.0000 </r>
       <r>    2.1745    0.0000 </r>
       <r>    2.2512    0.0000 </r>
       <r>    2.3058    0.0000 </r>
      </set>
      <set comment="kpoint 270">
       <r>  -12.8756    1.0000 </r>
       <r>  -12.3599    1.0000 </r>
       <r>  -11.7416    1.0000 </r>
       <r>  -11.3395    1.0000 </r>
       <r>  -10.8495    1.0000 </r>
       <r>  -10.2772    1.0000 </r>
       <r>  -10.2295    1.0000 </r>
       <r>   -9.1004    1.0000 </r>
       <r>   -8.9870    1.0000 </r>
       <r>   -8.2609    1.0000 </r>
       <r>   -7.9050    1.0000 </r>
       <r>   -7.4359    1.0000 </r>
       <r>   -6.9316    1.0000 </r>
       <r>   -6.1298    1.0000 </r>
       <r>   -6.0945    1.0000 </r>
       <r>   -5.5875    1.0000 </r>
       <r>   -3.9783    1.0000 </r>
       <r>   -0.6875    0.0000 </r>
       <r>    0.2565    0.0000 </r>
       <r>    0.2828    0.0000 </r>
       <r>    0.4493    0.0000 </r>
       <r>    0.7571    0.0000 </r>
       <r>    1.6458    0.0000 </r>
       <r>    1.8872    0.0000 </r>
       <r>    1.9852    0.0000 </r>
       <r>    2.2221    0.0000 </r>
       <r>    2.2663    0.0000 </r>
       <r>    2.2779    0.0000 </r>
      </set>
      <set comment="kpoint 271">
       <r>  -12.8918    1.0000 </r>
       <r>  -12.2729    1.0000 </r>
       <r>  -11.8602    1.0000 </r>
       <r>  -11.3551    1.0000 </r>
       <r>  -10.7680    1.0000 </r>
       <r>  -10.3855    1.0000 </r>
       <r>  -10.0488    1.0000 </r>
       <r>   -9.2913    1.0000 </r>
       <r>   -8.8495    1.0000 </r>
       <r>   -8.3530    1.0000 </r>
       <r>   -7.9203    1.0000 </r>
       <r>   -7.3608    1.0000 </r>
       <r>   -7.0225    1.0000 </r>
       <r>   -6.0898    1.0000 </r>
       <r>   -6.0666    1.0000 </r>
       <r>   -5.3666    1.0000 </r>
       <r>   -4.2811    1.0000 </r>
       <r>   -0.3837    0.0000 </r>
       <r>    0.2440    0.0000 </r>
       <r>    0.2979    0.0000 </r>
       <r>    0.3963    0.0000 </r>
       <r>    0.6133    0.0000 </r>
       <r>    1.6259    0.0000 </r>
       <r>    1.8519    0.0000 </r>
       <r>    2.1504    0.0000 </r>
       <r>    2.1649    0.0000 </r>
       <r>    2.2013    0.0000 </r>
       <r>    2.2579    0.0000 </r>
      </set>
      <set comment="kpoint 272">
       <r>  -12.9015    1.0000 </r>
       <r>  -12.1796    1.0000 </r>
       <r>  -11.9726    1.0000 </r>
       <r>  -11.3644    1.0000 </r>
       <r>  -10.6808    1.0000 </r>
       <r>  -10.4888    1.0000 </r>
       <r>   -9.8640    1.0000 </r>
       <r>   -9.4829    1.0000 </r>
       <r>   -8.7149    1.0000 </r>
       <r>   -8.4624    1.0000 </r>
       <r>   -7.9295    1.0000 </r>
       <r>   -7.2815    1.0000 </r>
       <r>   -7.1114    1.0000 </r>
       <r>   -6.0630    1.0000 </r>
       <r>   -6.0515    1.0000 </r>
       <r>   -5.1212    1.0000 </r>
       <r>   -4.5735    1.0000 </r>
       <r>   -0.1099    0.0000 </r>
       <r>    0.2363    0.0000 </r>
       <r>    0.2901    0.0000 </r>
       <r>    0.3369    0.0000 </r>
       <r>    0.4949    0.0000 </r>
       <r>    1.6139    0.0000 </r>
       <r>    1.8503    0.0000 </r>
       <r>    2.0035    0.0000 </r>
       <r>    2.1888    0.0000 </r>
       <r>    2.2458    0.0000 </r>
       <r>    2.3118    0.0000 </r>
      </set>
      <set comment="kpoint 273">
       <r>  -12.9048    1.0000 </r>
       <r>  -12.0800    1.0000 </r>
       <r>  -12.0787    1.0000 </r>
       <r>  -11.3676    1.0000 </r>
       <r>  -10.5882    1.0000 </r>
       <r>  -10.5869    1.0000 </r>
       <r>   -9.6759    1.0000 </r>
       <r>   -9.6734    1.0000 </r>
       <r>   -8.5854    1.0000 </r>
       <r>   -8.5837    1.0000 </r>
       <r>   -7.9326    1.0000 </r>
       <r>   -7.1986    1.0000 </r>
       <r>   -7.1975    1.0000 </r>
       <r>   -6.0501    1.0000 </r>
       <r>   -6.0501    1.0000 </r>
       <r>   -4.8569    1.0000 </r>
       <r>   -4.8532    1.0000 </r>
       <r>    0.1187    0.0000 </r>
       <r>    0.1212    0.0000 </r>
       <r>    0.2338    0.0000 </r>
       <r>    0.4018    0.0000 </r>
       <r>    0.4030    0.0000 </r>
       <r>    1.6098    0.0000 </r>
       <r>    1.8966    0.0000 </r>
       <r>    1.8978    0.0000 </r>
       <r>    2.1846    0.0000 </r>
       <r>    2.2418    0.0000 </r>
       <r>    2.4580    0.0000 </r>
      </set>
      <set comment="kpoint 274">
       <r>  -12.9016    1.0000 </r>
       <r>  -12.1784    1.0000 </r>
       <r>  -11.9740    1.0000 </r>
       <r>  -11.3645    1.0000 </r>
       <r>  -10.6796    1.0000 </r>
       <r>  -10.4901    1.0000 </r>
       <r>   -9.8616    1.0000 </r>
       <r>   -9.4854    1.0000 </r>
       <r>   -8.7131    1.0000 </r>
       <r>   -8.4639    1.0000 </r>
       <r>   -7.9295    1.0000 </r>
       <r>   -7.2805    1.0000 </r>
       <r>   -7.1125    1.0000 </r>
       <r>   -6.0628    1.0000 </r>
       <r>   -6.0513    1.0000 </r>
       <r>   -5.1178    1.0000 </r>
       <r>   -4.5772    1.0000 </r>
       <r>   -0.1067    0.0000 </r>
       <r>    0.2363    0.0000 </r>
       <r>    0.2884    0.0000 </r>
       <r>    0.3377    0.0000 </r>
       <r>    0.4934    0.0000 </r>
       <r>    1.6138    0.0000 </r>
       <r>    1.8508    0.0000 </r>
       <r>    2.0016    0.0000 </r>
       <r>    2.1887    0.0000 </r>
       <r>    2.2457    0.0000 </r>
       <r>    2.3139    0.0000 </r>
      </set>
      <set comment="kpoint 275">
       <r>  -12.8919    1.0000 </r>
       <r>  -12.2718    1.0000 </r>
       <r>  -11.8617    1.0000 </r>
       <r>  -11.3553    1.0000 </r>
       <r>  -10.7669    1.0000 </r>
       <r>  -10.3869    1.0000 </r>
       <r>  -10.0464    1.0000 </r>
       <r>   -9.2938    1.0000 </r>
       <r>   -8.8477    1.0000 </r>
       <r>   -8.3544    1.0000 </r>
       <r>   -7.9204    1.0000 </r>
       <r>   -7.3598    1.0000 </r>
       <r>   -7.0236    1.0000 </r>
       <r>   -6.0895    1.0000 </r>
       <r>   -6.0662    1.0000 </r>
       <r>   -5.3634    1.0000 </r>
       <r>   -4.2851    1.0000 </r>
       <r>   -0.3800    0.0000 </r>
       <r>    0.2438    0.0000 </r>
       <r>    0.2983    0.0000 </r>
       <r>    0.3954    0.0000 </r>
       <r>    0.6114    0.0000 </r>
       <r>    1.6257    0.0000 </r>
       <r>    1.8518    0.0000 </r>
       <r>    2.1527    0.0000 </r>
       <r>    2.1624    0.0000 </r>
       <r>    2.2011    0.0000 </r>
       <r>    2.2577    0.0000 </r>
      </set>
      <set comment="kpoint 276">
       <r>  -12.8758    1.0000 </r>
       <r>  -12.3588    1.0000 </r>
       <r>  -11.7431    1.0000 </r>
       <r>  -11.3398    1.0000 </r>
       <r>  -10.8485    1.0000 </r>
       <r>  -10.2786    1.0000 </r>
       <r>  -10.2271    1.0000 </r>
       <r>   -9.1029    1.0000 </r>
       <r>   -8.9851    1.0000 </r>
       <r>   -8.2620    1.0000 </r>
       <r>   -7.9052    1.0000 </r>
       <r>   -7.4350    1.0000 </r>
       <r>   -6.9328    1.0000 </r>
       <r>   -6.1293    1.0000 </r>
       <r>   -6.0939    1.0000 </r>
       <r>   -5.5848    1.0000 </r>
       <r>   -3.9823    1.0000 </r>
       <r>   -0.6835    0.0000 </r>
       <r>    0.2563    0.0000 </r>
       <r>    0.2829    0.0000 </r>
       <r>    0.4490    0.0000 </r>
       <r>    0.7548    0.0000 </r>
       <r>    1.6455    0.0000 </r>
       <r>    1.8867    0.0000 </r>
       <r>    1.9874    0.0000 </r>
       <r>    2.2218    0.0000 </r>
       <r>    2.2673    0.0000 </r>
       <r>    2.2776    0.0000 </r>
      </set>
      <set comment="kpoint 277">
       <r>  -12.8532    1.0000 </r>
       <r>  -12.4394    1.0000 </r>
       <r>  -11.6184    1.0000 </r>
       <r>  -11.3181    1.0000 </r>
       <r>  -10.9244    1.0000 </r>
       <r>  -10.4034    1.0000 </r>
       <r>  -10.1655    1.0000 </r>
       <r>   -9.1238    1.0000 </r>
       <r>   -8.9152    1.0000 </r>
       <r>   -8.1933    1.0000 </r>
       <r>   -7.8839    1.0000 </r>
       <r>   -7.5058    1.0000 </r>
       <r>   -6.8406    1.0000 </r>
       <r>   -6.1810    1.0000 </r>
       <r>   -6.1330    1.0000 </r>
       <r>   -5.7743    1.0000 </r>
       <r>   -3.6706    1.0000 </r>
       <r>   -1.0056    0.0000 </r>
       <r>    0.2735    0.0000 </r>
       <r>    0.2880    0.0000 </r>
       <r>    0.4649    0.0000 </r>
       <r>    0.9220    0.0000 </r>
       <r>    1.6733    0.0000 </r>
       <r>    1.8282    0.0000 </r>
       <r>    1.9429    0.0000 </r>
       <r>    2.1756    0.0000 </r>
       <r>    2.2508    0.0000 </r>
       <r>    2.3054    0.0000 </r>
      </set>
      <set comment="kpoint 278">
       <r>  -12.8242    1.0000 </r>
       <r>  -12.5136    1.0000 </r>
       <r>  -11.4874    1.0000 </r>
       <r>  -11.2903    1.0000 </r>
       <r>  -10.9945    1.0000 </r>
       <r>  -10.5747    1.0000 </r>
       <r>  -10.0478    1.0000 </r>
       <r>   -9.2624    1.0000 </r>
       <r>   -8.7344    1.0000 </r>
       <r>   -8.1561    1.0000 </r>
       <r>   -7.8566    1.0000 </r>
       <r>   -7.5718    1.0000 </r>
       <r>   -6.7479    1.0000 </r>
       <r>   -6.2431    1.0000 </r>
       <r>   -6.1812    1.0000 </r>
       <r>   -5.9229    1.0000 </r>
       <r>   -3.3512    1.0000 </r>
       <r>   -1.3381    0.0000 </r>
       <r>    0.2949    0.0000 </r>
       <r>    0.3079    0.0000 </r>
       <r>    0.4574    0.0000 </r>
       <r>    1.1106    0.0000 </r>
       <r>    1.6850    0.0000 </r>
       <r>    1.7090    0.0000 </r>
       <r>    2.0068    0.0000 </r>
       <r>    2.0872    0.0000 </r>
       <r>    2.2881    0.0000 </r>
       <r>    2.3409    0.0000 </r>
      </set>
      <set comment="kpoint 279">
       <r>  -12.7887    1.0000 </r>
       <r>  -12.5814    1.0000 </r>
       <r>  -11.3503    1.0000 </r>
       <r>  -11.2563    1.0000 </r>
       <r>  -11.0587    1.0000 </r>
       <r>  -10.7407    1.0000 </r>
       <r>   -9.9258    1.0000 </r>
       <r>   -9.3999    1.0000 </r>
       <r>   -8.5657    1.0000 </r>
       <r>   -8.1575    1.0000 </r>
       <r>   -7.8234    1.0000 </r>
       <r>   -7.6328    1.0000 </r>
       <r>   -6.6557    1.0000 </r>
       <r>   -6.3140    1.0000 </r>
       <r>   -6.2330    1.0000 </r>
       <r>   -6.0236    1.0000 </r>
       <r>   -3.0251    0.0000 </r>
       <r>   -1.6758    0.0000 </r>
       <r>    0.3202    0.0000 </r>
       <r>    0.3345    0.0000 </r>
       <r>    0.4366    0.0000 </r>
       <r>    1.3176    0.0000 </r>
       <r>    1.5687    0.0000 </r>
       <r>    1.7526    0.0000 </r>
       <r>    2.0055    0.0000 </r>
       <r>    2.0473    0.0000 </r>
       <r>    2.3337    0.0000 </r>
       <r>    2.3841    0.0000 </r>
      </set>
      <set comment="kpoint 280">
       <r>  -12.7467    1.0000 </r>
       <r>  -12.6428    1.0000 </r>
       <r>  -11.2162    1.0000 </r>
       <r>  -11.2073    1.0000 </r>
       <r>  -11.1171    1.0000 </r>
       <r>  -10.9013    1.0000 </r>
       <r>   -9.7997    1.0000 </r>
       <r>   -9.5354    1.0000 </r>
       <r>   -8.4161    1.0000 </r>
       <r>   -8.2016    1.0000 </r>
       <r>   -7.7844    1.0000 </r>
       <r>   -7.6887    1.0000 </r>
       <r>   -6.5650    1.0000 </r>
       <r>   -6.3922    1.0000 </r>
       <r>   -6.2744    1.0000 </r>
       <r>   -6.0789    1.0000 </r>
       <r>   -2.6937    0.0000 </r>
       <r>   -2.0152    0.0000 </r>
       <r>    0.3484    0.0000 </r>
       <r>    0.3576    0.0000 </r>
       <r>    0.4090    0.0000 </r>
       <r>    1.4913    0.0000 </r>
       <r>    1.5386    0.0000 </r>
       <r>    1.8041    0.0000 </r>
       <r>    1.9310    0.0000 </r>
       <r>    1.9682    0.0000 </r>
       <r>    2.3456    0.0000 </r>
       <r>    2.4784    0.0000 </r>
      </set>
      <set comment="kpoint 281">
       <r>  -12.6983    1.0000 </r>
       <r>  -12.6977    1.0000 </r>
       <r>  -11.1700    1.0000 </r>
       <r>  -11.1694    1.0000 </r>
       <r>  -11.0582    1.0000 </r>
       <r>  -11.0562    1.0000 </r>
       <r>   -9.6700    1.0000 </r>
       <r>   -9.6683    1.0000 </r>
       <r>   -8.3086    1.0000 </r>
       <r>   -8.2727    1.0000 </r>
       <r>   -7.7397    1.0000 </r>
       <r>   -7.7390    1.0000 </r>
       <r>   -6.4770    1.0000 </r>
       <r>   -6.4759    1.0000 </r>
       <r>   -6.2903    1.0000 </r>
       <r>   -6.0965    1.0000 </r>
       <r>   -2.3580    0.0000 </r>
       <r>   -2.3536    0.0000 </r>
       <r>    0.3668    0.0000 </r>
       <r>    0.3785    0.0000 </r>
       <r>    0.3789    0.0000 </r>
       <r>    1.4637    0.0000 </r>
       <r>    1.7645    0.0000 </r>
       <r>    1.7675    0.0000 </r>
       <r>    1.8633    0.0000 </r>
       <r>    1.8641    0.0000 </r>
       <r>    2.3955    0.0000 </r>
       <r>    2.3961    0.0000 </r>
      </set>
      <set comment="kpoint 282">
       <r>  -12.6379    1.0000 </r>
       <r>  -12.5779    1.0000 </r>
       <r>  -11.1040    1.0000 </r>
       <r>  -11.0594    1.0000 </r>
       <r>  -11.0470    1.0000 </r>
       <r>  -10.8832    1.0000 </r>
       <r>   -9.6586    1.0000 </r>
       <r>   -9.5069    1.0000 </r>
       <r>   -8.2953    1.0000 </r>
       <r>   -8.1689    1.0000 </r>
       <r>   -7.6436    1.0000 </r>
       <r>   -7.5883    1.0000 </r>
       <r>   -6.4068    1.0000 </r>
       <r>   -6.3071    1.0000 </r>
       <r>   -6.1629    1.0000 </r>
       <r>   -5.9666    1.0000 </r>
       <r>   -2.4452    0.0000 </r>
       <r>   -2.0527    0.0000 </r>
       <r>    0.4554    0.0000 </r>
       <r>    0.4581    0.0000 </r>
       <r>    0.4914    0.0000 </r>
       <r>    1.5449    0.0000 </r>
       <r>    1.7016    0.0000 </r>
       <r>    1.9518    0.0000 </r>
       <r>    1.9563    0.0000 </r>
       <r>    2.0248    0.0000 </r>
       <r>    2.3760    0.0000 </r>
       <r>    2.4579    0.0000 </r>
      </set>
      <set comment="kpoint 283">
       <r>  -12.6825    1.0000 </r>
       <r>  -12.5194    1.0000 </r>
       <r>  -11.2046    1.0000 </r>
       <r>  -11.1465    1.0000 </r>
       <r>  -10.9914    1.0000 </r>
       <r>  -10.7255    1.0000 </r>
       <r>   -9.7855    1.0000 </r>
       <r>   -9.3733    1.0000 </r>
       <r>   -8.4315    1.0000 </r>
       <r>   -8.1077    1.0000 </r>
       <r>   -7.6850    1.0000 </r>
       <r>   -7.5348    1.0000 </r>
       <r>   -6.4962    1.0000 </r>
       <r>   -6.2268    1.0000 </r>
       <r>   -6.1319    1.0000 </r>
       <r>   -5.9286    1.0000 </r>
       <r>   -2.7787    0.0000 </r>
       <r>   -1.7128    0.0000 </r>
       <r>    0.4258    0.0000 </r>
       <r>    0.4390    0.0000 </r>
       <r>    0.5215    0.0000 </r>
       <r>    1.4781    0.0000 </r>
       <r>    1.6019    0.0000 </r>
       <r>    1.8972    0.0000 </r>
       <r>    2.0943    0.0000 </r>
       <r>    2.0958    0.0000 </r>
       <r>    2.3936    0.0000 </r>
       <r>    2.5398    0.0000 </r>
      </set>
      <set comment="kpoint 284">
       <r>  -12.7206    1.0000 </r>
       <r>  -12.4545    1.0000 </r>
       <r>  -11.3438    1.0000 </r>
       <r>  -11.1830    1.0000 </r>
       <r>  -10.9300    1.0000 </r>
       <r>  -10.5624    1.0000 </r>
       <r>   -9.9086    1.0000 </r>
       <r>   -9.2375    1.0000 </r>
       <r>   -8.5909    1.0000 </r>
       <r>   -8.0874    1.0000 </r>
       <r>   -7.7207    1.0000 </r>
       <r>   -7.4760    1.0000 </r>
       <r>   -6.5877    1.0000 </r>
       <r>   -6.1529    1.0000 </r>
       <r>   -6.0839    1.0000 </r>
       <r>   -5.8492    1.0000 </r>
       <r>   -3.1070    0.8072 </r>
       <r>   -1.3731    0.0000 </r>
       <r>    0.3989    0.0000 </r>
       <r>    0.4111    0.0000 </r>
       <r>    0.5474    0.0000 </r>
       <r>    1.2662    0.0000 </r>
       <r>    1.7020    0.0000 </r>
       <r>    1.8505    0.0000 </r>
       <r>    2.0773    0.0000 </r>
       <r>    2.1740    0.0000 </r>
       <r>    2.4513    0.0000 </r>
       <r>    2.5071    0.0000 </r>
      </set>
      <set comment="kpoint 285">
       <r>  -12.7524    1.0000 </r>
       <r>  -12.3832    1.0000 </r>
       <r>  -11.4770    1.0000 </r>
       <r>  -11.2133    1.0000 </r>
       <r>  -10.8626    1.0000 </r>
       <r>  -10.3939    1.0000 </r>
       <r>  -10.0276    1.0000 </r>
       <r>   -9.1004    1.0000 </r>
       <r>   -8.7651    1.0000 </r>
       <r>   -8.1072    1.0000 </r>
       <r>   -7.7505    1.0000 </r>
       <r>   -7.4122    1.0000 </r>
       <r>   -6.6801    1.0000 </r>
       <r>   -6.0873    1.0000 </r>
       <r>   -6.0342    1.0000 </r>
       <r>   -5.7226    1.0000 </r>
       <r>   -3.4291    1.0000 </r>
       <r>   -1.0365    0.0000 </r>
       <r>    0.3756    0.0000 </r>
       <r>    0.3855    0.0000 </r>
       <r>    0.5638    0.0000 </r>
       <r>    1.0713    0.0000 </r>
       <r>    1.8115    0.0000 </r>
       <r>    1.8329    0.0000 </r>
       <r>    2.0140    0.0000 </r>
       <r>    2.2592    0.0000 </r>
       <r>    2.3946    0.0000 </r>
       <r>    2.4471    0.0000 </r>
      </set>
      <set comment="kpoint 286">
       <r>  -12.7776    1.0000 </r>
       <r>  -12.3055    1.0000 </r>
       <r>  -11.6041    1.0000 </r>
       <r>  -11.2375    1.0000 </r>
       <r>  -10.7895    1.0000 </r>
       <r>  -10.2204    1.0000 </r>
       <r>  -10.1421    1.0000 </r>
       <r>   -8.9628    1.0000 </r>
       <r>   -8.9484    1.0000 </r>
       <r>   -8.1611    1.0000 </r>
       <r>   -7.7743    1.0000 </r>
       <r>   -7.3434    1.0000 </r>
       <r>   -6.7724    1.0000 </r>
       <r>   -6.0314    1.0000 </r>
       <r>   -5.9916    1.0000 </r>
       <r>   -5.5517    1.0000 </r>
       <r>   -3.7437    1.0000 </r>
       <r>   -0.7076    0.0000 </r>
       <r>    0.3565    0.0000 </r>
       <r>    0.3714    0.0000 </r>
       <r>    0.5626    0.0000 </r>
       <r>    0.8969    0.0000 </r>
       <r>    1.7805    0.0000 </r>
       <r>    1.9526    0.0000 </r>
       <r>    1.9829    0.0000 </r>
       <r>    2.3499    0.0000 </r>
       <r>    2.3621    0.0000 </r>
       <r>    2.4159    0.0000 </r>
      </set>
      <set comment="kpoint 287">
       <r>  -12.7964    1.0000 </r>
       <r>  -12.2214    1.0000 </r>
       <r>  -11.7250    1.0000 </r>
       <r>  -11.2555    1.0000 </r>
       <r>  -10.7106    1.0000 </r>
       <r>  -10.2519    1.0000 </r>
       <r>  -10.0423    1.0000 </r>
       <r>   -9.1366    1.0000 </r>
       <r>   -8.8260    1.0000 </r>
       <r>   -8.2419    1.0000 </r>
       <r>   -7.7921    1.0000 </r>
       <r>   -7.2702    1.0000 </r>
       <r>   -6.8637    1.0000 </r>
       <r>   -5.9868    1.0000 </r>
       <r>   -5.9593    1.0000 </r>
       <r>   -5.3453    1.0000 </r>
       <r>   -4.0497    1.0000 </r>
       <r>   -0.3932    0.0000 </r>
       <r>    0.3420    0.0000 </r>
       <r>    0.3755    0.0000 </r>
       <r>    0.5310    0.0000 </r>
       <r>    0.7454    0.0000 </r>
       <r>    1.7573    0.0000 </r>
       <r>    1.9080    0.0000 </r>
       <r>    2.1415    0.0000 </r>
       <r>    2.3173    0.0000 </r>
       <r>    2.3378    0.0000 </r>
       <r>    2.3927    0.0000 </r>
      </set>
      <set comment="kpoint 288">
       <r>  -12.8088    1.0000 </r>
       <r>  -12.1309    1.0000 </r>
       <r>  -11.8397    1.0000 </r>
       <r>  -11.2674    1.0000 </r>
       <r>  -10.6261    1.0000 </r>
       <r>  -10.3568    1.0000 </r>
       <r>   -9.8600    1.0000 </r>
       <r>   -9.3267    1.0000 </r>
       <r>   -8.6914    1.0000 </r>
       <r>   -8.3426    1.0000 </r>
       <r>   -7.8038    1.0000 </r>
       <r>   -7.1926    1.0000 </r>
       <r>   -6.9533    1.0000 </r>
       <r>   -5.9548    1.0000 </r>
       <r>   -5.9390    1.0000 </r>
       <r>   -5.1115    1.0000 </r>
       <r>   -4.3455    1.0000 </r>
       <r>   -0.1037    0.0000 </r>
       <r>    0.3323    0.0000 </r>
       <r>    0.4022    0.0000 </r>
       <r>    0.4526    0.0000 </r>
       <r>    0.6186    0.0000 </r>
       <r>    1.7420    0.0000 </r>
       <r>    1.8926    0.0000 </r>
       <r>    2.1271    0.0000 </r>
       <r>    2.2986    0.0000 </r>
       <r>    2.3219    0.0000 </r>
       <r>    2.3773    0.0000 </r>
      </set>
      <set comment="kpoint 289">
       <r>  -12.8147    1.0000 </r>
       <r>  -12.0341    1.0000 </r>
       <r>  -11.9481    1.0000 </r>
       <r>  -11.2731    1.0000 </r>
       <r>  -10.5361    1.0000 </r>
       <r>  -10.4566    1.0000 </r>
       <r>   -9.6742    1.0000 </r>
       <r>   -9.5165    1.0000 </r>
       <r>   -8.5612    1.0000 </r>
       <r>   -8.4574    1.0000 </r>
       <r>   -7.8094    1.0000 </r>
       <r>   -7.1113    1.0000 </r>
       <r>   -7.0406    1.0000 </r>
       <r>   -5.9364    1.0000 </r>
       <r>   -5.9318    1.0000 </r>
       <r>   -4.8564    1.0000 </r>
       <r>   -4.6294    1.0000 </r>
       <r>    0.1461    0.0000 </r>
       <r>    0.3129    0.0000 </r>
       <r>    0.3276    0.0000 </r>
       <r>    0.4541    0.0000 </r>
       <r>    0.5180    0.0000 </r>
       <r>    1.7347    0.0000 </r>
       <r>    1.9205    0.0000 </r>
       <r>    1.9882    0.0000 </r>
       <r>    2.3143    0.0000 </r>
       <r>    2.3700    0.0000 </r>
       <r>    2.4434    0.0000 </r>
      </set>
      <set comment="kpoint 290">
       <r>  -12.8142    1.0000 </r>
       <r>  -12.0503    1.0000 </r>
       <r>  -11.9309    1.0000 </r>
       <r>  -11.2726    1.0000 </r>
       <r>  -10.5511    1.0000 </r>
       <r>  -10.4407    1.0000 </r>
       <r>   -9.7046    1.0000 </r>
       <r>   -9.4858    1.0000 </r>
       <r>   -8.5820    1.0000 </r>
       <r>   -8.4380    1.0000 </r>
       <r>   -7.8089    1.0000 </r>
       <r>   -7.1248    1.0000 </r>
       <r>   -7.0265    1.0000 </r>
       <r>   -5.9385    1.0000 </r>
       <r>   -5.9319    1.0000 </r>
       <r>   -4.8991    1.0000 </r>
       <r>   -4.5842    1.0000 </r>
       <r>    0.1088    0.0000 </r>
       <r>    0.3280    0.0000 </r>
       <r>    0.3402    0.0000 </r>
       <r>    0.4440    0.0000 </r>
       <r>    0.5324    0.0000 </r>
       <r>    1.7354    0.0000 </r>
       <r>    1.9126    0.0000 </r>
       <r>    2.0063    0.0000 </r>
       <r>    2.3150    0.0000 </r>
       <r>    2.3706    0.0000 </r>
       <r>    2.4213    0.0000 </r>
      </set>
      <set comment="kpoint 291">
       <r>  -12.8072    1.0000 </r>
       <r>  -12.1461    1.0000 </r>
       <r>  -11.8215    1.0000 </r>
       <r>  -11.2659    1.0000 </r>
       <r>  -10.6403    1.0000 </r>
       <r>  -10.3401    1.0000 </r>
       <r>   -9.8899    1.0000 </r>
       <r>   -9.2958    1.0000 </r>
       <r>   -8.7131    1.0000 </r>
       <r>   -8.3251    1.0000 </r>
       <r>   -7.8023    1.0000 </r>
       <r>   -7.2056    1.0000 </r>
       <r>   -6.9389    1.0000 </r>
       <r>   -5.9592    1.0000 </r>
       <r>   -5.9413    1.0000 </r>
       <r>   -5.1511    1.0000 </r>
       <r>   -4.2982    1.0000 </r>
       <r>   -0.1487    0.0000 </r>
       <r>    0.3335    0.0000 </r>
       <r>    0.3963    0.0000 </r>
       <r>    0.4694    0.0000 </r>
       <r>    0.6373    0.0000 </r>
       <r>    1.7440    0.0000 </r>
       <r>    1.8927    0.0000 </r>
       <r>    2.1551    0.0000 </r>
       <r>    2.2737    0.0000 </r>
       <r>    2.3239    0.0000 </r>
       <r>    2.3793    0.0000 </r>
      </set>
      <set comment="kpoint 292">
       <r>  -12.7938    1.0000 </r>
       <r>  -12.2355    1.0000 </r>
       <r>  -11.7058    1.0000 </r>
       <r>  -11.2530    1.0000 </r>
       <r>  -10.7238    1.0000 </r>
       <r>  -10.2344    1.0000 </r>
       <r>  -10.0716    1.0000 </r>
       <r>   -9.1058    1.0000 </r>
       <r>   -8.8481    1.0000 </r>
       <r>   -8.2273    1.0000 </r>
       <r>   -7.7896    1.0000 </r>
       <r>   -7.2824    1.0000 </r>
       <r>   -6.8489    1.0000 </r>
       <r>   -5.9933    1.0000 </r>
       <r>   -5.9637    1.0000 </r>
       <r>   -5.3809    1.0000 </r>
       <r>   -4.0006    1.0000 </r>
       <r>   -0.4431    0.0000 </r>
       <r>    0.3440    0.0000 </r>
       <r>    0.3735    0.0000 </r>
       <r>    0.5390    0.0000 </r>
       <r>    0.7682    0.0000 </r>
       <r>    1.7605    0.0000 </r>
       <r>    1.9138    0.0000 </r>
       <r>    2.1156    0.0000 </r>
       <r>    2.3412    0.0000 </r>
       <r>    2.3497    0.0000 </r>
       <r>    2.3959    0.0000 </r>
      </set>
      <set comment="kpoint 293">
       <r>  -12.7739    1.0000 </r>
       <r>  -12.3186    1.0000 </r>
       <r>  -11.5839    1.0000 </r>
       <r>  -11.2340    1.0000 </r>
       <r>  -10.8018    1.0000 </r>
       <r>  -10.2490    1.0000 </r>
       <r>  -10.1238    1.0000 </r>
       <r>   -8.9851    1.0000 </r>
       <r>   -8.9182    1.0000 </r>
       <r>   -8.1504    1.0000 </r>
       <r>   -7.7708    1.0000 </r>
       <r>   -7.3550    1.0000 </r>
       <r>   -6.7574    1.0000 </r>
       <r>   -6.0398    1.0000 </r>
       <r>   -5.9978    1.0000 </r>
       <r>   -5.5821    1.0000 </r>
       <r>   -3.6932    1.0000 </r>
       <r>   -0.7604    0.0000 </r>
       <r>    0.3593    0.0000 </r>
       <r>    0.3726    0.0000 </r>
       <r>    0.5645    0.0000 </r>
       <r>    0.9235    0.0000 </r>
       <r>    1.7850    0.0000 </r>
       <r>    1.9577    0.0000 </r>
       <r>    1.9619    0.0000 </r>
       <r>    2.3349    0.0000 </r>
       <r>    2.3668    0.0000 </r>
       <r>    2.4205    0.0000 </r>
      </set>
      <set comment="kpoint 294">
       <r>  -12.7476    1.0000 </r>
       <r>  -12.3952    1.0000 </r>
       <r>  -11.4558    1.0000 </r>
       <r>  -11.2088    1.0000 </r>
       <r>  -10.8740    1.0000 </r>
       <r>  -10.4216    1.0000 </r>
       <r>  -10.0086    1.0000 </r>
       <r>   -9.1227    1.0000 </r>
       <r>   -8.7361    1.0000 </r>
       <r>   -8.1015    1.0000 </r>
       <r>   -7.7460    1.0000 </r>
       <r>   -7.4229    1.0000 </r>
       <r>   -6.6650    1.0000 </r>
       <r>   -6.0974    1.0000 </r>
       <r>   -6.0418    1.0000 </r>
       <r>   -5.7463    1.0000 </r>
       <r>   -3.3773    1.0000 </r>
       <r>   -1.0909    0.0000 </r>
       <r>    0.3792    0.0000 </r>
       <r>    0.3891    0.0000 </r>
       <r>    0.5621    0.0000 </r>
       <r>    1.1014    0.0000 </r>
       <r>    1.8100    0.0000 </r>
       <r>    1.8173    0.0000 </r>
       <r>    2.0248    0.0000 </r>
       <r>    2.2448    0.0000 </r>
       <r>    2.4007    0.0000 </r>
       <r>    2.4529    0.0000 </r>
      </set>
      <set comment="kpoint 295">
       <r>  -12.7149    1.0000 </r>
       <r>  -12.4655    1.0000 </r>
       <r>  -11.3216    1.0000 </r>
       <r>  -11.1775    1.0000 </r>
       <r>  -10.9404    1.0000 </r>
       <r>  -10.5893    1.0000 </r>
       <r>   -9.8889    1.0000 </r>
       <r>   -9.2597    1.0000 </r>
       <r>   -8.5638    1.0000 </r>
       <r>   -8.0879    1.0000 </r>
       <r>   -7.7153    1.0000 </r>
       <r>   -7.4860    1.0000 </r>
       <r>   -6.5727    1.0000 </r>
       <r>   -6.1645    1.0000 </r>
       <r>   -6.0921    1.0000 </r>
       <r>   -5.8652    1.0000 </r>
       <r>   -3.0541    0.0020 </r>
       <r>   -1.4283    0.0000 </r>
       <r>    0.4031    0.0000 </r>
       <r>    0.4158    0.0000 </r>
       <r>    0.5437    0.0000 </r>
       <r>    1.2993    0.0000 </r>
       <r>    1.6833    0.0000 </r>
       <r>    1.8576    0.0000 </r>
       <r>    2.0857    0.0000 </r>
       <r>    2.1608    0.0000 </r>
       <r>    2.5326    0.0000 </r>
       <r>    2.5675    0.0000 </r>
      </set>
      <set comment="kpoint 296">
       <r>  -12.6757    1.0000 </r>
       <r>  -12.5294    1.0000 </r>
       <r>  -11.1814    1.0000 </r>
       <r>  -11.1400    1.0000 </r>
       <r>  -11.0009    1.0000 </r>
       <r>  -10.7516    1.0000 </r>
       <r>   -9.7651    1.0000 </r>
       <r>   -9.3951    1.0000 </r>
       <r>   -8.4075    1.0000 </r>
       <r>   -8.1149    1.0000 </r>
       <r>   -7.6787    1.0000 </r>
       <r>   -7.5439    1.0000 </r>
       <r>   -6.4814    1.0000 </r>
       <r>   -6.2395    1.0000 </r>
       <r>   -6.1385    1.0000 </r>
       <r>   -5.9374    1.0000 </r>
       <r>   -2.7248    0.0000 </r>
       <r>   -1.7682    0.0000 </r>
       <r>    0.4305    0.0000 </r>
       <r>    0.4430    0.0000 </r>
       <r>    0.5168    0.0000 </r>
       <r>    1.5136    0.0000 </r>
       <r>    1.5893    0.0000 </r>
       <r>    1.9056    0.0000 </r>
       <r>    2.0835    0.0000 </r>
       <r>    2.0837    0.0000 </r>
       <r>    2.3795    0.0000 </r>
       <r>    2.5264    0.0000 </r>
      </set>
      <set comment="kpoint 297">
       <r>  -12.6300    1.0000 </r>
       <r>  -12.5869    1.0000 </r>
       <r>  -11.0965    1.0000 </r>
       <r>  -11.0554    1.0000 </r>
       <r>  -11.0352    1.0000 </r>
       <r>  -10.9083    1.0000 </r>
       <r>   -9.6376    1.0000 </r>
       <r>   -9.5283    1.0000 </r>
       <r>   -8.2765    1.0000 </r>
       <r>   -8.1820    1.0000 </r>
       <r>   -7.6363    1.0000 </r>
       <r>   -7.5965    1.0000 </r>
       <r>   -6.3925    1.0000 </r>
       <r>   -6.3208    1.0000 </r>
       <r>   -6.1654    1.0000 </r>
       <r>   -5.9693    1.0000 </r>
       <r>   -2.3906    0.0000 </r>
       <r>   -2.1078    0.0000 </r>
       <r>    0.4597    0.0000 </r>
       <r>    0.4604    0.0000 </r>
       <r>    0.4864    0.0000 </r>
       <r>    1.5405    0.0000 </r>
       <r>    1.7382    0.0000 </r>
       <r>    1.9231    0.0000 </r>
       <r>    1.9614    0.0000 </r>
       <r>    2.0140    0.0000 </r>
       <r>    2.3850    0.0000 </r>
       <r>    2.4445    0.0000 </r>
      </set>
      <set comment="kpoint 298">
       <r>  -12.5238    1.0000 </r>
       <r>  -12.5064    1.0000 </r>
       <r>  -10.9868    1.0000 </r>
       <r>  -10.9703    1.0000 </r>
       <r>  -10.9086    1.0000 </r>
       <r>  -10.8575    1.0000 </r>
       <r>   -9.5154    1.0000 </r>
       <r>   -9.4716    1.0000 </r>
       <r>   -8.1848    1.0000 </r>
       <r>   -8.1352    1.0000 </r>
       <r>   -7.4955    1.0000 </r>
       <r>   -7.4794    1.0000 </r>
       <r>   -6.2440    1.0000 </r>
       <r>   -6.2150    1.0000 </r>
       <r>   -6.0388    1.0000 </r>
       <r>   -5.8406    1.0000 </r>
       <r>   -2.1950    0.0000 </r>
       <r>   -2.0806    0.0000 </r>
       <r>    0.5605    0.0000 </r>
       <r>    0.5664    0.0000 </r>
       <r>    0.5771    0.0000 </r>
       <r>    1.6072    0.0000 </r>
       <r>    1.8614    0.0000 </r>
       <r>    1.9364    0.0000 </r>
       <r>    2.1064    0.0000 </r>
       <r>    2.1276    0.0000 </r>
       <r>    2.4099    0.0000 </r>
       <r>    2.4346    0.0000 </r>
      </set>
      <set comment="kpoint 299">
       <r>  -12.5710    1.0000 </r>
       <r>  -12.4507    1.0000 </r>
       <r>  -11.0557    1.0000 </r>
       <r>  -11.0316    1.0000 </r>
       <r>  -10.9174    1.0000 </r>
       <r>  -10.7027    1.0000 </r>
       <r>   -9.6429    1.0000 </r>
       <r>   -9.3400    1.0000 </r>
       <r>   -8.3029    1.0000 </r>
       <r>   -8.0627    1.0000 </r>
       <r>   -7.5392    1.0000 </r>
       <r>   -7.4282    1.0000 </r>
       <r>   -6.3318    1.0000 </r>
       <r>   -6.1328    1.0000 </r>
       <r>   -6.0193    1.0000 </r>
       <r>   -5.8179    1.0000 </r>
       <r>   -2.5304    0.0000 </r>
       <r>   -1.7409    0.0000 </r>
       <r>    0.5356    0.0000 </r>
       <r>    0.5472    0.0000 </r>
       <r>    0.6088    0.0000 </r>
       <r>    1.6367    0.0000 </r>
       <r>    1.6430    0.0000 </r>
       <r>    2.0490    0.0000 </r>
       <r>    2.1224    0.0000 </r>
       <r>    2.1951    0.0000 </r>
       <r>    2.3792    0.0000 </r>
       <r>    2.5132    0.0000 </r>
      </set>
      <set comment="kpoint 300">
       <r>  -12.6117    1.0000 </r>
       <r>  -12.3886    1.0000 </r>
       <r>  -11.1970    1.0000 </r>
       <r>  -11.0704    1.0000 </r>
       <r>  -10.8587    1.0000 </r>
       <r>  -10.5424    1.0000 </r>
       <r>   -9.7669    1.0000 </r>
       <r>   -9.2061    1.0000 </r>
       <r>   -8.4515    1.0000 </r>
       <r>   -8.0250    1.0000 </r>
       <r>   -7.5773    1.0000 </r>
       <r>   -7.3717    1.0000 </r>
       <r>   -6.4223    1.0000 </r>
       <r>   -6.0565    1.0000 </r>
       <r>   -5.9778    1.0000 </r>
       <r>   -5.7574    1.0000 </r>
       <r>   -2.8609    0.0000 </r>
       <r>   -1.4000    0.0000 </r>
       <r>    0.5072    0.0000 </r>
       <r>    0.5201    0.0000 </r>
       <r>    0.6383    0.0000 </r>
       <r>    1.4208    0.0000 </r>
       <r>    1.7258    0.0000 </r>
       <r>    1.9992    0.0000 </r>
       <r>    2.1436    0.0000 </r>
       <r>    2.2699    0.0000 </r>
       <r>    2.5167    0.0000 </r>
       <r>    2.5892    0.0000 </r>
      </set>
      <set comment="kpoint 301">
       <r>  -12.6460    1.0000 </r>
       <r>  -12.3201    1.0000 </r>
       <r>  -11.3323    1.0000 </r>
       <r>  -11.1031    1.0000 </r>
       <r>  -10.7940    1.0000 </r>
       <r>  -10.3768    1.0000 </r>
       <r>   -9.8868    1.0000 </r>
       <r>   -9.0706    1.0000 </r>
       <r>   -8.6180    1.0000 </r>
       <r>   -8.0274    1.0000 </r>
       <r>   -7.6094    1.0000 </r>
       <r>   -7.3099    1.0000 </r>
       <r>   -6.5142    1.0000 </r>
       <r>   -5.9877    1.0000 </r>
       <r>   -5.9286    1.0000 </r>
       <r>   -5.6520    1.0000 </r>
       <r>   -3.1853    1.0000 </r>
       <r>   -1.0605    0.0000 </r>
       <r>    0.4822    0.0000 </r>
       <r>    0.4903    0.0000 </r>
       <r>    0.6614    0.0000 </r>
       <r>    1.2207    0.0000 </r>
       <r>    1.8434    0.0000 </r>
       <r>    1.9572    0.0000 </r>
       <r>    2.0824    0.0000 </r>
       <r>    2.3516    0.0000 </r>
       <r>    2.6522    0.0000 </r>
       <r>    2.6754    0.0000 </r>
      </set>
      <set comment="kpoint 302">
       <r>  -12.6738    1.0000 </r>
       <r>  -12.2452    1.0000 </r>
       <r>  -11.4615    1.0000 </r>
       <r>  -11.1297    1.0000 </r>
       <r>  -10.7236    1.0000 </r>
       <r>  -10.2061    1.0000 </r>
       <r>  -10.0025    1.0000 </r>
       <r>   -8.9344    1.0000 </r>
       <r>   -8.7959    1.0000 </r>
       <r>   -8.0659    1.0000 </r>
       <r>   -7.6357    1.0000 </r>
       <r>   -7.2432    1.0000 </r>
       <r>   -6.6064    1.0000 </r>
       <r>   -5.9280    1.0000 </r>
       <r>   -5.8836    1.0000 </r>
       <r>   -5.5009    1.0000 </r>
       <r>   -3.5026    1.0000 </r>
       <r>   -0.7262    0.0000 </r>
       <r>    0.4613    0.0000 </r>
       <r>    0.4684    0.0000 </r>
       <r>    0.6717    0.0000 </r>
       <r>    1.0400    0.0000 </r>
       <r>    1.9230    0.0000 </r>
       <r>    1.9833    0.0000 </r>
       <r>    2.0172    0.0000 </r>
       <r>    2.4395    0.0000 </r>
       <r>    2.5177    0.0000 </r>
       <r>    2.5638    0.0000 </r>
      </set>
      <set comment="kpoint 303">
       <r>  -12.6953    1.0000 </r>
       <r>  -12.1639    1.0000 </r>
       <r>  -11.5846    1.0000 </r>
       <r>  -11.1502    1.0000 </r>
       <r>  -10.6475    1.0000 </r>
       <r>  -10.1137    1.0000 </r>
       <r>  -10.0307    1.0000 </r>
       <r>   -8.9805    1.0000 </r>
       <r>   -8.7985    1.0000 </r>
       <r>   -8.1339    1.0000 </r>
       <r>   -7.6560    1.0000 </r>
       <r>   -7.1719    1.0000 </r>
       <r>   -6.6980    1.0000 </r>
       <r>   -5.8791    1.0000 </r>
       <r>   -5.8474    1.0000 </r>
       <r>   -5.3108    1.0000 </r>
       <r>   -3.8114    1.0000 </r>
       <r>   -0.4029    0.0000 </r>
       <r>    0.4448    0.0000 </r>
       <r>    0.4621    0.0000 </r>
       <r>    0.6586    0.0000 </r>
       <r>    0.8813    0.0000 </r>
       <r>    1.8967    0.0000 </r>
       <r>    1.9650    0.0000 </r>
       <r>    2.1342    0.0000 </r>
       <r>    2.4808    0.0000 </r>
       <r>    2.4831    0.0000 </r>
       <r>    2.5360    0.0000 </r>
      </set>
      <set comment="kpoint 304">
       <r>  -12.7103    1.0000 </r>
       <r>  -12.0763    1.0000 </r>
       <r>  -11.7015    1.0000 </r>
       <r>  -11.1646    1.0000 </r>
       <r>  -10.5657    1.0000 </r>
       <r>  -10.2201    1.0000 </r>
       <r>   -9.8510    1.0000 </r>
       <r>   -9.1684    1.0000 </r>
       <r>   -8.6644    1.0000 </r>
       <r>   -8.2246    1.0000 </r>
       <r>   -7.6702    1.0000 </r>
       <r>   -7.0962    1.0000 </r>
       <r>   -6.7883    1.0000 </r>
       <r>   -5.8422    1.0000 </r>
       <r>   -5.8223    1.0000 </r>
       <r>   -5.0899    1.0000 </r>
       <r>   -4.1106    1.0000 </r>
       <r>   -0.0997    0.0000 </r>
       <r>    0.4331    0.0000 </r>
       <r>    0.4767    0.0000 </r>
       <r>    0.6064    0.0000 </r>
       <r>    0.7468    0.0000 </r>
       <r>    1.8783    0.0000 </r>
       <r>    1.9373    0.0000 </r>
       <r>    2.2663    0.0000 </r>
       <r>    2.2858    0.0000 </r>
       <r>    2.4638    0.0000 </r>
       <r>    2.5174    0.0000 </r>
      </set>
      <set comment="kpoint 305">
       <r>  -12.7188    1.0000 </r>
       <r>  -11.9823    1.0000 </r>
       <r>  -11.8122    1.0000 </r>
       <r>  -11.1728    1.0000 </r>
       <r>  -10.4784    1.0000 </r>
       <r>  -10.3214    1.0000 </r>
       <r>   -9.6676    1.0000 </r>
       <r>   -9.3570    1.0000 </r>
       <r>   -8.5339    1.0000 </r>
       <r>   -8.3318    1.0000 </r>
       <r>   -7.6783    1.0000 </r>
       <r>   -7.0165    1.0000 </r>
       <r>   -6.8764    1.0000 </r>
       <r>   -5.8184    1.0000 </r>
       <r>   -5.8096    1.0000 </r>
       <r>   -4.8452    1.0000 </r>
       <r>   -4.3983    1.0000 </r>
       <r>    0.1699    0.0000 </r>
       <r>    0.4263    0.0000 </r>
       <r>    0.4974    0.0000 </r>
       <r>    0.5155    0.0000 </r>
       <r>    0.6380    0.0000 </r>
       <r>    1.8677    0.0000 </r>
       <r>    1.9478    0.0000 </r>
       <r>    2.0927    0.0000 </r>
       <r>    2.4275    0.0000 </r>
       <r>    2.4528    0.0000 </r>
       <r>    2.5067    0.0000 </r>
      </set>
      <set comment="kpoint 306">
       <r>  -12.7210    1.0000 </r>
       <r>  -11.9167    1.0000 </r>
       <r>  -11.8820    1.0000 </r>
       <r>  -11.1748    1.0000 </r>
       <r>  -10.4176    1.0000 </r>
       <r>  -10.3857    1.0000 </r>
       <r>   -9.5447    1.0000 </r>
       <r>   -9.4814    1.0000 </r>
       <r>   -8.4507    1.0000 </r>
       <r>   -8.4094    1.0000 </r>
       <r>   -7.6803    1.0000 </r>
       <r>   -6.9618    1.0000 </r>
       <r>   -6.9332    1.0000 </r>
       <r>   -5.8104    1.0000 </r>
       <r>   -5.8085    1.0000 </r>
       <r>   -4.6725    1.0000 </r>
       <r>   -4.5815    1.0000 </r>
       <r>    0.3211    0.0000 </r>
       <r>    0.3884    0.0000 </r>
       <r>    0.4246    0.0000 </r>
       <r>    0.5556    0.0000 </r>
       <r>    0.5803    0.0000 </r>
       <r>    1.8651    0.0000 </r>
       <r>    1.9841    0.0000 </r>
       <r>    2.0130    0.0000 </r>
       <r>    2.4500    0.0000 </r>
       <r>    2.5041    0.0000 </r>
       <r>    2.5108    0.0000 </r>
      </set>
      <set comment="kpoint 307">
       <r>  -12.7167    1.0000 </r>
       <r>  -12.0148    1.0000 </r>
       <r>  -11.7755    1.0000 </r>
       <r>  -11.1707    1.0000 </r>
       <r>  -10.5085    1.0000 </r>
       <r>  -10.2877    1.0000 </r>
       <r>   -9.7300    1.0000 </r>
       <r>   -9.2932    1.0000 </r>
       <r>   -8.5775    1.0000 </r>
       <r>   -8.2940    1.0000 </r>
       <r>   -7.6762    1.0000 </r>
       <r>   -7.0439    1.0000 </r>
       <r>   -6.8468    1.0000 </r>
       <r>   -5.8251    1.0000 </r>
       <r>   -5.8123    1.0000 </r>
       <r>   -4.9302    1.0000 </r>
       <r>   -4.3024    1.0000 </r>
       <r>    0.0834    0.0000 </r>
       <r>    0.4280    0.0000 </r>
       <r>    0.4997    0.0000 </r>
       <r>    0.5417    0.0000 </r>
       <r>    0.6716    0.0000 </r>
       <r>    1.8704    0.0000 </r>
       <r>    1.9392    0.0000 </r>
       <r>    2.1445    0.0000 </r>
       <r>    2.3814    0.0000 </r>
       <r>    2.4556    0.0000 </r>
       <r>    2.5094    0.0000 </r>
      </set>
      <set comment="kpoint 308">
       <r>  -12.7059    1.0000 </r>
       <r>  -12.1066    1.0000 </r>
       <r>  -11.6627    1.0000 </r>
       <r>  -11.1604    1.0000 </r>
       <r>  -10.5940    1.0000 </r>
       <r>  -10.1846    1.0000 </r>
       <r>   -9.9122    1.0000 </r>
       <r>   -9.1047    1.0000 </r>
       <r>   -8.7095    1.0000 </r>
       <r>   -8.1918    1.0000 </r>
       <r>   -7.6660    1.0000 </r>
       <r>   -7.1223    1.0000 </r>
       <r>   -6.7579    1.0000 </r>
       <r>   -5.8533    1.0000 </r>
       <r>   -5.8294    1.0000 </r>
       <r>   -5.1675    1.0000 </r>
       <r>   -4.0106    1.0000 </r>
       <r>   -0.1994    0.0000 </r>
       <r>    0.4365    0.0000 </r>
       <r>    0.4693    0.0000 </r>
       <r>    0.6297    0.0000 </r>
       <r>    0.7893    0.0000 </r>
       <r>    1.8836    0.0000 </r>
       <r>    1.9434    0.0000 </r>
       <r>    2.2351    0.0000 </r>
       <r>    2.3367    0.0000 </r>
       <r>    2.4694    0.0000 </r>
       <r>    2.5228    0.0000 </r>
      </set>
      <set comment="kpoint 309">
       <r>  -12.6887    1.0000 </r>
       <r>  -12.1921    1.0000 </r>
       <r>  -11.5436    1.0000 </r>
       <r>  -11.1440    1.0000 </r>
       <r>  -10.6739    1.0000 </r>
       <r>  -10.0905    1.0000 </r>
       <r>  -10.0766    1.0000 </r>
       <r>   -8.9176    1.0000 </r>
       <r>   -8.8443    1.0000 </r>
       <r>   -8.1081    1.0000 </r>
       <r>   -7.6498    1.0000 </r>
       <r>   -7.1966    1.0000 </r>
       <r>   -6.6671    1.0000 </r>
       <r>   -5.8944    1.0000 </r>
       <r>   -5.8584    1.0000 </r>
       <r>   -5.3789    1.0000 </r>
       <r>   -3.7080    1.0000 </r>
       <r>   -0.5107    0.0000 </r>
       <r>    0.4499    0.0000 </r>
       <r>    0.4622    0.0000 </r>
       <r>    0.6666    0.0000 </r>
       <r>    0.9321    0.0000 </r>
       <r>    1.9048    0.0000 </r>
       <r>    1.9807    0.0000 </r>
       <r>    2.0826    0.0000 </r>
       <r>    2.4916    0.0000 </r>
       <r>    2.4973    0.0000 </r>
       <r>    2.5441    0.0000 </r>
      </set>
      <set comment="kpoint 310">
       <r>  -12.6651    1.0000 </r>
       <r>  -12.2712    1.0000 </r>
       <r>  -11.4185    1.0000 </r>
       <r>  -11.1214    1.0000 </r>
       <r>  -10.7481    1.0000 </r>
       <r>  -10.2644    1.0000 </r>
       <r>   -9.9639    1.0000 </r>
       <r>   -8.9805    1.0000 </r>
       <r>   -8.7348    1.0000 </r>
       <r>   -8.0492    1.0000 </r>
       <r>   -7.6275    1.0000 </r>
       <r>   -7.2664    1.0000 </r>
       <r>   -6.5751    1.0000 </r>
       <r>   -5.9472    1.0000 </r>
       <r>   -5.8979    1.0000 </r>
       <r>   -5.5568    1.0000 </r>
       <r>   -3.3962    1.0000 </r>
       <r>   -0.8385    0.0000 </r>
       <r>    0.4679    0.0000 </r>
       <r>    0.4745    0.0000 </r>
       <r>    0.6703    0.0000 </r>
       <r>    1.0984    0.0000 </r>
       <r>    1.9338    0.0000 </r>
       <r>    1.9342    0.0000 </r>
       <r>    2.0386    0.0000 </r>
       <r>    2.4091    0.0000 </r>
       <r>    2.5226    0.0000 </r>
       <r>    2.5733    0.0000 </r>
      </set>
      <set comment="kpoint 311">
       <r>  -12.6351    1.0000 </r>
       <r>  -12.3440    1.0000 </r>
       <r>  -11.2872    1.0000 </r>
       <r>  -11.0927    1.0000 </r>
       <r>  -10.8166    1.0000 </r>
       <r>  -10.4334    1.0000 </r>
       <r>   -9.8467    1.0000 </r>
       <r>   -9.1166    1.0000 </r>
       <r>   -8.5601    1.0000 </r>
       <r>   -8.0222    1.0000 </r>
       <r>   -7.5992    1.0000 </r>
       <r>   -7.3314    1.0000 </r>
       <r>   -6.4829    1.0000 </r>
       <r>   -6.0101    1.0000 </r>
       <r>   -5.9451    1.0000 </r>
       <r>   -5.6929    1.0000 </r>
       <r>   -3.0764    0.0964 </r>
       <r>   -1.1750    0.0000 </r>
       <r>    0.4903    0.0000 </r>
       <r>    0.5001    0.0000 </r>
       <r>    0.6547    0.0000 </r>
       <r>    1.2860    0.0000 </r>
       <r>    1.8006    0.0000 </r>
       <r>    1.9706    0.0000 </r>
       <r>    2.1052    0.0000 </r>
       <r>    2.3231    0.0000 </r>
       <r>    2.6326    0.0000 </r>
       <r>    2.6578    0.0000 </r>
      </set>
      <set comment="kpoint 312">
       <r>  -12.5986    1.0000 </r>
       <r>  -12.4103    1.0000 </r>
       <r>  -11.1498    1.0000 </r>
       <r>  -11.0579    1.0000 </r>
       <r>  -10.8792    1.0000 </r>
       <r>  -10.5973    1.0000 </r>
       <r>   -9.7253    1.0000 </r>
       <r>   -9.2517    1.0000 </r>
       <r>   -8.3988    1.0000 </r>
       <r>   -8.0332    1.0000 </r>
       <r>   -7.5650    1.0000 </r>
       <r>   -7.3914    1.0000 </r>
       <r>   -6.3914    1.0000 </r>
       <r>   -6.0816    1.0000 </r>
       <r>   -5.9934    1.0000 </r>
       <r>   -5.7825    1.0000 </r>
       <r>   -2.7497    0.0000 </r>
       <r>   -1.5153    0.0000 </r>
       <r>    0.5165    0.0000 </r>
       <r>    0.5302    0.0000 </r>
       <r>    0.6288    0.0000 </r>
       <r>    1.4920    0.0000 </r>
       <r>    1.6932    0.0000 </r>
       <r>    2.0152    0.0000 </r>
       <r>    2.1541    0.0000 </r>
       <r>    2.2437    0.0000 </r>
       <r>    2.4534    0.0000 </r>
       <r>    2.5641    0.0000 </r>
      </set>
      <set comment="kpoint 313">
       <r>  -12.5557    1.0000 </r>
       <r>  -12.4703    1.0000 </r>
       <r>  -11.0171    1.0000 </r>
       <r>  -11.0066    1.0000 </r>
       <r>  -10.9360    1.0000 </r>
       <r>  -10.7557    1.0000 </r>
       <r>   -9.6002    1.0000 </r>
       <r>   -9.3848    1.0000 </r>
       <r>   -8.2582    1.0000 </r>
       <r>   -8.0844    1.0000 </r>
       <r>   -7.5251    1.0000 </r>
       <r>   -7.4462    1.0000 </r>
       <r>   -6.3017    1.0000 </r>
       <r>   -6.1601    1.0000 </r>
       <r>   -6.0289    1.0000 </r>
       <r>   -5.8294    1.0000 </r>
       <r>   -2.4174    0.0000 </r>
       <r>   -1.8560    0.0000 </r>
       <r>    0.5458    0.0000 </r>
       <r>    0.5537    0.0000 </r>
       <r>    0.5982    0.0000 </r>
       <r>    1.6251    0.0000 </r>
       <r>    1.7119    0.0000 </r>
       <r>    2.0676    0.0000 </r>
       <r>    2.0713    0.0000 </r>
       <r>    2.1714    0.0000 </r>
       <r>    2.3779    0.0000 </r>
       <r>    2.4859    0.0000 </r>
      </set>
      <set comment="kpoint 314">
       <r>  -12.4290    1.0000 </r>
       <r>  -12.4041    1.0000 </r>
       <r>  -10.8878    1.0000 </r>
       <r>  -10.8642    1.0000 </r>
       <r>  -10.8263    1.0000 </r>
       <r>  -10.7532    1.0000 </r>
       <r>   -9.4314    1.0000 </r>
       <r>   -9.3689    1.0000 </r>
       <r>   -8.1225    1.0000 </r>
       <r>   -8.0616    1.0000 </r>
       <r>   -7.3627    1.0000 </r>
       <r>   -7.3396    1.0000 </r>
       <r>   -6.1168    1.0000 </r>
       <r>   -6.0756    1.0000 </r>
       <r>   -5.9025    1.0000 </r>
       <r>   -5.7018    1.0000 </r>
       <r>   -2.1033    0.0000 </r>
       <r>   -1.9388    0.0000 </r>
       <r>    0.6639    0.0000 </r>
       <r>    0.6657    0.0000 </r>
       <r>    0.6814    0.0000 </r>
       <r>    1.6754    0.0000 </r>
       <r>    1.9101    0.0000 </r>
       <r>    2.0193    0.0000 </r>
       <r>    2.2382    0.0000 </r>
       <r>    2.2684    0.0000 </r>
       <r>    2.4065    0.0000 </r>
       <r>    2.4407    0.0000 </r>
      </set>
      <set comment="kpoint 315">
       <r>  -12.4538    1.0000 </r>
       <r>  -12.3761    1.0000 </r>
       <r>  -10.9112    1.0000 </r>
       <r>  -10.9022    1.0000 </r>
       <r>  -10.8377    1.0000 </r>
       <r>  -10.6745    1.0000 </r>
       <r>   -9.4967    1.0000 </r>
       <r>   -9.3021    1.0000 </r>
       <r>   -8.1789    1.0000 </r>
       <r>   -8.0222    1.0000 </r>
       <r>   -7.3856    1.0000 </r>
       <r>   -7.3138    1.0000 </r>
       <r>   -6.1616    1.0000 </r>
       <r>   -6.0330    1.0000 </r>
       <r>   -5.8952    1.0000 </r>
       <r>   -5.6933    1.0000 </r>
       <r>   -2.2760    0.0000 </r>
       <r>   -1.7642    0.0000 </r>
       <r>    0.6495    0.0000 </r>
       <r>    0.6583    0.0000 </r>
       <r>    0.6981    0.0000 </r>
       <r>    1.6892    0.0000 </r>
       <r>    1.7946    0.0000 </r>
       <r>    2.1259    0.0000 </r>
       <r>    2.2082    0.0000 </r>
       <r>    2.3022    0.0000 </r>
       <r>    2.3792    0.0000 </r>
       <r>    2.4806    0.0000 </r>
      </set>
      <set comment="kpoint 316">
       <r>  -12.4970    1.0000 </r>
       <r>  -12.3168    1.0000 </r>
       <r>  -11.0453    1.0000 </r>
       <r>  -10.9523    1.0000 </r>
       <r>  -10.7816    1.0000 </r>
       <r>  -10.5171    1.0000 </r>
       <r>   -9.6213    1.0000 </r>
       <r>   -9.1702    1.0000 </r>
       <r>   -8.3151    1.0000 </r>
       <r>   -7.9685    1.0000 </r>
       <r>   -7.4260    1.0000 </r>
       <r>   -7.2595    1.0000 </r>
       <r>   -6.2507    1.0000 </r>
       <r>   -5.9545    1.0000 </r>
       <r>   -5.8624    1.0000 </r>
       <r>   -5.6498    1.0000 </r>
       <r>   -2.6086    0.0000 </r>
       <r>   -1.4229    0.0000 </r>
       <r>    0.6197    0.0000 </r>
       <r>    0.6342    0.0000 </r>
       <r>    0.7299    0.0000 </r>
       <r>    1.5755    0.0000 </r>
       <r>    1.7533    0.0000 </r>
       <r>    2.1556    0.0000 </r>
       <r>    2.2049    0.0000 </r>
       <r>    2.3735    0.0000 </r>
       <r>    2.4600    0.0000 </r>
       <r>    2.5562    0.0000 </r>
      </set>
      <set comment="kpoint 317">
       <r>  -12.5339    1.0000 </r>
       <r>  -12.2511    1.0000 </r>
       <r>  -11.1826    1.0000 </r>
       <r>  -10.9873    1.0000 </r>
       <r>  -10.7197    1.0000 </r>
       <r>  -10.3543    1.0000 </r>
       <r>   -9.7421    1.0000 </r>
       <r>   -9.0365    1.0000 </r>
       <r>   -8.4725    1.0000 </r>
       <r>   -7.9536    1.0000 </r>
       <r>   -7.4606    1.0000 </r>
       <r>   -7.1999    1.0000 </r>
       <r>   -6.3419    1.0000 </r>
       <r>   -5.8828    1.0000 </r>
       <r>   -5.8162    1.0000 </r>
       <r>   -5.5649    1.0000 </r>
       <r>   -2.9353    0.0000 </r>
       <r>   -1.0814    0.0000 </r>
       <r>    0.5931    0.0000 </r>
       <r>    0.6021    0.0000 </r>
       <r>    0.7581    0.0000 </r>
       <r>    1.3708    0.0000 </r>
       <r>    1.8564    0.0000 </r>
       <r>    2.1106    0.0000 </r>
       <r>    2.1473    0.0000 </r>
       <r>    2.4517    0.0000 </r>
       <r>    2.6226    0.0000 </r>
       <r>    2.6768    0.0000 </r>
      </set>
      <set comment="kpoint 318">
       <r>  -12.5643    1.0000 </r>
       <r>  -12.1790    1.0000 </r>
       <r>  -11.3139    1.0000 </r>
       <r>  -11.0163    1.0000 </r>
       <r>  -10.6520    1.0000 </r>
       <r>  -10.1865    1.0000 </r>
       <r>   -9.8588    1.0000 </r>
       <r>   -8.9018    1.0000 </r>
       <r>   -8.6439    1.0000 </r>
       <r>   -7.9759    1.0000 </r>
       <r>   -7.4892    1.0000 </r>
       <r>   -7.1353    1.0000 </r>
       <r>   -6.4338    1.0000 </r>
       <r>   -5.8197    1.0000 </r>
       <r>   -5.7699    1.0000 </r>
       <r>   -5.4344    1.0000 </r>
       <r>   -3.2550    1.0000 </r>
       <r>   -0.7430    0.0000 </r>
       <r>    0.5704    0.0000 </r>
       <r>    0.5734    0.0000 </r>
       <r>    0.7774    0.0000 </r>
       <r>    1.1846    0.0000 </r>
       <r>    1.9850    0.0000 </r>
       <r>    2.0734    0.0000 </r>
       <r>    2.0791    0.0000 </r>
       <r>    2.5363    0.0000 </r>
       <r>    2.6683    0.0000 </r>
       <r>    2.6725    0.0000 </r>
      </set>
      <set comment="kpoint 319">
       <r>  -12.5883    1.0000 </r>
       <r>  -12.1006    1.0000 </r>
       <r>  -11.4391    1.0000 </r>
       <r>  -11.0392    1.0000 </r>
       <r>  -10.5786    1.0000 </r>
       <r>  -10.0139    1.0000 </r>
       <r>   -9.9711    1.0000 </r>
       <r>   -8.8239    1.0000 </r>
       <r>   -8.7672    1.0000 </r>
       <r>   -8.0301    1.0000 </r>
       <r>   -7.5120    1.0000 </r>
       <r>   -7.0660    1.0000 </r>
       <r>   -6.5255    1.0000 </r>
       <r>   -5.7667    1.0000 </r>
       <r>   -5.7306    1.0000 </r>
       <r>   -5.2620    1.0000 </r>
       <r>   -3.5667    1.0000 </r>
       <r>   -0.4124    0.0000 </r>
       <r>    0.5520    0.0000 </r>
       <r>    0.5573    0.0000 </r>
       <r>    0.7795    0.0000 </r>
       <r>    1.0196    0.0000 </r>
       <r>    2.0208    0.0000 </r>
       <r>    2.0440    0.0000 </r>
       <r>    2.1271    0.0000 </r>
       <r>    2.6222    0.0000 </r>
       <r>    2.6372    0.0000 </r>
       <r>    2.6878    0.0000 </r>
      </set>
      <set comment="kpoint 320">
       <r>  -12.6059    1.0000 </r>
       <r>  -12.0158    1.0000 </r>
       <r>  -11.5582    1.0000 </r>
       <r>  -11.0560    1.0000 </r>
       <r>  -10.4996    1.0000 </r>
       <r>  -10.0788    1.0000 </r>
       <r>   -9.8370    1.0000 </r>
       <r>   -9.0087    1.0000 </r>
       <r>   -8.6338    1.0000 </r>
       <r>   -8.1096    1.0000 </r>
       <r>   -7.5287    1.0000 </r>
       <r>   -6.9921    1.0000 </r>
       <r>   -6.6162    1.0000 </r>
       <r>   -5.7251    1.0000 </r>
       <r>   -5.7012    1.0000 </r>
       <r>   -5.0556    1.0000 </r>
       <r>   -3.8689    1.0000 </r>
       <r>   -0.0974    0.0000 </r>
       <r>    0.5383    0.0000 </r>
       <r>    0.5600    0.0000 </r>
       <r>    0.7508    0.0000 </r>
       <r>    0.8781    0.0000 </r>
       <r>    1.9827    0.0000 </r>
       <r>    2.0224    0.0000 </r>
       <r>    2.2719    0.0000 </r>
       <r>    2.4208    0.0000 </r>
       <r>    2.6145    0.0000 </r>
       <r>    2.6660    0.0000 </r>
      </set>
      <set comment="kpoint 321">
       <r>  -12.6171    1.0000 </r>
       <r>  -11.9247    1.0000 </r>
       <r>  -11.6711    1.0000 </r>
       <r>  -11.0667    1.0000 </r>
       <r>  -10.4150    1.0000 </r>
       <r>  -10.1816    1.0000 </r>
       <r>   -9.6562    1.0000 </r>
       <r>   -9.1955    1.0000 </r>
       <r>   -8.5035    1.0000 </r>
       <r>   -8.2080    1.0000 </r>
       <r>   -7.5393    1.0000 </r>
       <r>   -6.9142    1.0000 </r>
       <r>   -6.7051    1.0000 </r>
       <r>   -5.6963    1.0000 </r>
       <r>   -5.6834    1.0000 </r>
       <r>   -4.8225    1.0000 </r>
       <r>   -4.1601    1.0000 </r>
       <r>    0.1900    0.0000 </r>
       <r>    0.5295    0.0000 </r>
       <r>    0.5858    0.0000 </r>
       <r>    0.6725    0.0000 </r>
       <r>    0.7616    0.0000 </r>
       <r>    1.9773    0.0000 </r>
       <r>    2.0087    0.0000 </r>
       <r>    2.2121    0.0000 </r>
       <r>    2.4091    0.0000 </r>
       <r>    2.6000    0.0000 </r>
       <r>    2.6521    0.0000 </r>
      </set>
      <set comment="kpoint 322">
       <r>  -12.6219    1.0000 </r>
       <r>  -11.8274    1.0000 </r>
       <r>  -11.7778    1.0000 </r>
       <r>  -11.0712    1.0000 </r>
       <r>  -10.3250    1.0000 </r>
       <r>  -10.2794    1.0000 </r>
       <r>   -9.4723    1.0000 </r>
       <r>   -9.3821    1.0000 </r>
       <r>   -8.3783    1.0000 </r>
       <r>   -8.3201    1.0000 </r>
       <r>   -7.5438    1.0000 </r>
       <r>   -6.8324    1.0000 </r>
       <r>   -6.7915    1.0000 </r>
       <r>   -5.6809    1.0000 </r>
       <r>   -5.6785    1.0000 </r>
       <r>   -4.5684    1.0000 </r>
       <r>   -4.4384    1.0000 </r>
       <r>    0.4323    0.0000 </r>
       <r>    0.5257    0.0000 </r>
       <r>    0.5279    0.0000 </r>
       <r>    0.6367    0.0000 </r>
       <r>    0.6713    0.0000 </r>
       <r>    2.0028    0.0000 </r>
       <r>    2.0217    0.0000 </r>
       <r>    2.0667    0.0000 </r>
       <r>    2.5283    0.0000 </r>
       <r>    2.5771    0.0000 </r>
       <r>    2.5938    0.0000 </r>
      </set>
      <set comment="kpoint 323">
       <r>  -12.6202    1.0000 </r>
       <r>  -11.8782    1.0000 </r>
       <r>  -11.7237    1.0000 </r>
       <r>  -11.0697    1.0000 </r>
       <r>  -10.3720    1.0000 </r>
       <r>  -10.2298    1.0000 </r>
       <r>   -9.5672    1.0000 </r>
       <r>   -9.2863    1.0000 </r>
       <r>   -8.4419    1.0000 </r>
       <r>   -8.2611    1.0000 </r>
       <r>   -7.5423    1.0000 </r>
       <r>   -6.8749    1.0000 </r>
       <r>   -6.7474    1.0000 </r>
       <r>   -5.6872    1.0000 </r>
       <r>   -5.6793    1.0000 </r>
       <r>   -4.7013    1.0000 </r>
       <r>   -4.2972    1.0000 </r>
       <r>    0.3145    0.0000 </r>
       <r>    0.5271    0.0000 </r>
       <r>    0.6075    0.0000 </r>
       <r>    0.6113    0.0000 </r>
       <r>    0.7141    0.0000 </r>
       <r>    1.9918    0.0000 </r>
       <r>    2.0049    0.0000 </r>
       <r>    2.1323    0.0000 </r>
       <r>    2.4700    0.0000 </r>
       <r>    2.5960    0.0000 </r>
       <r>    2.6203    0.0000 </r>
      </set>
      <set comment="kpoint 324">
       <r>  -12.6122    1.0000 </r>
       <r>  -11.9724    1.0000 </r>
       <r>  -11.6138    1.0000 </r>
       <r>  -11.0620    1.0000 </r>
       <r>  -10.4592    1.0000 </r>
       <r>  -10.1294    1.0000 </r>
       <r>   -9.7496    1.0000 </r>
       <r>   -9.0994    1.0000 </r>
       <r>   -8.5700    1.0000 </r>
       <r>   -8.1554    1.0000 </r>
       <r>   -7.5346    1.0000 </r>
       <r>   -6.9548    1.0000 </r>
       <r>   -6.6596    1.0000 </r>
       <r>   -5.7096    1.0000 </r>
       <r>   -5.6909    1.0000 </r>
       <r>   -4.9452    1.0000 </r>
       <r>   -4.0119    1.0000 </r>
       <r>    0.0466    0.0000 </r>
       <r>    0.5334    0.0000 </r>
       <r>    0.5697    0.0000 </r>
       <r>    0.7203    0.0000 </r>
       <r>    0.8180    0.0000 </r>
       <r>    1.9753    0.0000 </r>
       <r>    2.0148    0.0000 </r>
       <r>    2.3127    0.0000 </r>
       <r>    2.3402    0.0000 </r>
       <r>    2.6064    0.0000 </r>
       <r>    2.6582    0.0000 </r>
      </set>
      <set comment="kpoint 325">
       <r>  -12.5977    1.0000 </r>
       <r>  -12.0602    1.0000 </r>
       <r>  -11.4977    1.0000 </r>
       <r>  -11.0481    1.0000 </r>
       <r>  -10.5409    1.0000 </r>
       <r>  -10.0240    1.0000 </r>
       <r>   -9.9285    1.0000 </r>
       <r>   -8.9133    1.0000 </r>
       <r>   -8.7021    1.0000 </r>
       <r>   -8.0660    1.0000 </r>
       <r>   -7.5208    1.0000 </r>
       <r>   -7.0307    1.0000 </r>
       <r>   -6.5697    1.0000 </r>
       <r>   -5.7451    1.0000 </r>
       <r>   -5.7149    1.0000 </r>
       <r>   -5.1654    1.0000 </r>
       <r>   -3.7149    1.0000 </r>
       <r>   -0.2569    0.0000 </r>
       <r>    0.5448    0.0000 </r>
       <r>    0.5561    0.0000 </r>
       <r>    0.7705    0.0000 </r>
       <r>    0.9475    0.0000 </r>
       <r>    1.9993    0.0000 </r>
       <r>    2.0325    0.0000 </r>
       <r>    2.1978    0.0000 </r>
       <r>    2.5434    0.0000 </r>
       <r>    2.6251    0.0000 </r>
       <r>    2.6763    0.0000 </r>
      </set>
      <set comment="kpoint 326">
       <r>  -12.5768    1.0000 </r>
       <r>  -12.1417    1.0000 </r>
       <r>  -11.3755    1.0000 </r>
       <r>  -11.0282    1.0000 </r>
       <r>  -10.6171    1.0000 </r>
       <r>  -10.1032    1.0000 </r>
       <r>   -9.9139    1.0000 </r>
       <r>   -8.8363    1.0000 </r>
       <r>   -8.7306    1.0000 </r>
       <r>   -7.9987    1.0000 </r>
       <r>   -7.5010    1.0000 </r>
       <r>   -7.1023    1.0000 </r>
       <r>   -6.4784    1.0000 </r>
       <r>   -5.7927    1.0000 </r>
       <r>   -5.7496    1.0000 </r>
       <r>   -5.3553    1.0000 </r>
       <r>   -3.4076    1.0000 </r>
       <r>   -0.5810    0.0000 </r>
       <r>    0.5609    0.0000 </r>
       <r>    0.5637    0.0000 </r>
       <r>    0.7813    0.0000 </r>
       <r>    1.1013    0.0000 </r>
       <r>    2.0491    0.0000 </r>
       <r>    2.0531    0.0000 </r>
       <r>    2.0582    0.0000 </r>
       <r>    2.5791    0.0000 </r>
       <r>    2.6521    0.0000 </r>
       <r>    2.6883    0.0000 </r>
      </set>
      <set comment="kpoint 327">
       <r>  -12.5494    1.0000 </r>
       <r>  -12.2169    1.0000 </r>
       <r>  -11.2471    1.0000 </r>
       <r>  -11.0022    1.0000 </r>
       <r>  -10.6876    1.0000 </r>
       <r>  -10.2734    1.0000 </r>
       <r>   -9.7993    1.0000 </r>
       <r>   -8.9711    1.0000 </r>
       <r>   -8.5544    1.0000 </r>
       <r>   -7.9601    1.0000 </r>
       <r>   -7.4752    1.0000 </r>
       <r>   -7.1692    1.0000 </r>
       <r>   -6.3864    1.0000 </r>
       <r>   -5.8511    1.0000 </r>
       <r>   -5.7930    1.0000 </r>
       <r>   -5.5071    1.0000 </r>
       <r>   -3.0917    0.4142 </r>
       <r>   -0.9164    0.0000 </r>
       <r>    0.5816    0.0000 </r>
       <r>    0.5871    0.0000 </r>
       <r>    0.7690    0.0000 </r>
       <r>    1.2775    0.0000 </r>
       <r>    1.9165    0.0000 </r>
       <r>    2.0916    0.0000 </r>
       <r>    2.1138    0.0000 </r>
       <r>    2.4920    0.0000 </r>
       <r>    2.6491    0.0000 </r>
       <r>    2.7842    0.0000 </r>
      </set>
      <set comment="kpoint 328">
       <r>  -12.5157    1.0000 </r>
       <r>  -12.2857    1.0000 </r>
       <r>  -11.1127    1.0000 </r>
       <r>  -10.9701    1.0000 </r>
       <r>  -10.7523    1.0000 </r>
       <r>  -10.4387    1.0000 </r>
       <r>   -9.6804    1.0000 </r>
       <r>   -9.1054    1.0000 </r>
       <r>   -8.3895    1.0000 </r>
       <r>   -7.9564    1.0000 </r>
       <r>   -7.4435    1.0000 </r>
       <r>   -7.2312    1.0000 </r>
       <r>   -6.2948    1.0000 </r>
       <r>   -5.9188    1.0000 </r>
       <r>   -5.8407    1.0000 </r>
       <r>   -5.6141    1.0000 </r>
       <r>   -2.7682    0.0000 </r>
       <r>   -1.2568    0.0000 </r>
       <r>    0.6063    0.0000 </r>
       <r>    0.6189    0.0000 </r>
       <r>    0.7443    0.0000 </r>
       <r>    1.4735    0.0000 </r>
       <r>    1.7994    0.0000 </r>
       <r>    2.1328    0.0000 </r>
       <r>    2.1813    0.0000 </r>
       <r>    2.4106    0.0000 </r>
       <r>    2.5627    0.0000 </r>
       <r>    2.5897    0.0000 </r>
      </set>
      <set comment="kpoint 329">
       <r>  -12.4756    1.0000 </r>
       <r>  -12.3481    1.0000 </r>
       <r>  -10.9724    1.0000 </r>
       <r>  -10.9319    1.0000 </r>
       <r>  -10.8112    1.0000 </r>
       <r>  -10.5987    1.0000 </r>
       <r>   -9.5577    1.0000 </r>
       <r>   -9.2383    1.0000 </r>
       <r>   -8.2419    1.0000 </r>
       <r>   -7.9914    1.0000 </r>
       <r>   -7.4060    1.0000 </r>
       <r>   -7.2881    1.0000 </r>
       <r>   -6.2045    1.0000 </r>
       <r>   -5.9941    1.0000 </r>
       <r>   -5.8818    1.0000 </r>
       <r>   -5.6768    1.0000 </r>
       <r>   -2.4384    0.0000 </r>
       <r>   -1.5985    0.0000 </r>
       <r>    0.6347    0.0000 </r>
       <r>    0.6484    0.0000 </r>
       <r>    0.7138    0.0000 </r>
       <r>    1.6862    0.0000 </r>
       <r>    1.7147    0.0000 </r>
       <r>    2.1817    0.0000 </r>
       <r>    2.1953    0.0000 </r>
       <r>    2.3359    0.0000 </r>
       <r>    2.3880    0.0000 </r>
       <r>    2.5175    0.0000 </r>
      </set>
      <set comment="kpoint 330">
       <r>  -12.3458    1.0000 </r>
       <r>  -12.2789    1.0000 </r>
       <r>  -10.7996    1.0000 </r>
       <r>  -10.7897    1.0000 </r>
       <r>  -10.7363    1.0000 </r>
       <r>  -10.5936    1.0000 </r>
       <r>   -9.3865    1.0000 </r>
       <r>   -9.2195    1.0000 </r>
       <r>   -8.0956    1.0000 </r>
       <r>   -7.9606    1.0000 </r>
       <r>   -7.2381    1.0000 </r>
       <r>   -7.1761    1.0000 </r>
       <r>   -6.0124    1.0000 </r>
       <r>   -5.9017    1.0000 </r>
       <r>   -5.7548    1.0000 </r>
       <r>   -5.5505    1.0000 </r>
       <r>   -2.1204    0.0000 </r>
       <r>   -1.6771    0.0000 </r>
       <r>    0.7570    0.0000 </r>
       <r>    0.7676    0.0000 </r>
       <r>    0.7997    0.0000 </r>
       <r>    1.7467    0.0000 </r>
       <r>    1.8790    0.0000 </r>
       <r>    2.1730    0.0000 </r>
       <r>    2.3566    0.0000 </r>
       <r>    2.3729    0.0000 </r>
       <r>    2.4372    0.0000 </r>
       <r>    2.4644    0.0000 </r>
      </set>
      <set comment="kpoint 331">
       <r>  -12.3310    1.0000 </r>
       <r>  -12.2957    1.0000 </r>
       <r>  -10.7855    1.0000 </r>
       <r>  -10.7522    1.0000 </r>
       <r>  -10.7441    1.0000 </r>
       <r>  -10.6409    1.0000 </r>
       <r>   -9.3474    1.0000 </r>
       <r>   -9.2595    1.0000 </r>
       <r>   -8.0620    1.0000 </r>
       <r>   -7.9841    1.0000 </r>
       <r>   -7.2243    1.0000 </r>
       <r>   -7.1916    1.0000 </r>
       <r>   -5.9856    1.0000 </r>
       <r>   -5.9272    1.0000 </r>
       <r>   -5.7591    1.0000 </r>
       <r>   -5.5556    1.0000 </r>
       <r>   -2.0160    0.0000 </r>
       <r>   -1.7827    0.0000 </r>
       <r>    0.7668    0.0000 </r>
       <r>    0.7712    0.0000 </r>
       <r>    0.7894    0.0000 </r>
       <r>    1.7384    0.0000 </r>
       <r>    1.9495    0.0000 </r>
       <r>    2.1052    0.0000 </r>
       <r>    2.3745    0.0000 </r>
       <r>    2.3908    0.0000 </r>
       <r>    2.4171    0.0000 </r>
       <r>    2.4415    0.0000 </r>
      </set>
      <set comment="kpoint 332">
       <r>  -12.3767    1.0000 </r>
       <r>  -12.2392    1.0000 </r>
       <r>  -10.8891    1.0000 </r>
       <r>  -10.8288    1.0000 </r>
       <r>  -10.6989    1.0000 </r>
       <r>  -10.4865    1.0000 </r>
       <r>   -9.4723    1.0000 </r>
       <r>   -9.1298    1.0000 </r>
       <r>   -8.1829    1.0000 </r>
       <r>   -7.9176    1.0000 </r>
       <r>   -7.2670    1.0000 </r>
       <r>   -7.1396    1.0000 </r>
       <r>   -6.0732    1.0000 </r>
       <r>   -5.8468    1.0000 </r>
       <r>   -5.7368    1.0000 </r>
       <r>   -5.5275    1.0000 </r>
       <r>   -2.3505    0.0000 </r>
       <r>   -1.4417    0.0000 </r>
       <r>    0.7358    0.0000 </r>
       <r>    0.7525    0.0000 </r>
       <r>    0.8226    0.0000 </r>
       <r>    1.7277    0.0000 </r>
       <r>    1.7824    0.0000 </r>
       <r>    2.2596    0.0000 </r>
       <r>    2.3192    0.0000 </r>
       <r>    2.3956    0.0000 </r>
       <r>    2.4847    0.0000 </r>
       <r>    2.5157    0.0000 </r>
      </set>
      <set comment="kpoint 333">
       <r>  -12.4161    1.0000 </r>
       <r>  -12.1763    1.0000 </r>
       <r>  -11.0282    1.0000 </r>
       <r>  -10.8661    1.0000 </r>
       <r>  -10.6398    1.0000 </r>
       <r>  -10.3267    1.0000 </r>
       <r>   -9.5937    1.0000 </r>
       <r>   -8.9982    1.0000 </r>
       <r>   -8.3297    1.0000 </r>
       <r>   -7.8862    1.0000 </r>
       <r>   -7.3039    1.0000 </r>
       <r>   -7.0822    1.0000 </r>
       <r>   -6.1633    1.0000 </r>
       <r>   -5.7726    1.0000 </r>
       <r>   -5.6959    1.0000 </r>
       <r>   -5.4614    1.0000 </r>
       <r>   -2.6794    0.0000 </r>
       <r>   -1.0992    0.0000 </r>
       <r>    0.7077    0.0000 </r>
       <r>    0.7198    0.0000 </r>
       <r>    0.8541    0.0000 </r>
       <r>    1.5194    0.0000 </r>
       <r>    1.8695    0.0000 </r>
       <r>    2.2061    0.0000 </r>
       <r>    2.2715    0.0000 </r>
       <r>    2.5592    0.0000 </r>
       <r>    2.5832    0.0000 </r>
       <r>    2.6115    0.0000 </r>
      </set>
      <set comment="kpoint 334">
       <r>  -12.4491    1.0000 </r>
       <r>  -12.1071    1.0000 </r>
       <r>  -11.1614    1.0000 </r>
       <r>  -10.8975    1.0000 </r>
       <r>  -10.5748    1.0000 </r>
       <r>  -10.1619    1.0000 </r>
       <r>   -9.7112    1.0000 </r>
       <r>   -8.8652    1.0000 </r>
       <r>   -8.4932    1.0000 </r>
       <r>   -7.8921    1.0000 </r>
       <r>   -7.3350    1.0000 </r>
       <r>   -7.0198    1.0000 </r>
       <r>   -6.2547    1.0000 </r>
       <r>   -5.7064    1.0000 </r>
       <r>   -5.6500    1.0000 </r>
       <r>   -5.3516    1.0000 </r>
       <r>   -3.0014    0.0000 </r>
       <r>   -0.7578    0.0000 </r>
       <r>    0.6833    0.0000 </r>
       <r>    0.6857    0.0000 </r>
       <r>    0.8801    0.0000 </r>
       <r>    1.3286    0.0000 </r>
       <r>    1.9858    0.0000 </r>
       <r>    2.1354    0.0000 </r>
       <r>    2.2313    0.0000 </r>
       <r>    2.6379    0.0000 </r>
       <r>    2.6402    0.0000 </r>
       <r>    2.8345    0.0000 </r>
      </set>
      <set comment="kpoint 335">
       <r>  -12.4756    1.0000 </r>
       <r>  -12.0315    1.0000 </r>
       <r>  -11.2886    1.0000 </r>
       <r>  -10.9227    1.0000 </r>
       <r>  -10.5042    1.0000 </r>
       <r>   -9.9922    1.0000 </r>
       <r>   -9.8245    1.0000 </r>
       <r>   -8.7321    1.0000 </r>
       <r>   -8.6676    1.0000 </r>
       <r>   -7.9315    1.0000 </r>
       <r>   -7.3601    1.0000 </r>
       <r>   -6.9524    1.0000 </r>
       <r>   -6.3464    1.0000 </r>
       <r>   -5.6495    1.0000 </r>
       <r>   -5.6085    1.0000 </r>
       <r>   -5.1982    1.0000 </r>
       <r>   -3.3156    1.0000 </r>
       <r>   -0.4215    0.0000 </r>
       <r>    0.6605    0.0000 </r>
       <r>    0.6632    0.0000 </r>
       <r>    0.8942    0.0000 </r>
       <r>    1.1583    0.0000 </r>
       <r>    2.0727    0.0000 </r>
       <r>    2.1182    0.0000 </r>
       <r>    2.1989    0.0000 </r>
       <r>    2.6739    0.0000 </r>
       <r>    2.7260    0.0000 </r>
       <r>    2.8000    0.0000 </r>
      </set>
      <set comment="kpoint 336">
       <r>  -12.4958    1.0000 </r>
       <r>  -11.9496    1.0000 </r>
       <r>  -11.4098    1.0000 </r>
       <r>  -10.9419    1.0000 </r>
       <r>  -10.4279    1.0000 </r>
       <r>   -9.9334    1.0000 </r>
       <r>   -9.8181    1.0000 </r>
       <r>   -8.8485    1.0000 </r>
       <r>   -8.5998    1.0000 </r>
       <r>   -7.9985    1.0000 </r>
       <r>   -7.3793    1.0000 </r>
       <r>   -6.8805    1.0000 </r>
       <r>   -6.4374    1.0000 </r>
       <r>   -5.6036    1.0000 </r>
       <r>   -5.5755    1.0000 </r>
       <r>   -5.0078    1.0000 </r>
       <r>   -3.6206    1.0000 </r>
       <r>   -0.0966    0.0000 </r>
       <r>    0.6476    0.0000 </r>
       <r>    0.6518    0.0000 </r>
       <r>    0.8854    0.0000 </r>
       <r>    1.0105    0.0000 </r>
       <r>    2.0263    0.0000 </r>
       <r>    2.1742    0.0000 </r>
       <r>    2.2551    0.0000 </r>
       <r>    2.5893    0.0000 </r>
       <r>    2.6853    0.0000 </r>
       <r>    2.7739    0.0000 </r>
      </set>
      <set comment="kpoint 337">
       <r>  -12.5096    1.0000 </r>
       <r>  -11.8614    1.0000 </r>
       <r>  -11.5249    1.0000 </r>
       <r>  -10.9551    1.0000 </r>
       <r>  -10.3462    1.0000 </r>
       <r>  -10.0375    1.0000 </r>
       <r>   -9.6400    1.0000 </r>
       <r>   -9.0326    1.0000 </r>
       <r>   -8.4700    1.0000 </r>
       <r>   -8.0869    1.0000 </r>
       <r>   -7.3924    1.0000 </r>
       <r>   -6.8043    1.0000 </r>
       <r>   -6.5269    1.0000 </r>
       <r>   -5.5699    1.0000 </r>
       <r>   -5.5531    1.0000 </r>
       <r>   -4.7878    1.0000 </r>
       <r>   -3.9151    1.0000 </r>
       <r>    0.2065    0.0000 </r>
       <r>    0.6368    0.0000 </r>
       <r>    0.6644    0.0000 </r>
       <r>    0.8363    0.0000 </r>
       <r>    0.8872    0.0000 </r>
       <r>    2.0073    0.0000 </r>
       <r>    2.1574    0.0000 </r>
       <r>    2.3471    0.0000 </r>
       <r>    2.3863    0.0000 </r>
       <r>    2.6668    0.0000 </r>
       <r>    2.7560    0.0000 </r>
      </set>
      <set comment="kpoint 338">
       <r>  -12.5170    1.0000 </r>
       <r>  -11.7670    1.0000 </r>
       <r>  -11.6337    1.0000 </r>
       <r>  -10.9621    1.0000 </r>
       <r>  -10.2589    1.0000 </r>
       <r>  -10.1367    1.0000 </r>
       <r>   -9.4587    1.0000 </r>
       <r>   -9.2177    1.0000 </r>
       <r>   -8.3446    1.0000 </r>
       <r>   -8.1913    1.0000 </r>
       <r>   -7.3994    1.0000 </r>
       <r>   -6.7242    1.0000 </r>
       <r>   -6.6142    1.0000 </r>
       <r>   -5.5493    1.0000 </r>
       <r>   -5.5429    1.0000 </r>
       <r>   -4.5444    1.0000 </r>
       <r>   -4.1972    1.0000 </r>
       <r>    0.4712    0.0000 </r>
       <r>    0.6310    0.0000 </r>
       <r>    0.7015    0.0000 </r>
       <r>    0.7259    0.0000 </r>
       <r>    0.7896    0.0000 </r>
       <r>    2.0316    0.0000 </r>
       <r>    2.1483    0.0000 </r>
       <r>    2.1620    0.0000 </r>
       <r>    2.5018    0.0000 </r>
       <r>    2.6158    0.0000 </r>
       <r>    2.7468    0.0000 </r>
      </set>
      <set comment="kpoint 339">
       <r>  -12.5180    1.0000 </r>
       <r>  -11.7364    1.0000 </r>
       <r>  -11.6662    1.0000 </r>
       <r>  -10.9630    1.0000 </r>
       <r>  -10.2308    1.0000 </r>
       <r>  -10.1664    1.0000 </r>
       <r>   -9.4019    1.0000 </r>
       <r>   -9.2750    1.0000 </r>
       <r>   -8.3070    1.0000 </r>
       <r>   -8.2261    1.0000 </r>
       <r>   -7.4004    1.0000 </r>
       <r>   -6.6987    1.0000 </r>
       <r>   -6.6407    1.0000 </r>
       <r>   -5.5457    1.0000 </r>
       <r>   -5.5422    1.0000 </r>
       <r>   -4.4647    1.0000 </r>
       <r>   -4.2820    1.0000 </r>
       <r>    0.5422    0.0000 </r>
       <r>    0.6302    0.0000 </r>
       <r>    0.6769    0.0000 </r>
       <r>    0.7185    0.0000 </r>
       <r>    0.7644    0.0000 </r>
       <r>    2.0515    0.0000 </r>
       <r>    2.1192    0.0000 </r>
       <r>    2.1471    0.0000 </r>
       <r>    2.5333    0.0000 </r>
       <r>    2.5932    0.0000 </r>
       <r>    2.7451    0.0000 </r>
      </set>
      <set comment="kpoint 340">
       <r>  -12.5126    1.0000 </r>
       <r>  -11.8328    1.0000 </r>
       <r>  -11.5593    1.0000 </r>
       <r>  -10.9579    1.0000 </r>
       <r>  -10.3197    1.0000 </r>
       <r>  -10.0688    1.0000 </r>
       <r>   -9.5841    1.0000 </r>
       <r>   -9.0900    1.0000 </r>
       <r>   -8.4305    1.0000 </r>
       <r>   -8.1179    1.0000 </r>
       <r>   -7.3952    1.0000 </r>
       <r>   -6.7799    1.0000 </r>
       <r>   -6.5542    1.0000 </r>
       <r>   -5.5622    1.0000 </r>
       <r>   -5.5485    1.0000 </r>
       <r>   -4.7145    1.0000 </r>
       <r>   -4.0041    1.0000 </r>
       <r>    0.2935    0.0000 </r>
       <r>    0.6345    0.0000 </r>
       <r>    0.6735    0.0000 </r>
       <r>    0.8097    0.0000 </r>
       <r>    0.8538    0.0000 </r>
       <r>    2.0097    0.0000 </r>
       <r>    2.1537    0.0000 </r>
       <r>    2.2820    0.0000 </r>
       <r>    2.4243    0.0000 </r>
       <r>    2.6543    0.0000 </r>
       <r>    2.7521    0.0000 </r>
      </set>
      <set comment="kpoint 341">
       <r>  -12.5008    1.0000 </r>
       <r>  -11.9230    1.0000 </r>
       <r>  -11.4461    1.0000 </r>
       <r>  -10.9466    1.0000 </r>
       <r>  -10.4032    1.0000 </r>
       <r>   -9.9662    1.0000 </r>
       <r>   -9.7632    1.0000 </r>
       <r>   -8.9054    1.0000 </r>
       <r>   -8.5592    1.0000 </r>
       <r>   -8.0240    1.0000 </r>
       <r>   -7.3840    1.0000 </r>
       <r>   -6.8574    1.0000 </r>
       <r>   -6.4653    1.0000 </r>
       <r>   -5.5919    1.0000 </r>
       <r>   -5.5672    1.0000 </r>
       <r>   -4.9423    1.0000 </r>
       <r>   -3.7133    1.0000 </r>
       <r>    0.0003    0.0000 </r>
       <r>    0.6437    0.0000 </r>
       <r>    0.6535    0.0000 </r>
       <r>    0.8755    0.0000 </r>
       <r>    0.9692    0.0000 </r>
       <r>    2.0173    0.0000 </r>
       <r>    2.1682    0.0000 </r>
       <r>    2.2970    0.0000 </r>
       <r>    2.5097    0.0000 </r>
       <r>    2.6827    0.0000 </r>
       <r>    2.7674    0.0000 </r>
      </set>
      <set comment="kpoint 342">
       <r>  -12.4826    1.0000 </r>
       <r>  -12.0068    1.0000 </r>
       <r>  -11.3269    1.0000 </r>
       <r>  -10.9293    1.0000 </r>
       <r>  -10.4812    1.0000 </r>
       <r>   -9.9386    1.0000 </r>
       <r>   -9.8588    1.0000 </r>
       <r>   -8.7232    1.0000 </r>
       <r>   -8.6909    1.0000 </r>
       <r>   -7.9496    1.0000 </r>
       <r>   -7.3667    1.0000 </r>
       <r>   -6.9306    1.0000 </r>
       <r>   -6.3747    1.0000 </r>
       <r>   -5.6341    1.0000 </r>
       <r>   -5.5971    1.0000 </r>
       <r>   -5.1427    1.0000 </r>
       <r>   -3.4114    1.0000 </r>
       <r>   -0.3191    0.0000 </r>
       <r>    0.6559    0.0000 </r>
       <r>    0.6578    0.0000 </r>
       <r>    0.8947    0.0000 </r>
       <r>    1.1095    0.0000 </r>
       <r>    2.0565    0.0000 </r>
       <r>    2.1607    0.0000 </r>
       <r>    2.1904    0.0000 </r>
       <r>    2.6801    0.0000 </r>
       <r>    2.7489    0.0000 </r>
       <r>    2.7910    0.0000 </r>
      </set>
      <set comment="kpoint 343">
       <r>  -12.4580    1.0000 </r>
       <r>  -12.0843    1.0000 </r>
       <r>  -11.2015    1.0000 </r>
       <r>  -10.9059    1.0000 </r>
       <r>  -10.5536    1.0000 </r>
       <r>  -10.1097    1.0000 </r>
       <r>   -9.7468    1.0000 </r>
       <r>   -8.8239    1.0000 </r>
       <r>   -8.5464    1.0000 </r>
       <r>   -7.9010    1.0000 </r>
       <r>   -7.3434    1.0000 </r>
       <r>   -6.9994    1.0000 </r>
       <r>   -6.2831    1.0000 </r>
       <r>   -5.6878    1.0000 </r>
       <r>   -5.6363    1.0000 </r>
       <r>   -5.3083    1.0000 </r>
       <r>   -3.0999    0.6412 </r>
       <r>   -0.6527    0.0000 </r>
       <r>    0.6766    0.0000 </r>
       <r>    0.6766    0.0000 </r>
       <r>    0.8862    0.0000 </r>
       <r>    1.2730    0.0000 </r>
       <r>    2.0258    0.0000 </r>
       <r>    2.1150    0.0000 </r>
       <r>    2.2205    0.0000 </r>
       <r>    2.6510    0.0000 </r>
       <r>    2.6664    0.0000 </r>
       <r>    2.8229    0.0000 </r>
      </set>
      <set comment="kpoint 344">
       <r>  -12.4270    1.0000 </r>
       <r>  -12.1555    1.0000 </r>
       <r>  -11.0701    1.0000 </r>
       <r>  -10.8765    1.0000 </r>
       <r>  -10.6203    1.0000 </r>
       <r>  -10.2761    1.0000 </r>
       <r>   -9.6306    1.0000 </r>
       <r>   -8.9570    1.0000 </r>
       <r>   -8.3790    1.0000 </r>
       <r>   -7.8842    1.0000 </r>
       <r>   -7.3141    1.0000 </r>
       <r>   -7.0634    1.0000 </r>
       <r>   -6.1915    1.0000 </r>
       <r>   -5.7513    1.0000 </r>
       <r>   -5.6816    1.0000 </r>
       <r>   -5.4321    1.0000 </r>
       <r>   -2.7801    0.0000 </r>
       <r>   -0.9930    0.0000 </r>
       <r>    0.6997    0.0000 </r>
       <r>    0.7090    0.0000 </r>
       <r>    0.8630    0.0000 </r>
       <r>    1.4576    0.0000 </r>
       <r>    1.9031    0.0000 </r>
       <r>    2.1841    0.0000 </r>
       <r>    2.2582    0.0000 </r>
       <r>    2.5836    0.0000 </r>
       <r>    2.6014    0.0000 </r>
       <r>    2.6846    0.0000 </r>
      </set>
      <set comment="kpoint 345">
       <r>  -12.3896    1.0000 </r>
       <r>  -12.2204    1.0000 </r>
       <r>  -10.9328    1.0000 </r>
       <r>  -10.8410    1.0000 </r>
       <r>  -10.6812    1.0000 </r>
       <r>  -10.4375    1.0000 </r>
       <r>   -9.5103    1.0000 </r>
       <r>   -9.0892    1.0000 </r>
       <r>   -8.2263    1.0000 </r>
       <r>   -7.9038    1.0000 </r>
       <r>   -7.2790    1.0000 </r>
       <r>   -7.1224    1.0000 </r>
       <r>   -6.1009    1.0000 </r>
       <r>   -5.8231    1.0000 </r>
       <r>   -5.7254    1.0000 </r>
       <r>   -5.5113    1.0000 </r>
       <r>   -2.4533    0.0000 </r>
       <r>   -1.3355    0.0000 </r>
       <r>    0.7267    0.0000 </r>
       <r>    0.7433    0.0000 </r>
       <r>    0.8326    0.0000 </r>
       <r>    1.6608    0.0000 </r>
       <r>    1.8055    0.0000 </r>
       <r>    2.2507    0.0000 </r>
       <r>    2.3037    0.0000 </r>
       <r>    2.4560    0.0000 </r>
       <r>    2.5070    0.0000 </r>
       <r>    2.5373    0.0000 </r>
      </set>
      <set comment="kpoint 346">
       <r>  -12.2569    1.0000 </r>
       <r>  -12.1481    1.0000 </r>
       <r>  -10.7478    1.0000 </r>
       <r>  -10.7059    1.0000 </r>
       <r>  -10.6034    1.0000 </r>
       <r>  -10.4299    1.0000 </r>
       <r>   -9.3370    1.0000 </r>
       <r>   -9.0678    1.0000 </r>
       <r>   -8.0727    1.0000 </r>
       <r>   -7.8632    1.0000 </r>
       <r>   -7.1058    1.0000 </r>
       <r>   -7.0048    1.0000 </r>
       <r>   -5.9017    1.0000 </r>
       <r>   -5.7228    1.0000 </r>
       <r>   -5.5966    1.0000 </r>
       <r>   -5.3868    1.0000 </r>
       <r>   -2.1319    0.0000 </r>
       <r>   -1.4102    0.0000 </r>
       <r>    0.8507    0.0000 </r>
       <r>    0.8705    0.0000 </r>
       <r>    0.9206    0.0000 </r>
       <r>    1.8169    0.0000 </r>
       <r>    1.8431    0.0000 </r>
       <r>    2.3085    0.0000 </r>
       <r>    2.3442    0.0000 </r>
       <r>    2.4784    0.0000 </r>
       <r>    2.4826    0.0000 </r>
       <r>    2.6122    0.0000 </r>
      </set>
      <set comment="kpoint 347">
       <r>  -12.2095    1.0000 </r>
       <r>  -12.2027    1.0000 </r>
       <r>  -10.6612    1.0000 </r>
       <r>  -10.6548    1.0000 </r>
       <r>  -10.6020    1.0000 </r>
       <r>  -10.5820    1.0000 </r>
       <r>   -9.2124    1.0000 </r>
       <r>   -9.1955    1.0000 </r>
       <r>   -7.9710    1.0000 </r>
       <r>   -7.9294    1.0000 </r>
       <r>   -7.0616    1.0000 </r>
       <r>   -7.0553    1.0000 </r>
       <r>   -5.8154    1.0000 </r>
       <r>   -5.8042    1.0000 </r>
       <r>   -5.6113    1.0000 </r>
       <r>   -5.4053    1.0000 </r>
       <r>   -1.7962    0.0000 </r>
       <r>   -1.7506    0.0000 </r>
       <r>    0.8825    0.0000 </r>
       <r>    0.8847    0.0000 </r>
       <r>    0.8869    0.0000 </r>
       <r>    1.7871    0.0000 </r>
       <r>    2.0655    0.0000 </r>
       <r>    2.0971    0.0000 </r>
       <r>    2.3972    0.0000 </r>
       <r>    2.4066    0.0000 </r>
       <r>    2.5393    0.0000 </r>
       <r>    2.5474    0.0000 </r>
      </set>
      <set comment="kpoint 348">
       <r>  -12.2509    1.0000 </r>
       <r>  -12.1558    1.0000 </r>
       <r>  -10.7285    1.0000 </r>
       <r>  -10.7002    1.0000 </r>
       <r>  -10.6107    1.0000 </r>
       <r>  -10.4507    1.0000 </r>
       <r>   -9.3204    1.0000 </r>
       <r>   -9.0851    1.0000 </r>
       <r>   -8.0561    1.0000 </r>
       <r>   -7.8715    1.0000 </r>
       <r>   -7.1002    1.0000 </r>
       <r>   -7.0119    1.0000 </r>
       <r>   -5.8900    1.0000 </r>
       <r>   -5.7334    1.0000 </r>
       <r>   -5.6000    1.0000 </r>
       <r>   -5.3912    1.0000 </r>
       <r>   -2.0869    0.0000 </r>
       <r>   -1.4563    0.0000 </r>
       <r>    0.8548    0.0000 </r>
       <r>    0.8737    0.0000 </r>
       <r>    0.9161    0.0000 </r>
       <r>    1.8100    0.0000 </r>
       <r>    1.8731    0.0000 </r>
       <r>    2.2925    0.0000 </r>
       <r>    2.3371    0.0000 </r>
       <r>    2.4695    0.0000 </r>
       <r>    2.4897    0.0000 </r>
       <r>    2.6032    0.0000 </r>
      </set>
      <set comment="kpoint 349">
       <r>  -12.2927    1.0000 </r>
       <r>  -12.0958    1.0000 </r>
       <r>  -10.8693    1.0000 </r>
       <r>  -10.7397    1.0000 </r>
       <r>  -10.5543    1.0000 </r>
       <r>  -10.2940    1.0000 </r>
       <r>   -9.4421    1.0000 </r>
       <r>   -8.9557    1.0000 </r>
       <r>   -8.1908    1.0000 </r>
       <r>   -7.8251    1.0000 </r>
       <r>   -7.1394    1.0000 </r>
       <r>   -6.9568    1.0000 </r>
       <r>   -5.9788    1.0000 </r>
       <r>   -5.6570    1.0000 </r>
       <r>   -5.5668    1.0000 </r>
       <r>   -5.3422    1.0000 </r>
       <r>   -2.4178    0.0000 </r>
       <r>   -1.1136    0.0000 </r>
       <r>    0.8254    0.0000 </r>
       <r>    0.8428    0.0000 </r>
       <r>    0.9496    0.0000 </r>
       <r>    1.6625    0.0000 </r>
       <r>    1.8799    0.0000 </r>
       <r>    2.2538    0.0000 </r>
       <r>    2.4393    0.0000 </r>
       <r>    2.5358    0.0000 </r>
       <r>    2.5385    0.0000 </r>
       <r>    2.6740    0.0000 </r>
      </set>
      <set comment="kpoint 350">
       <r>  -12.3282    1.0000 </r>
       <r>  -12.0294    1.0000 </r>
       <r>  -11.0044    1.0000 </r>
       <r>  -10.7733    1.0000 </r>
       <r>  -10.4922    1.0000 </r>
       <r>  -10.1322    1.0000 </r>
       <r>   -9.5602    1.0000 </r>
       <r>   -8.8248    1.0000 </r>
       <r>   -8.3451    1.0000 </r>
       <r>   -7.8148    1.0000 </r>
       <r>   -7.1729    1.0000 </r>
       <r>   -6.8965    1.0000 </r>
       <r>   -6.0694    1.0000 </r>
       <r>   -5.5879    1.0000 </r>
       <r>   -5.5232    1.0000 </r>
       <r>   -5.2523    1.0000 </r>
       <r>   -2.7420    0.0000 </r>
       <r>   -0.7703    0.0000 </r>
       <r>    0.7995    0.0000 </r>
       <r>    0.8045    0.0000 </r>
       <r>    0.9803    0.0000 </r>
       <r>    1.4687    0.0000 </r>
       <r>    1.9829    0.0000 </r>
       <r>    2.1819    0.0000 </r>
       <r>    2.3964    0.0000 </r>
       <r>    2.5919    0.0000 </r>
       <r>    2.7511    0.0000 </r>
       <r>    2.7729    0.0000 </r>
      </set>
      <set comment="kpoint 351">
       <r>  -12.3573    1.0000 </r>
       <r>  -11.9567    1.0000 </r>
       <r>  -11.1335    1.0000 </r>
       <r>  -10.8009    1.0000 </r>
       <r>  -10.4243    1.0000 </r>
       <r>   -9.9655    1.0000 </r>
       <r>   -9.6743    1.0000 </r>
       <r>   -8.6933    1.0000 </r>
       <r>   -8.5126    1.0000 </r>
       <r>   -7.8389    1.0000 </r>
       <r>   -7.2004    1.0000 </r>
       <r>   -6.8313    1.0000 </r>
       <r>   -6.1608    1.0000 </r>
       <r>   -5.5275    1.0000 </r>
       <r>   -5.4807    1.0000 </r>
       <r>   -5.1188    1.0000 </r>
       <r>   -3.0585    0.0052 </r>
       <r>   -0.4297    0.0000 </r>
       <r>    0.7711    0.0000 </r>
       <r>    0.7777    0.0000 </r>
       <r>    1.0033    0.0000 </r>
       <r>    1.2942    0.0000 </r>
       <r>    2.1047    0.0000 </r>
       <r>    2.1170    0.0000 </r>
       <r>    2.3611    0.0000 </r>
       <r>    2.6336    0.0000 </r>
       <r>    2.8335    0.0000 </r>
       <r>    2.9716    0.0000 </r>
      </set>
      <set comment="kpoint 352">
       <r>  -12.3801    1.0000 </r>
       <r>  -11.8777    1.0000 </r>
       <r>  -11.2567    1.0000 </r>
       <r>  -10.8225    1.0000 </r>
       <r>  -10.3509    1.0000 </r>
       <r>   -9.7943    1.0000 </r>
       <r>   -9.7841    1.0000 </r>
       <r>   -8.6886    1.0000 </r>
       <r>   -8.5624    1.0000 </r>
       <r>   -7.8925    1.0000 </r>
       <r>   -7.2221    1.0000 </r>
       <r>   -6.7613    1.0000 </r>
       <r>   -6.2518    1.0000 </r>
       <r>   -5.4775    1.0000 </r>
       <r>   -5.4449    1.0000 </r>
       <r>   -4.9457    1.0000 </r>
       <r>   -3.3662    1.0000 </r>
       <r>   -0.0969    0.0000 </r>
       <r>    0.7513    0.0000 </r>
       <r>    0.7604    0.0000 </r>
       <r>    1.0104    0.0000 </r>
       <r>    1.1415    0.0000 </r>
       <r>    2.0652    0.0000 </r>
       <r>    2.2329    0.0000 </r>
       <r>    2.3335    0.0000 </r>
       <r>    2.6559    0.0000 </r>
       <r>    2.7698    0.0000 </r>
       <r>    2.9420    0.0000 </r>
      </set>
      <set comment="kpoint 353">
       <r>  -12.3965    1.0000 </r>
       <r>  -11.7925    1.0000 </r>
       <r>  -11.3738    1.0000 </r>
       <r>  -10.8380    1.0000 </r>
       <r>  -10.2719    1.0000 </r>
       <r>   -9.8894    1.0000 </r>
       <r>   -9.6192    1.0000 </r>
       <r>   -8.8693    1.0000 </r>
       <r>   -8.4335    1.0000 </r>
       <r>   -7.9698    1.0000 </r>
       <r>   -7.2377    1.0000 </r>
       <r>   -6.6870    1.0000 </r>
       <r>   -6.3418    1.0000 </r>
       <r>   -5.4392    1.0000 </r>
       <r>   -5.4185    1.0000 </r>
       <r>   -4.7402    1.0000 </r>
       <r>   -3.6636    1.0000 </r>
       <r>    0.2195    0.0000 </r>
       <r>    0.7477    0.0000 </r>
       <r>    0.7509    0.0000 </r>
       <r>    0.9871    0.0000 </r>
       <r>    1.0124    0.0000 </r>
       <r>    2.0351    0.0000 </r>
       <r>    2.3135    0.0000 </r>
       <r>    2.3569    0.0000 </r>
       <r>    2.4973    0.0000 </r>
       <r>    2.6543    0.0000 </r>
       <r>    2.9207    0.0000 </r>
      </set>
      <set comment="kpoint 354">
       <r>  -12.4065    1.0000 </r>
       <r>  -11.7009    1.0000 </r>
       <r>  -11.4847    1.0000 </r>
       <r>  -10.8475    1.0000 </r>
       <r>  -10.1875    1.0000 </r>
       <r>   -9.9899    1.0000 </r>
       <r>   -9.4406    1.0000 </r>
       <r>   -9.0520    1.0000 </r>
       <r>   -8.3084    1.0000 </r>
       <r>   -8.0652    1.0000 </r>
       <r>   -7.2472    1.0000 </r>
       <r>   -6.6086    1.0000 </r>
       <r>   -6.4298    1.0000 </r>
       <r>   -5.4135    1.0000 </r>
       <r>   -5.4033    1.0000 </r>
       <r>   -4.5087    1.0000 </r>
       <r>   -3.9492    1.0000 </r>
       <r>    0.5048    0.0000 </r>
       <r>    0.7399    0.0000 </r>
       <r>    0.7737    0.0000 </r>
       <r>    0.9085    0.0000 </r>
       <r>    0.9117    0.0000 </r>
       <r>    2.0414    0.0000 </r>
       <r>    2.2716    0.0000 </r>
       <r>    2.3013    0.0000 </r>
       <r>    2.4673    0.0000 </r>
       <r>    2.6250    0.0000 </r>
       <r>    2.9077    0.0000 </r>
      </set>
      <set comment="kpoint 355">
       <r>  -12.4101    1.0000 </r>
       <r>  -11.6031    1.0000 </r>
       <r>  -11.5895    1.0000 </r>
       <r>  -10.8509    1.0000 </r>
       <r>  -10.0978    1.0000 </r>
       <r>  -10.0854    1.0000 </r>
       <r>   -9.2594    1.0000 </r>
       <r>   -9.2349    1.0000 </r>
       <r>   -8.1893    1.0000 </r>
       <r>   -8.1738    1.0000 </r>
       <r>   -7.2507    1.0000 </r>
       <r>   -6.5266    1.0000 </r>
       <r>   -6.5154    1.0000 </r>
       <r>   -5.4011    1.0000 </r>
       <r>   -5.4006    1.0000 </r>
       <r>   -4.2562    1.0000 </r>
       <r>   -4.2208    1.0000 </r>
       <r>    0.7371    0.0000 </r>
       <r>    0.7374    0.0000 </r>
       <r>    0.7632    0.0000 </r>
       <r>    0.8218    0.0000 </r>
       <r>    0.8307    0.0000 </r>
       <r>    2.1052    0.0000 </r>
       <r>    2.1199    0.0000 </r>
       <r>    2.2969    0.0000 </r>
       <r>    2.5564    0.0000 </r>
       <r>    2.5665    0.0000 </r>
       <r>    2.9030    0.0000 </r>
      </set>
      <set comment="kpoint 356">
       <r>  -12.4073    1.0000 </r>
       <r>  -11.6882    1.0000 </r>
       <r>  -11.4992    1.0000 </r>
       <r>  -10.8483    1.0000 </r>
       <r>  -10.1758    1.0000 </r>
       <r>  -10.0030    1.0000 </r>
       <r>   -9.4163    1.0000 </r>
       <r>   -9.0767    1.0000 </r>
       <r>   -8.2919    1.0000 </r>
       <r>   -8.0791    1.0000 </r>
       <r>   -7.2480    1.0000 </r>
       <r>   -6.5978    1.0000 </r>
       <r>   -6.4414    1.0000 </r>
       <r>   -5.4112    1.0000 </r>
       <r>   -5.4021    1.0000 </r>
       <r>   -4.4757    1.0000 </r>
       <r>   -3.9867    1.0000 </r>
       <r>    0.5395    0.0000 </r>
       <r>    0.7393    0.0000 </r>
       <r>    0.7790    0.0000 </r>
       <r>    0.8961    0.0000 </r>
       <r>    0.8965    0.0000 </r>
       <r>    2.0466    0.0000 </r>
       <r>    2.2461    0.0000 </r>
       <r>    2.3003    0.0000 </r>
       <r>    2.4808    0.0000 </r>
       <r>    2.6186    0.0000 </r>
       <r>    2.9066    0.0000 </r>
      </set>
      <set comment="kpoint 357">
       <r>  -12.3982    1.0000 </r>
       <r>  -11.7805    1.0000 </r>
       <r>  -11.3890    1.0000 </r>
       <r>  -10.8396    1.0000 </r>
       <r>  -10.2609    1.0000 </r>
       <r>   -9.9032    1.0000 </r>
       <r>   -9.5953    1.0000 </r>
       <r>   -8.8938    1.0000 </r>
       <r>   -8.4164    1.0000 </r>
       <r>   -7.9817    1.0000 </r>
       <r>   -7.2393    1.0000 </r>
       <r>   -6.6767    1.0000 </r>
       <r>   -6.3537    1.0000 </r>
       <r>   -5.4351    1.0000 </r>
       <r>   -5.4156    1.0000 </r>
       <r>   -4.7103    1.0000 </r>
       <r>   -3.7029    1.0000 </r>
       <r>    0.2600    0.0000 </r>
       <r>    0.7464    0.0000 </r>
       <r>    0.7529    0.0000 </r>
       <r>    0.9807    0.0000 </r>
       <r>    0.9965    0.0000 </r>
       <r>    2.0339    0.0000 </r>
       <r>    2.3115    0.0000 </r>
       <r>    2.3728    0.0000 </r>
       <r>    2.4631    0.0000 </r>
       <r>    2.6518    0.0000 </r>
       <r>    2.9185    0.0000 </r>
      </set>
      <set comment="kpoint 358">
       <r>  -12.3827    1.0000 </r>
       <r>  -11.8667    1.0000 </r>
       <r>  -11.2727    1.0000 </r>
       <r>  -10.8249    1.0000 </r>
       <r>  -10.3406    1.0000 </r>
       <r>   -9.7986    1.0000 </r>
       <r>   -9.7710    1.0000 </r>
       <r>   -8.7127    1.0000 </r>
       <r>   -8.5449    1.0000 </r>
       <r>   -7.9016    1.0000 </r>
       <r>   -7.2245    1.0000 </r>
       <r>   -6.7516    1.0000 </r>
       <r>   -6.2640    1.0000 </r>
       <r>   -5.4718    1.0000 </r>
       <r>   -5.4406    1.0000 </r>
       <r>   -4.9197    1.0000 </r>
       <r>   -3.4070    1.0000 </r>
       <r>   -0.0532    0.0000 </r>
       <r>    0.7502    0.0000 </r>
       <r>    0.7584    0.0000 </r>
       <r>    1.0095    0.0000 </r>
       <r>    1.1222    0.0000 </r>
       <r>    2.0601    0.0000 </r>
       <r>    2.2501    0.0000 </r>
       <r>    2.3304    0.0000 </r>
       <r>    2.6569    0.0000 </r>
       <r>    2.7316    0.0000 </r>
       <r>    2.9387    0.0000 </r>
      </set>
      <set comment="kpoint 359">
       <r>  -12.3608    1.0000 </r>
       <r>  -11.9465    1.0000 </r>
       <r>  -11.1504    1.0000 </r>
       <r>  -10.8041    1.0000 </r>
       <r>  -10.4148    1.0000 </r>
       <r>   -9.9427    1.0000 </r>
       <r>   -9.6893    1.0000 </r>
       <r>   -8.6756    1.0000 </r>
       <r>   -8.5359    1.0000 </r>
       <r>   -7.8445    1.0000 </r>
       <r>   -7.2037    1.0000 </r>
       <r>   -6.8222    1.0000 </r>
       <r>   -6.1730    1.0000 </r>
       <r>   -5.5203    1.0000 </r>
       <r>   -5.4753    1.0000 </r>
       <r>   -5.0976    1.0000 </r>
       <r>   -3.1006    0.6597 </r>
       <r>   -0.3843    0.0000 </r>
       <r>    0.7677    0.0000 </r>
       <r>    0.7751    0.0000 </r>
       <r>    1.0055    0.0000 </r>
       <r>    1.2718    0.0000 </r>
       <r>    2.1096    0.0000 </r>
       <r>    2.1219    0.0000 </r>
       <r>    2.3570    0.0000 </r>
       <r>    2.6375    0.0000 </r>
       <r>    2.8447    0.0000 </r>
       <r>    2.9672    0.0000 </r>
      </set>
      <set comment="kpoint 360">
       <r>  -12.3325    1.0000 </r>
       <r>  -12.0200    1.0000 </r>
       <r>  -11.0221    1.0000 </r>
       <r>  -10.7774    1.0000 </r>
       <r>  -10.4834    1.0000 </r>
       <r>  -10.1100    1.0000 </r>
       <r>   -9.5758    1.0000 </r>
       <r>   -8.8071    1.0000 </r>
       <r>   -8.3670    1.0000 </r>
       <r>   -7.8161    1.0000 </r>
       <r>   -7.1769    1.0000 </r>
       <r>   -6.8881    1.0000 </r>
       <r>   -6.0816    1.0000 </r>
       <r>   -5.5793    1.0000 </r>
       <r>   -5.5172    1.0000 </r>
       <r>   -5.2368    1.0000 </r>
       <r>   -2.7852    0.0000 </r>
       <r>   -0.7242    0.0000 </r>
       <r>    0.7964    0.0000 </r>
       <r>    0.7997    0.0000 </r>
       <r>    0.9839    0.0000 </r>
       <r>    1.4433    0.0000 </r>
       <r>    1.9985    0.0000 </r>
       <r>    2.1731    0.0000 </r>
       <r>    2.3913    0.0000 </r>
       <r>    2.5981    0.0000 </r>
       <r>    2.7617    0.0000 </r>
       <r>    2.8047    0.0000 </r>
      </set>
      <set comment="kpoint 361">
       <r>  -12.2979    1.0000 </r>
       <r>  -12.0873    1.0000 </r>
       <r>  -10.8878    1.0000 </r>
       <r>  -10.7446    1.0000 </r>
       <r>  -10.5463    1.0000 </r>
       <r>  -10.2725    1.0000 </r>
       <r>   -9.4582    1.0000 </r>
       <r>   -8.9381    1.0000 </r>
       <r>   -8.2106    1.0000 </r>
       <r>   -7.8216    1.0000 </r>
       <r>   -7.1442    1.0000 </r>
       <r>   -6.9490    1.0000 </r>
       <r>   -5.9908    1.0000 </r>
       <r>   -5.6473    1.0000 </r>
       <r>   -5.5612    1.0000 </r>
       <r>   -5.3326    1.0000 </r>
       <r>   -2.4619    0.0000 </r>
       <r>   -1.0673    0.0000 </r>
       <r>    0.8217    0.0000 </r>
       <r>    0.8379    0.0000 </r>
       <r>    0.9539    0.0000 </r>
       <r>    1.6346    0.0000 </r>
       <r>    1.8921    0.0000 </r>
       <r>    2.2442    0.0000 </r>
       <r>    2.4332    0.0000 </r>
       <r>    2.5436    0.0000 </r>
       <r>    2.5715    0.0000 </r>
       <r>    2.6839    0.0000 </r>
      </set>
      <set comment="kpoint 362">
       <r>  -12.1622    1.0000 </r>
       <r>  -12.0121    1.0000 </r>
       <r>  -10.7006    1.0000 </r>
       <r>  -10.6067    1.0000 </r>
       <r>  -10.4658    1.0000 </r>
       <r>  -10.2627    1.0000 </r>
       <r>   -9.2830    1.0000 </r>
       <r>   -8.9145    1.0000 </r>
       <r>   -8.0514    1.0000 </r>
       <r>   -7.7717    1.0000 </r>
       <r>   -6.9656    1.0000 </r>
       <r>   -6.8260    1.0000 </r>
       <r>   -5.7847    1.0000 </r>
       <r>   -5.5391    1.0000 </r>
       <r>   -5.4291    1.0000 </r>
       <r>   -5.2103    1.0000 </r>
       <r>   -2.1375    0.0000 </r>
       <r>   -1.1385    0.0000 </r>
       <r>    0.9466    0.0000 </r>
       <r>    0.9715    0.0000 </r>
       <r>    1.0431    0.0000 </r>
       <r>    1.8009    0.0000 </r>
       <r>    1.8804    0.0000 </r>
       <r>    2.2776    0.0000 </r>
       <r>    2.4648    0.0000 </r>
       <r>    2.4821    0.0000 </r>
       <r>    2.6157    0.0000 </r>
       <r>    2.7924    0.0000 </r>
      </set>
      <set comment="kpoint 363">
       <r>  -12.1177    1.0000 </r>
       <r>  -12.0691    1.0000 </r>
       <r>  -10.5648    1.0000 </r>
       <r>  -10.5580    1.0000 </r>
       <r>  -10.5191    1.0000 </r>
       <r>  -10.4160    1.0000 </r>
       <r>   -9.1611    1.0000 </r>
       <r>   -9.0415    1.0000 </r>
       <r>   -7.9324    1.0000 </r>
       <r>   -7.8316    1.0000 </r>
       <r>   -6.9238    1.0000 </r>
       <r>   -6.8786    1.0000 </r>
       <r>   -5.6976    1.0000 </r>
       <r>   -5.6176    1.0000 </r>
       <r>   -5.4523    1.0000 </r>
       <r>   -5.2425    1.0000 </r>
       <r>   -1.8046    0.0000 </r>
       <r>   -1.4803    0.0000 </r>
       <r>    0.9772    0.0000 </r>
       <r>    0.9972    0.0000 </r>
       <r>    1.0088    0.0000 </r>
       <r>    1.8307    0.0000 </r>
       <r>    2.0102    0.0000 </r>
       <r>    2.2183    0.0000 </r>
       <r>    2.3631    0.0000 </r>
       <r>    2.4209    0.0000 </r>
       <r>    2.6687    0.0000 </r>
       <r>    2.7260    0.0000 </r>
      </set>
      <set comment="kpoint 364">
       <r>  -12.1197    1.0000 </r>
       <r>  -12.0668    1.0000 </r>
       <r>  -10.5666    1.0000 </r>
       <r>  -10.5640    1.0000 </r>
       <r>  -10.5170    1.0000 </r>
       <r>  -10.4098    1.0000 </r>
       <r>   -9.1662    1.0000 </r>
       <r>   -9.0363    1.0000 </r>
       <r>   -7.9366    1.0000 </r>
       <r>   -7.8287    1.0000 </r>
       <r>   -6.9257    1.0000 </r>
       <r>   -6.8765    1.0000 </r>
       <r>   -5.7012    1.0000 </r>
       <r>   -5.6142    1.0000 </r>
       <r>   -5.4518    1.0000 </r>
       <r>   -5.2418    1.0000 </r>
       <r>   -1.8183    0.0000 </r>
       <r>   -1.4664    0.0000 </r>
       <r>    0.9758    0.0000 </r>
       <r>    0.9966    0.0000 </r>
       <r>    1.0103    0.0000 </r>
       <r>    1.8318    0.0000 </r>
       <r>    2.0025    0.0000 </r>
       <r>    2.2252    0.0000 </r>
       <r>    2.3611    0.0000 </r>
       <r>    2.4238    0.0000 </r>
       <r>    2.6663    0.0000 </r>
       <r>    2.7287    0.0000 </r>
      </set>
      <set comment="kpoint 365">
       <r>  -12.1640    1.0000 </r>
       <r>  -12.0096    1.0000 </r>
       <r>  -10.7064    1.0000 </r>
       <r>  -10.6083    1.0000 </r>
       <r>  -10.4634    1.0000 </r>
       <r>  -10.2562    1.0000 </r>
       <r>   -9.2879    1.0000 </r>
       <r>   -8.9092    1.0000 </r>
       <r>   -8.0569    1.0000 </r>
       <r>   -7.7699    1.0000 </r>
       <r>   -6.9672    1.0000 </r>
       <r>   -6.8237    1.0000 </r>
       <r>   -5.7885    1.0000 </r>
       <r>   -5.5359    1.0000 </r>
       <r>   -5.4278    1.0000 </r>
       <r>   -5.2083    1.0000 </r>
       <r>   -2.1509    0.0000 </r>
       <r>   -1.1244    0.0000 </r>
       <r>    0.9453    0.0000 </r>
       <r>    0.9699    0.0000 </r>
       <r>    1.0446    0.0000 </r>
       <r>    1.7937    0.0000 </r>
       <r>    1.8834    0.0000 </r>
       <r>    2.2744    0.0000 </r>
       <r>    2.4730    0.0000 </r>
       <r>    2.4848    0.0000 </r>
       <r>    2.6136    0.0000 </r>
       <r>    2.7955    0.0000 </r>
      </set>
      <set comment="kpoint 366">
       <r>  -12.2019    1.0000 </r>
       <r>  -11.9461    1.0000 </r>
       <r>  -10.8431    1.0000 </r>
       <r>  -10.6441    1.0000 </r>
       <r>  -10.4041    1.0000 </r>
       <r>  -10.0976    1.0000 </r>
       <r>   -9.4063    1.0000 </r>
       <r>   -8.7805    1.0000 </r>
       <r>   -8.2006    1.0000 </r>
       <r>   -7.7443    1.0000 </r>
       <r>   -7.0030    1.0000 </r>
       <r>   -6.7656    1.0000 </r>
       <r>   -5.8781    1.0000 </r>
       <r>   -5.4642    1.0000 </r>
       <r>   -5.3888    1.0000 </r>
       <r>   -5.1370    1.0000 </r>
       <r>   -2.4772    0.0000 </r>
       <r>   -0.7804    0.0000 </r>
       <r>    0.9182    0.0000 </r>
       <r>    0.9291    0.0000 </r>
       <r>    1.0780    0.0000 </r>
       <r>    1.5994    0.0000 </r>
       <r>    1.9725    0.0000 </r>
       <r>    2.2107    0.0000 </r>
       <r>    2.5386    0.0000 </r>
       <r>    2.5682    0.0000 </r>
       <r>    2.7004    0.0000 </r>
       <r>    2.8684    0.0000 </r>
      </set>
      <set comment="kpoint 367">
       <r>  -12.2335    1.0000 </r>
       <r>  -11.8763    1.0000 </r>
       <r>  -10.9740    1.0000 </r>
       <r>  -10.6739    1.0000 </r>
       <r>  -10.3391    1.0000 </r>
       <r>   -9.9340    1.0000 </r>
       <r>   -9.5210    1.0000 </r>
       <r>   -8.6511    1.0000 </r>
       <r>   -8.3601    1.0000 </r>
       <r>   -7.7529    1.0000 </r>
       <r>   -7.0330    1.0000 </r>
       <r>   -6.7025    1.0000 </r>
       <r>   -5.9689    1.0000 </r>
       <r>   -5.4007    1.0000 </r>
       <r>   -5.3466    1.0000 </r>
       <r>   -5.0233    1.0000 </r>
       <r>   -2.7959    0.0000 </r>
       <r>   -0.4369    0.0000 </r>
       <r>    0.8881    0.0000 </r>
       <r>    0.8949    0.0000 </r>
       <r>    1.1073    0.0000 </r>
       <r>    1.4231    0.0000 </r>
       <r>    2.0832    0.0000 </r>
       <r>    2.1483    0.0000 </r>
       <r>    2.5302    0.0000 </r>
       <r>    2.5814    0.0000 </r>
       <r>    2.9231    0.0000 </r>
       <r>    2.9467    0.0000 </r>
      </set>
      <set comment="kpoint 368">
       <r>  -12.2588    1.0000 </r>
       <r>  -11.8002    1.0000 </r>
       <r>  -11.0990    1.0000 </r>
       <r>  -10.6978    1.0000 </r>
       <r>  -10.2685    1.0000 </r>
       <r>   -9.7659    1.0000 </r>
       <r>   -9.6316    1.0000 </r>
       <r>   -8.5300    1.0000 </r>
       <r>   -8.5218    1.0000 </r>
       <r>   -7.7924    1.0000 </r>
       <r>   -7.0570    1.0000 </r>
       <r>   -6.6346    1.0000 </r>
       <r>   -6.0598    1.0000 </r>
       <r>   -5.3469    1.0000 </r>
       <r>   -5.3090    1.0000 </r>
       <r>   -4.8686    1.0000 </r>
       <r>   -3.1059    0.7845 </r>
       <r>   -0.0980    0.0000 </r>
       <r>    0.8575    0.0000 </r>
       <r>    0.8760    0.0000 </r>
       <r>    1.1263    0.0000 </r>
       <r>    1.2672    0.0000 </r>
       <r>    2.0946    0.0000 </r>
       <r>    2.2020    0.0000 </r>
       <r>    2.4997    0.0000 </r>
       <r>    2.6094    0.0000 </r>
       <r>    2.9592    0.0000 </r>
       <r>    3.0323    0.0000 </r>
      </set>
      <set comment="kpoint 369">
       <r>  -12.2777    1.0000 </r>
       <r>  -11.7179    1.0000 </r>
       <r>  -11.2180    1.0000 </r>
       <r>  -10.7157    1.0000 </r>
       <r>  -10.1924    1.0000 </r>
       <r>   -9.7377    1.0000 </r>
       <r>   -9.5938    1.0000 </r>
       <r>   -8.7063    1.0000 </r>
       <r>   -8.3942    1.0000 </r>
       <r>   -7.8576    1.0000 </r>
       <r>   -7.0751    1.0000 </r>
       <r>   -6.5622    1.0000 </r>
       <r>   -6.1500    1.0000 </r>
       <r>   -5.3042    1.0000 </r>
       <r>   -5.2793    1.0000 </r>
       <r>   -4.6789    1.0000 </r>
       <r>   -3.4060    1.0000 </r>
       <r>    0.2293    0.0000 </r>
       <r>    0.8443    0.0000 </r>
       <r>    0.8616    0.0000 </r>
       <r>    1.1242    0.0000 </r>
       <r>    1.1339    0.0000 </r>
       <r>    2.0572    0.0000 </r>
       <r>    2.3181    0.0000 </r>
       <r>    2.4768    0.0000 </r>
       <r>    2.6187    0.0000 </r>
       <r>    2.6613    0.0000 </r>
       <r>    3.0942    0.0000 </r>
      </set>
      <set comment="kpoint 370">
       <r>  -12.2903    1.0000 </r>
       <r>  -11.6293    1.0000 </r>
       <r>  -11.3310    1.0000 </r>
       <r>  -10.7276    1.0000 </r>
       <r>  -10.1109    1.0000 </r>
       <r>   -9.8393    1.0000 </r>
       <r>   -9.4181    1.0000 </r>
       <r>   -8.8860    1.0000 </r>
       <r>   -8.2697    1.0000 </r>
       <r>   -7.9429    1.0000 </r>
       <r>   -7.0871    1.0000 </r>
       <r>   -6.4856    1.0000 </r>
       <r>   -6.2386    1.0000 </r>
       <r>   -5.2737    1.0000 </r>
       <r>   -5.2598    1.0000 </r>
       <r>   -4.4606    1.0000 </r>
       <r>   -3.6946    1.0000 </r>
       <r>    0.5327    0.0000 </r>
       <r>    0.8520    0.0000 </r>
       <r>    0.8527    0.0000 </r>
       <r>    1.0250    0.0000 </r>
       <r>    1.0819    0.0000 </r>
       <r>    2.0487    0.0000 </r>
       <r>    2.3969    0.0000 </r>
       <r>    2.4224    0.0000 </r>
       <r>    2.4616    0.0000 </r>
       <r>    2.6058    0.0000 </r>
       <r>    3.0778    0.0000 </r>
      </set>
      <set comment="kpoint 371">
       <r>  -12.2965    1.0000 </r>
       <r>  -11.5345    1.0000 </r>
       <r>  -11.4378    1.0000 </r>
       <r>  -10.7335    1.0000 </r>
       <r>  -10.0241    1.0000 </r>
       <r>   -9.9361    1.0000 </r>
       <r>   -9.2396    1.0000 </r>
       <r>   -9.0668    1.0000 </r>
       <r>   -8.1505    1.0000 </r>
       <r>   -8.0435    1.0000 </r>
       <r>   -7.0931    1.0000 </r>
       <r>   -6.4052    1.0000 </r>
       <r>   -6.3250    1.0000 </r>
       <r>   -5.2562    1.0000 </r>
       <r>   -5.2519    1.0000 </r>
       <r>   -4.2192    1.0000 </r>
       <r>   -3.9699    1.0000 </r>
       <r>    0.7914    0.0000 </r>
       <r>    0.8472    0.0000 </r>
       <r>    0.8854    0.0000 </r>
       <r>    0.9415    0.0000 </r>
       <r>    0.9730    0.0000 </r>
       <r>    2.0895    0.0000 </r>
       <r>    2.1995    0.0000 </r>
       <r>    2.4540    0.0000 </r>
       <r>    2.5080    0.0000 </r>
       <r>    2.5681    0.0000 </r>
       <r>    3.0697    0.0000 </r>
      </set>
      <set comment="kpoint 372">
       <r>  -12.2964    1.0000 </r>
       <r>  -11.5386    1.0000 </r>
       <r>  -11.4335    1.0000 </r>
       <r>  -10.7334    1.0000 </r>
       <r>  -10.0278    1.0000 </r>
       <r>   -9.9322    1.0000 </r>
       <r>   -9.2470    1.0000 </r>
       <r>   -9.0594    1.0000 </r>
       <r>   -8.1552    1.0000 </r>
       <r>   -8.0392    1.0000 </r>
       <r>   -7.0930    1.0000 </r>
       <r>   -6.4086    1.0000 </r>
       <r>   -6.3215    1.0000 </r>
       <r>   -5.2568    1.0000 </r>
       <r>   -5.2518    1.0000 </r>
       <r>   -4.2295    1.0000 </r>
       <r>   -3.9590    1.0000 </r>
       <r>    0.7818    0.0000 </r>
       <r>    0.8473    0.0000 </r>
       <r>    0.8840    0.0000 </r>
       <r>    0.9439    0.0000 </r>
       <r>    0.9793    0.0000 </r>
       <r>    2.0872    0.0000 </r>
       <r>    2.2053    0.0000 </r>
       <r>    2.4542    0.0000 </r>
       <r>    2.5050    0.0000 </r>
       <r>    2.5700    0.0000 </r>
       <r>    3.0699    0.0000 </r>
      </set>
      <set comment="kpoint 373">
       <r>  -12.2899    1.0000 </r>
       <r>  -11.6331    1.0000 </r>
       <r>  -11.3264    1.0000 </r>
       <r>  -10.7272    1.0000 </r>
       <r>  -10.1144    1.0000 </r>
       <r>   -9.8352    1.0000 </r>
       <r>   -9.4254    1.0000 </r>
       <r>   -8.8786    1.0000 </r>
       <r>   -8.2747    1.0000 </r>
       <r>   -7.9391    1.0000 </r>
       <r>   -7.0868    1.0000 </r>
       <r>   -6.4888    1.0000 </r>
       <r>   -6.2350    1.0000 </r>
       <r>   -5.2748    1.0000 </r>
       <r>   -5.2602    1.0000 </r>
       <r>   -4.4700    1.0000 </r>
       <r>   -3.6831    1.0000 </r>
       <r>    0.5208    0.0000 </r>
       <r>    0.8523    0.0000 </r>
       <r>    0.8523    0.0000 </r>
       <r>    1.0283    0.0000 </r>
       <r>    1.0848    0.0000 </r>
       <r>    2.0489    0.0000 </r>
       <r>    2.4063    0.0000 </r>
       <r>    2.4186    0.0000 </r>
       <r>    2.4621    0.0000 </r>
       <r>    2.6066    0.0000 </r>
       <r>    3.0783    0.0000 </r>
      </set>
      <set comment="kpoint 374">
       <r>  -12.2771    1.0000 </r>
       <r>  -11.7214    1.0000 </r>
       <r>  -11.2132    1.0000 </r>
       <r>  -10.7151    1.0000 </r>
       <r>  -10.1957    1.0000 </r>
       <r>   -9.7334    1.0000 </r>
       <r>   -9.6009    1.0000 </r>
       <r>   -8.6990    1.0000 </r>
       <r>   -8.3994    1.0000 </r>
       <r>   -7.8545    1.0000 </r>
       <r>   -7.0745    1.0000 </r>
       <r>   -6.5653    1.0000 </r>
       <r>   -6.1462    1.0000 </r>
       <r>   -5.3058    1.0000 </r>
       <r>   -5.2802    1.0000 </r>
       <r>   -4.6872    1.0000 </r>
       <r>   -3.3940    1.0000 </r>
       <r>    0.2161    0.0000 </r>
       <r>    0.8447    0.0000 </r>
       <r>    0.8621    0.0000 </r>
       <r>    1.1250    0.0000 </r>
       <r>    1.1383    0.0000 </r>
       <r>    2.0590    0.0000 </r>
       <r>    2.3136    0.0000 </r>
       <r>    2.4776    0.0000 </r>
       <r>    2.6185    0.0000 </r>
       <r>    2.6728    0.0000 </r>
       <r>    3.0951    0.0000 </r>
      </set>
      <set comment="kpoint 375">
       <r>  -12.2579    1.0000 </r>
       <r>  -11.8035    1.0000 </r>
       <r>  -11.0939    1.0000 </r>
       <r>  -10.6969    1.0000 </r>
       <r>  -10.2716    1.0000 </r>
       <r>   -9.7729    1.0000 </r>
       <r>   -9.6271    1.0000 </r>
       <r>   -8.5271    1.0000 </r>
       <r>   -8.5229    1.0000 </r>
       <r>   -7.7903    1.0000 </r>
       <r>   -7.0562    1.0000 </r>
       <r>   -6.6375    1.0000 </r>
       <r>   -6.0560    1.0000 </r>
       <r>   -5.3490    1.0000 </r>
       <r>   -5.3102    1.0000 </r>
       <r>   -4.8757    1.0000 </r>
       <r>   -3.0935    0.4630 </r>
       <r>   -0.1118    0.0000 </r>
       <r>    0.8588    0.0000 </r>
       <r>    0.8767    0.0000 </r>
       <r>    1.1258    0.0000 </r>
       <r>    1.2724    0.0000 </r>
       <r>    2.0972    0.0000 </r>
       <r>    2.1972    0.0000 </r>
       <r>    2.5008    0.0000 </r>
       <r>    2.6083    0.0000 </r>
       <r>    2.9712    0.0000 </r>
       <r>    3.1027    0.0000 </r>
      </set>
      <set comment="kpoint 376">
       <r>  -12.2323    1.0000 </r>
       <r>  -11.8793    1.0000 </r>
       <r>  -10.9687    1.0000 </r>
       <r>  -10.6728    1.0000 </r>
       <r>  -10.3419    1.0000 </r>
       <r>   -9.9408    1.0000 </r>
       <r>   -9.5163    1.0000 </r>
       <r>   -8.6564    1.0000 </r>
       <r>   -8.3533    1.0000 </r>
       <r>   -7.7520    1.0000 </r>
       <r>   -7.0319    1.0000 </r>
       <r>   -6.7052    1.0000 </r>
       <r>   -5.9650    1.0000 </r>
       <r>   -5.4032    1.0000 </r>
       <r>   -5.3482    1.0000 </r>
       <r>   -5.0288    1.0000 </r>
       <r>   -2.7830    0.0000 </r>
       <r>   -0.4510    0.0000 </r>
       <r>    0.8899    0.0000 </r>
       <r>    0.8959    0.0000 </r>
       <r>    1.1062    0.0000 </r>
       <r>    1.4291    0.0000 </r>
       <r>    2.0784    0.0000 </r>
       <r>    2.1514    0.0000 </r>
       <r>    2.5316    0.0000 </r>
       <r>    2.5796    0.0000 </r>
       <r>    2.9156    0.0000 </r>
       <r>    2.9432    0.0000 </r>
      </set>
      <set comment="kpoint 377">
       <r>  -12.2005    1.0000 </r>
       <r>  -11.9489    1.0000 </r>
       <r>  -10.8375    1.0000 </r>
       <r>  -10.6427    1.0000 </r>
       <r>  -10.4067    1.0000 </r>
       <r>  -10.1042    1.0000 </r>
       <r>   -9.4015    1.0000 </r>
       <r>   -8.7858    1.0000 </r>
       <r>   -8.1944    1.0000 </r>
       <r>   -7.7447    1.0000 </r>
       <r>   -7.0017    1.0000 </r>
       <r>   -6.7681    1.0000 </r>
       <r>   -5.8743    1.0000 </r>
       <r>   -5.4671    1.0000 </r>
       <r>   -5.3905    1.0000 </r>
       <r>   -5.1407    1.0000 </r>
       <r>   -2.4640    0.0000 </r>
       <r>   -0.7945    0.0000 </r>
       <r>    0.9193    0.0000 </r>
       <r>    0.9310    0.0000 </r>
       <r>    1.0766    0.0000 </r>
       <r>    1.6061    0.0000 </r>
       <r>    1.9683    0.0000 </r>
       <r>    2.2140    0.0000 </r>
       <r>    2.5363    0.0000 </r>
       <r>    2.5700    0.0000 </r>
       <r>    2.6923    0.0000 </r>
       <r>    2.8651    0.0000 </r>
      </set>
      <set comment="kpoint 378">
       <r>  -12.0620    1.0000 </r>
       <r>  -11.8709    1.0000 </r>
       <r>  -10.6483    1.0000 </r>
       <r>  -10.5023    1.0000 </r>
       <r>  -10.3236    1.0000 </r>
       <r>  -10.0923    1.0000 </r>
       <r>   -9.2247    1.0000 </r>
       <r>   -8.7602    1.0000 </r>
       <r>   -8.0308    1.0000 </r>
       <r>   -7.6863    1.0000 </r>
       <r>   -6.8177    1.0000 </r>
       <r>   -6.6396    1.0000 </r>
       <r>   -5.6615    1.0000 </r>
       <r>   -5.3508    1.0000 </r>
       <r>   -5.2538    1.0000 </r>
       <r>   -5.0211    1.0000 </r>
       <r>   -2.1370    0.0000 </r>
       <r>   -0.8625    0.0000 </r>
       <r>    1.0442    0.0000 </r>
       <r>    1.0686    0.0000 </r>
       <r>    1.1658    0.0000 </r>
       <r>    1.7501    0.0000 </r>
       <r>    1.9308    0.0000 </r>
       <r>    2.2180    0.0000 </r>
       <r>    2.4762    0.0000 </r>
       <r>    2.5932    0.0000 </r>
       <r>    2.7556    0.0000 </r>
       <r>    2.9760    0.0000 </r>
      </set>
      <set comment="kpoint 379">
       <r>  -12.0202    1.0000 </r>
       <r>  -11.9302    1.0000 </r>
       <r>  -10.5089    1.0000 </r>
       <r>  -10.4631    1.0000 </r>
       <r>  -10.3789    1.0000 </r>
       <r>  -10.2467    1.0000 </r>
       <r>   -9.1056    1.0000 </r>
       <r>   -8.8862    1.0000 </r>
       <r>   -7.9041    1.0000 </r>
       <r>   -7.7327    1.0000 </r>
       <r>   -6.7784    1.0000 </r>
       <r>   -6.6943    1.0000 </r>
       <r>   -5.5737    1.0000 </r>
       <r>   -5.4262    1.0000 </r>
       <r>   -5.2830    1.0000 </r>
       <r>   -5.0674    1.0000 </r>
       <r>   -1.8075    0.0000 </r>
       <r>   -1.2057    0.0000 </r>
       <r>    1.0730    0.0000 </r>
       <r>    1.1067    0.0000 </r>
       <r>    1.1312    0.0000 </r>
       <r>    1.8638    0.0000 </r>
       <r>    1.9398    0.0000 </r>
       <r>    2.2254    0.0000 </r>
       <r>    2.4238    0.0000 </r>
       <r>    2.4315    0.0000 </r>
       <r>    2.8047    0.0000 </r>
       <r>    2.9089    0.0000 </r>
      </set>
      <set comment="kpoint 380">
       <r>  -11.9832    1.0000 </r>
       <r>  -11.9722    1.0000 </r>
       <r>  -10.4284    1.0000 </r>
       <r>  -10.4181    1.0000 </r>
       <r>  -10.3958    1.0000 </r>
       <r>  -10.3639    1.0000 </r>
       <r>   -9.0102    1.0000 </r>
       <r>   -8.9835    1.0000 </r>
       <r>   -7.8330    1.0000 </r>
       <r>   -7.7808    1.0000 </r>
       <r>   -6.7436    1.0000 </r>
       <r>   -6.7334    1.0000 </r>
       <r>   -5.5073    1.0000 </r>
       <r>   -5.4892    1.0000 </r>
       <r>   -5.2923    1.0000 </r>
       <r>   -5.0799    1.0000 </r>
       <r>   -1.5451    0.0000 </r>
       <r>   -1.4720    0.0000 </r>
       <r>    1.0976    0.0000 </r>
       <r>    1.1049    0.0000 </r>
       <r>    1.1194    0.0000 </r>
       <r>    1.8429    0.0000 </r>
       <r>    2.0905    0.0000 </r>
       <r>    2.1271    0.0000 </r>
       <r>    2.3965    0.0000 </r>
       <r>    2.4014    0.0000 </r>
       <r>    2.8478    0.0000 </r>
       <r>    2.8607    0.0000 </r>
      </set>
      <set comment="kpoint 381">
       <r>  -12.0299    1.0000 </r>
       <r>  -11.9178    1.0000 </r>
       <r>  -10.5396    1.0000 </r>
       <r>  -10.4721    1.0000 </r>
       <r>  -10.3674    1.0000 </r>
       <r>  -10.2136    1.0000 </r>
       <r>   -9.1317    1.0000 </r>
       <r>   -8.8590    1.0000 </r>
       <r>   -7.9294    1.0000 </r>
       <r>   -7.7200    1.0000 </r>
       <r>   -6.7874    1.0000 </r>
       <r>   -6.6829    1.0000 </r>
       <r>   -5.5926    1.0000 </r>
       <r>   -5.4092    1.0000 </r>
       <r>   -5.2781    1.0000 </r>
       <r>   -5.0604    1.0000 </r>
       <r>   -1.8794    0.0000 </r>
       <r>   -1.1316    0.0000 </r>
       <r>    1.0664    0.0000 </r>
       <r>    1.1000    0.0000 </r>
       <r>    1.1388    0.0000 </r>
       <r>    1.8750    0.0000 </r>
       <r>    1.8996    0.0000 </r>
       <r>    2.2312    0.0000 </r>
       <r>    2.4414    0.0000 </r>
       <r>    2.4508    0.0000 </r>
       <r>    2.7934    0.0000 </r>
       <r>    2.9231    0.0000 </r>
      </set>
      <set comment="kpoint 382">
       <r>  -12.0702    1.0000 </r>
       <r>  -11.8572    1.0000 </r>
       <r>  -10.6778    1.0000 </r>
       <r>  -10.5100    1.0000 </r>
       <r>  -10.3109    1.0000 </r>
       <r>  -10.0581    1.0000 </r>
       <r>   -9.2501    1.0000 </r>
       <r>   -8.7327    1.0000 </r>
       <r>   -8.0612    1.0000 </r>
       <r>   -7.6805    1.0000 </r>
       <r>   -6.8255    1.0000 </r>
       <r>   -6.6271    1.0000 </r>
       <r>   -5.6809    1.0000 </r>
       <r>   -5.3352    1.0000 </r>
       <r>   -5.2458    1.0000 </r>
       <r>   -5.0061    1.0000 </r>
       <r>   -2.2074    0.0000 </r>
       <r>   -0.7879    0.0000 </r>
       <r>    1.0383    0.0000 </r>
       <r>    1.0583    0.0000 </r>
       <r>    1.1733    0.0000 </r>
       <r>    1.7117    0.0000 </r>
       <r>    1.9498    0.0000 </r>
       <r>    2.2075    0.0000 </r>
       <r>    2.4857    0.0000 </r>
       <r>    2.6369    0.0000 </r>
       <r>    2.7458    0.0000 </r>
       <r>    2.9915    0.0000 </r>
      </set>
      <set comment="kpoint 383">
       <r>  -12.1043    1.0000 </r>
       <r>  -11.7903    1.0000 </r>
       <r>  -10.8103    1.0000 </r>
       <r>  -10.5421    1.0000 </r>
       <r>  -10.2487    1.0000 </r>
       <r>   -9.8978    1.0000 </r>
       <r>   -9.3650    1.0000 </r>
       <r>   -8.6055    1.0000 </r>
       <r>   -8.2113    1.0000 </r>
       <r>   -7.6742    1.0000 </r>
       <r>   -6.8578    1.0000 </r>
       <r>   -6.5661    1.0000 </r>
       <r>   -5.7709    1.0000 </r>
       <r>   -5.2688    1.0000 </r>
       <r>   -5.2058    1.0000 </r>
       <r>   -4.9117    1.0000 </r>
       <r>   -2.5280    0.0000 </r>
       <r>   -0.4429    0.0000 </r>
       <r>    1.0105    0.0000 </r>
       <r>    1.0139    0.0000 </r>
       <r>    1.2062    0.0000 </r>
       <r>    1.5377    0.0000 </r>
       <r>    2.0496    0.0000 </r>
       <r>    2.1578    0.0000 </r>
       <r>    2.5241    0.0000 </r>
       <r>    2.7054    0.0000 </r>
       <r>    2.8490    0.0000 </r>
       <r>    3.0650    0.0000 </r>
      </set>
      <set comment="kpoint 384">
       <r>  -12.1321    1.0000 </r>
       <r>  -11.7172    1.0000 </r>
       <r>  -10.9370    1.0000 </r>
       <r>  -10.5682    1.0000 </r>
       <r>  -10.1810    1.0000 </r>
       <r>   -9.7329    1.0000 </r>
       <r>   -9.4761    1.0000 </r>
       <r>   -8.4782    1.0000 </r>
       <r>   -8.3740    1.0000 </r>
       <r>   -7.6992    1.0000 </r>
       <r>   -6.8843    1.0000 </r>
       <r>   -6.5003    1.0000 </r>
       <r>   -5.8614    1.0000 </r>
       <r>   -5.2116    1.0000 </r>
       <r>   -5.1673    1.0000 </r>
       <r>   -4.7760    1.0000 </r>
       <r>   -2.8402    0.0000 </r>
       <r>   -0.0998    0.0000 </r>
       <r>    0.9693    0.0000 </r>
       <r>    0.9936    0.0000 </r>
       <r>    1.2334    0.0000 </r>
       <r>    1.3817    0.0000 </r>
       <r>    2.1084    0.0000 </r>
       <r>    2.1592    0.0000 </r>
       <r>    2.5521    0.0000 </r>
       <r>    2.6723    0.0000 </r>
       <r>    3.0544    0.0000 </r>
       <r>    3.1509    0.0000 </r>
      </set>
      <set comment="kpoint 385">
       <r>  -12.1535    1.0000 </r>
       <r>  -11.6378    1.0000 </r>
       <r>  -11.0579    1.0000 </r>
       <r>  -10.5884    1.0000 </r>
       <r>  -10.1078    1.0000 </r>
       <r>   -9.5830    1.0000 </r>
       <r>   -9.5639    1.0000 </r>
       <r>   -8.5449    1.0000 </r>
       <r>   -8.3521    1.0000 </r>
       <r>   -7.7514    1.0000 </r>
       <r>   -6.9048    1.0000 </r>
       <r>   -6.4298    1.0000 </r>
       <r>   -5.9517    1.0000 </r>
       <r>   -5.1648    1.0000 </r>
       <r>   -5.1352    1.0000 </r>
       <r>   -4.6032    1.0000 </r>
       <r>   -3.1426    0.9996 </r>
       <r>    0.2360    0.0000 </r>
       <r>    0.9430    0.0000 </r>
       <r>    0.9777    0.0000 </r>
       <r>    1.2466    0.0000 </r>
       <r>    1.2473    0.0000 </r>
       <r>    2.0686    0.0000 </r>
       <r>    2.2673    0.0000 </r>
       <r>    2.5663    0.0000 </r>
       <r>    2.6467    0.0000 </r>
       <r>    2.8366    0.0000 </r>
       <r>    3.2323    0.0000 </r>
      </set>
      <set comment="kpoint 386">
       <r>  -12.1686    1.0000 </r>
       <r>  -11.5522    1.0000 </r>
       <r>  -11.1727    1.0000 </r>
       <r>  -10.6026    1.0000 </r>
       <r>  -10.0292    1.0000 </r>
       <r>   -9.6854    1.0000 </r>
       <r>   -9.3913    1.0000 </r>
       <r>   -8.7206    1.0000 </r>
       <r>   -8.2288    1.0000 </r>
       <r>   -7.8258    1.0000 </r>
       <r>   -6.9193    1.0000 </r>
       <r>   -6.3551    1.0000 </r>
       <r>   -6.0407    1.0000 </r>
       <r>   -5.1298    1.0000 </r>
       <r>   -5.1120    1.0000 </r>
       <r>   -4.3993    1.0000 </r>
       <r>   -3.4340    1.0000 </r>
       <r>    0.5547    0.0000 </r>
       <r>    0.9368    0.0000 </r>
       <r>    0.9664    0.0000 </r>
       <r>    1.1345    0.0000 </r>
       <r>    1.2332    0.0000 </r>
       <r>    2.0497    0.0000 </r>
       <r>    2.3652    0.0000 </r>
       <r>    2.5385    0.0000 </r>
       <r>    2.5634    0.0000 </r>
       <r>    2.6285    0.0000 </r>
       <r>    3.2566    0.0000 </r>
      </set>
      <set comment="kpoint 387">
       <r>  -12.1774    1.0000 </r>
       <r>  -11.4604    1.0000 </r>
       <r>  -11.2815    1.0000 </r>
       <r>  -10.6109    1.0000 </r>
       <r>   -9.9454    1.0000 </r>
       <r>   -9.7832    1.0000 </r>
       <r>   -9.2158    1.0000 </r>
       <r>   -8.8986    1.0000 </r>
       <r>   -8.1099    1.0000 </r>
       <r>   -7.9173    1.0000 </r>
       <r>   -6.9277    1.0000 </r>
       <r>   -6.2764    1.0000 </r>
       <r>   -6.1279    1.0000 </r>
       <r>   -5.1073    1.0000 </r>
       <r>   -5.0995    1.0000 </r>
       <r>   -4.1702    1.0000 </r>
       <r>   -3.7125    1.0000 </r>
       <r>    0.8378    0.0000 </r>
       <r>    0.9538    0.0000 </r>
       <r>    0.9598    0.0000 </r>
       <r>    1.0470    0.0000 </r>
       <r>    1.1657    0.0000 </r>
       <r>    2.0703    0.0000 </r>
       <r>    2.2937    0.0000 </r>
       <r>    2.4468    0.0000 </r>
       <r>    2.5408    0.0000 </r>
       <r>    2.6180    0.0000 </r>
       <r>    3.2451    0.0000 </r>
      </set>
      <set comment="kpoint 388">
       <r>  -12.1799    1.0000 </r>
       <r>  -11.3843    1.0000 </r>
       <r>  -11.3625    1.0000 </r>
       <r>  -10.6133    1.0000 </r>
       <r>   -9.8761    1.0000 </r>
       <r>   -9.8564    1.0000 </r>
       <r>   -9.0769    1.0000 </r>
       <r>   -9.0382    1.0000 </r>
       <r>   -8.0216    1.0000 </r>
       <r>   -7.9981    1.0000 </r>
       <r>   -6.9301    1.0000 </r>
       <r>   -6.2124    1.0000 </r>
       <r>   -6.1943    1.0000 </r>
       <r>   -5.0990    1.0000 </r>
       <r>   -5.0978    1.0000 </r>
       <r>   -3.9761    1.0000 </r>
       <r>   -3.9204    1.0000 </r>
       <r>    0.9579    0.0000 </r>
       <r>    0.9850    0.0000 </r>
       <r>    0.9957    0.0000 </r>
       <r>    1.0157    0.0000 </r>
       <r>    1.0562    0.0000 </r>
       <r>    2.1336    0.0000 </r>
       <r>    2.1595    0.0000 </r>
       <r>    2.4966    0.0000 </r>
       <r>    2.5079    0.0000 </r>
       <r>    2.6150    0.0000 </r>
       <r>    3.2418    0.0000 </r>
      </set>
      <set comment="kpoint 389">
       <r>  -12.1761    1.0000 </r>
       <r>  -11.4809    1.0000 </r>
       <r>  -11.2584    1.0000 </r>
       <r>  -10.6096    1.0000 </r>
       <r>   -9.9641    1.0000 </r>
       <r>   -9.7624    1.0000 </r>
       <r>   -9.2541    1.0000 </r>
       <r>   -8.8599    1.0000 </r>
       <r>   -8.1352    1.0000 </r>
       <r>   -7.8962    1.0000 </r>
       <r>   -6.9264    1.0000 </r>
       <r>   -6.2939    1.0000 </r>
       <r>   -6.1091    1.0000 </r>
       <r>   -5.1113    1.0000 </r>
       <r>   -5.1010    1.0000 </r>
       <r>   -4.2217    1.0000 </r>
       <r>   -3.6535    1.0000 </r>
       <r>    0.7806    0.0000 </r>
       <r>    0.9485    0.0000 </r>
       <r>    0.9608    0.0000 </r>
       <r>    1.0631    0.0000 </r>
       <r>    1.1866    0.0000 </r>
       <r>    2.0619    0.0000 </r>
       <r>    2.3398    0.0000 </r>
       <r>    2.4308    0.0000 </r>
       <r>    2.5473    0.0000 </r>
       <r>    2.6196    0.0000 </r>
       <r>    3.2469    0.0000 </r>
      </set>
      <set comment="kpoint 390">
       <r>  -12.1659    1.0000 </r>
       <r>  -11.5713    1.0000 </r>
       <r>  -11.1483    1.0000 </r>
       <r>  -10.6000    1.0000 </r>
       <r>  -10.0468    1.0000 </r>
       <r>   -9.6636    1.0000 </r>
       <r>   -9.4290    1.0000 </r>
       <r>   -8.6822    1.0000 </r>
       <r>   -8.2552    1.0000 </r>
       <r>   -7.8081    1.0000 </r>
       <r>   -6.9167    1.0000 </r>
       <r>   -6.3717    1.0000 </r>
       <r>   -6.0215    1.0000 </r>
       <r>   -5.1365    1.0000 </r>
       <r>   -5.1160    1.0000 </r>
       <r>   -4.4458    1.0000 </r>
       <r>   -3.3720    1.0000 </r>
       <r>    0.4877    0.0000 </r>
       <r>    0.9367    0.0000 </r>
       <r>    0.9685    0.0000 </r>
       <r>    1.1559    0.0000 </r>
       <r>    1.2398    0.0000 </r>
       <r>    2.0521    0.0000 </r>
       <r>    2.3453    0.0000 </r>
       <r>    2.5654    0.0000 </r>
       <r>    2.5993    0.0000 </r>
       <r>    2.6319    0.0000 </r>
       <r>    3.2603    0.0000 </r>
      </set>
      <set comment="kpoint 391">
       <r>  -12.1494    1.0000 </r>
       <r>  -11.6556    1.0000 </r>
       <r>  -11.0321    1.0000 </r>
       <r>  -10.5845    1.0000 </r>
       <r>  -10.1242    1.0000 </r>
       <r>   -9.6009    1.0000 </r>
       <r>   -9.5601    1.0000 </r>
       <r>   -8.5073    1.0000 </r>
       <r>   -8.3793    1.0000 </r>
       <r>   -7.7381    1.0000 </r>
       <r>   -6.9009    1.0000 </r>
       <r>   -6.4455    1.0000 </r>
       <r>   -5.9321    1.0000 </r>
       <r>   -5.1741    1.0000 </r>
       <r>   -5.1413    1.0000 </r>
       <r>   -4.6434    1.0000 </r>
       <r>   -3.0781    0.1186 </r>
       <r>    0.1642    0.0000 </r>
       <r>    0.9476    0.0000 </r>
       <r>    0.9808    0.0000 </r>
       <r>    1.2459    0.0000 </r>
       <r>    1.2730    0.0000 </r>
       <r>    2.0768    0.0000 </r>
       <r>    2.2445    0.0000 </r>
       <r>    2.5643    0.0000 </r>
       <r>    2.6516    0.0000 </r>
       <r>    2.9048    0.0000 </r>
       <r>    3.1990    0.0000 </r>
      </set>
      <set comment="kpoint 392">
       <r>  -12.1266    1.0000 </r>
       <r>  -11.7336    1.0000 </r>
       <r>  -10.9100    1.0000 </r>
       <r>  -10.5630    1.0000 </r>
       <r>  -10.1962    1.0000 </r>
       <r>   -9.7691    1.0000 </r>
       <r>   -9.4523    1.0000 </r>
       <r>   -8.5058    1.0000 </r>
       <r>   -8.3379    1.0000 </r>
       <r>   -7.6913    1.0000 </r>
       <r>   -6.8791    1.0000 </r>
       <r>   -6.5150    1.0000 </r>
       <r>   -5.8417    1.0000 </r>
       <r>   -5.2233    1.0000 </r>
       <r>   -5.1751    1.0000 </r>
       <r>   -4.8088    1.0000 </r>
       <r>   -2.7734    0.0000 </r>
       <r>   -0.1738    0.0000 </r>
       <r>    0.9775    0.0000 </r>
       <r>    0.9977    0.0000 </r>
       <r>    1.2282    0.0000 </r>
       <r>    1.4128    0.0000 </r>
       <r>    2.1195    0.0000 </r>
       <r>    2.1352    0.0000 </r>
       <r>    2.5468    0.0000 </r>
       <r>    2.6789    0.0000 </r>
       <r>    3.0130    0.0000 </r>
       <r>    3.1245    0.0000 </r>
      </set>
      <set comment="kpoint 393">
       <r>  -12.0974    1.0000 </r>
       <r>  -11.8054    1.0000 </r>
       <r>  -10.7820    1.0000 </r>
       <r>  -10.5356    1.0000 </r>
       <r>  -10.2627    1.0000 </r>
       <r>   -9.9330    1.0000 </r>
       <r>   -9.3404    1.0000 </r>
       <r>   -8.6331    1.0000 </r>
       <r>   -8.1775    1.0000 </r>
       <r>   -7.6728    1.0000 </r>
       <r>   -6.8513    1.0000 </r>
       <r>   -6.5798    1.0000 </r>
       <r>   -5.7512    1.0000 </r>
       <r>   -5.2827    1.0000 </r>
       <r>   -5.2144    1.0000 </r>
       <r>   -4.9357    1.0000 </r>
       <r>   -2.4593    0.0000 </r>
       <r>   -0.5176    0.0000 </r>
       <r>    1.0189    0.0000 </r>
       <r>    1.0209    0.0000 </r>
       <r>    1.1993    0.0000 </r>
       <r>    1.5728    0.0000 </r>
       <r>    2.0266    0.0000 </r>
       <r>    2.1699    0.0000 </r>
       <r>    2.5163    0.0000 </r>
       <r>    2.7136    0.0000 </r>
       <r>    2.8043    0.0000 </r>
       <r>    3.0484    0.0000 </r>
      </set>
      <set comment="kpoint 394">
       <r>  -11.9562    1.0000 </r>
       <r>  -11.7247    1.0000 </r>
       <r>  -10.5909    1.0000 </r>
       <r>  -10.3928    1.0000 </r>
       <r>  -10.1773    1.0000 </r>
       <r>   -9.9193    1.0000 </r>
       <r>   -9.1623    1.0000 </r>
       <r>   -8.6059    1.0000 </r>
       <r>   -8.0106    1.0000 </r>
       <r>   -7.6070    1.0000 </r>
       <r>   -6.6621    1.0000 </r>
       <r>   -6.4459    1.0000 </r>
       <r>   -5.5318    1.0000 </r>
       <r>   -5.1583    1.0000 </r>
       <r>   -5.0720    1.0000 </r>
       <r>   -4.8189    1.0000 </r>
       <r>   -2.1301    0.0000 </r>
       <r>   -0.5831    0.0000 </r>
       <r>    1.1430    0.0000 </r>
       <r>    1.1587    0.0000 </r>
       <r>    1.2867    0.0000 </r>
       <r>    1.6877    0.0000 </r>
       <r>    1.9624    0.0000 </r>
       <r>    2.1466    0.0000 </r>
       <r>    2.4630    0.0000 </r>
       <r>    2.7089    0.0000 </r>
       <r>    2.9016    0.0000 </r>
       <r>    3.1599    0.0000 </r>
      </set>
      <set comment="kpoint 395">
       <r>  -11.9173    1.0000 </r>
       <r>  -11.7863    1.0000 </r>
       <r>  -10.4548    1.0000 </r>
       <r>  -10.3563    1.0000 </r>
       <r>  -10.2343    1.0000 </r>
       <r>  -10.0744    1.0000 </r>
       <r>   -9.0461    1.0000 </r>
       <r>   -8.7303    1.0000 </r>
       <r>   -7.8787    1.0000 </r>
       <r>   -7.6398    1.0000 </r>
       <r>   -6.6252    1.0000 </r>
       <r>   -6.5026    1.0000 </r>
       <r>   -5.4437    1.0000 </r>
       <r>   -5.2302    1.0000 </r>
       <r>   -5.1047    1.0000 </r>
       <r>   -4.8799    1.0000 </r>
       <r>   -1.8048    0.0000 </r>
       <r>   -0.9273    0.0000 </r>
       <r>    1.1695    0.0000 </r>
       <r>    1.2100    0.0000 </r>
       <r>    1.2522    0.0000 </r>
       <r>    1.8535    0.0000 </r>
       <r>    1.8812    0.0000 </r>
       <r>    2.1554    0.0000 </r>
       <r>    2.4385    0.0000 </r>
       <r>    2.5392    0.0000 </r>
       <r>    2.9466    0.0000 </r>
       <r>    3.0937    0.0000 </r>
      </set>
      <set comment="kpoint 396">
       <r>  -11.8720    1.0000 </r>
       <r>  -11.8416    1.0000 </r>
       <r>  -10.3141    1.0000 </r>
       <r>  -10.3131    1.0000 </r>
       <r>  -10.2857    1.0000 </r>
       <r>  -10.2245    1.0000 </r>
       <r>   -8.9269    1.0000 </r>
       <r>   -8.8532    1.0000 </r>
       <r>   -7.7754    1.0000 </r>
       <r>   -7.6979    1.0000 </r>
       <r>   -6.5826    1.0000 </r>
       <r>   -6.5540    1.0000 </r>
       <r>   -5.3583    1.0000 </r>
       <r>   -5.3084    1.0000 </r>
       <r>   -5.1219    1.0000 </r>
       <r>   -4.9056    1.0000 </r>
       <r>   -1.4727    0.0000 </r>
       <r>   -1.2680    0.0000 </r>
       <r>    1.1993    0.0000 </r>
       <r>    1.2186    0.0000 </r>
       <r>    1.2397    0.0000 </r>
       <r>    1.8379    0.0000 </r>
       <r>    2.0136    0.0000 </r>
       <r>    2.0947    0.0000 </r>
       <r>    2.4271    0.0000 </r>
       <r>    2.4417    0.0000 </r>
       <r>    2.9983    0.0000 </r>
       <r>    3.0325    0.0000 </r>
      </set>
      <set comment="kpoint 397">
       <r>  -11.8906    1.0000 </r>
       <r>  -11.8206    1.0000 </r>
       <r>  -10.3694    1.0000 </r>
       <r>  -10.3314    1.0000 </r>
       <r>  -10.2662    1.0000 </r>
       <r>  -10.1661    1.0000 </r>
       <r>   -8.9740    1.0000 </r>
       <r>   -8.8052    1.0000 </r>
       <r>   -7.8106    1.0000 </r>
       <r>   -7.6737    1.0000 </r>
       <r>   -6.6000    1.0000 </r>
       <r>   -6.5344    1.0000 </r>
       <r>   -5.3915    1.0000 </r>
       <r>   -5.2769    1.0000 </r>
       <r>   -5.1176    1.0000 </r>
       <r>   -4.8994    1.0000 </r>
       <r>   -1.6037    0.0000 </r>
       <r>   -1.1349    0.0000 </r>
       <r>    1.1871    0.0000 </r>
       <r>    1.2318    0.0000 </r>
       <r>    1.2318    0.0000 </r>
       <r>    1.8491    0.0000 </r>
       <r>    1.9554    0.0000 </r>
       <r>    2.1274    0.0000 </r>
       <r>    2.4281    0.0000 </r>
       <r>    2.4682    0.0000 </r>
       <r>    2.9771    0.0000 </r>
       <r>    3.0561    0.0000 </r>
      </set>
      <set comment="kpoint 398">
       <r>  -11.9333    1.0000 </r>
       <r>  -11.7628    1.0000 </r>
       <r>  -10.5090    1.0000 </r>
       <r>  -10.3714    1.0000 </r>
       <r>  -10.2126    1.0000 </r>
       <r>  -10.0140    1.0000 </r>
       <r>   -9.0921    1.0000 </r>
       <r>   -8.6816    1.0000 </r>
       <r>   -7.9280    1.0000 </r>
       <r>   -7.6232    1.0000 </r>
       <r>   -6.6404    1.0000 </r>
       <r>   -6.4809    1.0000 </r>
       <r>   -5.4781    1.0000 </r>
       <r>   -5.2010    1.0000 </r>
       <r>   -5.0932    1.0000 </r>
       <r>   -4.8605    1.0000 </r>
       <r>   -1.9332    0.0000 </r>
       <r>   -0.7926    0.0000 </r>
       <r>    1.1585    0.0000 </r>
       <r>    1.1910    0.0000 </r>
       <r>    1.2660    0.0000 </r>
       <r>    1.7898    0.0000 </r>
       <r>    1.9099    0.0000 </r>
       <r>    2.1553    0.0000 </r>
       <r>    2.4476    0.0000 </r>
       <r>    2.5997    0.0000 </r>
       <r>    2.9280    0.0000 </r>
       <r>    3.1194    0.0000 </r>
      </set>
      <set comment="kpoint 399">
       <r>  -11.9698    1.0000 </r>
       <r>  -11.6988    1.0000 </r>
       <r>  -10.6429    1.0000 </r>
       <r>  -10.4055    1.0000 </r>
       <r>  -10.1533    1.0000 </r>
       <r>   -9.8570    1.0000 </r>
       <r>   -9.2070    1.0000 </r>
       <r>   -8.5568    1.0000 </r>
       <r>   -8.0674    1.0000 </r>
       <r>   -7.6028    1.0000 </r>
       <r>   -6.6750    1.0000 </r>
       <r>   -6.4222    1.0000 </r>
       <r>   -5.5670    1.0000 </r>
       <r>   -5.1321    1.0000 </r>
       <r>   -5.0572    1.0000 </r>
       <r>   -4.7843    1.0000 </r>
       <r>   -2.2555    0.0000 </r>
       <r>   -0.4475    0.0000 </r>
       <r>    1.1334    0.0000 </r>
       <r>    1.1366    0.0000 </r>
       <r>    1.3002    0.0000 </r>
       <r>    1.6264    0.0000 </r>
       <r>    2.0001    0.0000 </r>
       <r>    2.1336    0.0000 </r>
       <r>    2.4728    0.0000 </r>
       <r>    2.7825    0.0000 </r>
       <r>    2.8857    0.0000 </r>
       <r>    3.1874    0.0000 </r>
      </set>
      <set comment="kpoint 400">
       <r>  -12.0000    1.0000 </r>
       <r>  -11.6286    1.0000 </r>
       <r>  -10.7712    1.0000 </r>
       <r>  -10.4338    1.0000 </r>
       <r>  -10.0886    1.0000 </r>
       <r>   -9.6955    1.0000 </r>
       <r>   -9.3183    1.0000 </r>
       <r>   -8.4318    1.0000 </r>
       <r>   -8.2216    1.0000 </r>
       <r>   -7.6135    1.0000 </r>
       <r>   -6.7039    1.0000 </r>
       <r>   -6.3585    1.0000 </r>
       <r>   -5.6570    1.0000 </r>
       <r>   -5.0716    1.0000 </r>
       <r>   -5.0194    1.0000 </r>
       <r>   -4.6676    1.0000 </r>
       <r>   -2.5694    0.0000 </r>
       <r>   -0.1019    0.0000 </r>
       <r>    1.0846    0.0000 </r>
       <r>    1.1122    0.0000 </r>
       <r>    1.3320    0.0000 </r>
       <r>    1.4758    0.0000 </r>
       <r>    2.0976    0.0000 </r>
       <r>    2.1018    0.0000 </r>
       <r>    2.4940    0.0000 </r>
       <r>    2.8504    0.0000 </r>
       <r>    2.9773    0.0000 </r>
       <r>    3.2581    0.0000 </r>
      </set>
      <set comment="kpoint 401">
       <r>  -12.0240    1.0000 </r>
       <r>  -11.5522    1.0000 </r>
       <r>  -10.8936    1.0000 </r>
       <r>  -10.4562    1.0000 </r>
       <r>  -10.0183    1.0000 </r>
       <r>   -9.5298    1.0000 </r>
       <r>   -9.4256    1.0000 </r>
       <r>   -8.3860    1.0000 </r>
       <r>   -8.3076    1.0000 </r>
       <r>   -7.6523    1.0000 </r>
       <r>   -6.7268    1.0000 </r>
       <r>   -6.2900    1.0000 </r>
       <r>   -5.7471    1.0000 </r>
       <r>   -5.0211    1.0000 </r>
       <r>   -4.9858    1.0000 </r>
       <r>   -4.5125    1.0000 </r>
       <r>   -2.8739    0.0000 </r>
       <r>    0.2400    0.0000 </r>
       <r>    1.0451    0.0000 </r>
       <r>    1.0951    0.0000 </r>
       <r>    1.3428    0.0000 </r>
       <r>    1.3564    0.0000 </r>
       <r>    2.0624    0.0000 </r>
       <r>    2.2028    0.0000 </r>
       <r>    2.5064    0.0000 </r>
       <r>    2.8223    0.0000 </r>
       <r>    3.0198    0.0000 </r>
       <r>    3.1632    0.0000 </r>
      </set>
      <set comment="kpoint 402">
       <r>  -12.0416    1.0000 </r>
       <r>  -11.4696    1.0000 </r>
       <r>  -11.0102    1.0000 </r>
       <r>  -10.4728    1.0000 </r>
       <r>   -9.9427    1.0000 </r>
       <r>   -9.5287    1.0000 </r>
       <r>   -9.3604    1.0000 </r>
       <r>   -8.5568    1.0000 </r>
       <r>   -8.1857    1.0000 </r>
       <r>   -7.7148    1.0000 </r>
       <r>   -6.7437    1.0000 </r>
       <r>   -6.2172    1.0000 </r>
       <r>   -5.8363    1.0000 </r>
       <r>   -4.9818    1.0000 </r>
       <r>   -4.9597    1.0000 </r>
       <r>   -4.3242    1.0000 </r>
       <r>   -3.1677    1.0000 </r>
       <r>    0.5709    0.0000 </r>
       <r>    1.0238    0.0000 </r>
       <r>    1.0824    0.0000 </r>
       <r>    1.2306    0.0000 </r>
       <r>    1.3639    0.0000 </r>
       <r>    2.0391    0.0000 </r>
       <r>    2.2949    0.0000 </r>
       <r>    2.5068    0.0000 </r>
       <r>    2.6951    0.0000 </r>
       <r>    2.8015    0.0000 </r>
       <r>    3.3214    0.0000 </r>
      </set>
      <set comment="kpoint 403">
       <r>  -12.0530    1.0000 </r>
       <r>  -11.3809    1.0000 </r>
       <r>  -11.1209    1.0000 </r>
       <r>  -10.4835    1.0000 </r>
       <r>   -9.8618    1.0000 </r>
       <r>   -9.6273    1.0000 </r>
       <r>   -9.1880    1.0000 </r>
       <r>   -8.7311    1.0000 </r>
       <r>   -8.0678    1.0000 </r>
       <r>   -7.7962    1.0000 </r>
       <r>   -6.7547    1.0000 </r>
       <r>   -6.1403    1.0000 </r>
       <r>   -5.9240    1.0000 </r>
       <r>   -4.9546    1.0000 </r>
       <r>   -4.9431    1.0000 </r>
       <r>   -4.1086    1.0000 </r>
       <r>   -3.4490    1.0000 </r>
       <r>    0.8756    0.0000 </r>
       <r>    1.0244    0.0000 </r>
       <r>    1.0741    0.0000 </r>
       <r>    1.1415    0.0000 </r>
       <r>    1.3344    0.0000 </r>
       <r>    2.0442    0.0000 </r>
       <r>    2.3728    0.0000 </r>
       <r>    2.4066    0.0000 </r>
       <r>    2.4925    0.0000 </r>
       <r>    2.7881    0.0000 </r>
       <r>    3.4315    0.0000 </r>
      </set>
      <set comment="kpoint 404">
       <r>  -12.0580    1.0000 </r>
       <r>  -11.2860    1.0000 </r>
       <r>  -11.2255    1.0000 </r>
       <r>  -10.4882    1.0000 </r>
       <r>   -9.7758    1.0000 </r>
       <r>   -9.7212    1.0000 </r>
       <r>   -9.0134    1.0000 </r>
       <r>   -8.9068    1.0000 </r>
       <r>   -7.9560    1.0000 </r>
       <r>   -7.8922    1.0000 </r>
       <r>   -6.7595    1.0000 </r>
       <r>   -6.0598    1.0000 </r>
       <r>   -6.0094    1.0000 </r>
       <r>   -4.9401    1.0000 </r>
       <r>   -4.9377    1.0000 </r>
       <r>   -3.8703    1.0000 </r>
       <r>   -3.7160    1.0000 </r>
       <r>    1.0490    0.0000 </r>
       <r>    1.0704    0.0000 </r>
       <r>    1.0768    0.0000 </r>
       <r>    1.1251    0.0000 </r>
       <r>    1.2337    0.0000 </r>
       <r>    2.1073    0.0000 </r>
       <r>    2.1908    0.0000 </r>
       <r>    2.4334    0.0000 </r>
       <r>    2.4613    0.0000 </r>
       <r>    2.7821    0.0000 </r>
       <r>    3.4226    0.0000 </r>
      </set>
      <set comment="kpoint 405">
       <r>  -12.0568    1.0000 </r>
       <r>  -11.3241    1.0000 </r>
       <r>  -11.1851    1.0000 </r>
       <r>  -10.4870    1.0000 </r>
       <r>   -9.8103    1.0000 </r>
       <r>   -9.6849    1.0000 </r>
       <r>   -9.0822    1.0000 </r>
       <r>   -8.8378    1.0000 </r>
       <r>   -7.9990    1.0000 </r>
       <r>   -7.8531    1.0000 </r>
       <r>   -6.7583    1.0000 </r>
       <r>   -6.0919    1.0000 </r>
       <r>   -5.9761    1.0000 </r>
       <r>   -4.9445    1.0000 </r>
       <r>   -4.9382    1.0000 </r>
       <r>   -3.9661    1.0000 </r>
       <r>   -3.6132    1.0000 </r>
       <r>    1.0360    0.0000 </r>
       <r>    1.0371    0.0000 </r>
       <r>    1.0713    0.0000 </r>
       <r>    1.0984    0.0000 </r>
       <r>    1.2843    0.0000 </r>
       <r>    2.0742    0.0000 </r>
       <r>    2.2634    0.0000 </r>
       <r>    2.4118    0.0000 </r>
       <r>    2.4755    0.0000 </r>
       <r>    2.7836    0.0000 </r>
       <r>    3.4242    0.0000 </r>
      </set>
      <set comment="kpoint 406">
       <r>  -12.0493    1.0000 </r>
       <r>  -11.4165    1.0000 </r>
       <r>  -11.0781    1.0000 </r>
       <r>  -10.4800    1.0000 </r>
       <r>   -9.8942    1.0000 </r>
       <r>   -9.5891    1.0000 </r>
       <r>   -9.2560    1.0000 </r>
       <r>   -8.6624    1.0000 </r>
       <r>   -8.1135    1.0000 </r>
       <r>   -7.7623    1.0000 </r>
       <r>   -6.7511    1.0000 </r>
       <r>   -6.1710    1.0000 </r>
       <r>   -5.8897    1.0000 </r>
       <r>   -4.9640    1.0000 </r>
       <r>   -4.9482    1.0000 </r>
       <r>   -4.1961    1.0000 </r>
       <r>   -3.3403    1.0000 </r>
       <r>    0.7605    0.0000 </r>
       <r>    1.0220    0.0000 </r>
       <r>    1.0769    0.0000 </r>
       <r>    1.1727    0.0000 </r>
       <r>    1.3523    0.0000 </r>
       <r>    2.0384    0.0000 </r>
       <r>    2.3442    0.0000 </r>
       <r>    2.4999    0.0000 </r>
       <r>    2.5127    0.0000 </r>
       <r>    2.7925    0.0000 </r>
       <r>    3.3972    0.0000 </r>
      </set>
      <set comment="kpoint 407">
       <r>  -12.0354    1.0000 </r>
       <r>  -11.5028    1.0000 </r>
       <r>  -10.9651    1.0000 </r>
       <r>  -10.4670    1.0000 </r>
       <r>   -9.9731    1.0000 </r>
       <r>   -9.4887    1.0000 </r>
       <r>   -9.4273    1.0000 </r>
       <r>   -8.4892    1.0000 </r>
       <r>   -8.2332    1.0000 </r>
       <r>   -7.6878    1.0000 </r>
       <r>   -6.7378    1.0000 </r>
       <r>   -6.2464    1.0000 </r>
       <r>   -5.8013    1.0000 </r>
       <r>   -4.9960    1.0000 </r>
       <r>   -4.9688    1.0000 </r>
       <r>   -4.4016    1.0000 </r>
       <r>   -3.0539    0.0019 </r>
       <r>    0.4430    0.0000 </r>
       <r>    1.0302    0.0000 </r>
       <r>    1.0869    0.0000 </r>
       <r>    1.2709    0.0000 </r>
       <r>    1.3639    0.0000 </r>
       <r>    2.0471    0.0000 </r>
       <r>    2.2602    0.0000 </r>
       <r>    2.5081    0.0000 </r>
       <r>    2.8088    0.0000 </r>
       <r>    2.8193    0.0000 </r>
       <r>    3.2659    0.0000 </r>
      </set>
      <set comment="kpoint 408">
       <r>  -12.0153    1.0000 </r>
       <r>  -11.5830    1.0000 </r>
       <r>  -10.8462    1.0000 </r>
       <r>  -10.4481    1.0000 </r>
       <r>  -10.0466    1.0000 </r>
       <r>   -9.5953    1.0000 </r>
       <r>   -9.3839    1.0000 </r>
       <r>   -8.3562    1.0000 </r>
       <r>   -8.3205    1.0000 </r>
       <r>   -7.6340    1.0000 </r>
       <r>   -6.7185    1.0000 </r>
       <r>   -6.3175    1.0000 </r>
       <r>   -5.7117    1.0000 </r>
       <r>   -5.0398    1.0000 </r>
       <r>   -4.9981    1.0000 </r>
       <r>   -4.5776    1.0000 </r>
       <r>   -2.7558    0.0000 </r>
       <r>    0.1066    0.0000 </r>
       <r>    1.0591    0.0000 </r>
       <r>    1.1014    0.0000 </r>
       <r>    1.3480    0.0000 </r>
       <r>    1.3913    0.0000 </r>
       <r>    2.0767    0.0000 </r>
       <r>    2.1637    0.0000 </r>
       <r>    2.5027    0.0000 </r>
       <r>    2.8326    0.0000 </r>
       <r>    3.0943    0.0000 </r>
       <r>    3.1511    0.0000 </r>
      </set>
      <set comment="kpoint 409">
       <r>  -11.9889    1.0000 </r>
       <r>  -11.6570    1.0000 </r>
       <r>  -10.7214    1.0000 </r>
       <r>  -10.4234    1.0000 </r>
       <r>  -10.1147    1.0000 </r>
       <r>   -9.7594    1.0000 </r>
       <r>   -9.2750    1.0000 </r>
       <r>   -8.4808    1.0000 </r>
       <r>   -8.1597    1.0000 </r>
       <r>   -7.6058    1.0000 </r>
       <r>   -6.6932    1.0000 </r>
       <r>   -6.3841    1.0000 </r>
       <r>   -5.6215    1.0000 </r>
       <r>   -5.0944    1.0000 </r>
       <r>   -5.0339    1.0000 </r>
       <r>   -4.7182    1.0000 </r>
       <r>   -2.4474    0.0000 </r>
       <r>   -0.2374    0.0000 </r>
       <r>    1.1043    0.0000 </r>
       <r>    1.1201    0.0000 </r>
       <r>    1.3199    0.0000 </r>
       <r>    1.5315    0.0000 </r>
       <r>    2.0613    0.0000 </r>
       <r>    2.1136    0.0000 </r>
       <r>    2.4864    0.0000 </r>
       <r>    2.8635    0.0000 </r>
       <r>    2.9025    0.0000 </r>
       <r>    3.2298    0.0000 </r>
      </set>
      <set comment="kpoint 410">
       <r>  -11.8451    1.0000 </r>
       <r>  -11.5738    1.0000 </r>
       <r>  -10.5287    1.0000 </r>
       <r>  -10.2783    1.0000 </r>
       <r>  -10.0271    1.0000 </r>
       <r>   -9.7442    1.0000 </r>
       <r>   -9.0960    1.0000 </r>
       <r>   -8.4523    1.0000 </r>
       <r>   -7.9906    1.0000 </r>
       <r>   -7.5338    1.0000 </r>
       <r>   -6.4988    1.0000 </r>
       <r>   -6.2447    1.0000 </r>
       <r>   -5.3958    1.0000 </r>
       <r>   -4.9621    1.0000 </r>
       <r>   -4.8849    1.0000 </r>
       <r>   -4.6040    1.0000 </r>
       <r>   -2.1164    0.0000 </r>
       <r>   -0.3011    0.0000 </r>
       <r>    1.2359    0.0000 </r>
       <r>    1.2423    0.0000 </r>
       <r>    1.4031    0.0000 </r>
       <r>    1.6108    0.0000 </r>
       <r>    1.9737    0.0000 </r>
       <r>    2.0635    0.0000 </r>
       <r>    2.4460    0.0000 </r>
       <r>    2.8095    0.0000 </r>
       <r>    3.0528    0.0000 </r>
       <r>    3.3385    0.0000 </r>
      </set>
      <set comment="kpoint 411">
       <r>  -11.8089    1.0000 </r>
       <r>  -11.6375    1.0000 </r>
       <r>  -10.3959    1.0000 </r>
       <r>  -10.2447    1.0000 </r>
       <r>  -10.0858    1.0000 </r>
       <r>   -9.8997    1.0000 </r>
       <r>   -8.9829    1.0000 </r>
       <r>   -8.5747    1.0000 </r>
       <r>   -7.8552    1.0000 </r>
       <r>   -7.5537    1.0000 </r>
       <r>   -6.4643    1.0000 </r>
       <r>   -6.3034    1.0000 </r>
       <r>   -5.3075    1.0000 </r>
       <r>   -5.0300    1.0000 </r>
       <r>   -4.9186    1.0000 </r>
       <r>   -4.6799    1.0000 </r>
       <r>   -1.7962    0.0000 </r>
       <r>   -0.6462    0.0000 </r>
       <r>    1.2660    0.0000 </r>
       <r>    1.3006    0.0000 </r>
       <r>    1.3695    0.0000 </r>
       <r>    1.7505    0.0000 </r>
       <r>    1.8820    0.0000 </r>
       <r>    2.0644    0.0000 </r>
       <r>    2.4427    0.0000 </r>
       <r>    2.6505    0.0000 </r>
       <r>    3.0935    0.0000 </r>
       <r>    3.2762    0.0000 </r>
      </set>
      <set comment="kpoint 412">
       <r>  -11.7665    1.0000 </r>
       <r>  -11.6950    1.0000 </r>
       <r>  -10.2576    1.0000 </r>
       <r>  -10.2053    1.0000 </r>
       <r>  -10.1390    1.0000 </r>
       <r>  -10.0505    1.0000 </r>
       <r>   -8.8667    1.0000 </r>
       <r>   -8.6961    1.0000 </r>
       <r>   -7.7419    1.0000 </r>
       <r>   -7.6017    1.0000 </r>
       <r>   -6.4241    1.0000 </r>
       <r>   -6.3569    1.0000 </r>
       <r>   -5.2215    1.0000 </r>
       <r>   -5.1050    1.0000 </r>
       <r>   -4.9416    1.0000 </r>
       <r>   -4.7191    1.0000 </r>
       <r>   -1.4685    0.0000 </r>
       <r>   -0.9879    0.0000 </r>
       <r>    1.2931    0.0000 </r>
       <r>    1.3366    0.0000 </r>
       <r>    1.3522    0.0000 </r>
       <r>    1.8152    0.0000 </r>
       <r>    1.8853    0.0000 </r>
       <r>    2.0278    0.0000 </r>
       <r>    2.4523    0.0000 </r>
       <r>    2.5300    0.0000 </r>
       <r>    3.1404    0.0000 </r>
       <r>    3.2170    0.0000 </r>
      </set>
      <set comment="kpoint 413">
       <r>  -11.7463    1.0000 </r>
       <r>  -11.7179    1.0000 </r>
       <r>  -10.1963    1.0000 </r>
       <r>  -10.1865    1.0000 </r>
       <r>  -10.1602    1.0000 </r>
       <r>  -10.1141    1.0000 </r>
       <r>   -8.8158    1.0000 </r>
       <r>   -8.7480    1.0000 </r>
       <r>   -7.7062    1.0000 </r>
       <r>   -7.6256    1.0000 </r>
       <r>   -6.4051    1.0000 </r>
       <r>   -6.3783    1.0000 </r>
       <r>   -5.1855    1.0000 </r>
       <r>   -5.1390    1.0000 </r>
       <r>   -4.9461    1.0000 </r>
       <r>   -4.7259    1.0000 </r>
       <r>   -1.3247    0.0000 </r>
       <r>   -1.1342    0.0000 </r>
       <r>    1.3055    0.0000 </r>
       <r>    1.3231    0.0000 </r>
       <r>    1.3634    0.0000 </r>
       <r>    1.8012    0.0000 </r>
       <r>    1.9394    0.0000 </r>
       <r>    1.9932    0.0000 </r>
       <r>    2.4651    0.0000 </r>
       <r>    2.4953    0.0000 </r>
       <r>    3.1621    0.0000 </r>
       <r>    3.1930    0.0000 </r>
      </set>
      <set comment="kpoint 414">
       <r>  -11.7914    1.0000 </r>
       <r>  -11.6630    1.0000 </r>
       <r>  -10.3369    1.0000 </r>
       <r>  -10.2284    1.0000 </r>
       <r>  -10.1094    1.0000 </r>
       <r>   -9.9654    1.0000 </r>
       <r>   -8.9331    1.0000 </r>
       <r>   -8.6272    1.0000 </r>
       <r>   -7.8029    1.0000 </r>
       <r>   -7.5714    1.0000 </r>
       <r>   -6.4477    1.0000 </r>
       <r>   -6.3271    1.0000 </r>
       <r>   -5.2701    1.0000 </r>
       <r>   -5.0614    1.0000 </r>
       <r>   -4.9305    1.0000 </r>
       <r>   -4.7011    1.0000 </r>
       <r>   -1.6554    0.0000 </r>
       <r>   -0.7944    0.0000 </r>
       <r>    1.2771    0.0000 </r>
       <r>    1.3257    0.0000 </r>
       <r>    1.3554    0.0000 </r>
       <r>    1.8128    0.0000 </r>
       <r>    1.8487    0.0000 </r>
       <r>    2.0521    0.0000 </r>
       <r>    2.4441    0.0000 </r>
       <r>    2.5919    0.0000 </r>
       <r>    3.1127    0.0000 </r>
       <r>    3.2505    0.0000 </r>
      </set>
      <set comment="kpoint 415">
       <r>  -11.8302    1.0000 </r>
       <r>  -11.6020    1.0000 </r>
       <r>  -10.4721    1.0000 </r>
       <r>  -10.2645    1.0000 </r>
       <r>  -10.0531    1.0000 </r>
       <r>   -9.8118    1.0000 </r>
       <r>   -9.0476    1.0000 </r>
       <r>   -8.5052    1.0000 </r>
       <r>   -7.9300    1.0000 </r>
       <r>   -7.5387    1.0000 </r>
       <r>   -6.4846    1.0000 </r>
       <r>   -6.2707    1.0000 </r>
       <r>   -5.3576    1.0000 </r>
       <r>   -4.9903    1.0000 </r>
       <r>   -4.9002    1.0000 </r>
       <r>   -4.6416    1.0000 </r>
       <r>   -1.9789    0.0000 </r>
       <r>   -0.4505    0.0000 </r>
       <r>    1.2519    0.0000 </r>
       <r>    1.2636    0.0000 </r>
       <r>    1.3889    0.0000 </r>
       <r>    1.6729    0.0000 </r>
       <r>    1.9327    0.0000 </r>
       <r>    2.0650    0.0000 </r>
       <r>    2.4438    0.0000 </r>
       <r>    2.7367    0.0000 </r>
       <r>    3.0694    0.0000 </r>
       <r>    3.3118    0.0000 </r>
      </set>
      <set comment="kpoint 416">
       <r>  -11.8629    1.0000 </r>
       <r>  -11.5347    1.0000 </r>
       <r>  -10.6017    1.0000 </r>
       <r>  -10.2949    1.0000 </r>
       <r>   -9.9913    1.0000 </r>
       <r>   -9.6537    1.0000 </r>
       <r>   -9.1588    1.0000 </r>
       <r>   -8.3827    1.0000 </r>
       <r>   -8.0745    1.0000 </r>
       <r>   -7.5357    1.0000 </r>
       <r>   -6.5158    1.0000 </r>
       <r>   -6.2091    1.0000 </r>
       <r>   -5.4467    1.0000 </r>
       <r>   -4.9270    1.0000 </r>
       <r>   -4.8646    1.0000 </r>
       <r>   -4.5434    1.0000 </r>
       <r>   -2.2943    0.0000 </r>
       <r>   -0.1043    0.0000 </r>
       <r>    1.1999    0.0000 </r>
       <r>    1.2302    0.0000 </r>
       <r>    1.4220    0.0000 </r>
       <r>    1.5362    0.0000 </r>
       <r>    2.0294    0.0000 </r>
       <r>    2.0524    0.0000 </r>
       <r>    2.4491    0.0000 </r>
       <r>    2.9066    0.0000 </r>
       <r>    3.0325    0.0000 </r>
       <r>    3.3749    0.0000 </r>
      </set>
      <set comment="kpoint 417">
       <r>  -11.8892    1.0000 </r>
       <r>  -11.4613    1.0000 </r>
       <r>  -10.7257    1.0000 </r>
       <r>  -10.3195    1.0000 </r>
       <r>   -9.9240    1.0000 </r>
       <r>   -9.4915    1.0000 </r>
       <r>   -9.2662    1.0000 </r>
       <r>   -8.2608    1.0000 </r>
       <r>   -8.2311    1.0000 </r>
       <r>   -7.5610    1.0000 </r>
       <r>   -6.5411    1.0000 </r>
       <r>   -6.1428    1.0000 </r>
       <r>   -5.5364    1.0000 </r>
       <r>   -4.8730    1.0000 </r>
       <r>   -4.8307    1.0000 </r>
       <r>   -4.4064    1.0000 </r>
       <r>   -2.6005    0.0000 </r>
       <r>    0.2413    0.0000 </r>
       <r>    1.1465    0.0000 </r>
       <r>    1.2124    0.0000 </r>
       <r>    1.4115    0.0000 </r>
       <r>    1.4520    0.0000 </r>
       <r>    2.0302    0.0000 </r>
       <r>    2.1255    0.0000 </r>
       <r>    2.4522    0.0000 </r>
       <r>    3.0024    0.0000 </r>
       <r>    3.0821    0.0000 </r>
       <r>    3.2065    0.0000 </r>
      </set>
      <set comment="kpoint 418">
       <r>  -11.9093    1.0000 </r>
       <r>  -11.3818    1.0000 </r>
       <r>  -10.8438    1.0000 </r>
       <r>  -10.3383    1.0000 </r>
       <r>   -9.8514    1.0000 </r>
       <r>   -9.3697    1.0000 </r>
       <r>   -9.3255    1.0000 </r>
       <r>   -8.3958    1.0000 </r>
       <r>   -8.1408    1.0000 </r>
       <r>   -7.6110    1.0000 </r>
       <r>   -6.5605    1.0000 </r>
       <r>   -6.0720    1.0000 </r>
       <r>   -5.6256    1.0000 </r>
       <r>   -4.8297    1.0000 </r>
       <r>   -4.8026    1.0000 </r>
       <r>   -4.2346    1.0000 </r>
       <r>   -2.8961    0.0000 </r>
       <r>    0.5811    0.0000 </r>
       <r>    1.1098    0.0000 </r>
       <r>    1.1987    0.0000 </r>
       <r>    1.3038    0.0000 </r>
       <r>    1.4732    0.0000 </r>
       <r>    2.0102    0.0000 </r>
       <r>    2.2135    0.0000 </r>
       <r>    2.4488    0.0000 </r>
       <r>    2.8639    0.0000 </r>
       <r>    2.9793    0.0000 </r>
       <r>    3.2478    0.0000 </r>
      </set>
      <set comment="kpoint 419">
       <r>  -11.9232    1.0000 </r>
       <r>  -11.2961    1.0000 </r>
       <r>  -10.9561    1.0000 </r>
       <r>  -10.3513    1.0000 </r>
       <r>   -9.7736    1.0000 </r>
       <r>   -9.4688    1.0000 </r>
       <r>   -9.1565    1.0000 </r>
       <r>   -8.5656    1.0000 </r>
       <r>   -8.0242    1.0000 </r>
       <r>   -7.6815    1.0000 </r>
       <r>   -6.5739    1.0000 </r>
       <r>   -5.9970    1.0000 </r>
       <r>   -5.7136    1.0000 </r>
       <r>   -4.7981    1.0000 </r>
       <r>   -4.7827    1.0000 </r>
       <r>   -4.0335    1.0000 </r>
       <r>   -3.1799    1.0000 </r>
       <r>    0.9038    0.0000 </r>
       <r>    1.0935    0.0000 </r>
       <r>    1.1892    0.0000 </r>
       <r>    1.2167    0.0000 </r>
       <r>    1.4732    0.0000 </r>
       <r>    2.0066    0.0000 </r>
       <r>    2.2890    0.0000 </r>
       <r>    2.4357    0.0000 </r>
       <r>    2.5410    0.0000 </r>
       <r>    2.9633    0.0000 </r>
       <r>    3.3885    0.0000 </r>
      </set>
      <set comment="kpoint 420">
       <r>  -11.9308    1.0000 </r>
       <r>  -11.2044    1.0000 </r>
       <r>  -11.0625    1.0000 </r>
       <r>  -10.3584    1.0000 </r>
       <r>   -9.6907    1.0000 </r>
       <r>   -9.5635    1.0000 </r>
       <r>   -8.9851    1.0000 </r>
       <r>   -8.7378    1.0000 </r>
       <r>   -7.9130    1.0000 </r>
       <r>   -7.7682    1.0000 </r>
       <r>   -6.5813    1.0000 </r>
       <r>   -5.9181    1.0000 </r>
       <r>   -5.7997    1.0000 </r>
       <r>   -4.7788    1.0000 </r>
       <r>   -4.7729    1.0000 </r>
       <r>   -3.8078    1.0000 </r>
       <r>   -3.4498    1.0000 </r>
       <r>    1.1000    0.0000 </r>
       <r>    1.1520    0.0000 </r>
       <r>    1.1837    0.0000 </r>
       <r>    1.1839    0.0000 </r>
       <r>    1.4238    0.0000 </r>
       <r>    2.0466    0.0000 </r>
       <r>    2.2677    0.0000 </r>
       <r>    2.3498    0.0000 </r>
       <r>    2.4104    0.0000 </r>
       <r>    2.9545    0.0000 </r>
       <r>    3.4887    0.0000 </r>
      </set>
      <set comment="kpoint 421">
       <r>  -11.9322    1.0000 </r>
       <r>  -11.1629    1.0000 </r>
       <r>  -11.1066    1.0000 </r>
       <r>  -10.3597    1.0000 </r>
       <r>   -9.6535    1.0000 </r>
       <r>   -9.6029    1.0000 </r>
       <r>   -8.9107    1.0000 </r>
       <r>   -8.8124    1.0000 </r>
       <r>   -7.8673    1.0000 </r>
       <r>   -7.8097    1.0000 </r>
       <r>   -6.5826    1.0000 </r>
       <r>   -5.8831    1.0000 </r>
       <r>   -5.8360    1.0000 </r>
       <r>   -4.7746    1.0000 </r>
       <r>   -4.7719    1.0000 </r>
       <r>   -3.7037    1.0000 </r>
       <r>   -3.5617    1.0000 </r>
       <r>    1.1112    0.0000 </r>
       <r>    1.1304    0.0000 </r>
       <r>    1.1830    0.0000 </r>
       <r>    1.2798    0.0000 </r>
       <r>    1.3756    0.0000 </r>
       <r>    2.0901    0.0000 </r>
       <r>    2.1758    0.0000 </r>
       <r>    2.3713    0.0000 </r>
       <r>    2.3954    0.0000 </r>
       <r>    2.9529    0.0000 </r>
       <r>    3.5187    0.0000 </r>
      </set>
      <set comment="kpoint 422">
       <r>  -11.9272    1.0000 </r>
       <r>  -11.2573    1.0000 </r>
       <r>  -11.0027    1.0000 </r>
       <r>  -10.3551    1.0000 </r>
       <r>   -9.7385    1.0000 </r>
       <r>   -9.5102    1.0000 </r>
       <r>   -9.0827    1.0000 </r>
       <r>   -8.6397    1.0000 </r>
       <r>   -7.9754    1.0000 </r>
       <r>   -7.7172    1.0000 </r>
       <r>   -6.5778    1.0000 </r>
       <r>   -5.9634    1.0000 </r>
       <r>   -5.7510    1.0000 </r>
       <r>   -4.7885    1.0000 </r>
       <r>   -4.7769    1.0000 </r>
       <r>   -3.9387    1.0000 </r>
       <r>   -3.2984    1.0000 </r>
       <r>    1.0321    0.0000 </r>
       <r>    1.0943    0.0000 </r>
       <r>    1.1847    0.0000 </r>
       <r>    1.1864    0.0000 </r>
       <r>    1.4604    0.0000 </r>
       <r>    2.0176    0.0000 </r>
       <r>    2.3170    0.0000 </r>
       <r>    2.4134    0.0000 </r>
       <r>    2.4264    0.0000 </r>
       <r>    2.9586    0.0000 </r>
       <r>    3.4397    0.0000 </r>
      </set>
      <set comment="kpoint 423">
       <r>  -11.9161    1.0000 </r>
       <r>  -11.3456    1.0000 </r>
       <r>  -10.8930    1.0000 </r>
       <r>  -10.3446    1.0000 </r>
       <r>   -9.8185    1.0000 </r>
       <r>   -9.4130    1.0000 </r>
       <r>   -9.2529    1.0000 </r>
       <r>   -8.4687    1.0000 </r>
       <r>   -8.0899    1.0000 </r>
       <r>   -7.6392    1.0000 </r>
       <r>   -6.5670    1.0000 </r>
       <r>   -6.0401    1.0000 </r>
       <r>   -5.6637    1.0000 </r>
       <r>   -4.8148    1.0000 </r>
       <r>   -4.7927    1.0000 </r>
       <r>   -4.1510    1.0000 </r>
       <r>   -3.0204    0.0000 </r>
       <r>    0.7236    0.0000 </r>
       <r>    1.1008    0.0000 </r>
       <r>    1.1941    0.0000 </r>
       <r>    1.2622    0.0000 </r>
       <r>    1.4767    0.0000 </r>
       <r>    2.0069    0.0000 </r>
       <r>    2.2477    0.0000 </r>
       <r>    2.4445    0.0000 </r>
       <r>    2.7201    0.0000 </r>
       <r>    2.9715    0.0000 </r>
       <r>    3.3148    0.0000 </r>
      </set>
      <set comment="kpoint 424">
       <r>  -11.8987    1.0000 </r>
       <r>  -11.4278    1.0000 </r>
       <r>  -10.7773    1.0000 </r>
       <r>  -10.3283    1.0000 </r>
       <r>   -9.8934    1.0000 </r>
       <r>   -9.4203    1.0000 </r>
       <r>   -9.3113    1.0000 </r>
       <r>   -8.3014    1.0000 </r>
       <r>   -8.2087    1.0000 </r>
       <r>   -7.5798    1.0000 </r>
       <r>   -6.5502    1.0000 </r>
       <r>   -6.1128    1.0000 </r>
       <r>   -5.5749    1.0000 </r>
       <r>   -4.8532    1.0000 </r>
       <r>   -4.8175    1.0000 </r>
       <r>   -4.3361    1.0000 </r>
       <r>   -2.7297    0.0000 </r>
       <r>    0.3893    0.0000 </r>
       <r>    1.1290    0.0000 </r>
       <r>    1.2061    0.0000 </r>
       <r>    1.3611    0.0000 </r>
       <r>    1.4625    0.0000 </r>
       <r>    2.0221    0.0000 </r>
       <r>    2.1646    0.0000 </r>
       <r>    2.4518    0.0000 </r>
       <r>    2.9916    0.0000 </r>
       <r>    3.0569    0.0000 </r>
       <r>    3.1578    0.0000 </r>
      </set>
      <set comment="kpoint 425">
       <r>  -11.8750    1.0000 </r>
       <r>  -11.5039    1.0000 </r>
       <r>  -10.6559    1.0000 </r>
       <r>  -10.3062    1.0000 </r>
       <r>   -9.9630    1.0000 </r>
       <r>   -9.5842    1.0000 </r>
       <r>   -9.2056    1.0000 </r>
       <r>   -8.3299    1.0000 </r>
       <r>   -8.1409    1.0000 </r>
       <r>   -7.5433    1.0000 </r>
       <r>   -6.5275    1.0000 </r>
       <r>   -6.1811    1.0000 </r>
       <r>   -5.4853    1.0000 </r>
       <r>   -4.9027    1.0000 </r>
       <r>   -4.8493    1.0000 </r>
       <r>   -4.4887    1.0000 </r>
       <r>   -2.4279    0.0000 </r>
       <r>    0.0453    0.0000 </r>
       <r>    1.1757    0.0000 </r>
       <r>    1.2222    0.0000 </r>
       <r>    1.4353    0.0000 </r>
       <r>    1.4787    0.0000 </r>
       <r>    2.0449    0.0000 </r>
       <r>    2.0713    0.0000 </r>
       <r>    2.4511    0.0000 </r>
       <r>    2.9844    0.0000 </r>
       <r>    3.0188    0.0000 </r>
       <r>    3.4028    0.0000 </r>
      </set>
      <set comment="kpoint 426">
       <r>  -11.7286    1.0000 </r>
       <r>  -11.4182    1.0000 </r>
       <r>  -10.4616    1.0000 </r>
       <r>  -10.1592    1.0000 </r>
       <r>   -9.8735    1.0000 </r>
       <r>   -9.5677    1.0000 </r>
       <r>   -9.0260    1.0000 </r>
       <r>   -8.3007    1.0000 </r>
       <r>   -7.9706    1.0000 </r>
       <r>   -7.4664    1.0000 </r>
       <r>   -6.3279    1.0000 </r>
       <r>   -6.0364    1.0000 </r>
       <r>   -5.2535    1.0000 </r>
       <r>   -4.7624    1.0000 </r>
       <r>   -4.6934    1.0000 </r>
       <r>   -4.3767    1.0000 </r>
       <r>   -2.0954    0.0000 </r>
       <r>   -0.0178    0.0000 </r>
       <r>    1.2899    0.0000 </r>
       <r>    1.3412    0.0000 </r>
       <r>    1.5107    0.0000 </r>
       <r>    1.5176    0.0000 </r>
       <r>    1.9687    0.0000 </r>
       <r>    1.9717    0.0000 </r>
       <r>    2.4291    0.0000 </r>
       <r>    2.8936    0.0000 </r>
       <r>    3.2076    0.0000 </r>
       <r>    3.5006    0.0000 </r>
      </set>
      <set comment="kpoint 427">
       <r>  -11.6952    1.0000 </r>
       <r>  -11.4840    1.0000 </r>
       <r>  -10.3323    1.0000 </r>
       <r>  -10.1283    1.0000 </r>
       <r>   -9.9337    1.0000 </r>
       <r>   -9.7233    1.0000 </r>
       <r>   -8.9162    1.0000 </r>
       <r>   -8.4204    1.0000 </r>
       <r>   -7.8331    1.0000 </r>
       <r>   -7.4747    1.0000 </r>
       <r>   -6.2959    1.0000 </r>
       <r>   -6.0970    1.0000 </r>
       <r>   -5.1652    1.0000 </r>
       <r>   -4.8260    1.0000 </r>
       <r>   -4.7263    1.0000 </r>
       <r>   -4.4672    1.0000 </r>
       <r>   -1.7813    0.0000 </r>
       <r>   -0.3636    0.0000 </r>
       <r>    1.3617    0.0000 </r>
       <r>    1.3658    0.0000 </r>
       <r>    1.4792    0.0000 </r>
       <r>    1.6313    0.0000 </r>
       <r>    1.8749    0.0000 </r>
       <r>    1.9599    0.0000 </r>
       <r>    2.4455    0.0000 </r>
       <r>    2.7489    0.0000 </r>
       <r>    3.2435    0.0000 </r>
       <r>    3.4483    0.0000 </r>
      </set>
      <set comment="kpoint 428">
       <r>  -11.6556    1.0000 </r>
       <r>  -11.5437    1.0000 </r>
       <r>  -10.1975    1.0000 </r>
       <r>  -10.0917    1.0000 </r>
       <r>   -9.9885    1.0000 </r>
       <r>   -9.8745    1.0000 </r>
       <r>   -8.8033    1.0000 </r>
       <r>   -8.5397    1.0000 </r>
       <r>   -7.7144    1.0000 </r>
       <r>   -7.5105    1.0000 </r>
       <r>   -6.2581    1.0000 </r>
       <r>   -6.1525    1.0000 </r>
       <r>   -5.0788    1.0000 </r>
       <r>   -4.8974    1.0000 </r>
       <r>   -4.7526    1.0000 </r>
       <r>   -4.5205    1.0000 </r>
       <r>   -1.4588    0.0000 </r>
       <r>   -0.7060    0.0000 </r>
       <r>    1.3853    0.0000 </r>
       <r>    1.4431    0.0000 </r>
       <r>    1.4482    0.0000 </r>
       <r>    1.7431    0.0000 </r>
       <r>    1.7842    0.0000 </r>
       <r>    1.9276    0.0000 </r>
       <r>    2.4727    0.0000 </r>
       <r>    2.6271    0.0000 </r>
       <r>    3.2850    0.0000 </r>
       <r>    3.3951    0.0000 </r>
      </set>
      <set comment="kpoint 429">
       <r>  -11.6099    1.0000 </r>
       <r>  -11.5972    1.0000 </r>
       <r>  -10.0575    1.0000 </r>
       <r>  -10.0494    1.0000 </r>
       <r>  -10.0377    1.0000 </r>
       <r>  -10.0209    1.0000 </r>
       <r>   -8.6877    1.0000 </r>
       <r>   -8.6578    1.0000 </r>
       <r>   -7.6348    1.0000 </r>
       <r>   -7.5575    1.0000 </r>
       <r>   -6.2147    1.0000 </r>
       <r>   -6.2028    1.0000 </r>
       <r>   -4.9955    1.0000 </r>
       <r>   -4.9749    1.0000 </r>
       <r>   -4.7643    1.0000 </r>
       <r>   -4.5401    1.0000 </r>
       <r>   -1.1291    0.0000 </r>
       <r>   -1.0434    0.0000 </r>
       <r>    1.4119    0.0000 </r>
       <r>    1.4187    0.0000 </r>
       <r>    1.4906    0.0000 </r>
       <r>    1.7316    0.0000 </r>
       <r>    1.8406    0.0000 </r>
       <r>    1.8646    0.0000 </r>
       <r>    2.5211    0.0000 </r>
       <r>    2.5381    0.0000 </r>
       <r>    3.3316    0.0000 </r>
       <r>    3.3438    0.0000 </r>
      </set>
      <set comment="kpoint 430">
       <r>  -11.6445    1.0000 </r>
       <r>  -11.5579    1.0000 </r>
       <r>  -10.1622    1.0000 </r>
       <r>  -10.0814    1.0000 </r>
       <r>  -10.0016    1.0000 </r>
       <r>   -9.9123    1.0000 </r>
       <r>   -8.7740    1.0000 </r>
       <r>   -8.5701    1.0000 </r>
       <r>   -7.6883    1.0000 </r>
       <r>   -7.5233    1.0000 </r>
       <r>   -6.2475    1.0000 </r>
       <r>   -6.1658    1.0000 </r>
       <r>   -5.0573    1.0000 </r>
       <r>   -4.9165    1.0000 </r>
       <r>   -4.7573    1.0000 </r>
       <r>   -4.5286    1.0000 </r>
       <r>   -1.3748    0.0000 </r>
       <r>   -0.7931    0.0000 </r>
       <r>    1.3916    0.0000 </r>
       <r>    1.4409    0.0000 </r>
       <r>    1.4599    0.0000 </r>
       <r>    1.7652    0.0000 </r>
       <r>    1.7728    0.0000 </r>
       <r>    1.9117    0.0000 </r>
       <r>    2.4823    0.0000 </r>
       <r>    2.6008    0.0000 </r>
       <r>    3.2962    0.0000 </r>
       <r>    3.3822    0.0000 </r>
      </set>
      <set comment="kpoint 431">
       <r>  -11.6857    1.0000 </r>
       <r>  -11.4998    1.0000 </r>
       <r>  -10.2984    1.0000 </r>
       <r>  -10.1195    1.0000 </r>
       <r>   -9.9482    1.0000 </r>
       <r>   -9.7624    1.0000 </r>
       <r>   -8.8876    1.0000 </r>
       <r>   -8.4510    1.0000 </r>
       <r>   -7.8006    1.0000 </r>
       <r>   -7.4814    1.0000 </r>
       <r>   -6.2868    1.0000 </r>
       <r>   -6.1117    1.0000 </r>
       <r>   -5.1430    1.0000 </r>
       <r>   -4.8435    1.0000 </r>
       <r>   -4.7340    1.0000 </r>
       <r>   -4.4843    1.0000 </r>
       <r>   -1.6992    0.0000 </r>
       <r>   -0.4519    0.0000 </r>
       <r>    1.3672    0.0000 </r>
       <r>    1.3855    0.0000 </r>
       <r>    1.4716    0.0000 </r>
       <r>    1.6632    0.0000 </r>
       <r>    1.8508    0.0000 </r>
       <r>    1.9517    0.0000 </r>
       <r>    2.4508    0.0000 </r>
       <r>    2.7143    0.0000 </r>
       <r>    3.2533    0.0000 </r>
       <r>    3.4352    0.0000 </r>
      </set>
      <set comment="kpoint 432">
       <r>  -11.7206    1.0000 </r>
       <r>  -11.4356    1.0000 </r>
       <r>  -10.4291    1.0000 </r>
       <r>  -10.1519    1.0000 </r>
       <r>   -9.8894    1.0000 </r>
       <r>   -9.6079    1.0000 </r>
       <r>   -8.9983    1.0000 </r>
       <r>   -8.3313    1.0000 </r>
       <r>   -7.9340    1.0000 </r>
       <r>   -7.4659    1.0000 </r>
       <r>   -6.3202    1.0000 </r>
       <r>   -6.0524    1.0000 </r>
       <r>   -5.2309    1.0000 </r>
       <r>   -4.7777    1.0000 </r>
       <r>   -4.7021    1.0000 </r>
       <r>   -4.4036    1.0000 </r>
       <r>   -2.0156    0.0000 </r>
       <r>   -0.1068    0.0000 </r>
       <r>    1.3078    0.0000 </r>
       <r>    1.3459    0.0000 </r>
       <r>    1.5032    0.0000 </r>
       <r>    1.5487    0.0000 </r>
       <r>    1.9475    0.0000 </r>
       <r>    1.9659    0.0000 </r>
       <r>    2.4324    0.0000 </r>
       <r>    2.8537    0.0000 </r>
       <r>    3.2160    0.0000 </r>
       <r>    3.4883    0.0000 </r>
      </set>
      <set comment="kpoint 433">
       <r>  -11.7494    1.0000 </r>
       <r>  -11.3652    1.0000 </r>
       <r>  -10.5543    1.0000 </r>
       <r>  -10.1785    1.0000 </r>
       <r>   -9.8252    1.0000 </r>
       <r>   -9.4492    1.0000 </r>
       <r>   -9.1055    1.0000 </r>
       <r>   -8.2120    1.0000 </r>
       <r>   -8.0816    1.0000 </r>
       <r>   -7.4780    1.0000 </r>
       <r>   -6.3479    1.0000 </r>
       <r>   -5.9882    1.0000 </r>
       <r>   -5.3198    1.0000 </r>
       <r>   -4.7206    1.0000 </r>
       <r>   -4.6693    1.0000 </r>
       <r>   -4.2847    1.0000 </r>
       <r>   -2.3229    0.0000 </r>
       <r>    0.2402    0.0000 </r>
       <r>    1.2400    0.0000 </r>
       <r>    1.3281    0.0000 </r>
       <r>    1.4394    0.0000 </r>
       <r>    1.5340    0.0000 </r>
       <r>    1.9639    0.0000 </r>
       <r>    2.0416    0.0000 </r>
       <r>    2.4189    0.0000 </r>
       <r>    3.0070    0.0000 </r>
       <r>    3.1848    0.0000 </r>
       <r>    3.3918    0.0000 </r>
      </set>
      <set comment="kpoint 434">
       <r>  -11.7719    1.0000 </r>
       <r>  -11.2887    1.0000 </r>
       <r>  -10.6739    1.0000 </r>
       <r>  -10.1995    1.0000 </r>
       <r>   -9.7557    1.0000 </r>
       <r>   -9.2869    1.0000 </r>
       <r>   -9.2090    1.0000 </r>
       <r>   -8.2392    1.0000 </r>
       <r>   -8.0942    1.0000 </r>
       <r>   -7.5154    1.0000 </r>
       <r>   -6.3697    1.0000 </r>
       <r>   -5.9194    1.0000 </r>
       <r>   -5.4088    1.0000 </r>
       <r>   -4.6737    1.0000 </r>
       <r>   -4.6402    1.0000 </r>
       <r>   -4.1300    1.0000 </r>
       <r>   -2.6201    0.0000 </r>
       <r>    0.5855    0.0000 </r>
       <r>    1.1878    0.0000 </r>
       <r>    1.3140    0.0000 </r>
       <r>    1.3421    0.0000 </r>
       <r>    1.5612    0.0000 </r>
       <r>    1.9553    0.0000 </r>
       <r>    2.1275    0.0000 </r>
       <r>    2.4046    0.0000 </r>
       <r>    3.0406    0.0000 </r>
       <r>    3.1600    0.0000 </r>
       <r>    3.1623    0.0000 </r>
      </set>
      <set comment="kpoint 435">
       <r>  -11.7883    1.0000 </r>
       <r>  -11.2062    1.0000 </r>
       <r>  -10.7877    1.0000 </r>
       <r>  -10.2147    1.0000 </r>
       <r>   -9.6810    1.0000 </r>
       <r>   -9.3085    1.0000 </r>
       <r>   -9.1213    1.0000 </r>
       <r>   -8.4032    1.0000 </r>
       <r>   -7.9794    1.0000 </r>
       <r>   -7.5744    1.0000 </r>
       <r>   -6.3855    1.0000 </r>
       <r>   -5.8463    1.0000 </r>
       <r>   -5.4970    1.0000 </r>
       <r>   -4.6379    1.0000 </r>
       <r>   -4.6179    1.0000 </r>
       <r>   -3.9443    1.0000 </r>
       <r>   -2.9056    0.0000 </r>
       <r>    0.9218    0.0000 </r>
       <r>    1.1548    0.0000 </r>
       <r>    1.2614    0.0000 </r>
       <r>    1.3036    0.0000 </r>
       <r>    1.5787    0.0000 </r>
       <r>    1.9514    0.0000 </r>
       <r>    2.2021    0.0000 </r>
       <r>    2.3858    0.0000 </r>
       <r>    2.6964    0.0000 </r>
       <r>    3.1419    0.0000 </r>
       <r>    3.3084    0.0000 </r>
      </set>
      <set comment="kpoint 436">
       <r>  -11.7984    1.0000 </r>
       <r>  -11.1175    1.0000 </r>
       <r>  -10.8957    1.0000 </r>
       <r>  -10.2241    1.0000 </r>
       <r>   -9.6013    1.0000 </r>
       <r>   -9.4036    1.0000 </r>
       <r>   -8.9534    1.0000 </r>
       <r>   -8.5710    1.0000 </r>
       <r>   -7.8694    1.0000 </r>
       <r>   -7.6510    1.0000 </r>
       <r>   -6.3953    1.0000 </r>
       <r>   -5.7693    1.0000 </r>
       <r>   -5.5835    1.0000 </r>
       <r>   -4.6140    1.0000 </r>
       <r>   -4.6045    1.0000 </r>
       <r>   -3.7323    1.0000 </r>
       <r>   -3.1779    1.0000 </r>
       <r>    1.1430    0.0000 </r>
       <r>    1.2005    0.0000 </r>
       <r>    1.2293    0.0000 </r>
       <r>    1.2971    0.0000 </r>
       <r>    1.5709    0.0000 </r>
       <r>    1.9742    0.0000 </r>
       <r>    2.2641    0.0000 </r>
       <r>    2.3598    0.0000 </r>
       <r>    2.3762    0.0000 </r>
       <r>    3.1306    0.0000 </r>
       <r>    3.4339    0.0000 </r>
      </set>
      <set comment="kpoint 437">
       <r>  -11.8023    1.0000 </r>
       <r>  -11.0229    1.0000 </r>
       <r>  -10.9978    1.0000 </r>
       <r>  -10.2277    1.0000 </r>
       <r>   -9.5166    1.0000 </r>
       <r>   -9.4942    1.0000 </r>
       <r>   -8.7840    1.0000 </r>
       <r>   -8.7406    1.0000 </r>
       <r>   -7.7663    1.0000 </r>
       <r>   -7.7414    1.0000 </r>
       <r>   -6.3991    1.0000 </r>
       <r>   -5.6887    1.0000 </r>
       <r>   -5.6677    1.0000 </r>
       <r>   -4.6023    1.0000 </r>
       <r>   -4.6015    1.0000 </r>
       <r>   -3.4982    1.0000 </r>
       <r>   -3.4350    1.0000 </r>
       <r>    1.1536    0.0000 </r>
       <r>    1.1613    0.0000 </r>
       <r>    1.2947    0.0000 </r>
       <r>    1.4580    0.0000 </r>
       <r>    1.4959    0.0000 </r>
       <r>    2.0749    0.0000 </r>
       <r>    2.1227    0.0000 </r>
       <r>    2.3138    0.0000 </r>
       <r>    2.3243    0.0000 </r>
       <r>    3.1262    0.0000 </r>
       <r>    3.5283    0.0000 </r>
      </set>
      <set comment="kpoint 438">
       <r>  -11.8000    1.0000 </r>
       <r>  -11.0940    1.0000 </r>
       <r>  -10.9224    1.0000 </r>
       <r>  -10.2256    1.0000 </r>
       <r>   -9.5801    1.0000 </r>
       <r>   -9.4272    1.0000 </r>
       <r>   -8.9102    1.0000 </r>
       <r>   -8.6143    1.0000 </r>
       <r>   -7.8422    1.0000 </r>
       <r>   -7.6730    1.0000 </r>
       <r>   -6.3969    1.0000 </r>
       <r>   -5.7491    1.0000 </r>
       <r>   -5.6052    1.0000 </r>
       <r>   -4.6101    1.0000 </r>
       <r>   -4.6024    1.0000 </r>
       <r>   -3.6741    1.0000 </r>
       <r>   -3.2455    1.0000 </r>
       <r>    1.1447    0.0000 </r>
       <r>    1.1869    0.0000 </r>
       <r>    1.2962    0.0000 </r>
       <r>    1.2980    0.0000 </r>
       <r>    1.5606    0.0000 </r>
       <r>    1.9915    0.0000 </r>
       <r>    2.2777    0.0000 </r>
       <r>    2.3011    0.0000 </r>
       <r>    2.3519    0.0000 </r>
       <r>    3.1288    0.0000 </r>
       <r>    3.4640    0.0000 </r>
      </set>
      <set comment="kpoint 439">
       <r>  -11.7914    1.0000 </r>
       <r>  -11.1841    1.0000 </r>
       <r>  -10.8159    1.0000 </r>
       <r>  -10.2176    1.0000 </r>
       <r>   -9.6611    1.0000 </r>
       <r>   -9.3332    1.0000 </r>
       <r>   -9.0786    1.0000 </r>
       <r>   -8.4459    1.0000 </r>
       <r>   -7.9507    1.0000 </r>
       <r>   -7.5925    1.0000 </r>
       <r>   -6.3886    1.0000 </r>
       <r>   -5.8270    1.0000 </r>
       <r>   -5.5192    1.0000 </r>
       <r>   -4.6309    1.0000 </r>
       <r>   -4.6133    1.0000 </r>
       <r>   -3.8922    1.0000 </r>
       <r>   -2.9769    0.0000 </r>
       <r>    1.0045    0.0000 </r>
       <r>    1.1507    0.0000 </r>
       <r>    1.2422    0.0000 </r>
       <r>    1.3017    0.0000 </r>
       <r>    1.5798    0.0000 </r>
       <r>    1.9551    0.0000 </r>
       <r>    2.2189    0.0000 </r>
       <r>    2.3802    0.0000 </r>
       <r>    2.6102    0.0000 </r>
       <r>    3.1384    0.0000 </r>
       <r>    3.3455    0.0000 </r>
      </set>
      <set comment="kpoint 440">
       <r>  -11.7767    1.0000 </r>
       <r>  -11.2682    1.0000 </r>
       <r>  -10.7035    1.0000 </r>
       <r>  -10.2039    1.0000 </r>
       <r>   -9.7371    1.0000 </r>
       <r>   -9.2448    1.0000 </r>
       <r>   -9.2348    1.0000 </r>
       <r>   -8.2806    1.0000 </r>
       <r>   -8.0645    1.0000 </r>
       <r>   -7.5286    1.0000 </r>
       <r>   -6.3743    1.0000 </r>
       <r>   -5.9011    1.0000 </r>
       <r>   -5.4314    1.0000 </r>
       <r>   -4.6636    1.0000 </r>
       <r>   -4.6336    1.0000 </r>
       <r>   -4.0851    1.0000 </r>
       <r>   -2.6945    0.0000 </r>
       <r>    0.6730    0.0000 </r>
       <r>    1.1784    0.0000 </r>
       <r>    1.3111    0.0000 </r>
       <r>    1.3179    0.0000 </r>
       <r>    1.5665    0.0000 </r>
       <r>    1.9551    0.0000 </r>
       <r>    2.1474    0.0000 </r>
       <r>    2.4006    0.0000 </r>
       <r>    2.9507    0.0000 </r>
       <r>    3.1548    0.0000 </r>
       <r>    3.2033    0.0000 </r>
      </set>
      <set comment="kpoint 441">
       <r>  -11.7557    1.0000 </r>
       <r>  -11.3463    1.0000 </r>
       <r>  -10.5854    1.0000 </r>
       <r>  -10.1844    1.0000 </r>
       <r>   -9.8079    1.0000 </r>
       <r>   -9.4080    1.0000 </r>
       <r>   -9.1323    1.0000 </r>
       <r>   -8.1816    1.0000 </r>
       <r>   -8.1211    1.0000 </r>
       <r>   -7.4853    1.0000 </r>
       <r>   -6.3541    1.0000 </r>
       <r>   -5.9711    1.0000 </r>
       <r>   -5.3426    1.0000 </r>
       <r>   -4.7078    1.0000 </r>
       <r>   -4.6611    1.0000 </r>
       <r>   -4.2482    1.0000 </r>
       <r>   -2.4002    0.0000 </r>
       <r>    0.3291    0.0000 </r>
       <r>    1.2258    0.0000 </r>
       <r>    1.3243    0.0000 </r>
       <r>    1.4110    0.0000 </r>
       <r>    1.5410    0.0000 </r>
       <r>    1.9639    0.0000 </r>
       <r>    2.0642    0.0000 </r>
       <r>    2.4157    0.0000 </r>
       <r>    3.0490    0.0000 </r>
       <r>    3.1779    0.0000 </r>
       <r>    3.3013    0.0000 </r>
      </set>
      <set comment="kpoint 442">
       <r>  -11.6069    1.0000 </r>
       <r>  -11.2583    1.0000 </r>
       <r>  -10.3900    1.0000 </r>
       <r>  -10.0356    1.0000 </r>
       <r>   -9.7169    1.0000 </r>
       <r>   -9.3907    1.0000 </r>
       <r>   -8.9526    1.0000 </r>
       <r>   -8.1522    1.0000 </r>
       <r>   -7.9507    1.0000 </r>
       <r>   -7.4048    1.0000 </r>
       <r>   -6.1494    1.0000 </r>
       <r>   -5.8211    1.0000 </r>
       <r>   -5.1048    1.0000 </r>
       <r>   -4.5597    1.0000 </r>
       <r>   -4.4983    1.0000 </r>
       <r>   -4.1376    1.0000 </r>
       <r>   -2.0667    0.0000 </r>
       <r>    0.2647    0.0000 </r>
       <r>    1.3059    0.0000 </r>
       <r>    1.4079    0.0000 </r>
       <r>    1.4389    0.0000 </r>
       <r>    1.6036    0.0000 </r>
       <r>    1.8634    0.0000 </r>
       <r>    1.9734    0.0000 </r>
       <r>    2.4149    0.0000 </r>
       <r>    2.9607    0.0000 </r>
       <r>    3.3635    0.0000 </r>
       <r>    3.5421    0.0000 </r>
      </set>
      <set comment="kpoint 443">
       <r>  -11.5763    1.0000 </r>
       <r>  -11.3261    1.0000 </r>
       <r>  -10.2642    1.0000 </r>
       <r>  -10.0074    1.0000 </r>
       <r>   -9.7785    1.0000 </r>
       <r>   -9.5459    1.0000 </r>
       <r>   -8.8462    1.0000 </r>
       <r>   -8.2686    1.0000 </r>
       <r>   -7.8123    1.0000 </r>
       <r>   -7.4028    1.0000 </r>
       <r>   -6.1198    1.0000 </r>
       <r>   -5.8834    1.0000 </r>
       <r>   -5.0168    1.0000 </r>
       <r>   -4.6188    1.0000 </r>
       <r>   -4.5288    1.0000 </r>
       <r>   -4.2420    1.0000 </r>
       <r>   -1.7596    0.0000 </r>
       <r>   -0.0813    0.0000 </r>
       <r>    1.3841    0.0000 </r>
       <r>    1.4556    0.0000 </r>
       <r>    1.4975    0.0000 </r>
       <r>    1.5762    0.0000 </r>
       <r>    1.8446    0.0000 </r>
       <r>    1.8816    0.0000 </r>
       <r>    2.4477    0.0000 </r>
       <r>    2.8318    0.0000 </r>
       <r>    3.3939    0.0000 </r>
       <r>    3.5939    0.0000 </r>
      </set>
      <set comment="kpoint 444">
       <r>  -11.5395    1.0000 </r>
       <r>  -11.3879    1.0000 </r>
       <r>  -10.1330    1.0000 </r>
       <r>   -9.9736    1.0000 </r>
       <r>   -9.8347    1.0000 </r>
       <r>   -9.6970    1.0000 </r>
       <r>   -8.7367    1.0000 </r>
       <r>   -8.3852    1.0000 </r>
       <r>   -7.6903    1.0000 </r>
       <r>   -7.4268    1.0000 </r>
       <r>   -6.0845    1.0000 </r>
       <r>   -5.9409    1.0000 </r>
       <r>   -4.9302    1.0000 </r>
       <r>   -4.6861    1.0000 </r>
       <r>   -4.5562    1.0000 </r>
       <r>   -4.3095    1.0000 </r>
       <r>   -1.4435    0.0000 </r>
       <r>   -0.4238    0.0000 </r>
       <r>    1.4737    0.0000 </r>
       <r>    1.4750    0.0000 </r>
       <r>    1.5490    0.0000 </r>
       <r>    1.5890    0.0000 </r>
       <r>    1.7832    0.0000 </r>
       <r>    1.8098    0.0000 </r>
       <r>    2.4885    0.0000 </r>
       <r>    2.7170    0.0000 </r>
       <r>    3.4292    0.0000 </r>
       <r>    3.5549    0.0000 </r>
      </set>
      <set comment="kpoint 445">
       <r>  -11.4966    1.0000 </r>
       <r>  -11.4435    1.0000 </r>
       <r>   -9.9965    1.0000 </r>
       <r>   -9.9342    1.0000 </r>
       <r>   -9.8855    1.0000 </r>
       <r>   -9.8436    1.0000 </r>
       <r>   -8.6246    1.0000 </r>
       <r>   -8.5011    1.0000 </r>
       <r>   -7.5951    1.0000 </r>
       <r>   -7.4707    1.0000 </r>
       <r>   -6.0436    1.0000 </r>
       <r>   -5.9931    1.0000 </r>
       <r>   -4.8463    1.0000 </r>
       <r>   -4.7603    1.0000 </r>
       <r>   -4.5730    1.0000 </r>
       <r>   -4.3424    1.0000 </r>
       <r>   -1.1195    0.0000 </r>
       <r>   -0.7613    0.0000 </r>
       <r>    1.4971    0.0000 </r>
       <r>    1.5229    0.0000 </r>
       <r>    1.5709    0.0000 </r>
       <r>    1.6749    0.0000 </r>
       <r>    1.6816    0.0000 </r>
       <r>    1.7562    0.0000 </r>
       <r>    2.5425    0.0000 </r>
       <r>    2.6216    0.0000 </r>
       <r>    3.4684    0.0000 </r>
       <r>    3.5129    0.0000 </r>
      </set>
      <set comment="kpoint 446">
       <r>  -11.4930    1.0000 </r>
       <r>  -11.4476    1.0000 </r>
       <r>   -9.9855    1.0000 </r>
       <r>   -9.9309    1.0000 </r>
       <r>   -9.8893    1.0000 </r>
       <r>   -9.8551    1.0000 </r>
       <r>   -8.6155    1.0000 </r>
       <r>   -8.5103    1.0000 </r>
       <r>   -7.5897    1.0000 </r>
       <r>   -7.4741    1.0000 </r>
       <r>   -6.0401    1.0000 </r>
       <r>   -5.9971    1.0000 </r>
       <r>   -4.8399    1.0000 </r>
       <r>   -4.7663    1.0000 </r>
       <r>   -4.5738    1.0000 </r>
       <r>   -4.3436    1.0000 </r>
       <r>   -1.0929    0.0000 </r>
       <r>   -0.7885    0.0000 </r>
       <r>    1.4985    0.0000 </r>
       <r>    1.5214    0.0000 </r>
       <r>    1.5781    0.0000 </r>
       <r>    1.6742    0.0000 </r>
       <r>    1.6844    0.0000 </r>
       <r>    1.7479    0.0000 </r>
       <r>    2.5474    0.0000 </r>
       <r>    2.6148    0.0000 </r>
       <r>    3.4711    0.0000 </r>
       <r>    3.5102    0.0000 </r>
      </set>
      <set comment="kpoint 447">
       <r>  -11.5364    1.0000 </r>
       <r>  -11.3925    1.0000 </r>
       <r>  -10.1223    1.0000 </r>
       <r>   -9.9707    1.0000 </r>
       <r>   -9.8389    1.0000 </r>
       <r>   -9.7089    1.0000 </r>
       <r>   -8.7279    1.0000 </r>
       <r>   -8.3945    1.0000 </r>
       <r>   -7.6815    1.0000 </r>
       <r>   -7.4297    1.0000 </r>
       <r>   -6.0815    1.0000 </r>
       <r>   -5.9452    1.0000 </r>
       <r>   -4.9235    1.0000 </r>
       <r>   -4.6916    1.0000 </r>
       <r>   -4.5581    1.0000 </r>
       <r>   -4.3134    1.0000 </r>
       <r>   -1.4175    0.0000 </r>
       <r>   -0.4514    0.0000 </r>
       <r>    1.4763    0.0000 </r>
       <r>    1.4804    0.0000 </r>
       <r>    1.5474    0.0000 </r>
       <r>    1.5992    0.0000 </r>
       <r>    1.7758    0.0000 </r>
       <r>    1.8032    0.0000 </r>
       <r>    2.4919    0.0000 </r>
       <r>    2.7081    0.0000 </r>
       <r>    3.4318    0.0000 </r>
       <r>    3.5524    0.0000 </r>
      </set>
      <set comment="kpoint 448">
       <r>  -11.5736    1.0000 </r>
       <r>  -11.3312    1.0000 </r>
       <r>  -10.2539    1.0000 </r>
       <r>  -10.0049    1.0000 </r>
       <r>   -9.7831    1.0000 </r>
       <r>   -9.5581    1.0000 </r>
       <r>   -8.8376    1.0000 </r>
       <r>   -8.2779    1.0000 </r>
       <r>   -7.8019    1.0000 </r>
       <r>   -7.4038    1.0000 </r>
       <r>   -6.1172    1.0000 </r>
       <r>   -5.8882    1.0000 </r>
       <r>   -5.0099    1.0000 </r>
       <r>   -4.6237    1.0000 </r>
       <r>   -4.5314    1.0000 </r>
       <r>   -4.2488    1.0000 </r>
       <r>   -1.7342    0.0000 </r>
       <r>   -0.1093    0.0000 </r>
       <r>    1.3900    0.0000 </r>
       <r>    1.4567    0.0000 </r>
       <r>    1.5077    0.0000 </r>
       <r>    1.5746    0.0000 </r>
       <r>    1.8396    0.0000 </r>
       <r>    1.8745    0.0000 </r>
       <r>    2.4502    0.0000 </r>
       <r>    2.8210    0.0000 </r>
       <r>    3.3962    0.0000 </r>
       <r>    3.5921    0.0000 </r>
      </set>
      <set comment="kpoint 449">
       <r>  -11.6047    1.0000 </r>
       <r>  -11.2639    1.0000 </r>
       <r>  -10.3802    1.0000 </r>
       <r>  -10.0336    1.0000 </r>
       <r>   -9.7220    1.0000 </r>
       <r>   -9.4032    1.0000 </r>
       <r>   -8.9443    1.0000 </r>
       <r>   -8.1615    1.0000 </r>
       <r>   -7.9391    1.0000 </r>
       <r>   -7.4037    1.0000 </r>
       <r>   -6.1472    1.0000 </r>
       <r>   -5.8262    1.0000 </r>
       <r>   -5.0979    1.0000 </r>
       <r>   -4.5639    1.0000 </r>
       <r>   -4.5009    1.0000 </r>
       <r>   -4.1475    1.0000 </r>
       <r>   -2.0422    0.0000 </r>
       <r>    0.2365    0.0000 </r>
       <r>    1.3107    0.0000 </r>
       <r>    1.4175    0.0000 </r>
       <r>    1.4399    0.0000 </r>
       <r>    1.6021    0.0000 </r>
       <r>    1.8598    0.0000 </r>
       <r>    1.9669    0.0000 </r>
       <r>    2.4169    0.0000 </r>
       <r>    2.9484    0.0000 </r>
       <r>    3.3655    0.0000 </r>
       <r>    3.5705    0.0000 </r>
      </set>
      <set comment="kpoint 450">
       <r>  -11.6296    1.0000 </r>
       <r>  -11.1905    1.0000 </r>
       <r>  -10.5009    1.0000 </r>
       <r>  -10.0566    1.0000 </r>
       <r>   -9.6556    1.0000 </r>
       <r>   -9.2446    1.0000 </r>
       <r>   -9.0475    1.0000 </r>
       <r>   -8.0883    1.0000 </r>
       <r>   -8.0463    1.0000 </r>
       <r>   -7.4286    1.0000 </r>
       <r>   -6.1714    1.0000 </r>
       <r>   -5.7595    1.0000 </r>
       <r>   -5.1863    1.0000 </r>
       <r>   -4.5136    1.0000 </r>
       <r>   -4.4721    1.0000 </r>
       <r>   -4.0101    1.0000 </r>
       <r>   -2.3402    0.0000 </r>
       <r>    0.5840    0.0000 </r>
       <r>    1.2458    0.0000 </r>
       <r>    1.3349    0.0000 </r>
       <r>    1.4262    0.0000 </r>
       <r>    1.6285    0.0000 </r>
       <r>    1.8685    0.0000 </r>
       <r>    2.0505    0.0000 </r>
       <r>    2.3873    0.0000 </r>
       <r>    3.0835    0.0000 </r>
       <r>    3.2202    0.0000 </r>
       <r>    3.3403    0.0000 </r>
      </set>
      <set comment="kpoint 451">
       <r>  -11.6484    1.0000 </r>
       <r>  -11.1111    1.0000 </r>
       <r>  -10.6160    1.0000 </r>
       <r>  -10.0739    1.0000 </r>
       <r>   -9.5842    1.0000 </r>
       <r>   -9.1468    1.0000 </r>
       <r>   -9.0829    1.0000 </r>
       <r>   -8.2455    1.0000 </r>
       <r>   -7.9337    1.0000 </r>
       <r>   -7.4758    1.0000 </r>
       <r>   -6.1896    1.0000 </r>
       <r>   -5.6884    1.0000 </r>
       <r>   -5.2743    1.0000 </r>
       <r>   -4.4740    1.0000 </r>
       <r>   -4.4484    1.0000 </r>
       <r>   -3.8404    1.0000 </r>
       <r>   -2.6270    0.0000 </r>
       <r>    0.9288    0.0000 </r>
       <r>    1.1980    0.0000 </r>
       <r>    1.2650    0.0000 </r>
       <r>    1.4157    0.0000 </r>
       <r>    1.6514    0.0000 </r>
       <r>    1.8728    0.0000 </r>
       <r>    2.1241    0.0000 </r>
       <r>    2.3578    0.0000 </r>
       <r>    2.8687    0.0000 </r>
       <r>    3.2187    0.0000 </r>
       <r>    3.3209    0.0000 </r>
      </set>
      <set comment="kpoint 452">
       <r>  -11.6609    1.0000 </r>
       <r>  -11.0257    1.0000 </r>
       <r>  -10.7254    1.0000 </r>
       <r>  -10.0856    1.0000 </r>
       <r>   -9.5077    1.0000 </r>
       <r>   -9.2422    1.0000 </r>
       <r>   -8.9186    1.0000 </r>
       <r>   -8.4079    1.0000 </r>
       <r>   -7.8254    1.0000 </r>
       <r>   -7.5417    1.0000 </r>
       <r>   -6.2019    1.0000 </r>
       <r>   -5.6133    1.0000 </r>
       <r>   -5.3611    1.0000 </r>
       <r>   -4.4458    1.0000 </r>
       <r>   -4.4321    1.0000 </r>
       <r>   -3.6430    1.0000 </r>
       <r>   -2.9010    0.0000 </r>
       <r>    1.1692    0.0000 </r>
       <r>    1.2115    0.0000 </r>
       <r>    1.2588    0.0000 </r>
       <r>    1.4087    0.0000 </r>
       <r>    1.6651    0.0000 </r>
       <r>    1.8868    0.0000 </r>
       <r>    2.1873    0.0000 </r>
       <r>    2.3256    0.0000 </r>
       <r>    2.5229    0.0000 </r>
       <r>    3.3078    0.0000 </r>
       <r>    3.3464    0.0000 </r>
      </set>
      <set comment="kpoint 453">
       <r>  -11.6674    1.0000 </r>
       <r>  -10.9343    1.0000 </r>
       <r>  -10.8290    1.0000 </r>
       <r>  -10.0915    1.0000 </r>
       <r>   -9.4263    1.0000 </r>
       <r>   -9.3331    1.0000 </r>
       <r>   -8.7528    1.0000 </r>
       <r>   -8.5732    1.0000 </r>
       <r>   -7.7232    1.0000 </r>
       <r>   -7.6226    1.0000 </r>
       <r>   -6.2082    1.0000 </r>
       <r>   -5.5345    1.0000 </r>
       <r>   -5.4459    1.0000 </r>
       <r>   -4.4295    1.0000 </r>
       <r>   -4.4252    1.0000 </r>
       <r>   -3.4219    1.0000 </r>
       <r>   -3.1605    1.0000 </r>
       <r>    1.1607    0.0000 </r>
       <r>    1.1768    0.0000 </r>
       <r>    1.4050    0.0000 </r>
       <r>    1.5279    0.0000 </r>
       <r>    1.6513    0.0000 </r>
       <r>    1.9584    0.0000 </r>
       <r>    2.2018    0.0000 </r>
       <r>    2.2407    0.0000 </r>
       <r>    2.2883    0.0000 </r>
       <r>    3.3011    0.0000 </r>
       <r>    3.4588    0.0000 </r>
      </set>
      <set comment="kpoint 454">
       <r>  -11.6676    1.0000 </r>
       <r>  -10.9268    1.0000 </r>
       <r>  -10.8370    1.0000 </r>
       <r>  -10.0917    1.0000 </r>
       <r>   -9.4196    1.0000 </r>
       <r>   -9.3402    1.0000 </r>
       <r>   -8.7395    1.0000 </r>
       <r>   -8.5865    1.0000 </r>
       <r>   -7.7153    1.0000 </r>
       <r>   -7.6297    1.0000 </r>
       <r>   -6.2084    1.0000 </r>
       <r>   -5.5281    1.0000 </r>
       <r>   -5.4525    1.0000 </r>
       <r>   -4.4290    1.0000 </r>
       <r>   -4.4248    1.0000 </r>
       <r>   -3.4031    1.0000 </r>
       <r>   -3.1808    1.0000 </r>
       <r>    1.1625    0.0000 </r>
       <r>    1.1732    0.0000 </r>
       <r>    1.4049    0.0000 </r>
       <r>    1.5436    0.0000 </r>
       <r>    1.6472    0.0000 </r>
       <r>    1.9720    0.0000 </r>
       <r>    2.1770    0.0000 </r>
       <r>    2.2442    0.0000 </r>
       <r>    2.2855    0.0000 </r>
       <r>    3.3009    0.0000 </r>
       <r>    3.4699    0.0000 </r>
      </set>
      <set comment="kpoint 455">
       <r>  -11.6617    1.0000 </r>
       <r>  -11.0187    1.0000 </r>
       <r>  -10.7339    1.0000 </r>
       <r>  -10.0862    1.0000 </r>
       <r>   -9.5014    1.0000 </r>
       <r>   -9.2495    1.0000 </r>
       <r>   -8.9054    1.0000 </r>
       <r>   -8.4211    1.0000 </r>
       <r>   -7.8169    1.0000 </r>
       <r>   -7.5477    1.0000 </r>
       <r>   -6.2026    1.0000 </r>
       <r>   -5.6071    1.0000 </r>
       <r>   -5.3679    1.0000 </r>
       <r>   -4.4444    1.0000 </r>
       <r>   -4.4310    1.0000 </r>
       <r>   -3.6259    1.0000 </r>
       <r>   -2.9227    0.0000 </r>
       <r>    1.1691    0.0000 </r>
       <r>    1.2061    0.0000 </r>
       <r>    1.2837    0.0000 </r>
       <r>    1.4083    0.0000 </r>
       <r>    1.6648    0.0000 </r>
       <r>    1.8916    0.0000 </r>
       <r>    2.1915    0.0000 </r>
       <r>    2.3232    0.0000 </r>
       <r>    2.4947    0.0000 </r>
       <r>    3.3071    0.0000 </r>
       <r>    3.3589    0.0000 </r>
      </set>
      <set comment="kpoint 456">
       <r>  -11.6496    1.0000 </r>
       <r>  -11.1046    1.0000 </r>
       <r>  -10.6249    1.0000 </r>
       <r>  -10.0751    1.0000 </r>
       <r>   -9.5783    1.0000 </r>
       <r>   -9.1546    1.0000 </r>
       <r>   -9.0698    1.0000 </r>
       <r>   -8.2583    1.0000 </r>
       <r>   -7.9248    1.0000 </r>
       <r>   -7.4805    1.0000 </r>
       <r>   -6.1908    1.0000 </r>
       <r>   -5.6826    1.0000 </r>
       <r>   -5.2812    1.0000 </r>
       <r>   -4.4716    1.0000 </r>
       <r>   -4.4466    1.0000 </r>
       <r>   -3.8254    1.0000 </r>
       <r>   -2.6497    0.0000 </r>
       <r>    0.9562    0.0000 </r>
       <r>    1.1961    0.0000 </r>
       <r>    1.2580    0.0000 </r>
       <r>    1.4152    0.0000 </r>
       <r>    1.6522    0.0000 </r>
       <r>    1.8755    0.0000 </r>
       <r>    2.1290    0.0000 </r>
       <r>    2.3558    0.0000 </r>
       <r>    2.8398    0.0000 </r>
       <r>    3.2319    0.0000 </r>
       <r>    3.3198    0.0000 </r>
      </set>
      <set comment="kpoint 457">
       <r>  -11.6313    1.0000 </r>
       <r>  -11.1844    1.0000 </r>
       <r>  -10.5103    1.0000 </r>
       <r>  -10.0582    1.0000 </r>
       <r>   -9.6502    1.0000 </r>
       <r>   -9.2318    1.0000 </r>
       <r>   -9.0555    1.0000 </r>
       <r>   -8.1006    1.0000 </r>
       <r>   -8.0372    1.0000 </r>
       <r>   -7.4317    1.0000 </r>
       <r>   -6.1731    1.0000 </r>
       <r>   -5.7540    1.0000 </r>
       <r>   -5.1933    1.0000 </r>
       <r>   -4.5103    1.0000 </r>
       <r>   -4.4698    1.0000 </r>
       <r>   -3.9975    1.0000 </r>
       <r>   -2.3639    0.0000 </r>
       <r>    0.6120    0.0000 </r>
       <r>    1.2424    0.0000 </r>
       <r>    1.3264    0.0000 </r>
       <r>    1.4254    0.0000 </r>
       <r>    1.6298    0.0000 </r>
       <r>    1.8712    0.0000 </r>
       <r>    2.0563    0.0000 </r>
       <r>    2.3854    0.0000 </r>
       <r>    3.0965    0.0000 </r>
       <r>    3.1914    0.0000 </r>
       <r>    3.3387    0.0000 </r>
      </set>
      <set comment="kpoint 458">
       <r>  -11.4801    1.0000 </r>
       <r>  -11.0944    1.0000 </r>
       <r>  -10.3138    1.0000 </r>
       <r>   -9.9078    1.0000 </r>
       <r>   -9.5579    1.0000 </r>
       <r>   -9.2141    1.0000 </r>
       <r>   -8.8761    1.0000 </r>
       <r>   -8.0081    1.0000 </r>
       <r>   -7.9311    1.0000 </r>
       <r>   -7.3490    1.0000 </r>
       <r>   -5.9634    1.0000 </r>
       <r>   -5.5988    1.0000 </r>
       <r>   -4.9498    1.0000 </r>
       <r>   -4.3546    1.0000 </r>
       <r>   -4.2999    1.0000 </r>
       <r>   -3.8877    1.0000 </r>
       <r>   -2.0297    0.0000 </r>
       <r>    0.5433    0.0000 </r>
       <r>    1.2726    0.0000 </r>
       <r>    1.2840    0.0000 </r>
       <r>    1.5342    0.0000 </r>
       <r>    1.6726    0.0000 </r>
       <r>    1.7496    0.0000 </r>
       <r>    1.9959    0.0000 </r>
       <r>    2.4049    0.0000 </r>
       <r>    3.0114    0.0000 </r>
       <r>    3.4296    0.0000 </r>
       <r>    3.5163    0.0000 </r>
      </set>
      <set comment="kpoint 459">
       <r>  -11.4523    1.0000 </r>
       <r>  -11.1641    1.0000 </r>
       <r>  -10.1916    1.0000 </r>
       <r>   -9.8823    1.0000 </r>
       <r>   -9.6205    1.0000 </r>
       <r>   -9.3684    1.0000 </r>
       <r>   -8.7733    1.0000 </r>
       <r>   -8.1204    1.0000 </r>
       <r>   -7.7929    1.0000 </r>
       <r>   -7.3380    1.0000 </r>
       <r>   -5.9363    1.0000 </r>
       <r>   -5.6629    1.0000 </r>
       <r>   -4.8623    1.0000 </r>
       <r>   -4.4087    1.0000 </r>
       <r>   -4.3273    1.0000 </r>
       <r>   -4.0047    1.0000 </r>
       <r>   -1.7306    0.0000 </r>
       <r>    0.1978    0.0000 </r>
       <r>    1.3412    0.0000 </r>
       <r>    1.3523    0.0000 </r>
       <r>    1.5465    0.0000 </r>
       <r>    1.6528    0.0000 </r>
       <r>    1.7212    0.0000 </r>
       <r>    1.9211    0.0000 </r>
       <r>    2.4496    0.0000 </r>
       <r>    2.8986    0.0000 </r>
       <r>    3.5401    0.0000 </r>
       <r>    3.6861    0.0000 </r>
      </set>
      <set comment="kpoint 460">
       <r>  -11.4184    1.0000 </r>
       <r>  -11.2278    1.0000 </r>
       <r>  -10.0641    1.0000 </r>
       <r>   -9.8513    1.0000 </r>
       <r>   -9.6780    1.0000 </r>
       <r>   -9.5189    1.0000 </r>
       <r>   -8.6675    1.0000 </r>
       <r>   -8.2336    1.0000 </r>
       <r>   -7.6692    1.0000 </r>
       <r>   -7.3510    1.0000 </r>
       <r>   -5.9035    1.0000 </r>
       <r>   -5.7221    1.0000 </r>
       <r>   -4.7758    1.0000 </r>
       <r>   -4.4717    1.0000 </r>
       <r>   -4.3538    1.0000 </r>
       <r>   -4.0861    1.0000 </r>
       <r>   -1.4220    0.0000 </r>
       <r>   -0.1438    0.0000 </r>
       <r>    1.4156    0.0000 </r>
       <r>    1.4259    0.0000 </r>
       <r>    1.5610    0.0000 </r>
       <r>    1.6325    0.0000 </r>
       <r>    1.6815    0.0000 </r>
       <r>    1.8438    0.0000 </r>
       <r>    2.4998    0.0000 </r>
       <r>    2.7941    0.0000 </r>
       <r>    3.5675    0.0000 </r>
       <r>    3.6738    0.0000 </r>
      </set>
      <set comment="kpoint 461">
       <r>  -11.3784    1.0000 </r>
       <r>  -11.2854    1.0000 </r>
       <r>   -9.9315    1.0000 </r>
       <r>   -9.8148    1.0000 </r>
       <r>   -9.7302    1.0000 </r>
       <r>   -9.6653    1.0000 </r>
       <r>   -8.5589    1.0000 </r>
       <r>   -8.3467    1.0000 </r>
       <r>   -7.5672    1.0000 </r>
       <r>   -7.3854    1.0000 </r>
       <r>   -5.8649    1.0000 </r>
       <r>   -5.7764    1.0000 </r>
       <r>   -4.6916    1.0000 </r>
       <r>   -4.5421    1.0000 </r>
       <r>   -4.3735    1.0000 </r>
       <r>   -4.1325    1.0000 </r>
       <r>   -1.1050    0.0000 </r>
       <r>   -0.4805    0.0000 </r>
       <r>    1.4841    0.0000 </r>
       <r>    1.5001    0.0000 </r>
       <r>    1.5775    0.0000 </r>
       <r>    1.6124    0.0000 </r>
       <r>    1.6297    0.0000 </r>
       <r>    1.7741    0.0000 </r>
       <r>    2.5583    0.0000 </r>
       <r>    2.7009    0.0000 </r>
       <r>    3.5972    0.0000 </r>
       <r>    3.6514    0.0000 </r>
      </set>
      <set comment="kpoint 462">
       <r>  -11.3370    1.0000 </r>
       <r>  -11.3323    1.0000 </r>
       <r>   -9.8073    1.0000 </r>
       <r>   -9.7938    1.0000 </r>
       <r>   -9.7771    1.0000 </r>
       <r>   -9.7728    1.0000 </r>
       <r>   -8.4589    1.0000 </r>
       <r>   -8.4482    1.0000 </r>
       <r>   -7.5178    1.0000 </r>
       <r>   -7.4134    1.0000 </r>
       <r>   -5.8253    1.0000 </r>
       <r>   -5.8209    1.0000 </r>
       <r>   -4.6186    1.0000 </r>
       <r>   -4.6108    1.0000 </r>
       <r>   -4.3804    1.0000 </r>
       <r>   -4.1466    1.0000 </r>
       <r>   -0.8112    0.0000 </r>
       <r>   -0.7803    0.0000 </r>
       <r>    1.5149    0.0000 </r>
       <r>    1.5671    0.0000 </r>
       <r>    1.5701    0.0000 </r>
       <r>    1.5932    0.0000 </r>
       <r>    1.5957    0.0000 </r>
       <r>    1.7430    0.0000 </r>
       <r>    2.6203    0.0000 </r>
       <r>    2.6274    0.0000 </r>
       <r>    3.6235    0.0000 </r>
       <r>    3.6273    0.0000 </r>
      </set>
      <set comment="kpoint 463">
       <r>  -11.3825    1.0000 </r>
       <r>  -11.2801    1.0000 </r>
       <r>   -9.9444    1.0000 </r>
       <r>   -9.8185    1.0000 </r>
       <r>   -9.7254    1.0000 </r>
       <r>   -9.6515    1.0000 </r>
       <r>   -8.5695    1.0000 </r>
       <r>   -8.3359    1.0000 </r>
       <r>   -7.5756    1.0000 </r>
       <r>   -7.3815    1.0000 </r>
       <r>   -5.8689    1.0000 </r>
       <r>   -5.7714    1.0000 </r>
       <r>   -4.6997    1.0000 </r>
       <r>   -4.5349    1.0000 </r>
       <r>   -4.3721    1.0000 </r>
       <r>   -4.1295    1.0000 </r>
       <r>   -1.1352    0.0000 </r>
       <r>   -0.4490    0.0000 </r>
       <r>    1.4778    0.0000 </r>
       <r>    1.4964    0.0000 </r>
       <r>    1.5753    0.0000 </r>
       <r>    1.6151    0.0000 </r>
       <r>    1.6318    0.0000 </r>
       <r>    1.7804    0.0000 </r>
       <r>    2.5520    0.0000 </r>
       <r>    2.7088    0.0000 </r>
       <r>    3.5936    0.0000 </r>
       <r>    3.6551    0.0000 </r>
      </set>
      <set comment="kpoint 464">
       <r>  -11.4219    1.0000 </r>
       <r>  -11.2219    1.0000 </r>
       <r>  -10.0766    1.0000 </r>
       <r>   -9.8545    1.0000 </r>
       <r>   -9.6727    1.0000 </r>
       <r>   -9.5046    1.0000 </r>
       <r>   -8.6778    1.0000 </r>
       <r>   -8.2227    1.0000 </r>
       <r>   -7.6802    1.0000 </r>
       <r>   -7.3487    1.0000 </r>
       <r>   -5.9069    1.0000 </r>
       <r>   -5.7166    1.0000 </r>
       <r>   -4.7842    1.0000 </r>
       <r>   -4.4651    1.0000 </r>
       <r>   -4.3516    1.0000 </r>
       <r>   -4.0799    1.0000 </r>
       <r>   -1.4515    0.0000 </r>
       <r>   -0.1118    0.0000 </r>
       <r>    1.4075    0.0000 </r>
       <r>    1.4220    0.0000 </r>
       <r>    1.5590    0.0000 </r>
       <r>    1.6353    0.0000 </r>
       <r>    1.6826    0.0000 </r>
       <r>    1.8518    0.0000 </r>
       <r>    2.4943    0.0000 </r>
       <r>    2.8028    0.0000 </r>
       <r>    3.5642    0.0000 </r>
       <r>    3.6771    0.0000 </r>
      </set>
      <set comment="kpoint 465">
       <r>  -11.4553    1.0000 </r>
       <r>  -11.1576    1.0000 </r>
       <r>  -10.2036    1.0000 </r>
       <r>   -9.8850    1.0000 </r>
       <r>   -9.6147    1.0000 </r>
       <r>   -9.3537    1.0000 </r>
       <r>   -8.7834    1.0000 </r>
       <r>   -8.1096    1.0000 </r>
       <r>   -7.8056    1.0000 </r>
       <r>   -7.3380    1.0000 </r>
       <r>   -5.9392    1.0000 </r>
       <r>   -5.6569    1.0000 </r>
       <r>   -4.8708    1.0000 </r>
       <r>   -4.4029    1.0000 </r>
       <r>   -4.3249    1.0000 </r>
       <r>   -3.9951    1.0000 </r>
       <r>   -1.7593    0.0000 </r>
       <r>    0.2302    0.0000 </r>
       <r>    1.3332    0.0000 </r>
       <r>    1.3485    0.0000 </r>
       <r>    1.5448    0.0000 </r>
       <r>    1.6557    0.0000 </r>
       <r>    1.7214    0.0000 </r>
       <r>    1.9292    0.0000 </r>
       <r>    2.4446    0.0000 </r>
       <r>    2.9077    0.0000 </r>
       <r>    3.5372    0.0000 </r>
       <r>    3.6974    0.0000 </r>
      </set>
      <set comment="kpoint 466">
       <r>  -11.4825    1.0000 </r>
       <r>  -11.0874    1.0000 </r>
       <r>  -10.3253    1.0000 </r>
       <r>   -9.9100    1.0000 </r>
       <r>   -9.5515    1.0000 </r>
       <r>   -9.1991    1.0000 </r>
       <r>   -8.8858    1.0000 </r>
       <r>   -7.9974    1.0000 </r>
       <r>   -7.9449    1.0000 </r>
       <r>   -7.3512    1.0000 </r>
       <r>   -5.9657    1.0000 </r>
       <r>   -5.5924    1.0000 </r>
       <r>   -4.9584    1.0000 </r>
       <r>   -4.3497    1.0000 </r>
       <r>   -4.2977    1.0000 </r>
       <r>   -3.8748    1.0000 </r>
       <r>   -2.0574    0.0000 </r>
       <r>    0.5760    0.0000 </r>
       <r>    1.2653    0.0000 </r>
       <r>    1.2807    0.0000 </r>
       <r>    1.5328    0.0000 </r>
       <r>    1.6755    0.0000 </r>
       <r>    1.7489    0.0000 </r>
       <r>    2.0035    0.0000 </r>
       <r>    2.4002    0.0000 </r>
       <r>    3.0207    0.0000 </r>
       <r>    3.3974    0.0000 </r>
       <r>    3.5139    0.0000 </r>
      </set>
      <set comment="kpoint 467">
       <r>  -11.5036    1.0000 </r>
       <r>  -11.0111    1.0000 </r>
       <r>  -10.4415    1.0000 </r>
       <r>   -9.9294    1.0000 </r>
       <r>   -9.4833    1.0000 </r>
       <r>   -9.0413    1.0000 </r>
       <r>   -8.9848    1.0000 </r>
       <r>   -8.0941    1.0000 </r>
       <r>   -7.8875    1.0000 </r>
       <r>   -7.3866    1.0000 </r>
       <r>   -5.9863    1.0000 </r>
       <r>   -5.5233    1.0000 </r>
       <r>   -5.0460    1.0000 </r>
       <r>   -4.3065    1.0000 </r>
       <r>   -4.2737    1.0000 </r>
       <r>   -3.7216    1.0000 </r>
       <r>   -2.3447    0.0000 </r>
       <r>    0.9237    0.0000 </r>
       <r>    1.2092    0.0000 </r>
       <r>    1.2229    0.0000 </r>
       <r>    1.5233    0.0000 </r>
       <r>    1.6938    0.0000 </r>
       <r>    1.7676    0.0000 </r>
       <r>    2.0716    0.0000 </r>
       <r>    2.3588    0.0000 </r>
       <r>    3.0509    0.0000 </r>
       <r>    3.1376    0.0000 </r>
       <r>    3.4953    0.0000 </r>
      </set>
      <set comment="kpoint 468">
       <r>  -11.5186    1.0000 </r>
       <r>  -10.9289    1.0000 </r>
       <r>  -10.5521    1.0000 </r>
       <r>   -9.9431    1.0000 </r>
       <r>   -9.4101    1.0000 </r>
       <r>   -9.0799    1.0000 </r>
       <r>   -8.8810    1.0000 </r>
       <r>   -8.2499    1.0000 </r>
       <r>   -7.7813    1.0000 </r>
       <r>   -7.4414    1.0000 </r>
       <r>   -6.0010    1.0000 </r>
       <r>   -5.4502    1.0000 </r>
       <r>   -5.1328    1.0000 </r>
       <r>   -4.2744    1.0000 </r>
       <r>   -4.2556    1.0000 </r>
       <r>   -3.5394    1.0000 </r>
       <r>   -2.6198    0.0000 </r>
       <r>    1.1680    0.0000 </r>
       <r>    1.1785    0.0000 </r>
       <r>    1.2683    0.0000 </r>
       <r>    1.5165    0.0000 </r>
       <r>    1.7090    0.0000 </r>
       <r>    1.7830    0.0000 </r>
       <r>    2.1328    0.0000 </r>
       <r>    2.3181    0.0000 </r>
       <r>    2.7010    0.0000 </r>
       <r>    3.2539    0.0000 </r>
       <r>    3.4820    0.0000 </r>
      </set>
      <set comment="kpoint 469">
       <r>  -11.5275    1.0000 </r>
       <r>  -10.8409    1.0000 </r>
       <r>  -10.6570    1.0000 </r>
       <r>   -9.9513    1.0000 </r>
       <r>   -9.3321    1.0000 </r>
       <r>   -9.1709    1.0000 </r>
       <r>   -8.7190    1.0000 </r>
       <r>   -8.4099    1.0000 </r>
       <r>   -7.6806    1.0000 </r>
       <r>   -7.5123    1.0000 </r>
       <r>   -6.0097    1.0000 </r>
       <r>   -5.3732    1.0000 </r>
       <r>   -5.2179    1.0000 </r>
       <r>   -4.2537    1.0000 </r>
       <r>   -4.2455    1.0000 </r>
       <r>   -3.3322    1.0000 </r>
       <r>   -2.8810    0.0000 </r>
       <r>    1.1438    0.0000 </r>
       <r>    1.1501    0.0000 </r>
       <r>    1.5124    0.0000 </r>
       <r>    1.5807    0.0000 </r>
       <r>    1.7177    0.0000 </r>
       <r>    1.8252    0.0000 </r>
       <r>    2.1874    0.0000 </r>
       <r>    2.2761    0.0000 </r>
       <r>    2.3522    0.0000 </r>
       <r>    3.3647    0.0000 </r>
       <r>    3.5096    0.0000 </r>
      </set>
      <set comment="kpoint 470">
       <r>  -11.5303    1.0000 </r>
       <r>  -10.7562    1.0000 </r>
       <r>  -10.7469    1.0000 </r>
       <r>   -9.9538    1.0000 </r>
       <r>   -9.2577    1.0000 </r>
       <r>   -9.2495    1.0000 </r>
       <r>   -8.5720    1.0000 </r>
       <r>   -8.5564    1.0000 </r>
       <r>   -7.5961    1.0000 </r>
       <r>   -7.5877    1.0000 </r>
       <r>   -6.0124    1.0000 </r>
       <r>   -5.3008    1.0000 </r>
       <r>   -5.2929    1.0000 </r>
       <r>   -4.2451    1.0000 </r>
       <r>   -4.2444    1.0000 </r>
       <r>   -3.1262    0.9868 </r>
       <r>   -3.1038    0.7372 </r>
       <r>    1.1377    0.0000 </r>
       <r>    1.1394    0.0000 </r>
       <r>    1.5112    0.0000 </r>
       <r>    1.7045    0.0000 </r>
       <r>    1.7072    0.0000 </r>
       <r>    2.0203    0.0000 </r>
       <r>    2.0482    0.0000 </r>
       <r>    2.2312    0.0000 </r>
       <r>    2.2363    0.0000 </r>
       <r>    3.4595    0.0000 </r>
       <r>    3.4653    0.0000 </r>
      </set>
      <set comment="kpoint 471">
       <r>  -11.5269    1.0000 </r>
       <r>  -10.8496    1.0000 </r>
       <r>  -10.6472    1.0000 </r>
       <r>   -9.9508    1.0000 </r>
       <r>   -9.3399    1.0000 </r>
       <r>   -9.1623    1.0000 </r>
       <r>   -8.7346    1.0000 </r>
       <r>   -8.3945    1.0000 </r>
       <r>   -7.6899    1.0000 </r>
       <r>   -7.5050    1.0000 </r>
       <r>   -6.0091    1.0000 </r>
       <r>   -5.3808    1.0000 </r>
       <r>   -5.2098    1.0000 </r>
       <r>   -4.2555    1.0000 </r>
       <r>   -4.2458    1.0000 </r>
       <r>   -3.3528    1.0000 </r>
       <r>   -2.8570    0.0000 </r>
       <r>    1.1470    0.0000 </r>
       <r>    1.1499    0.0000 </r>
       <r>    1.5128    0.0000 </r>
       <r>    1.5553    0.0000 </r>
       <r>    1.7161    0.0000 </r>
       <r>    1.8196    0.0000 </r>
       <r>    2.1817    0.0000 </r>
       <r>    2.2808    0.0000 </r>
       <r>    2.3842    0.0000 </r>
       <r>    3.3576    0.0000 </r>
       <r>    3.5504    0.0000 </r>
      </set>
      <set comment="kpoint 472">
       <r>  -11.5174    1.0000 </r>
       <r>  -10.9371    1.0000 </r>
       <r>  -10.5417    1.0000 </r>
       <r>   -9.9421    1.0000 </r>
       <r>   -9.4174    1.0000 </r>
       <r>   -9.0709    1.0000 </r>
       <r>   -8.8965    1.0000 </r>
       <r>   -8.2348    1.0000 </r>
       <r>   -7.7912    1.0000 </r>
       <r>   -7.4355    1.0000 </r>
       <r>   -5.9998    1.0000 </r>
       <r>   -5.4574    1.0000 </r>
       <r>   -5.1244    1.0000 </r>
       <r>   -4.2773    1.0000 </r>
       <r>   -4.2568    1.0000 </r>
       <r>   -3.5577    1.0000 </r>
       <r>   -2.5944    0.0000 </r>
       <r>    1.1727    0.0000 </r>
       <r>    1.1797    0.0000 </r>
       <r>    1.2361    0.0000 </r>
       <r>    1.5172    0.0000 </r>
       <r>    1.7065    0.0000 </r>
       <r>    1.7840    0.0000 </r>
       <r>    2.1266    0.0000 </r>
       <r>    2.3226    0.0000 </r>
       <r>    2.7335    0.0000 </r>
       <r>    3.2456    0.0000 </r>
       <r>    3.4827    0.0000 </r>
      </set>
      <set comment="kpoint 473">
       <r>  -11.5018    1.0000 </r>
       <r>  -11.0187    1.0000 </r>
       <r>  -10.4305    1.0000 </r>
       <r>   -9.9277    1.0000 </r>
       <r>   -9.4901    1.0000 </r>
       <r>   -9.0565    1.0000 </r>
       <r>   -8.9754    1.0000 </r>
       <r>   -8.0794    1.0000 </r>
       <r>   -7.8978    1.0000 </r>
       <r>   -7.3824    1.0000 </r>
       <r>   -5.9846    1.0000 </r>
       <r>   -5.5302    1.0000 </r>
       <r>   -5.0375    1.0000 </r>
       <r>   -4.3105    1.0000 </r>
       <r>   -4.2755    1.0000 </r>
       <r>   -3.7374    1.0000 </r>
       <r>   -2.3181    0.0000 </r>
       <r>    0.8908    0.0000 </r>
       <r>    1.2153    0.0000 </r>
       <r>    1.2253    0.0000 </r>
       <r>    1.5244    0.0000 </r>
       <r>    1.6910    0.0000 </r>
       <r>    1.7688    0.0000 </r>
       <r>    2.0647    0.0000 </r>
       <r>    2.3633    0.0000 </r>
       <r>    3.0834    0.0000 </r>
       <r>    3.1286    0.0000 </r>
       <r>    3.4970    0.0000 </r>
      </set>
      <set comment="kpoint 474">
       <r>  -11.3485    1.0000 </r>
       <r>  -10.9268    1.0000 </r>
       <r>  -10.2333    1.0000 </r>
       <r>   -9.7761    1.0000 </r>
       <r>   -9.3969    1.0000 </r>
       <r>   -9.0389    1.0000 </r>
       <r>   -8.7968    1.0000 </r>
       <r>   -7.9119    1.0000 </r>
       <r>   -7.8698    1.0000 </r>
       <r>   -7.2988    1.0000 </r>
       <r>   -5.7699    1.0000 </r>
       <r>   -5.3698    1.0000 </r>
       <r>   -4.7886    1.0000 </r>
       <r>   -4.1475    1.0000 </r>
       <r>   -4.0989    1.0000 </r>
       <r>   -3.6276    1.0000 </r>
       <r>   -1.9836    0.0000 </r>
       <r>    0.8118    0.0000 </r>
       <r>    1.1496    0.0000 </r>
       <r>    1.1929    0.0000 </r>
       <r>    1.6256    0.0000 </r>
       <r>    1.6324    0.0000 </r>
       <r>    1.7061    0.0000 </r>
       <r>    2.0429    0.0000 </r>
       <r>    2.3990    0.0000 </r>
       <r>    3.0477    0.0000 </r>
       <r>    3.3251    0.0000 </r>
       <r>    3.6600    0.0000 </r>
      </set>
      <set comment="kpoint 475">
       <r>  -11.3234    1.0000 </r>
       <r>  -10.9982    1.0000 </r>
       <r>  -10.1149    1.0000 </r>
       <r>   -9.7533    1.0000 </r>
       <r>   -9.4605    1.0000 </r>
       <r>   -9.1917    1.0000 </r>
       <r>   -8.6978    1.0000 </r>
       <r>   -7.9773    1.0000 </r>
       <r>   -7.7749    1.0000 </r>
       <r>   -7.2802    1.0000 </r>
       <r>   -5.7454    1.0000 </r>
       <r>   -5.4355    1.0000 </r>
       <r>   -4.7017    1.0000 </r>
       <r>   -4.1965    1.0000 </r>
       <r>   -4.1226    1.0000 </r>
       <r>   -3.7558    1.0000 </r>
       <r>   -1.6938    0.0000 </r>
       <r>    0.4690    0.0000 </r>
       <r>    1.1996    0.0000 </r>
       <r>    1.2481    0.0000 </r>
       <r>    1.5941    0.0000 </r>
       <r>    1.6330    0.0000 </r>
       <r>    1.6989    0.0000 </r>
       <r>    1.9883    0.0000 </r>
       <r>    2.4506    0.0000 </r>
       <r>    2.9498    0.0000 </r>
       <r>    3.6535    0.0000 </r>
       <r>    3.6944    0.0000 </r>
      </set>
      <set comment="kpoint 476">
       <r>  -11.2923    1.0000 </r>
       <r>  -11.0637    1.0000 </r>
       <r>   -9.9912    1.0000 </r>
       <r>   -9.7250    1.0000 </r>
       <r>   -9.5190    1.0000 </r>
       <r>   -9.3412    1.0000 </r>
       <r>   -8.5958    1.0000 </r>
       <r>   -8.0864    1.0000 </r>
       <r>   -7.6509    1.0000 </r>
       <r>   -7.2834    1.0000 </r>
       <r>   -5.7150    1.0000 </r>
       <r>   -5.4965    1.0000 </r>
       <r>   -4.6156    1.0000 </r>
       <r>   -4.2547    1.0000 </r>
       <r>   -4.1468    1.0000 </r>
       <r>   -3.8504    1.0000 </r>
       <r>   -1.3939    0.0000 </r>
       <r>    0.1301    0.0000 </r>
       <r>    1.2577    0.0000 </r>
       <r>    1.3040    0.0000 </r>
       <r>    1.5477    0.0000 </r>
       <r>    1.6419    0.0000 </r>
       <r>    1.6900    0.0000 </r>
       <r>    1.9358    0.0000 </r>
       <r>    2.5064    0.0000 </r>
       <r>    2.8564    0.0000 </r>
       <r>    3.6910    0.0000 </r>
       <r>    3.7212    0.0000 </r>
      </set>
      <set comment="kpoint 477">
       <r>  -11.2551    1.0000 </r>
       <r>  -11.1232    1.0000 </r>
       <r>   -9.8624    1.0000 </r>
       <r>   -9.6914    1.0000 </r>
       <r>   -9.5724    1.0000 </r>
       <r>   -9.4869    1.0000 </r>
       <r>   -8.4911    1.0000 </r>
       <r>   -8.1961    1.0000 </r>
       <r>   -7.5456    1.0000 </r>
       <r>   -7.3074    1.0000 </r>
       <r>   -5.6789    1.0000 </r>
       <r>   -5.5526    1.0000 </r>
       <r>   -4.5314    1.0000 </r>
       <r>   -4.3209    1.0000 </r>
       <r>   -4.1671    1.0000 </r>
       <r>   -3.9105    1.0000 </r>
       <r>   -1.0851    0.0000 </r>
       <r>   -0.2040    0.0000 </r>
       <r>    1.3205    0.0000 </r>
       <r>    1.3513    0.0000 </r>
       <r>    1.4940    0.0000 </r>
       <r>    1.6517    0.0000 </r>
       <r>    1.6799    0.0000 </r>
       <r>    1.8921    0.0000 </r>
       <r>    2.5676    0.0000 </r>
       <r>    2.7691    0.0000 </r>
       <r>    3.7079    0.0000 </r>
       <r>    3.7302    0.0000 </r>
      </set>
      <set comment="kpoint 478">
       <r>  -11.2120    1.0000 </r>
       <r>  -11.1768    1.0000 </r>
       <r>   -9.7288    1.0000 </r>
       <r>   -9.6523    1.0000 </r>
       <r>   -9.6285    1.0000 </r>
       <r>   -9.6206    1.0000 </r>
       <r>   -8.3842    1.0000 </r>
       <r>   -8.3053    1.0000 </r>
       <r>   -7.4749    1.0000 </r>
       <r>   -7.3395    1.0000 </r>
       <r>   -5.6373    1.0000 </r>
       <r>   -5.6035    1.0000 </r>
       <r>   -4.4501    1.0000 </r>
       <r>   -4.3938    1.0000 </r>
       <r>   -4.1781    1.0000 </r>
       <r>   -3.9376    1.0000 </r>
       <r>   -0.7683    0.0000 </r>
       <r>   -0.5325    0.0000 </r>
       <r>    1.3776    0.0000 </r>
       <r>    1.3848    0.0000 </r>
       <r>    1.4343    0.0000 </r>
       <r>    1.6623    0.0000 </r>
       <r>    1.6692    0.0000 </r>
       <r>    1.8679    0.0000 </r>
       <r>    2.6351    0.0000 </r>
       <r>    2.6889    0.0000 </r>
       <r>    3.7223    0.0000 </r>
       <r>    3.7278    0.0000 </r>
      </set>
      <set comment="kpoint 479">
       <r>  -11.2243    1.0000 </r>
       <r>  -11.1628    1.0000 </r>
       <r>   -9.7656    1.0000 </r>
       <r>   -9.6635    1.0000 </r>
       <r>   -9.6080    1.0000 </r>
       <r>   -9.5904    1.0000 </r>
       <r>   -8.4135    1.0000 </r>
       <r>   -8.2757    1.0000 </r>
       <r>   -7.4885    1.0000 </r>
       <r>   -7.3320    1.0000 </r>
       <r>   -5.6492    1.0000 </r>
       <r>   -5.5902    1.0000 </r>
       <r>   -4.4720    1.0000 </r>
       <r>   -4.3732    1.0000 </r>
       <r>   -4.1764    1.0000 </r>
       <r>   -3.9334    1.0000 </r>
       <r>   -0.8545    0.0000 </r>
       <r>   -0.4445    0.0000 </r>
       <r>    1.3708    0.0000 </r>
       <r>    1.3729    0.0000 </r>
       <r>    1.4474    0.0000 </r>
       <r>    1.6585    0.0000 </r>
       <r>    1.6732    0.0000 </r>
       <r>    1.8721    0.0000 </r>
       <r>    2.6160    0.0000 </r>
       <r>    2.7097    0.0000 </r>
       <r>    3.7174    0.0000 </r>
       <r>    3.7312    0.0000 </r>
      </set>
      <set comment="kpoint 480">
       <r>  -11.2659    1.0000 </r>
       <r>  -11.1076    1.0000 </r>
       <r>   -9.8980    1.0000 </r>
       <r>   -9.7011    1.0000 </r>
       <r>   -9.5583    1.0000 </r>
       <r>   -9.4477    1.0000 </r>
       <r>   -8.5198    1.0000 </r>
       <r>   -8.1663    1.0000 </r>
       <r>   -7.5718    1.0000 </r>
       <r>   -7.2991    1.0000 </r>
       <r>   -5.6893    1.0000 </r>
       <r>   -5.5378    1.0000 </r>
       <r>   -4.5542    1.0000 </r>
       <r>   -4.3020    1.0000 </r>
       <r>   -4.1624    1.0000 </r>
       <r>   -3.8976    1.0000 </r>
       <r>   -1.1692    0.0000 </r>
       <r>   -0.1145    0.0000 </r>
       <r>    1.3065    0.0000 </r>
       <r>    1.3393    0.0000 </r>
       <r>    1.5057    0.0000 </r>
       <r>    1.6482    0.0000 </r>
       <r>    1.6839    0.0000 </r>
       <r>    1.9031    0.0000 </r>
       <r>    2.5501    0.0000 </r>
       <r>    2.7915    0.0000 </r>
       <r>    3.7023    0.0000 </r>
       <r>    3.7313    0.0000 </r>
      </set>
      <set comment="kpoint 481">
       <r>  -11.3014    1.0000 </r>
       <r>  -11.0465    1.0000 </r>
       <r>  -10.0254    1.0000 </r>
       <r>   -9.7333    1.0000 </r>
       <r>   -9.5035    1.0000 </r>
       <r>   -9.3009    1.0000 </r>
       <r>   -8.6238    1.0000 </r>
       <r>   -8.0567    1.0000 </r>
       <r>   -7.6830    1.0000 </r>
       <r>   -7.2803    1.0000 </r>
       <r>   -5.7238    1.0000 </r>
       <r>   -5.4804    1.0000 </r>
       <r>   -4.6390    1.0000 </r>
       <r>   -4.2378    1.0000 </r>
       <r>   -4.1406    1.0000 </r>
       <r>   -3.8282    1.0000 </r>
       <r>   -1.4757    0.0000 </r>
       <r>    0.2210    0.0000 </r>
       <r>    1.2445    0.0000 </r>
       <r>    1.2882    0.0000 </r>
       <r>    1.5577    0.0000 </r>
       <r>    1.6387    0.0000 </r>
       <r>    1.6939    0.0000 </r>
       <r>    1.9502    0.0000 </r>
       <r>    2.4904    0.0000 </r>
       <r>    2.8801    0.0000 </r>
       <r>    3.6885    0.0000 </r>
       <r>    3.7191    0.0000 </r>
      </set>
      <set comment="kpoint 482">
       <r>  -11.3308    1.0000 </r>
       <r>  -10.9794    1.0000 </r>
       <r>  -10.1476    1.0000 </r>
       <r>   -9.7601    1.0000 </r>
       <r>   -9.4436    1.0000 </r>
       <r>   -9.1504    1.0000 </r>
       <r>   -8.7251    1.0000 </r>
       <r>   -7.9479    1.0000 </r>
       <r>   -7.8110    1.0000 </r>
       <r>   -7.2831    1.0000 </r>
       <r>   -5.7526    1.0000 </r>
       <r>   -5.4180    1.0000 </r>
       <r>   -4.7254    1.0000 </r>
       <r>   -4.1820    1.0000 </r>
       <r>   -4.1162    1.0000 </r>
       <r>   -3.7243    1.0000 </r>
       <r>   -1.7730    0.0000 </r>
       <r>    0.5610    0.0000 </r>
       <r>    1.1881    0.0000 </r>
       <r>    1.2315    0.0000 </r>
       <r>    1.6021    0.0000 </r>
       <r>    1.6304    0.0000 </r>
       <r>    1.7026    0.0000 </r>
       <r>    2.0039    0.0000 </r>
       <r>    2.4357    0.0000 </r>
       <r>    2.9745    0.0000 </r>
       <r>    3.5665    0.0000 </r>
       <r>    3.6825    0.0000 </r>
      </set>
      <set comment="kpoint 483">
       <r>  -11.3543    1.0000 </r>
       <r>  -10.9063    1.0000 </r>
       <r>  -10.2646    1.0000 </r>
       <r>   -9.7814    1.0000 </r>
       <r>   -9.3788    1.0000 </r>
       <r>   -8.9969    1.0000 </r>
       <r>   -8.8231    1.0000 </r>
       <r>   -7.9508    1.0000 </r>
       <r>   -7.8410    1.0000 </r>
       <r>   -7.3073    1.0000 </r>
       <r>   -5.7756    1.0000 </r>
       <r>   -5.3512    1.0000 </r>
       <r>   -4.8123    1.0000 </r>
       <r>   -4.1357    1.0000 </r>
       <r>   -4.0933    1.0000 </r>
       <r>   -3.5875    1.0000 </r>
       <r>   -2.0600    0.0000 </r>
       <r>    0.9047    0.0000 </r>
       <r>    1.1406    0.0000 </r>
       <r>    1.1775    0.0000 </r>
       <r>    1.6234    0.0000 </r>
       <r>    1.6384    0.0000 </r>
       <r>    1.7093    0.0000 </r>
       <r>    2.0584    0.0000 </r>
       <r>    2.3849    0.0000 </r>
       <r>    3.0728    0.0000 </r>
       <r>    3.2349    0.0000 </r>
       <r>    3.6503    0.0000 </r>
      </set>
      <set comment="kpoint 484">
       <r>  -11.3716    1.0000 </r>
       <r>  -10.8274    1.0000 </r>
       <r>  -10.3762    1.0000 </r>
       <r>   -9.7972    1.0000 </r>
       <r>   -9.3090    1.0000 </r>
       <r>   -8.9176    1.0000 </r>
       <r>   -8.8408    1.0000 </r>
       <r>   -8.0988    1.0000 </r>
       <r>   -7.7375    1.0000 </r>
       <r>   -7.3511    1.0000 </r>
       <r>   -5.7927    1.0000 </r>
       <r>   -5.2800    1.0000 </r>
       <r>   -4.8989    1.0000 </r>
       <r>   -4.0999    1.0000 </r>
       <r>   -4.0745    1.0000 </r>
       <r>   -3.4209    1.0000 </r>
       <r>   -2.3353    0.0000 </r>
       <r>    1.1046    0.0000 </r>
       <r>    1.1316    0.0000 </r>
       <r>    1.2513    0.0000 </r>
       <r>    1.6181    0.0000 </r>
       <r>    1.6667    0.0000 </r>
       <r>    1.7132    0.0000 </r>
       <r>    2.1113    0.0000 </r>
       <r>    2.3367    0.0000 </r>
       <r>    2.8957    0.0000 </r>
       <r>    3.1728    0.0000 </r>
       <r>    3.5921    0.0000 </r>
      </set>
      <set comment="kpoint 485">
       <r>  -11.3829    1.0000 </r>
       <r>  -10.7427    1.0000 </r>
       <r>  -10.4822    1.0000 </r>
       <r>   -9.8075    1.0000 </r>
       <r>   -9.2345    1.0000 </r>
       <r>   -9.0084    1.0000 </r>
       <r>   -8.6830    1.0000 </r>
       <r>   -8.2523    1.0000 </r>
       <r>   -7.6389    1.0000 </r>
       <r>   -7.4116    1.0000 </r>
       <r>   -5.8038    1.0000 </r>
       <r>   -5.2050    1.0000 </r>
       <r>   -4.9841    1.0000 </r>
       <r>   -4.0751    1.0000 </r>
       <r>   -4.0623    1.0000 </r>
       <r>   -3.2284    1.0000 </r>
       <r>   -2.5973    0.0000 </r>
       <r>    1.0823    0.0000 </r>
       <r>    1.0976    0.0000 </r>
       <r>    1.5991    0.0000 </r>
       <r>    1.6146    0.0000 </r>
       <r>    1.6879    0.0000 </r>
       <r>    1.7136    0.0000 </r>
       <r>    2.1618    0.0000 </r>
       <r>    2.2900    0.0000 </r>
       <r>    2.5515    0.0000 </r>
       <r>    3.2720    0.0000 </r>
       <r>    3.5202    0.0000 </r>
      </set>
      <set comment="kpoint 486">
       <r>  -11.3882    1.0000 </r>
       <r>  -10.6521    1.0000 </r>
       <r>  -10.5826    1.0000 </r>
       <r>   -9.8122    1.0000 </r>
       <r>   -9.1554    1.0000 </r>
       <r>   -9.0950    1.0000 </r>
       <r>   -8.5245    1.0000 </r>
       <r>   -8.4092    1.0000 </r>
       <r>   -7.5471    1.0000 </r>
       <r>   -7.4859    1.0000 </r>
       <r>   -5.8090    1.0000 </r>
       <r>   -5.1265    1.0000 </r>
       <r>   -5.0674    1.0000 </r>
       <r>   -4.0613    1.0000 </r>
       <r>   -4.0584    1.0000 </r>
       <r>   -3.0134    0.0000 </r>
       <r>   -2.8441    0.0000 </r>
       <r>    1.0751    0.0000 </r>
       <r>    1.0777    0.0000 </r>
       <r>    1.6130    0.0000 </r>
       <r>    1.7008    0.0000 </r>
       <r>    1.7095    0.0000 </r>
       <r>    1.9493    0.0000 </r>
       <r>    2.2042    0.0000 </r>
       <r>    2.2101    0.0000 </r>
       <r>    2.2436    0.0000 </r>
       <r>    3.3677    0.0000 </r>
       <r>    3.4370    0.0000 </r>
      </set>
      <set comment="kpoint 487">
       <r>  -11.3873    1.0000 </r>
       <r>  -10.6774    1.0000 </r>
       <r>  -10.5559    1.0000 </r>
       <r>   -9.8115    1.0000 </r>
       <r>   -9.1774    1.0000 </r>
       <r>   -9.0718    1.0000 </r>
       <r>   -8.5675    1.0000 </r>
       <r>   -8.3664    1.0000 </r>
       <r>   -7.5712    1.0000 </r>
       <r>   -7.4645    1.0000 </r>
       <r>   -5.8082    1.0000 </r>
       <r>   -5.1482    1.0000 </r>
       <r>   -5.0450    1.0000 </r>
       <r>   -4.0643    1.0000 </r>
       <r>   -4.0582    1.0000 </r>
       <r>   -3.0735    0.0667 </r>
       <r>   -2.7791    0.0000 </r>
       <r>    1.0733    0.0000 </r>
       <r>    1.0836    0.0000 </r>
       <r>    1.6133    0.0000 </r>
       <r>    1.6998    0.0000 </r>
       <r>    1.7089    0.0000 </r>
       <r>    1.8556    0.0000 </r>
       <r>    2.1964    0.0000 </r>
       <r>    2.2569    0.0000 </r>
       <r>    2.2978    0.0000 </r>
       <r>    3.3454    0.0000 </r>
       <r>    3.4571    0.0000 </r>
      </set>
      <set comment="kpoint 488">
       <r>  -11.3804    1.0000 </r>
       <r>  -10.7663    1.0000 </r>
       <r>  -10.4539    1.0000 </r>
       <r>   -9.8052    1.0000 </r>
       <r>   -9.2552    1.0000 </r>
       <r>   -8.9840    1.0000 </r>
       <r>   -8.7260    1.0000 </r>
       <r>   -8.2102    1.0000 </r>
       <r>   -7.6650    1.0000 </r>
       <r>   -7.3937    1.0000 </r>
       <r>   -5.8014    1.0000 </r>
       <r>   -5.2258    1.0000 </r>
       <r>   -4.9610    1.0000 </r>
       <r>   -4.0810    1.0000 </r>
       <r>   -4.0645    1.0000 </r>
       <r>   -3.2828    1.0000 </r>
       <r>   -2.5279    0.0000 </r>
       <r>    1.0845    0.0000 </r>
       <r>    1.1072    0.0000 </r>
       <r>    1.5054    0.0000 </r>
       <r>    1.6156    0.0000 </r>
       <r>    1.6855    0.0000 </r>
       <r>    1.7119    0.0000 </r>
       <r>    2.1475    0.0000 </r>
       <r>    2.3033    0.0000 </r>
       <r>    2.6445    0.0000 </r>
       <r>    3.2481    0.0000 </r>
       <r>    3.5373    0.0000 </r>
      </set>
      <set comment="kpoint 489">
       <r>  -11.3675    1.0000 </r>
       <r>  -10.8495    1.0000 </r>
       <r>  -10.3464    1.0000 </r>
       <r>   -9.7934    1.0000 </r>
       <r>   -9.3285    1.0000 </r>
       <r>   -8.8923    1.0000 </r>
       <r>   -8.8834    1.0000 </r>
       <r>   -8.0579    1.0000 </r>
       <r>   -7.7652    1.0000 </r>
       <r>   -7.3375    1.0000 </r>
       <r>   -5.7886    1.0000 </r>
       <r>   -5.2998    1.0000 </r>
       <r>   -4.8753    1.0000 </r>
       <r>   -4.1088    1.0000 </r>
       <r>   -4.0788    1.0000 </r>
       <r>   -3.4687    1.0000 </r>
       <r>   -2.2622    0.0000 </r>
       <r>    1.1104    0.0000 </r>
       <r>    1.1446    0.0000 </r>
       <r>    1.1577    0.0000 </r>
       <r>    1.6197    0.0000 </r>
       <r>    1.6627    0.0000 </r>
       <r>    1.7106    0.0000 </r>
       <r>    2.0964    0.0000 </r>
       <r>    2.3503    0.0000 </r>
       <r>    2.9876    0.0000 </r>
       <r>    3.1480    0.0000 </r>
       <r>    3.6057    0.0000 </r>
      </set>
      <set comment="kpoint 490">
       <r>  -11.2121    1.0000 </r>
       <r>  -10.7559    1.0000 </r>
       <r>  -10.1487    1.0000 </r>
       <r>   -9.6407    1.0000 </r>
       <r>   -9.2348    1.0000 </r>
       <r>   -8.8665    1.0000 </r>
       <r>   -8.7149    1.0000 </r>
       <r>   -7.8934    1.0000 </r>
       <r>   -7.7388    1.0000 </r>
       <r>   -7.2543    1.0000 </r>
       <r>   -5.5692    1.0000 </r>
       <r>   -5.1344    1.0000 </r>
       <r>   -4.6213    1.0000 </r>
       <r>   -3.9390    1.0000 </r>
       <r>   -3.8957    1.0000 </r>
       <r>   -3.3582    1.0000 </r>
       <r>   -1.9277    0.0000 </r>
       <r>    1.0092    0.0000 </r>
       <r>    1.0520    0.0000 </r>
       <r>    1.0812    0.0000 </r>
       <r>    1.5279    0.0000 </r>
       <r>    1.6914    0.0000 </r>
       <r>    1.7115    0.0000 </r>
       <r>    2.1056    0.0000 </r>
       <r>    2.3959    0.0000 </r>
       <r>    3.0729    0.0000 </r>
       <r>    3.2339    0.0000 </r>
       <r>    3.5817    0.0000 </r>
      </set>
      <set comment="kpoint 491">
       <r>  -11.1897    1.0000 </r>
       <r>  -10.8289    1.0000 </r>
       <r>  -10.0341    1.0000 </r>
       <r>   -9.6206    1.0000 </r>
       <r>   -9.2990    1.0000 </r>
       <r>   -9.0170    1.0000 </r>
       <r>   -8.6200    1.0000 </r>
       <r>   -7.8407    1.0000 </r>
       <r>   -7.7587    1.0000 </r>
       <r>   -7.2294    1.0000 </r>
       <r>   -5.5471    1.0000 </r>
       <r>   -5.2015    1.0000 </r>
       <r>   -4.5353    1.0000 </r>
       <r>   -3.9826    1.0000 </r>
       <r>   -3.9153    1.0000 </r>
       <r>   -3.4961    1.0000 </r>
       <r>   -1.6483    0.0000 </r>
       <r>    0.7215    0.0000 </r>
       <r>    1.0438    0.0000 </r>
       <r>    1.1258    0.0000 </r>
       <r>    1.4725    0.0000 </r>
       <r>    1.7031    0.0000 </r>
       <r>    1.7137    0.0000 </r>
       <r>    2.0676    0.0000 </r>
       <r>    2.4500    0.0000 </r>
       <r>    2.9878    0.0000 </r>
       <r>    3.5453    0.0000 </r>
       <r>    3.6458    0.0000 </r>
      </set>
      <set comment="kpoint 492">
       <r>  -11.1614    1.0000 </r>
       <r>  -10.8960    1.0000 </r>
       <r>   -9.9144    1.0000 </r>
       <r>   -9.5951    1.0000 </r>
       <r>   -9.3583    1.0000 </r>
       <r>   -9.1648    1.0000 </r>
       <r>   -8.5220    1.0000 </r>
       <r>   -7.9450    1.0000 </r>
       <r>   -7.6355    1.0000 </r>
       <r>   -7.2240    1.0000 </r>
       <r>   -5.5193    1.0000 </r>
       <r>   -5.2641    1.0000 </r>
       <r>   -4.4497    1.0000 </r>
       <r>   -4.0358    1.0000 </r>
       <r>   -3.9363    1.0000 </r>
       <r>   -3.6027    1.0000 </r>
       <r>   -1.3584    0.0000 </r>
       <r>    0.3907    0.0000 </r>
       <r>    1.0881    0.0000 </r>
       <r>    1.1695    0.0000 </r>
       <r>    1.4157    0.0000 </r>
       <r>    1.7110    0.0000 </r>
       <r>    1.7160    0.0000 </r>
       <r>    2.0334    0.0000 </r>
       <r>    2.5078    0.0000 </r>
       <r>    2.9045    0.0000 </r>
       <r>    3.6841    0.0000 </r>
       <r>    3.8494    0.0000 </r>
      </set>
      <set comment="kpoint 493">
       <r>  -11.1271    1.0000 </r>
       <r>  -10.9573    1.0000 </r>
       <r>   -9.7896    1.0000 </r>
       <r>   -9.5643    1.0000 </r>
       <r>   -9.4126    1.0000 </r>
       <r>   -9.3093    1.0000 </r>
       <r>   -8.4214    1.0000 </r>
       <r>   -8.0504    1.0000 </r>
       <r>   -7.5289    1.0000 </r>
       <r>   -7.2380    1.0000 </r>
       <r>   -5.4857    1.0000 </r>
       <r>   -5.3220    1.0000 </r>
       <r>   -4.3657    1.0000 </r>
       <r>   -4.0974    1.0000 </r>
       <r>   -3.9553    1.0000 </r>
       <r>   -3.6762    1.0000 </r>
       <r>   -1.0593    0.0000 </r>
       <r>    0.0629    0.0000 </r>
       <r>    1.1401    0.0000 </r>
       <r>    1.2062    0.0000 </r>
       <r>    1.3564    0.0000 </r>
       <r>    1.7158    0.0000 </r>
       <r>    1.7181    0.0000 </r>
       <r>    2.0059    0.0000 </r>
       <r>    2.5696    0.0000 </r>
       <r>    2.8240    0.0000 </r>
       <r>    3.7252    0.0000 </r>
       <r>    3.7852    0.0000 </r>
      </set>
      <set comment="kpoint 494">
       <r>  -11.0869    1.0000 </r>
       <r>  -11.0127    1.0000 </r>
       <r>   -9.6601    1.0000 </r>
       <r>   -9.5282    1.0000 </r>
       <r>   -9.4619    1.0000 </r>
       <r>   -9.4500    1.0000 </r>
       <r>   -8.3187    1.0000 </r>
       <r>   -8.1561    1.0000 </r>
       <r>   -7.4491    1.0000 </r>
       <r>   -7.2645    1.0000 </r>
       <r>   -5.4465    1.0000 </r>
       <r>   -5.3748    1.0000 </r>
       <r>   -4.2843    1.0000 </r>
       <r>   -4.1663    1.0000 </r>
       <r>   -3.9683    1.0000 </r>
       <r>   -3.7166    1.0000 </r>
       <r>   -0.7521    0.0000 </r>
       <r>   -0.2606    0.0000 </r>
       <r>    1.1974    0.0000 </r>
       <r>    1.2296    0.0000 </r>
       <r>    1.2954    0.0000 </r>
       <r>    1.7182    0.0000 </r>
       <r>    1.7196    0.0000 </r>
       <r>    1.9887    0.0000 </r>
       <r>    2.6357    0.0000 </r>
       <r>    2.7471    0.0000 </r>
       <r>    3.7539    0.0000 </r>
       <r>    3.7803    0.0000 </r>
      </set>
      <set comment="kpoint 495">
       <r>  -11.0621    1.0000 </r>
       <r>  -11.0407    1.0000 </r>
       <r>   -9.5866    1.0000 </r>
       <r>   -9.5259    1.0000 </r>
       <r>   -9.5061    1.0000 </r>
       <r>   -9.4869    1.0000 </r>
       <r>   -8.2612    1.0000 </r>
       <r>   -8.2142    1.0000 </r>
       <r>   -7.4264    1.0000 </r>
       <r>   -7.2755    1.0000 </r>
       <r>   -5.4225    1.0000 </r>
       <r>   -5.4018    1.0000 </r>
       <r>   -4.2411    1.0000 </r>
       <r>   -4.2068    1.0000 </r>
       <r>   -3.9714    1.0000 </r>
       <r>   -3.7252    1.0000 </r>
       <r>   -0.5785    0.0000 </r>
       <r>   -0.4378    0.0000 </r>
       <r>    1.2342    0.0000 </r>
       <r>    1.2348    0.0000 </r>
       <r>    1.2578    0.0000 </r>
       <r>    1.7187    0.0000 </r>
       <r>    1.7200    0.0000 </r>
       <r>    1.9848    0.0000 </r>
       <r>    2.6742    0.0000 </r>
       <r>    2.7060    0.0000 </r>
       <r>    3.7677    0.0000 </r>
       <r>    3.7720    0.0000 </r>
      </set>
      <set comment="kpoint 496">
       <r>  -11.1057    1.0000 </r>
       <r>  -10.9886    1.0000 </r>
       <r>   -9.7187    1.0000 </r>
       <r>   -9.5451    1.0000 </r>
       <r>   -9.4404    1.0000 </r>
       <r>   -9.3875    1.0000 </r>
       <r>   -8.3649    1.0000 </r>
       <r>   -8.1088    1.0000 </r>
       <r>   -7.4803    1.0000 </r>
       <r>   -7.2521    1.0000 </r>
       <r>   -5.4647    1.0000 </r>
       <r>   -5.3518    1.0000 </r>
       <r>   -4.3205    1.0000 </r>
       <r>   -4.1344    1.0000 </r>
       <r>   -3.9636    1.0000 </r>
       <r>   -3.7026    1.0000 </r>
       <r>   -0.8898    0.0000 </r>
       <r>   -0.1173    0.0000 </r>
       <r>    1.1747    0.0000 </r>
       <r>    1.2207    0.0000 </r>
       <r>    1.3191    0.0000 </r>
       <r>    1.7179    0.0000 </r>
       <r>    1.7190    0.0000 </r>
       <r>    1.9952    0.0000 </r>
       <r>    2.6055    0.0000 </r>
       <r>    2.7805    0.0000 </r>
       <r>    3.7454    0.0000 </r>
       <r>    3.7813    0.0000 </r>
      </set>
      <set comment="kpoint 497">
       <r>  -11.1433    1.0000 </r>
       <r>  -10.9305    1.0000 </r>
       <r>   -9.8461    1.0000 </r>
       <r>   -9.5788    1.0000 </r>
       <r>   -9.3888    1.0000 </r>
       <r>   -9.2450    1.0000 </r>
       <r>   -8.4668    1.0000 </r>
       <r>   -8.0032    1.0000 </r>
       <r>   -7.5742    1.0000 </r>
       <r>   -7.2295    1.0000 </r>
       <r>   -5.5014    1.0000 </r>
       <r>   -5.2967    1.0000 </r>
       <r>   -4.4032    1.0000 </r>
       <r>   -4.0686    1.0000 </r>
       <r>   -3.9475    1.0000 </r>
       <r>   -3.6475    1.0000 </r>
       <r>   -1.1935    0.0000 </r>
       <r>    0.2082    0.0000 </r>
       <r>    1.1194    0.0000 </r>
       <r>    1.1903    0.0000 </r>
       <r>    1.3796    0.0000 </r>
       <r>    1.7158    0.0000 </r>
       <r>    1.7163    0.0000 </r>
       <r>    2.0177    0.0000 </r>
       <r>    2.5412    0.0000 </r>
       <r>    2.8587    0.0000 </r>
       <r>    3.7118    0.0000 </r>
       <r>    3.7840    0.0000 </r>
      </set>
      <set comment="kpoint 498">
       <r>  -11.1749    1.0000 </r>
       <r>  -10.8666    1.0000 </r>
       <r>   -9.9687    1.0000 </r>
       <r>   -9.6072    1.0000 </r>
       <r>   -9.3323    1.0000 </r>
       <r>   -9.0990    1.0000 </r>
       <r>   -8.5663    1.0000 </r>
       <r>   -7.8981    1.0000 </r>
       <r>   -7.6889    1.0000 </r>
       <r>   -7.2239    1.0000 </r>
       <r>   -5.5324    1.0000 </r>
       <r>   -5.2366    1.0000 </r>
       <r>   -4.4880    1.0000 </r>
       <r>   -4.0106    1.0000 </r>
       <r>   -3.9272    1.0000 </r>
       <r>   -3.5592    1.0000 </r>
       <r>   -1.4887    0.0000 </r>
       <r>    0.5374    0.0000 </r>
       <r>    1.0704    0.0000 </r>
       <r>    1.1494    0.0000 </r>
       <r>    1.4379    0.0000 </r>
       <r>    1.7099    0.0000 </r>
       <r>    1.7142    0.0000 </r>
       <r>    2.0488    0.0000 </r>
       <r>    2.4810    0.0000 </r>
       <r>    2.9402    0.0000 </r>
       <r>    3.6594    0.0000 </r>
       <r>    3.7351    0.0000 </r>
      </set>
      <set comment="kpoint 499">
       <r>  -11.2005    1.0000 </r>
       <r>  -10.7969    1.0000 </r>
       <r>  -10.0861    1.0000 </r>
       <r>   -9.6303    1.0000 </r>
       <r>   -9.2708    1.0000 </r>
       <r>   -8.9499    1.0000 </r>
       <r>   -8.6629    1.0000 </r>
       <r>   -7.8177    1.0000 </r>
       <r>   -7.7948    1.0000 </r>
       <r>   -7.2381    1.0000 </r>
       <r>   -5.5577    1.0000 </r>
       <r>   -5.1720    1.0000 </r>
       <r>   -4.5739    1.0000 </r>
       <r>   -3.9616    1.0000 </r>
       <r>   -3.9065    1.0000 </r>
       <r>   -3.4383    1.0000 </r>
       <r>   -1.7741    0.0000 </r>
       <r>    0.8685    0.0000 </r>
       <r>    1.0300    0.0000 </r>
       <r>    1.1043    0.0000 </r>
       <r>    1.4940    0.0000 </r>
       <r>    1.7006    0.0000 </r>
       <r>    1.7121    0.0000 </r>
       <r>    2.0850    0.0000 </r>
       <r>    2.4248    0.0000 </r>
       <r>    3.0240    0.0000 </r>
       <r>    3.4094    0.0000 </r>
       <r>    3.6206    0.0000 </r>
      </set>
      <set comment="kpoint 500">
       <r>  -11.2201    1.0000 </r>
       <r>  -10.7213    1.0000 </r>
       <r>  -10.1983    1.0000 </r>
       <r>   -9.6480    1.0000 </r>
       <r>   -9.2045    1.0000 </r>
       <r>   -8.7983    1.0000 </r>
       <r>   -8.7564    1.0000 </r>
       <r>   -7.9566    1.0000 </r>
       <r>   -7.6943    1.0000 </r>
       <r>   -7.2713    1.0000 </r>
       <r>   -5.5772    1.0000 </r>
       <r>   -5.1029    1.0000 </r>
       <r>   -4.6598    1.0000 </r>
       <r>   -3.9225    1.0000 </r>
       <r>   -3.8884    1.0000 </r>
       <r>   -3.2875    1.0000 </r>
       <r>   -2.0484    0.0000 </r>
       <r>    1.0002    0.0000 </r>
       <r>    1.0608    0.0000 </r>
       <r>    1.1958    0.0000 </r>
       <r>    1.5514    0.0000 </r>
       <r>    1.6873    0.0000 </r>
       <r>    1.7102    0.0000 </r>
       <r>    2.1241    0.0000 </r>
       <r>    2.3721    0.0000 </r>
       <r>    3.0906    0.0000 </r>
       <r>    3.1092    0.0000 </r>
       <r>    3.5561    0.0000 </r>
      </set>
      <set comment="kpoint 501">
       <r>  -11.2338    1.0000 </r>
       <r>  -10.6400    1.0000 </r>
       <r>  -10.3052    1.0000 </r>
       <r>   -9.6604    1.0000 </r>
       <r>   -9.1336    1.0000 </r>
       <r>   -8.8464    1.0000 </r>
       <r>   -8.6450    1.0000 </r>
       <r>   -8.1024    1.0000 </r>
       <r>   -7.5983    1.0000 </r>
       <r>   -7.3214    1.0000 </r>
       <r>   -5.5907    1.0000 </r>
       <r>   -5.0299    1.0000 </r>
       <r>   -4.7449    1.0000 </r>
       <r>   -3.8939    1.0000 </r>
       <r>   -3.8751    1.0000 </r>
       <r>   -3.1100    0.8593 </r>
       <r>   -2.3103    0.0000 </r>
       <r>    0.9826    0.0000 </r>
       <r>    1.0234    0.0000 </r>
       <r>    1.4774    0.0000 </r>
       <r>    1.6506    0.0000 </r>
       <r>    1.6690    0.0000 </r>
       <r>    1.7088    0.0000 </r>
       <r>    2.1651    0.0000 </r>
       <r>    2.3225    0.0000 </r>
       <r>    2.7635    0.0000 </r>
       <r>    3.1947    0.0000 </r>
       <r>    3.4854    0.0000 </r>
      </set>
      <set comment="kpoint 502">
       <r>  -11.2414    1.0000 </r>
       <r>  -10.5529    1.0000 </r>
       <r>  -10.4066    1.0000 </r>
       <r>   -9.6673    1.0000 </r>
       <r>   -9.0581    1.0000 </r>
       <r>   -8.9325    1.0000 </r>
       <r>   -8.4909    1.0000 </r>
       <r>   -8.2528    1.0000 </r>
       <r>   -7.5084    1.0000 </r>
       <r>   -7.3858    1.0000 </r>
       <r>   -5.5983    1.0000 </r>
       <r>   -4.9533    1.0000 </r>
       <r>   -4.8284    1.0000 </r>
       <r>   -3.8761    1.0000 </r>
       <r>   -3.8688    1.0000 </r>
       <r>   -2.9092    0.0000 </r>
       <r>   -2.5578    0.0000 </r>
       <r>    0.9782    0.0000 </r>
       <r>    0.9954    0.0000 </r>
       <r>    1.5829    0.0000 </r>
       <r>    1.6447    0.0000 </r>
       <r>    1.7079    0.0000 </r>
       <r>    1.9207    0.0000 </r>
       <r>    2.2074    0.0000 </r>
       <r>    2.2755    0.0000 </r>
       <r>    2.4320    0.0000 </r>
       <r>    3.2792    0.0000 </r>
       <r>    3.4090    0.0000 </r>
      </set>
      <set comment="kpoint 503">
       <r>  -11.2431    1.0000 </r>
       <r>  -10.5024    1.0000 </r>
       <r>  -10.4601    1.0000 </r>
       <r>   -9.6688    1.0000 </r>
       <r>   -9.0146    1.0000 </r>
       <r>   -8.9783    1.0000 </r>
       <r>   -8.4059    1.0000 </r>
       <r>   -8.3371    1.0000 </r>
       <r>   -7.4621    1.0000 </r>
       <r>   -7.4267    1.0000 </r>
       <r>   -5.6000    1.0000 </r>
       <r>   -4.9096    1.0000 </r>
       <r>   -4.8735    1.0000 </r>
       <r>   -3.8710    1.0000 </r>
       <r>   -3.8685    1.0000 </r>
       <r>   -2.7890    0.0000 </r>
       <r>   -2.6881    0.0000 </r>
       <r>    0.9793    0.0000 </r>
       <r>    0.9870    0.0000 </r>
       <r>    1.6118    0.0000 </r>
       <r>    1.6247    0.0000 </r>
       <r>    1.7078    0.0000 </r>
       <r>    2.1005    0.0000 </r>
       <r>    2.2306    0.0000 </r>
       <r>    2.2478    0.0000 </r>
       <r>    2.2513    0.0000 </r>
       <r>    3.3282    0.0000 </r>
       <r>    3.3615    0.0000 </r>
      </set>
      <set comment="kpoint 504">
       <r>  -11.2387    1.0000 </r>
       <r>  -10.5926    1.0000 </r>
       <r>  -10.3618    1.0000 </r>
       <r>   -9.6648    1.0000 </r>
       <r>   -9.0925    1.0000 </r>
       <r>   -8.8944    1.0000 </r>
       <r>   -8.5599    1.0000 </r>
       <r>   -8.1851    1.0000 </r>
       <r>   -7.5478    1.0000 </r>
       <r>   -7.3554    1.0000 </r>
       <r>   -5.5956    1.0000 </r>
       <r>   -4.9880    1.0000 </r>
       <r>   -4.7912    1.0000 </r>
       <r>   -3.8831    1.0000 </r>
       <r>   -3.8703    1.0000 </r>
       <r>   -3.0014    0.0000 </r>
       <r>   -2.4494    0.0000 </r>
       <r>    0.9761    0.0000 </r>
       <r>    1.0085    0.0000 </r>
       <r>    1.5563    0.0000 </r>
       <r>    1.6535    0.0000 </r>
       <r>    1.7084    0.0000 </r>
       <r>    1.7841    0.0000 </r>
       <r>    2.1875    0.0000 </r>
       <r>    2.2970    0.0000 </r>
       <r>    2.5799    0.0000 </r>
       <r>    3.2444    0.0000 </r>
       <r>    3.4402    0.0000 </r>
      </set>
      <set comment="kpoint 505">
       <r>  -11.2284    1.0000 </r>
       <r>  -10.6771    1.0000 </r>
       <r>  -10.2580    1.0000 </r>
       <r>   -9.6555    1.0000 </r>
       <r>   -9.1660    1.0000 </r>
       <r>   -8.8065    1.0000 </r>
       <r>   -8.7138    1.0000 </r>
       <r>   -8.0365    1.0000 </r>
       <r>   -7.6406    1.0000 </r>
       <r>   -7.2971    1.0000 </r>
       <r>   -5.5854    1.0000 </r>
       <r>   -5.0631    1.0000 </r>
       <r>   -4.7068    1.0000 </r>
       <r>   -3.9058    1.0000 </r>
       <r>   -3.8800    1.0000 </r>
       <r>   -3.1922    1.0000 </r>
       <r>   -2.1953    0.0000 </r>
       <r>    0.9863    0.0000 </r>
       <r>    1.0408    0.0000 </r>
       <r>    1.3679    0.0000 </r>
       <r>    1.5947    0.0000 </r>
       <r>    1.6752    0.0000 </r>
       <r>    1.7097    0.0000 </r>
       <r>    2.1458    0.0000 </r>
       <r>    2.3450    0.0000 </r>
       <r>    2.9098    0.0000 </r>
       <r>    3.1589    0.0000 </r>
       <r>    3.5140    0.0000 </r>
      </set>
      <set comment="kpoint 506">
       <r>  -11.0711    1.0000 </r>
       <r>  -10.5821    1.0000 </r>
       <r>  -10.0602    1.0000 </r>
       <r>   -9.5022    1.0000 </r>
       <r>   -9.0723    1.0000 </r>
       <r>   -8.6983    1.0000 </r>
       <r>   -8.6310    1.0000 </r>
       <r>   -7.8762    1.0000 </r>
       <r>   -7.6168    1.0000 </r>
       <r>   -7.2155    1.0000 </r>
       <r>   -5.3612    1.0000 </r>
       <r>   -4.8928    1.0000 </r>
       <r>   -4.4479    1.0000 </r>
       <r>   -3.7297    1.0000 </r>
       <r>   -3.6909    1.0000 </r>
       <r>   -3.0805    0.1570 </r>
       <r>   -1.8610    0.0000 </r>
       <r>    0.8679    0.0000 </r>
       <r>    0.9521    0.0000 </r>
       <r>    1.1814    0.0000 </r>
       <r>    1.5143    0.0000 </r>
       <r>    1.6210    0.0000 </r>
       <r>    1.7901    0.0000 </r>
       <r>    2.1725    0.0000 </r>
       <r>    2.3936    0.0000 </r>
       <r>    3.0923    0.0000 </r>
       <r>    3.1454    0.0000 </r>
       <r>    3.4994    0.0000 </r>
      </set>
      <set comment="kpoint 507">
       <r>  -11.0515    1.0000 </r>
       <r>  -10.6565    1.0000 </r>
       <r>   -9.9496    1.0000 </r>
       <r>   -9.4846    1.0000 </r>
       <r>   -9.1367    1.0000 </r>
       <r>   -8.8458    1.0000 </r>
       <r>   -8.5403    1.0000 </r>
       <r>   -7.7445    1.0000 </r>
       <r>   -7.7123    1.0000 </r>
       <r>   -7.1855    1.0000 </r>
       <r>   -5.3417    1.0000 </r>
       <r>   -4.9612    1.0000 </r>
       <r>   -4.3630    1.0000 </r>
       <r>   -3.7679    1.0000 </r>
       <r>   -3.7062    1.0000 </r>
       <r>   -3.2265    1.0000 </r>
       <r>   -1.5933    0.0000 </r>
       <r>    0.8892    0.0000 </r>
       <r>    0.9218    0.0000 </r>
       <r>    0.9896    0.0000 </r>
       <r>    1.3868    0.0000 </r>
       <r>    1.6558    0.0000 </r>
       <r>    1.7867    0.0000 </r>
       <r>    2.1471    0.0000 </r>
       <r>    2.4464    0.0000 </r>
       <r>    3.0165    0.0000 </r>
       <r>    3.4238    0.0000 </r>
       <r>    3.5854    0.0000 </r>
      </set>
      <set comment="kpoint 508">
       <r>  -11.0259    1.0000 </r>
       <r>  -10.7251    1.0000 </r>
       <r>   -9.8339    1.0000 </r>
       <r>   -9.4619    1.0000 </r>
       <r>   -9.1965    1.0000 </r>
       <r>   -8.9911    1.0000 </r>
       <r>   -8.4466    1.0000 </r>
       <r>   -7.8109    1.0000 </r>
       <r>   -7.6235    1.0000 </r>
       <r>   -7.1728    1.0000 </r>
       <r>   -5.3163    1.0000 </r>
       <r>   -5.0253    1.0000 </r>
       <r>   -4.2783    1.0000 </r>
       <r>   -3.8158    1.0000 </r>
       <r>   -3.7233    1.0000 </r>
       <r>   -3.3437    1.0000 </r>
       <r>   -1.3148    0.0000 </r>
       <r>    0.6210    0.0000 </r>
       <r>    0.9214    0.0000 </r>
       <r>    1.0260    0.0000 </r>
       <r>    1.3006    0.0000 </r>
       <r>    1.6853    0.0000 </r>
       <r>    1.7817    0.0000 </r>
       <r>    2.1262    0.0000 </r>
       <r>    2.5031    0.0000 </r>
       <r>    2.9408    0.0000 </r>
       <r>    3.5790    0.0000 </r>
       <r>    3.7793    0.0000 </r>
      </set>
      <set comment="kpoint 509">
       <r>  -10.9945    1.0000 </r>
       <r>  -10.7880    1.0000 </r>
       <r>   -9.7134    1.0000 </r>
       <r>   -9.4339    1.0000 </r>
       <r>   -9.2515    1.0000 </r>
       <r>   -9.1337    1.0000 </r>
       <r>   -8.3503    1.0000 </r>
       <r>   -7.9114    1.0000 </r>
       <r>   -7.5172    1.0000 </r>
       <r>   -7.1776    1.0000 </r>
       <r>   -5.2852    1.0000 </r>
       <r>   -5.0848    1.0000 </r>
       <r>   -4.1947    1.0000 </r>
       <r>   -3.8725    1.0000 </r>
       <r>   -3.7397    1.0000 </r>
       <r>   -3.4297    1.0000 </r>
       <r>   -1.0271    0.0000 </r>
       <r>    0.3097    0.0000 </r>
       <r>    0.9630    0.0000 </r>
       <r>    1.0570    0.0000 </r>
       <r>    1.2271    0.0000 </r>
       <r>    1.7100    0.0000 </r>
       <r>    1.7748    0.0000 </r>
       <r>    2.1103    0.0000 </r>
       <r>    2.5636    0.0000 </r>
       <r>    2.8660    0.0000 </r>
       <r>    3.6468    0.0000 </r>
       <r>    3.8126    0.0000 </r>
      </set>
      <set comment="kpoint 510">
       <r>  -10.9572    1.0000 </r>
       <r>  -10.8450    1.0000 </r>
       <r>   -9.5881    1.0000 </r>
       <r>   -9.4008    1.0000 </r>
       <r>   -9.3017    1.0000 </r>
       <r>   -9.2729    1.0000 </r>
       <r>   -8.2519    1.0000 </r>
       <r>   -8.0127    1.0000 </r>
       <r>   -7.4333    1.0000 </r>
       <r>   -7.1959    1.0000 </r>
       <r>   -5.2485    1.0000 </r>
       <r>   -5.1394    1.0000 </r>
       <r>   -4.1135    1.0000 </r>
       <r>   -3.9369    1.0000 </r>
       <r>   -3.7524    1.0000 </r>
       <r>   -3.4835    1.0000 </r>
       <r>   -0.7312    0.0000 </r>
       <r>   -0.0025    0.0000 </r>
       <r>    1.0128    0.0000 </r>
       <r>    1.0786    0.0000 </r>
       <r>    1.1592    0.0000 </r>
       <r>    1.7303    0.0000 </r>
       <r>    1.7657    0.0000 </r>
       <r>    2.1000    0.0000 </r>
       <r>    2.6277    0.0000 </r>
       <r>    2.7927    0.0000 </r>
       <r>    3.6982    0.0000 </r>
       <r>    3.7890    0.0000 </r>
      </set>
      <set comment="kpoint 511">
       <r>  -10.9140    1.0000 </r>
       <r>  -10.8963    1.0000 </r>
       <r>   -9.4583    1.0000 </r>
       <r>   -9.4084    1.0000 </r>
       <r>   -9.3625    1.0000 </r>
       <r>   -9.3468    1.0000 </r>
       <r>   -8.1519    1.0000 </r>
       <r>   -8.1140    1.0000 </r>
       <r>   -7.3896    1.0000 </r>
       <r>   -7.2125    1.0000 </r>
       <r>   -5.2063    1.0000 </r>
       <r>   -5.1890    1.0000 </r>
       <r>   -4.0357    1.0000 </r>
       <r>   -4.0078    1.0000 </r>
       <r>   -3.7583    1.0000 </r>
       <r>   -3.5053    1.0000 </r>
       <r>   -0.4286    0.0000 </r>
       <r>   -0.3122    0.0000 </r>
       <r>    1.0693    0.0000 </r>
       <r>    1.0878    0.0000 </r>
       <r>    1.0956    0.0000 </r>
       <r>    1.7468    0.0000 </r>
       <r>    1.7540    0.0000 </r>
       <r>    2.0957    0.0000 </r>
       <r>    2.6950    0.0000 </r>
       <r>    2.7214    0.0000 </r>
       <r>    3.7408    0.0000 </r>
       <r>    3.7578    0.0000 </r>
      </set>
      <set comment="kpoint 512">
       <r>  -10.9417    1.0000 </r>
       <r>  -10.8650    1.0000 </r>
       <r>   -9.5398    1.0000 </r>
       <r>   -9.3870    1.0000 </r>
       <r>   -9.3243    1.0000 </r>
       <r>   -9.3192    1.0000 </r>
       <r>   -8.2145    1.0000 </r>
       <r>   -8.0508    1.0000 </r>
       <r>   -7.4106    1.0000 </r>
       <r>   -7.2038    1.0000 </r>
       <r>   -5.2332    1.0000 </r>
       <r>   -5.1587    1.0000 </r>
       <r>   -4.0839    1.0000 </r>
       <r>   -3.9626    1.0000 </r>
       <r>   -3.7557    1.0000 </r>
       <r>   -3.4955    1.0000 </r>
       <r>   -0.6170    0.0000 </r>
       <r>   -0.1207    0.0000 </r>
       <r>    1.0370    0.0000 </r>
       <r>    1.0834    0.0000 </r>
       <r>    1.1310    0.0000 </r>
       <r>    1.7390    0.0000 </r>
       <r>    1.7600    0.0000 </r>
       <r>    2.0978    0.0000 </r>
       <r>    2.6528    0.0000 </r>
       <r>    2.7651    0.0000 </r>
       <r>    3.7186    0.0000 </r>
       <r>    3.7753    0.0000 </r>
      </set>
      <set comment="kpoint 513">
       <r>  -10.9812    1.0000 </r>
       <r>  -10.8101    1.0000 </r>
       <r>   -9.6668    1.0000 </r>
       <r>   -9.4221    1.0000 </r>
       <r>   -9.2709    1.0000 </r>
       <r>   -9.1865    1.0000 </r>
       <r>   -8.3136    1.0000 </r>
       <r>   -7.9495    1.0000 </r>
       <r>   -7.4824    1.0000 </r>
       <r>   -7.1833    1.0000 </r>
       <r>   -5.2720    1.0000 </r>
       <r>   -5.1060    1.0000 </r>
       <r>   -4.1640    1.0000 </r>
       <r>   -3.8956    1.0000 </r>
       <r>   -3.7453    1.0000 </r>
       <r>   -3.4539    1.0000 </r>
       <r>   -0.9156    0.0000 </r>
       <r>    0.1907    0.0000 </r>
       <r>    0.9844    0.0000 </r>
       <r>    1.0658    0.0000 </r>
       <r>    1.1973    0.0000 </r>
       <r>    1.7205    0.0000 </r>
       <r>    1.7703    0.0000 </r>
       <r>    2.1061    0.0000 </r>
       <r>    2.5872    0.0000 </r>
       <r>    2.8374    0.0000 </r>
       <r>    3.6708    0.0000 </r>
       <r>    3.8020    0.0000 </r>
      </set>
      <set comment="kpoint 514">
       <r>  -11.0148    1.0000 </r>
       <r>  -10.7494    1.0000 </r>
       <r>   -9.7892    1.0000 </r>
       <r>   -9.4520    1.0000 </r>
       <r>   -9.2177    1.0000 </r>
       <r>   -9.0451    1.0000 </r>
       <r>   -8.4107    1.0000 </r>
       <r>   -7.8486    1.0000 </r>
       <r>   -7.5814    1.0000 </r>
       <r>   -7.1726    1.0000 </r>
       <r>   -5.3053    1.0000 </r>
       <r>   -5.0482    1.0000 </r>
       <r>   -4.2468    1.0000 </r>
       <r>   -3.8358    1.0000 </r>
       <r>   -3.7300    1.0000 </r>
       <r>   -3.3800    1.0000 </r>
       <r>   -1.2067    0.0000 </r>
       <r>    0.5028    0.0000 </r>
       <r>    0.9393    0.0000 </r>
       <r>    1.0377    0.0000 </r>
       <r>    1.2684    0.0000 </r>
       <r>    1.6977    0.0000 </r>
       <r>    1.7782    0.0000 </r>
       <r>    2.1201    0.0000 </r>
       <r>    2.5251    0.0000 </r>
       <r>    2.9114    0.0000 </r>
       <r>    3.6112    0.0000 </r>
       <r>    3.8591    0.0000 </r>
      </set>
      <set comment="kpoint 515">
       <r>  -11.0426    1.0000 </r>
       <r>  -10.6829    1.0000 </r>
       <r>   -9.9067    1.0000 </r>
       <r>   -9.4767    1.0000 </r>
       <r>   -9.1597    1.0000 </r>
       <r>   -8.9008    1.0000 </r>
       <r>   -8.5054    1.0000 </r>
       <r>   -7.7491    1.0000 </r>
       <r>   -7.6975    1.0000 </r>
       <r>   -7.1786    1.0000 </r>
       <r>   -5.3328    1.0000 </r>
       <r>   -4.9858    1.0000 </r>
       <r>   -4.3311    1.0000 </r>
       <r>   -3.7845    1.0000 </r>
       <r>   -3.7129    1.0000 </r>
       <r>   -3.2743    1.0000 </r>
       <r>   -1.4889    0.0000 </r>
       <r>    0.8090    0.0000 </r>
       <r>    0.9032    0.0000 </r>
       <r>    1.0026    0.0000 </r>
       <r>    1.3486    0.0000 </r>
       <r>    1.6704    0.0000 </r>
       <r>    1.7841    0.0000 </r>
       <r>    2.1393    0.0000 </r>
       <r>    2.4668    0.0000 </r>
       <r>    2.9865    0.0000 </r>
       <r>    3.5050    0.0000 </r>
       <r>    3.6425    0.0000 </r>
      </set>
      <set comment="kpoint 516">
       <r>  -11.0644    1.0000 </r>
       <r>  -10.6107    1.0000 </r>
       <r>  -10.0192    1.0000 </r>
       <r>   -9.4962    1.0000 </r>
       <r>   -9.0970    1.0000 </r>
       <r>   -8.7540    1.0000 </r>
       <r>   -8.5973    1.0000 </r>
       <r>   -7.8256    1.0000 </r>
       <r>   -7.6523    1.0000 </r>
       <r>   -7.2022    1.0000 </r>
       <r>   -5.3545    1.0000 </r>
       <r>   -4.9190    1.0000 </r>
       <r>   -4.4161    1.0000 </r>
       <r>   -3.7425    1.0000 </r>
       <r>   -3.6967    1.0000 </r>
       <r>   -3.1390    0.9991 </r>
       <r>   -1.7609    0.0000 </r>
       <r>    0.8775    0.0000 </r>
       <r>    0.9648    0.0000 </r>
       <r>    1.0895    0.0000 </r>
       <r>    1.4555    0.0000 </r>
       <r>    1.6379    0.0000 </r>
       <r>    1.7883    0.0000 </r>
       <r>    2.1632    0.0000 </r>
       <r>    2.4124    0.0000 </r>
       <r>    3.0619    0.0000 </r>
       <r>    3.2566    0.0000 </r>
       <r>    3.5317    0.0000 </r>
      </set>
      <set comment="kpoint 517">
       <r>  -11.0803    1.0000 </r>
       <r>  -10.5328    1.0000 </r>
       <r>  -10.1265    1.0000 </r>
       <r>   -9.5104    1.0000 </r>
       <r>   -9.0298    1.0000 </r>
       <r>   -8.6860    1.0000 </r>
       <r>   -8.6056    1.0000 </r>
       <r>   -7.9623    1.0000 </r>
       <r>   -7.5594    1.0000 </r>
       <r>   -7.2423    1.0000 </r>
       <r>   -5.3705    1.0000 </r>
       <r>   -4.8481    1.0000 </r>
       <r>   -4.5006    1.0000 </r>
       <r>   -3.7106    1.0000 </r>
       <r>   -3.6837    1.0000 </r>
       <r>   -2.9767    0.0000 </r>
       <r>   -2.0212    0.0000 </r>
       <r>    0.8631    0.0000 </r>
       <r>    0.9283    0.0000 </r>
       <r>    1.2918    0.0000 </r>
       <r>    1.5998    0.0000 </r>
       <r>    1.6394    0.0000 </r>
       <r>    1.7912    0.0000 </r>
       <r>    2.1913    0.0000 </r>
       <r>    2.3622    0.0000 </r>
       <r>    2.9580    0.0000 </r>
       <r>    3.1372    0.0000 </r>
       <r>    3.4584    0.0000 </r>
      </set>
      <set comment="kpoint 518">
       <r>  -11.0903    1.0000 </r>
       <r>  -10.4493    1.0000 </r>
       <r>  -10.2286    1.0000 </r>
       <r>   -9.5194    1.0000 </r>
       <r>   -8.9581    1.0000 </r>
       <r>   -8.7712    1.0000 </r>
       <r>   -8.4563    1.0000 </r>
       <r>   -8.1049    1.0000 </r>
       <r>   -7.4720    1.0000 </r>
       <r>   -7.2969    1.0000 </r>
       <r>   -5.3805    1.0000 </r>
       <r>   -4.7734    1.0000 </r>
       <r>   -4.5840    1.0000 </r>
       <r>   -3.6889    1.0000 </r>
       <r>   -3.6760    1.0000 </r>
       <r>   -2.7905    0.0000 </r>
       <r>   -2.2682    0.0000 </r>
       <r>    0.8604    0.0000 </r>
       <r>    0.8969    0.0000 </r>
       <r>    1.4035    0.0000 </r>
       <r>    1.5552    0.0000 </r>
       <r>    1.7929    0.0000 </r>
       <r>    1.9107    0.0000 </r>
       <r>    2.2236    0.0000 </r>
       <r>    2.3160    0.0000 </r>
       <r>    2.6479    0.0000 </r>
       <r>    3.2118    0.0000 </r>
       <r>    3.3875    0.0000 </r>
      </set>
      <set comment="kpoint 519">
       <r>  -11.0944    1.0000 </r>
       <r>  -10.3602    1.0000 </r>
       <r>  -10.3253    1.0000 </r>
       <r>   -9.5230    1.0000 </r>
       <r>   -8.8822    1.0000 </r>
       <r>   -8.8526    1.0000 </r>
       <r>   -8.3072    1.0000 </r>
       <r>   -8.2514    1.0000 </r>
       <r>   -7.3918    1.0000 </r>
       <r>   -7.3638    1.0000 </r>
       <r>   -5.3845    1.0000 </r>
       <r>   -4.6955    1.0000 </r>
       <r>   -4.6655    1.0000 </r>
       <r>   -3.6771    1.0000 </r>
       <r>   -3.6756    1.0000 </r>
       <r>   -2.5834    0.0000 </r>
       <r>   -2.5000    0.0000 </r>
       <r>    0.8694    0.0000 </r>
       <r>    0.8735    0.0000 </r>
       <r>    1.4759    0.0000 </r>
       <r>    1.5025    0.0000 </r>
       <r>    1.7937    0.0000 </r>
       <r>    2.2158    0.0000 </r>
       <r>    2.2600    0.0000 </r>
       <r>    2.2740    0.0000 </r>
       <r>    2.3343    0.0000 </r>
       <r>    3.2853    0.0000 </r>
       <r>    3.3157    0.0000 </r>
      </set>
      <set comment="kpoint 520">
       <r>  -11.0926    1.0000 </r>
       <r>  -10.4165    1.0000 </r>
       <r>  -10.2656    1.0000 </r>
       <r>   -9.5214    1.0000 </r>
       <r>   -8.9301    1.0000 </r>
       <r>   -8.8022    1.0000 </r>
       <r>   -8.4001    1.0000 </r>
       <r>   -8.1597    1.0000 </r>
       <r>   -7.4408    1.0000 </r>
       <r>   -7.3208    1.0000 </r>
       <r>   -5.3827    1.0000 </r>
       <r>   -4.7445    1.0000 </r>
       <r>   -4.6149    1.0000 </r>
       <r>   -3.6838    1.0000 </r>
       <r>   -3.6745    1.0000 </r>
       <r>   -2.7144    0.0000 </r>
       <r>   -2.3579    0.0000 </r>
       <r>    0.8601    0.0000 </r>
       <r>    0.8890    0.0000 </r>
       <r>    1.4376    0.0000 </r>
       <r>    1.5327    0.0000 </r>
       <r>    1.7935    0.0000 </r>
       <r>    2.0244    0.0000 </r>
       <r>    2.2361    0.0000 </r>
       <r>    2.3005    0.0000 </r>
       <r>    2.5290    0.0000 </r>
       <r>    3.2424    0.0000 </r>
       <r>    3.3574    0.0000 </r>
      </set>
      <set comment="kpoint 521">
       <r>  -11.0848    1.0000 </r>
       <r>  -10.5021    1.0000 </r>
       <r>  -10.1655    1.0000 </r>
       <r>   -9.5144    1.0000 </r>
       <r>   -9.0034    1.0000 </r>
       <r>   -8.7184    1.0000 </r>
       <r>   -8.5494    1.0000 </r>
       <r>   -8.0154    1.0000 </r>
       <r>   -7.5257    1.0000 </r>
       <r>   -7.2613    1.0000 </r>
       <r>   -5.3749    1.0000 </r>
       <r>   -4.8204    1.0000 </r>
       <r>   -4.5321    1.0000 </r>
       <r>   -3.7017    1.0000 </r>
       <r>   -3.6796    1.0000 </r>
       <r>   -2.9088    0.0000 </r>
       <r>   -2.1165    0.0000 </r>
       <r>    0.8581    0.0000 </r>
       <r>    0.9174    0.0000 </r>
       <r>    1.3457    0.0000 </r>
       <r>    1.5803    0.0000 </r>
       <r>    1.7353    0.0000 </r>
       <r>    1.7924    0.0000 </r>
       <r>    2.2022    0.0000 </r>
       <r>    2.3450    0.0000 </r>
       <r>    2.8411    0.0000 </r>
       <r>    3.1678    0.0000 </r>
       <r>    3.4282    0.0000 </r>
      </set>
      <set comment="kpoint 522">
       <r>  -10.9258    1.0000 </r>
       <r>  -10.4060    1.0000 </r>
       <r>   -9.9679    1.0000 </r>
       <r>   -9.3607    1.0000 </r>
       <r>   -8.9102    1.0000 </r>
       <r>   -8.5453    1.0000 </r>
       <r>   -8.5361    1.0000 </r>
       <r>   -7.8606    1.0000 </r>
       <r>   -7.5051    1.0000 </r>
       <r>   -7.1826    1.0000 </r>
       <r>   -5.1462    1.0000 </r>
       <r>   -4.6454    1.0000 </r>
       <r>   -4.2687    1.0000 </r>
       <r>   -3.5202    1.0000 </r>
       <r>   -3.4851    1.0000 </r>
       <r>   -2.7953    0.0000 </r>
       <r>   -1.7826    0.0000 </r>
       <r>    0.7301    0.0000 </r>
       <r>    0.8164    0.0000 </r>
       <r>    1.1209    0.0000 </r>
       <r>    1.4975    0.0000 </r>
       <r>    1.6640    0.0000 </r>
       <r>    1.8595    0.0000 </r>
       <r>    2.2344    0.0000 </r>
       <r>    2.3900    0.0000 </r>
       <r>    3.0335    0.0000 </r>
       <r>    3.1137    0.0000 </r>
       <r>    3.4595    0.0000 </r>
      </set>
      <set comment="kpoint 523">
       <r>  -10.9088    1.0000 </r>
       <r>  -10.4815    1.0000 </r>
       <r>   -9.8615    1.0000 </r>
       <r>   -9.3457    1.0000 </r>
       <r>   -8.9746    1.0000 </r>
       <r>   -8.6796    1.0000 </r>
       <r>   -8.4590    1.0000 </r>
       <r>   -7.7330    1.0000 </r>
       <r>   -7.5936    1.0000 </r>
       <r>   -7.1486    1.0000 </r>
       <r>   -5.1291    1.0000 </r>
       <r>   -4.7149    1.0000 </r>
       <r>   -4.1851    1.0000 </r>
       <r>   -3.5531    1.0000 </r>
       <r>   -3.4958    1.0000 </r>
       <r>   -2.9478    0.0000 </r>
       <r>   -1.5279    0.0000 </r>
       <r>    0.7403    0.0000 </r>
       <r>    0.8494    0.0000 </r>
       <r>    0.9775    0.0000 </r>
       <r>    1.4243    0.0000 </r>
       <r>    1.5553    0.0000 </r>
       <r>    1.8501    0.0000 </r>
       <r>    2.2185    0.0000 </r>
       <r>    2.4382    0.0000 </r>
       <r>    3.0420    0.0000 </r>
       <r>    3.2714    0.0000 </r>
       <r>    3.5665    0.0000 </r>
      </set>
      <set comment="kpoint 524">
       <r>  -10.8861    1.0000 </r>
       <r>  -10.5514    1.0000 </r>
       <r>   -9.7501    1.0000 </r>
       <r>   -9.3257    1.0000 </r>
       <r>   -9.0345    1.0000 </r>
       <r>   -8.8216    1.0000 </r>
       <r>   -8.3699    1.0000 </r>
       <r>   -7.6858    1.0000 </r>
       <r>   -7.6151    1.0000 </r>
       <r>   -7.1298    1.0000 </r>
       <r>   -5.1063    1.0000 </r>
       <r>   -4.7803    1.0000 </r>
       <r>   -4.1014    1.0000 </r>
       <r>   -3.5955    1.0000 </r>
       <r>   -3.5087    1.0000 </r>
       <r>   -3.0740    0.0710 </r>
       <r>   -1.2623    0.0000 </r>
       <r>    0.7614    0.0000 </r>
       <r>    0.7704    0.0000 </r>
       <r>    0.8813    0.0000 </r>
       <r>    1.2490    0.0000 </r>
       <r>    1.6077    0.0000 </r>
       <r>    1.8371    0.0000 </r>
       <r>    2.2077    0.0000 </r>
       <r>    2.4913    0.0000 </r>
       <r>    2.9699    0.0000 </r>
       <r>    3.4303    0.0000 </r>
       <r>    3.7394    0.0000 </r>
      </set>
      <set comment="kpoint 525">
       <r>  -10.8575    1.0000 </r>
       <r>  -10.6156    1.0000 </r>
       <r>   -9.6338    1.0000 </r>
       <r>   -9.3005    1.0000 </r>
       <r>   -9.0898    1.0000 </r>
       <r>   -8.9614    1.0000 </r>
       <r>   -8.2782    1.0000 </r>
       <r>   -7.7805    1.0000 </r>
       <r>   -7.5107    1.0000 </r>
       <r>   -7.1263    1.0000 </r>
       <r>   -5.0777    1.0000 </r>
       <r>   -4.8413    1.0000 </r>
       <r>   -4.0187    1.0000 </r>
       <r>   -3.6470    1.0000 </r>
       <r>   -3.5215    1.0000 </r>
       <r>   -3.1715    1.0000 </r>
       <r>   -0.9875    0.0000 </r>
       <r>    0.5107    0.0000 </r>
       <r>    0.7934    0.0000 </r>
       <r>    0.9090    0.0000 </r>
       <r>    1.1295    0.0000 </r>
       <r>    1.6549    0.0000 </r>
       <r>    1.8202    0.0000 </r>
       <r>    2.2010    0.0000 </r>
       <r>    2.5487    0.0000 </r>
       <r>    2.8979    0.0000 </r>
       <r>    3.5227    0.0000 </r>
       <r>    3.7831    0.0000 </r>
      </set>
      <set comment="kpoint 526">
       <r>  -10.8231    1.0000 </r>
       <r>  -10.6742    1.0000 </r>
       <r>   -9.5130    1.0000 </r>
       <r>   -9.2703    1.0000 </r>
       <r>   -9.1405    1.0000 </r>
       <r>   -9.0985    1.0000 </r>
       <r>   -8.1845    1.0000 </r>
       <r>   -7.8767    1.0000 </r>
       <r>   -7.4256    1.0000 </r>
       <r>   -7.1360    1.0000 </r>
       <r>   -5.0435    1.0000 </r>
       <r>   -4.8976    1.0000 </r>
       <r>   -3.9379    1.0000 </r>
       <r>   -3.7065    1.0000 </r>
       <r>   -3.5321    1.0000 </r>
       <r>   -3.2383    1.0000 </r>
       <r>   -0.7051    0.0000 </r>
       <r>    0.2269    0.0000 </r>
       <r>    0.8355    0.0000 </r>
       <r>    0.9296    0.0000 </r>
       <r>    1.0397    0.0000 </r>
       <r>    1.6969    0.0000 </r>
       <r>    1.7991    0.0000 </r>
       <r>    2.1975    0.0000 </r>
       <r>    2.6101    0.0000 </r>
       <r>    2.8265    0.0000 </r>
       <r>    3.5893    0.0000 </r>
       <r>    3.7477    0.0000 </r>
      </set>
      <set comment="kpoint 527">
       <r>  -10.7829    1.0000 </r>
       <r>  -10.7271    1.0000 </r>
       <r>   -9.3878    1.0000 </r>
       <r>   -9.2352    1.0000 </r>
       <r>   -9.2322    1.0000 </r>
       <r>   -9.1865    1.0000 </r>
       <r>   -8.0892    1.0000 </r>
       <r>   -7.9734    1.0000 </r>
       <r>   -7.3712    1.0000 </r>
       <r>   -7.1502    1.0000 </r>
       <r>   -5.0037    1.0000 </r>
       <r>   -4.9490    1.0000 </r>
       <r>   -3.8602    1.0000 </r>
       <r>   -3.7730    1.0000 </r>
       <r>   -3.5385    1.0000 </r>
       <r>   -3.2734    1.0000 </r>
       <r>   -0.4169    0.0000 </r>
       <r>   -0.0649    0.0000 </r>
       <r>    0.8872    0.0000 </r>
       <r>    0.9410    0.0000 </r>
       <r>    0.9656    0.0000 </r>
       <r>    1.7337    0.0000 </r>
       <r>    1.7735    0.0000 </r>
       <r>    2.1960    0.0000 </r>
       <r>    2.6748    0.0000 </r>
       <r>    2.7564    0.0000 </r>
       <r>    3.6450    0.0000 </r>
       <r>    3.7062    0.0000 </r>
      </set>
      <set comment="kpoint 528">
       <r>  -10.7742    1.0000 </r>
       <r>  -10.7369    1.0000 </r>
       <r>   -9.3623    1.0000 </r>
       <r>   -9.2586    1.0000 </r>
       <r>   -9.2276    1.0000 </r>
       <r>   -9.1950    1.0000 </r>
       <r>   -8.0700    1.0000 </r>
       <r>   -7.9928    1.0000 </r>
       <r>   -7.3656    1.0000 </r>
       <r>   -7.1520    1.0000 </r>
       <r>   -4.9951    1.0000 </r>
       <r>   -4.9586    1.0000 </r>
       <r>   -3.8454    1.0000 </r>
       <r>   -3.7868    1.0000 </r>
       <r>   -3.5392    1.0000 </r>
       <r>   -3.2766    1.0000 </r>
       <r>   -0.3573    0.0000 </r>
       <r>   -0.1251    0.0000 </r>
       <r>    0.9024    0.0000 </r>
       <r>    0.9419    0.0000 </r>
       <r>    0.9485    0.0000 </r>
       <r>    1.7431    0.0000 </r>
       <r>    1.7654    0.0000 </r>
       <r>    2.1960    0.0000 </r>
       <r>    2.6883    0.0000 </r>
       <r>    2.7422    0.0000 </r>
       <r>    3.6588    0.0000 </r>
       <r>    3.6939    0.0000 </r>
      </set>
      <set comment="kpoint 529">
       <r>  -10.8155    1.0000 </r>
       <r>  -10.6852    1.0000 </r>
       <r>   -9.4883    1.0000 </r>
       <r>   -9.2637    1.0000 </r>
       <r>   -9.1501    1.0000 </r>
       <r>   -9.1255    1.0000 </r>
       <r>   -8.1656    1.0000 </r>
       <r>   -7.8960    1.0000 </r>
       <r>   -7.4117    1.0000 </r>
       <r>   -7.1389    1.0000 </r>
       <r>   -5.0359    1.0000 </r>
       <r>   -4.9083    1.0000 </r>
       <r>   -3.9222    1.0000 </r>
       <r>   -3.7190    1.0000 </r>
       <r>   -3.5340    1.0000 </r>
       <r>   -3.2480    1.0000 </r>
       <r>   -0.6466    0.0000 </r>
       <r>    0.1670    0.0000 </r>
       <r>    0.8486    0.0000 </r>
       <r>    0.9323    0.0000 </r>
       <r>    1.0202    0.0000 </r>
       <r>    1.7076    0.0000 </r>
       <r>    1.7923    0.0000 </r>
       <r>    2.1973    0.0000 </r>
       <r>    2.6228    0.0000 </r>
       <r>    2.8117    0.0000 </r>
       <r>    3.6047    0.0000 </r>
       <r>    3.7368    0.0000 </r>
      </set>
      <set comment="kpoint 530">
       <r>  -10.8511    1.0000 </r>
       <r>  -10.6278    1.0000 </r>
       <r>   -9.6100    1.0000 </r>
       <r>   -9.2949    1.0000 </r>
       <r>   -9.1003    1.0000 </r>
       <r>   -8.9891    1.0000 </r>
       <r>   -8.2597    1.0000 </r>
       <r>   -7.7997    1.0000 </r>
       <r>   -7.4918    1.0000 </r>
       <r>   -7.1273    1.0000 </r>
       <r>   -5.0713    1.0000 </r>
       <r>   -4.8530    1.0000 </r>
       <r>   -4.0025    1.0000 </r>
       <r>   -3.6579    1.0000 </r>
       <r>   -3.5241    1.0000 </r>
       <r>   -3.1875    1.0000 </r>
       <r>   -0.9304    0.0000 </r>
       <r>    0.4530    0.0000 </r>
       <r>    0.8044    0.0000 </r>
       <r>    0.9131    0.0000 </r>
       <r>    1.1064    0.0000 </r>
       <r>    1.6670    0.0000 </r>
       <r>    1.8146    0.0000 </r>
       <r>    2.2005    0.0000 </r>
       <r>    2.5606    0.0000 </r>
       <r>    2.8826    0.0000 </r>
       <r>    3.5408    0.0000 </r>
       <r>    3.7737    0.0000 </r>
      </set>
      <set comment="kpoint 531">
       <r>  -10.8808    1.0000 </r>
       <r>  -10.5647    1.0000 </r>
       <r>   -9.7272    1.0000 </r>
       <r>   -9.3211    1.0000 </r>
       <r>   -9.0459    1.0000 </r>
       <r>   -8.8498    1.0000 </r>
       <r>   -8.3518    1.0000 </r>
       <r>   -7.7046    1.0000 </r>
       <r>   -7.5929    1.0000 </r>
       <r>   -7.1278    1.0000 </r>
       <r>   -5.1010    1.0000 </r>
       <r>   -4.7929    1.0000 </r>
       <r>   -4.0849    1.0000 </r>
       <r>   -3.6047    1.0000 </r>
       <r>   -3.5117    1.0000 </r>
       <r>   -3.0962    0.5387 </r>
       <r>   -1.2069    0.0000 </r>
       <r>    0.7188    0.0000 </r>
       <r>    0.7701    0.0000 </r>
       <r>    0.8864    0.0000 </r>
       <r>    1.2186    0.0000 </r>
       <r>    1.6212    0.0000 </r>
       <r>    1.8326    0.0000 </r>
       <r>    2.2066    0.0000 </r>
       <r>    2.5021    0.0000 </r>
       <r>    2.9543    0.0000 </r>
       <r>    3.4556    0.0000 </r>
       <r>    3.7848    0.0000 </r>
      </set>
      <set comment="kpoint 532">
       <r>  -10.9048    1.0000 </r>
       <r>  -10.4959    1.0000 </r>
       <r>   -9.8396    1.0000 </r>
       <r>   -9.3422    1.0000 </r>
       <r>   -8.9868    1.0000 </r>
       <r>   -8.7082    1.0000 </r>
       <r>   -8.4415    1.0000 </r>
       <r>   -7.7084    1.0000 </r>
       <r>   -7.6118    1.0000 </r>
       <r>   -7.1435    1.0000 </r>
       <r>   -5.1250    1.0000 </r>
       <r>   -4.7283    1.0000 </r>
       <r>   -4.1684    1.0000 </r>
       <r>   -3.5604    1.0000 </r>
       <r>   -3.4987    1.0000 </r>
       <r>   -2.9756    0.0000 </r>
       <r>   -1.4746    0.0000 </r>
       <r>    0.7465    0.0000 </r>
       <r>    0.8548    0.0000 </r>
       <r>    0.9377    0.0000 </r>
       <r>    1.3815    0.0000 </r>
       <r>    1.5700    0.0000 </r>
       <r>    1.8467    0.0000 </r>
       <r>    2.2166    0.0000 </r>
       <r>    2.4480    0.0000 </r>
       <r>    3.0261    0.0000 </r>
       <r>    3.3129    0.0000 </r>
       <r>    3.5976    0.0000 </r>
      </set>
      <set comment="kpoint 533">
       <r>  -10.9229    1.0000 </r>
       <r>  -10.4215    1.0000 </r>
       <r>   -9.9471    1.0000 </r>
       <r>   -9.3581    1.0000 </r>
       <r>   -8.9234    1.0000 </r>
       <r>   -8.5650    1.0000 </r>
       <r>   -8.5283    1.0000 </r>
       <r>   -7.8344    1.0000 </r>
       <r>   -7.5225    1.0000 </r>
       <r>   -7.1746    1.0000 </r>
       <r>   -5.1432    1.0000 </r>
       <r>   -4.6596    1.0000 </r>
       <r>   -4.2520    1.0000 </r>
       <r>   -3.5255    1.0000 </r>
       <r>   -3.4874    1.0000 </r>
       <r>   -2.8283    0.0000 </r>
       <r>   -1.7317    0.0000 </r>
       <r>    0.7340    0.0000 </r>
       <r>    0.8215    0.0000 </r>
       <r>    1.0919    0.0000 </r>
       <r>    1.5135    0.0000 </r>
       <r>    1.6104    0.0000 </r>
       <r>    1.8571    0.0000 </r>
       <r>    2.2314    0.0000 </r>
       <r>    2.3987    0.0000 </r>
       <r>    3.0872    0.0000 </r>
       <r>    3.0975    0.0000 </r>
       <r>    3.4805    0.0000 </r>
      </set>
      <set comment="kpoint 534">
       <r>  -10.9351    1.0000 </r>
       <r>  -10.3416    1.0000 </r>
       <r>  -10.0494    1.0000 </r>
       <r>   -9.3690    1.0000 </r>
       <r>   -8.8556    1.0000 </r>
       <r>   -8.6120    1.0000 </r>
       <r>   -8.4209    1.0000 </r>
       <r>   -7.9679    1.0000 </r>
       <r>   -7.4381    1.0000 </r>
       <r>   -7.2198    1.0000 </r>
       <r>   -5.1556    1.0000 </r>
       <r>   -4.5871    1.0000 </r>
       <r>   -4.3350    1.0000 </r>
       <r>   -3.5004    1.0000 </r>
       <r>   -3.4798    1.0000 </r>
       <r>   -2.6569    0.0000 </r>
       <r>   -1.9767    0.0000 </r>
       <r>    0.7324    0.0000 </r>
       <r>    0.7897    0.0000 </r>
       <r>    1.2012    0.0000 </r>
       <r>    1.4517    0.0000 </r>
       <r>    1.8641    0.0000 </r>
       <r>    1.8829    0.0000 </r>
       <r>    2.2517    0.0000 </r>
       <r>    2.3545    0.0000 </r>
       <r>    2.8162    0.0000 </r>
       <r>    3.1683    0.0000 </r>
       <r>    3.3979    0.0000 </r>
      </set>
      <set comment="kpoint 535">
       <r>  -10.9416    1.0000 </r>
       <r>  -10.2562    1.0000 </r>
       <r>  -10.1466    1.0000 </r>
       <r>   -9.3746    1.0000 </r>
       <r>   -8.7837    1.0000 </r>
       <r>   -8.6923    1.0000 </r>
       <r>   -8.2771    1.0000 </r>
       <r>   -8.1065    1.0000 </r>
       <r>   -7.3601    1.0000 </r>
       <r>   -7.2773    1.0000 </r>
       <r>   -5.1621    1.0000 </r>
       <r>   -4.5112    1.0000 </r>
       <r>   -4.4164    1.0000 </r>
       <r>   -3.4847    1.0000 </r>
       <r>   -3.4778    1.0000 </r>
       <r>   -2.4642    0.0000 </r>
       <r>   -2.2077    0.0000 </r>
       <r>    0.7414    0.0000 </r>
       <r>    0.7624    0.0000 </r>
       <r>    1.2889    0.0000 </r>
       <r>    1.3841    0.0000 </r>
       <r>    1.8677    0.0000 </r>
       <r>    2.1733    0.0000 </r>
       <r>    2.2777    0.0000 </r>
       <r>    2.3158    0.0000 </r>
       <r>    2.5279    0.0000 </r>
       <r>    3.2384    0.0000 </r>
       <r>    3.3251    0.0000 </r>
      </set>
      <set comment="kpoint 536">
       <r>  -10.9421    1.0000 </r>
       <r>  -10.2385    1.0000 </r>
       <r>  -10.1654    1.0000 </r>
       <r>   -9.3751    1.0000 </r>
       <r>   -8.7689    1.0000 </r>
       <r>   -8.7079    1.0000 </r>
       <r>   -8.2484    1.0000 </r>
       <r>   -8.1347    1.0000 </r>
       <r>   -7.3453    1.0000 </r>
       <r>   -7.2902    1.0000 </r>
       <r>   -5.1627    1.0000 </r>
       <r>   -4.4957    1.0000 </r>
       <r>   -4.4324    1.0000 </r>
       <r>   -3.4831    1.0000 </r>
       <r>   -3.4778    1.0000 </r>
       <r>   -2.4227    0.0000 </r>
       <r>   -2.2528    0.0000 </r>
       <r>    0.7422    0.0000 </r>
       <r>    0.7597    0.0000 </r>
       <r>    1.3095    0.0000 </r>
       <r>    1.3653    0.0000 </r>
       <r>    1.8682    0.0000 </r>
       <r>    2.2336    0.0000 </r>
       <r>    2.2829    0.0000 </r>
       <r>    2.3095    0.0000 </r>
       <r>    2.4678    0.0000 </r>
       <r>    3.2548    0.0000 </r>
       <r>    3.3083    0.0000 </r>
      </set>
      <set comment="kpoint 537">
       <r>  -10.9369    1.0000 </r>
       <r>  -10.3250    1.0000 </r>
       <r>  -10.0693    1.0000 </r>
       <r>   -9.3705    1.0000 </r>
       <r>   -8.8416    1.0000 </r>
       <r>   -8.6283    1.0000 </r>
       <r>   -8.3920    1.0000 </r>
       <r>   -7.9953    1.0000 </r>
       <r>   -7.4218    1.0000 </r>
       <r>   -7.2304    1.0000 </r>
       <r>   -5.1574    1.0000 </r>
       <r>   -4.5722    1.0000 </r>
       <r>   -4.3513    1.0000 </r>
       <r>   -3.4970    1.0000 </r>
       <r>   -3.4784    1.0000 </r>
       <r>   -2.6194    0.0000 </r>
       <r>   -2.0249    0.0000 </r>
       <r>    0.7310    0.0000 </r>
       <r>    0.7855    0.0000 </r>
       <r>    1.2246    0.0000 </r>
       <r>    1.4343    0.0000 </r>
       <r>    1.8655    0.0000 </r>
       <r>    1.9416    0.0000 </r>
       <r>    2.2557    0.0000 </r>
       <r>    2.3470    0.0000 </r>
       <r>    2.7578    0.0000 </r>
       <r>    3.1846    0.0000 </r>
       <r>    3.3800    0.0000 </r>
      </set>
      <set comment="kpoint 538">
       <r>  -10.7763    1.0000 </r>
       <r>  -10.2282    1.0000 </r>
       <r>   -9.8723    1.0000 </r>
       <r>   -9.2168    1.0000 </r>
       <r>   -8.7496    1.0000 </r>
       <r>   -8.4583    1.0000 </r>
       <r>   -8.3820    1.0000 </r>
       <r>   -7.8474    1.0000 </r>
       <r>   -7.4053    1.0000 </r>
       <r>   -7.1556    1.0000 </r>
       <r>   -4.9243    1.0000 </r>
       <r>   -4.3927    1.0000 </r>
       <r>   -4.0837    1.0000 </r>
       <r>   -3.3110    1.0000 </r>
       <r>   -3.2791    1.0000 </r>
       <r>   -2.5036    0.0000 </r>
       <r>   -1.6916    0.0000 </r>
       <r>    0.6001    0.0000 </r>
       <r>    0.6812    0.0000 </r>
       <r>    0.9970    0.0000 </r>
       <r>    1.3321    0.0000 </r>
       <r>    1.8394    0.0000 </r>
       <r>    1.9175    0.0000 </r>
       <r>    2.2836    0.0000 </r>
       <r>    2.3825    0.0000 </r>
       <r>    2.8884    0.0000 </r>
       <r>    3.1476    0.0000 </r>
       <r>    3.4710    0.0000 </r>
      </set>
      <set comment="kpoint 539">
       <r>  -10.7620    1.0000 </r>
       <r>  -10.3045    1.0000 </r>
       <r>   -9.7701    1.0000 </r>
       <r>   -9.2044    1.0000 </r>
       <r>   -8.8134    1.0000 </r>
       <r>   -8.5204    1.0000 </r>
       <r>   -8.3767    1.0000 </r>
       <r>   -7.7246    1.0000 </r>
       <r>   -7.4860    1.0000 </r>
       <r>   -7.1186    1.0000 </r>
       <r>   -4.9097    1.0000 </r>
       <r>   -4.4631    1.0000 </r>
       <r>   -4.0017    1.0000 </r>
       <r>   -3.3390    1.0000 </r>
       <r>   -3.2852    1.0000 </r>
       <r>   -2.6610    0.0000 </r>
       <r>   -1.4510    0.0000 </r>
       <r>    0.6007    0.0000 </r>
       <r>    0.7114    0.0000 </r>
       <r>    0.8935    0.0000 </r>
       <r>    1.4084    0.0000 </r>
       <r>    1.5715    0.0000 </r>
       <r>    1.9023    0.0000 </r>
       <r>    2.2755    0.0000 </r>
       <r>    2.4240    0.0000 </r>
       <r>    3.0729    0.0000 </r>
       <r>    3.0981    0.0000 </r>
       <r>    3.5878    0.0000 </r>
      </set>
      <set comment="kpoint 540">
       <r>  -10.7420    1.0000 </r>
       <r>  -10.3754    1.0000 </r>
       <r>   -9.6631    1.0000 </r>
       <r>   -9.1869    1.0000 </r>
       <r>   -8.8731    1.0000 </r>
       <r>   -8.6581    1.0000 </r>
       <r>   -8.2924    1.0000 </r>
       <r>   -7.6109    1.0000 </r>
       <r>   -7.5712    1.0000 </r>
       <r>   -7.0947    1.0000 </r>
       <r>   -4.8894    1.0000 </r>
       <r>   -4.5296    1.0000 </r>
       <r>   -3.9194    1.0000 </r>
       <r>   -3.3760    1.0000 </r>
       <r>   -3.2934    1.0000 </r>
       <r>   -2.7946    0.0000 </r>
       <r>   -1.1997    0.0000 </r>
       <r>    0.6121    0.0000 </r>
       <r>    0.7406    0.0000 </r>
       <r>    0.7684    0.0000 </r>
       <r>    1.3252    0.0000 </r>
       <r>    1.4811    0.0000 </r>
       <r>    1.8807    0.0000 </r>
       <r>    2.2727    0.0000 </r>
       <r>    2.4714    0.0000 </r>
       <r>    2.9986    0.0000 </r>
       <r>    3.2579    0.0000 </r>
       <r>    3.7380    0.0000 </r>
      </set>
      <set comment="kpoint 541">
       <r>  -10.7162    1.0000 </r>
       <r>  -10.4408    1.0000 </r>
       <r>   -9.5514    1.0000 </r>
       <r>   -9.1646    1.0000 </r>
       <r>   -8.9284    1.0000 </r>
       <r>   -8.7942    1.0000 </r>
       <r>   -8.2056    1.0000 </r>
       <r>   -7.6594    1.0000 </r>
       <r>   -7.5096    1.0000 </r>
       <r>   -7.0842    1.0000 </r>
       <r>   -4.8633    1.0000 </r>
       <r>   -4.5919    1.0000 </r>
       <r>   -3.8378    1.0000 </r>
       <r>   -3.4220    1.0000 </r>
       <r>   -3.3019    1.0000 </r>
       <r>   -2.9020    0.0000 </r>
       <r>   -0.9398    0.0000 </r>
       <r>    0.6042    0.0000 </r>
       <r>    0.6349    0.0000 </r>
       <r>    0.7663    0.0000 </r>
       <r>    1.1209    0.0000 </r>
       <r>    1.5497    0.0000 </r>
       <r>    1.8527    0.0000 </r>
       <r>    2.2738    0.0000 </r>
       <r>    2.5243    0.0000 </r>
       <r>    2.9248    0.0000 </r>
       <r>    3.3702    0.0000 </r>
       <r>    3.7042    0.0000 </r>
      </set>
      <set comment="kpoint 542">
       <r>  -10.6847    1.0000 </r>
       <r>  -10.5007    1.0000 </r>
       <r>   -9.4352    1.0000 </r>
       <r>   -9.1373    1.0000 </r>
       <r>   -8.9793    1.0000 </r>
       <r>   -8.9282    1.0000 </r>
       <r>   -8.1168    1.0000 </r>
       <r>   -7.7497    1.0000 </r>
       <r>   -7.4254    1.0000 </r>
       <r>   -7.0856    1.0000 </r>
       <r>   -4.8316    1.0000 </r>
       <r>   -4.6497    1.0000 </r>
       <r>   -3.7578    1.0000 </r>
       <r>   -3.4763    1.0000 </r>
       <r>   -3.3091    1.0000 </r>
       <r>   -2.9810    0.0000 </r>
       <r>   -0.6732    0.0000 </r>
       <r>    0.3913    0.0000 </r>
       <r>    0.6696    0.0000 </r>
       <r>    0.7864    0.0000 </r>
       <r>    0.9704    0.0000 </r>
       <r>    1.6137    0.0000 </r>
       <r>    1.8183    0.0000 </r>
       <r>    2.2767    0.0000 </r>
       <r>    2.5822    0.0000 </r>
       <r>    2.8520    0.0000 </r>
       <r>    3.4518    0.0000 </r>
       <r>    3.6667    0.0000 </r>
      </set>
      <set comment="kpoint 543">
       <r>  -10.6475    1.0000 </r>
       <r>  -10.5550    1.0000 </r>
       <r>   -9.3149    1.0000 </r>
       <r>   -9.1052    1.0000 </r>
       <r>   -9.0595    1.0000 </r>
       <r>   -9.0257    1.0000 </r>
       <r>   -8.0265    1.0000 </r>
       <r>   -7.8412    1.0000 </r>
       <r>   -7.3661    1.0000 </r>
       <r>   -7.0940    1.0000 </r>
       <r>   -4.7944    1.0000 </r>
       <r>   -4.7027    1.0000 </r>
       <r>   -3.6806    1.0000 </r>
       <r>   -3.5379    1.0000 </r>
       <r>   -3.3138    1.0000 </r>
       <r>   -3.0295    0.0000 </r>
       <r>   -0.4024    0.0000 </r>
       <r>    0.1428    0.0000 </r>
       <r>    0.7169    0.0000 </r>
       <r>    0.7991    0.0000 </r>
       <r>    0.8633    0.0000 </r>
       <r>    1.6727    0.0000 </r>
       <r>    1.7775    0.0000 </r>
       <r>    2.2795    0.0000 </r>
       <r>    2.6442    0.0000 </r>
       <r>    2.7808    0.0000 </r>
       <r>    3.5166    0.0000 </r>
       <r>    3.6241    0.0000 </r>
      </set>
      <set comment="kpoint 544">
       <r>  -10.6047    1.0000 </r>
       <r>  -10.6036    1.0000 </r>
       <r>   -9.1905    1.0000 </r>
       <r>   -9.1875    1.0000 </r>
       <r>   -9.0683    1.0000 </r>
       <r>   -9.0674    1.0000 </r>
       <r>   -7.9351    1.0000 </r>
       <r>   -7.9330    1.0000 </r>
       <r>   -7.3435    1.0000 </r>
       <r>   -7.0991    1.0000 </r>
       <r>   -4.7518    1.0000 </r>
       <r>   -4.7507    1.0000 </r>
       <r>   -3.6073    1.0000 </r>
       <r>   -3.6059    1.0000 </r>
       <r>   -3.3155    1.0000 </r>
       <r>   -3.0461    0.0003 </r>
       <r>   -0.1312    0.0000 </r>
       <r>   -0.1228    0.0000 </r>
       <r>    0.7782    0.0000 </r>
       <r>    0.7835    0.0000 </r>
       <r>    0.8035    0.0000 </r>
       <r>    1.7261    0.0000 </r>
       <r>    1.7306    0.0000 </r>
       <r>    2.2807    0.0000 </r>
       <r>    2.7099    0.0000 </r>
       <r>    2.7119    0.0000 </r>
       <r>    3.5715    0.0000 </r>
       <r>    3.5761    0.0000 </r>
      </set>
      <set comment="kpoint 545">
       <r>  -10.6466    1.0000 </r>
       <r>  -10.5562    1.0000 </r>
       <r>   -9.3119    1.0000 </r>
       <r>   -9.1044    1.0000 </r>
       <r>   -9.0626    1.0000 </r>
       <r>   -9.0267    1.0000 </r>
       <r>   -8.0243    1.0000 </r>
       <r>   -7.8434    1.0000 </r>
       <r>   -7.3651    1.0000 </r>
       <r>   -7.0941    1.0000 </r>
       <r>   -4.7934    1.0000 </r>
       <r>   -4.7039    1.0000 </r>
       <r>   -3.6790    1.0000 </r>
       <r>   -3.5392    1.0000 </r>
       <r>   -3.3140    1.0000 </r>
       <r>   -3.0304    0.0000 </r>
       <r>   -0.3943    0.0000 </r>
       <r>    0.1344    0.0000 </r>
       <r>    0.7217    0.0000 </r>
       <r>    0.7991    0.0000 </r>
       <r>    0.8576    0.0000 </r>
       <r>    1.6777    0.0000 </r>
       <r>    1.7736    0.0000 </r>
       <r>    2.2797    0.0000 </r>
       <r>    2.6459    0.0000 </r>
       <r>    2.7786    0.0000 </r>
       <r>    3.5214    0.0000 </r>
       <r>    3.6198    0.0000 </r>
      </set>
      <set comment="kpoint 546">
       <r>  -10.6839    1.0000 </r>
       <r>  -10.5020    1.0000 </r>
       <r>   -9.4324    1.0000 </r>
       <r>   -9.1367    1.0000 </r>
       <r>   -8.9804    1.0000 </r>
       <r>   -8.9314    1.0000 </r>
       <r>   -8.1147    1.0000 </r>
       <r>   -7.7519    1.0000 </r>
       <r>   -7.4236    1.0000 </r>
       <r>   -7.0857    1.0000 </r>
       <r>   -4.8307    1.0000 </r>
       <r>   -4.6510    1.0000 </r>
       <r>   -3.7561    1.0000 </r>
       <r>   -3.4773    1.0000 </r>
       <r>   -3.3095    1.0000 </r>
       <r>   -2.9827    0.0000 </r>
       <r>   -0.6652    0.0000 </r>
       <r>    0.3829    0.0000 </r>
       <r>    0.6740    0.0000 </r>
       <r>    0.7863    0.0000 </r>
       <r>    0.9642    0.0000 </r>
       <r>    1.6192    0.0000 </r>
       <r>    1.8149    0.0000 </r>
       <r>    2.2770    0.0000 </r>
       <r>    2.5836    0.0000 </r>
       <r>    2.8495    0.0000 </r>
       <r>    3.4570    0.0000 </r>
       <r>    3.6628    0.0000 </r>
      </set>
      <set comment="kpoint 547">
       <r>  -10.7155    1.0000 </r>
       <r>  -10.4423    1.0000 </r>
       <r>   -9.5487    1.0000 </r>
       <r>   -9.1640    1.0000 </r>
       <r>   -8.9296    1.0000 </r>
       <r>   -8.7975    1.0000 </r>
       <r>   -8.2035    1.0000 </r>
       <r>   -7.6616    1.0000 </r>
       <r>   -7.5073    1.0000 </r>
       <r>   -7.0840    1.0000 </r>
       <r>   -4.8626    1.0000 </r>
       <r>   -4.5934    1.0000 </r>
       <r>   -3.8360    1.0000 </r>
       <r>   -3.4228    1.0000 </r>
       <r>   -3.3024    1.0000 </r>
       <r>   -2.9045    0.0000 </r>
       <r>   -0.9321    0.0000 </r>
       <r>    0.5961    0.0000 </r>
       <r>    0.6388    0.0000 </r>
       <r>    0.7662    0.0000 </r>
       <r>    1.1139    0.0000 </r>
       <r>    1.5555    0.0000 </r>
       <r>    1.8498    0.0000 </r>
       <r>    2.2742    0.0000 </r>
       <r>    2.5255    0.0000 </r>
       <r>    2.9220    0.0000 </r>
       <r>    3.3758    0.0000 </r>
       <r>    3.7007    0.0000 </r>
      </set>
      <set comment="kpoint 548">
       <r>  -10.7414    1.0000 </r>
       <r>  -10.3770    1.0000 </r>
       <r>   -9.6604    1.0000 </r>
       <r>   -9.1865    1.0000 </r>
       <r>   -8.8744    1.0000 </r>
       <r>   -8.6614    1.0000 </r>
       <r>   -8.2904    1.0000 </r>
       <r>   -7.6083    1.0000 </r>
       <r>   -7.5733    1.0000 </r>
       <r>   -7.0942    1.0000 </r>
       <r>   -4.8888    1.0000 </r>
       <r>   -4.5312    1.0000 </r>
       <r>   -3.9176    1.0000 </r>
       <r>   -3.3766    1.0000 </r>
       <r>   -3.2940    1.0000 </r>
       <r>   -2.7978    0.0000 </r>
       <r>   -1.1924    0.0000 </r>
       <r>    0.6154    0.0000 </r>
       <r>    0.7403    0.0000 </r>
       <r>    0.7608    0.0000 </r>
       <r>    1.3175    0.0000 </r>
       <r>    1.4872    0.0000 </r>
       <r>    1.8784    0.0000 </r>
       <r>    2.2732    0.0000 </r>
       <r>    2.4723    0.0000 </r>
       <r>    2.9956    0.0000 </r>
       <r>    3.2644    0.0000 </r>
       <r>    3.7374    0.0000 </r>
      </set>
      <set comment="kpoint 549">
       <r>  -10.7616    1.0000 </r>
       <r>  -10.3063    1.0000 </r>
       <r>   -9.7676    1.0000 </r>
       <r>   -9.2040    1.0000 </r>
       <r>   -8.8148    1.0000 </r>
       <r>   -8.5238    1.0000 </r>
       <r>   -8.3748    1.0000 </r>
       <r>   -7.7217    1.0000 </r>
       <r>   -7.4881    1.0000 </r>
       <r>   -7.1178    1.0000 </r>
       <r>   -4.9093    1.0000 </r>
       <r>   -4.4647    1.0000 </r>
       <r>   -3.9998    1.0000 </r>
       <r>   -3.3392    1.0000 </r>
       <r>   -3.2858    1.0000 </r>
       <r>   -2.6649    0.0000 </r>
       <r>   -1.4440    0.0000 </r>
       <r>    0.6035    0.0000 </r>
       <r>    0.7109    0.0000 </r>
       <r>    0.8862    0.0000 </r>
       <r>    1.4148    0.0000 </r>
       <r>    1.5633    0.0000 </r>
       <r>    1.9005    0.0000 </r>
       <r>    2.2759    0.0000 </r>
       <r>    2.4246    0.0000 </r>
       <r>    3.0698    0.0000 </r>
       <r>    3.1056    0.0000 </r>
       <r>    3.5930    0.0000 </r>
      </set>
      <set comment="kpoint 550">
       <r>  -10.7761    1.0000 </r>
       <r>  -10.2300    1.0000 </r>
       <r>   -9.8699    1.0000 </r>
       <r>   -9.2166    1.0000 </r>
       <r>   -8.7511    1.0000 </r>
       <r>   -8.4564    1.0000 </r>
       <r>   -8.3854    1.0000 </r>
       <r>   -7.8443    1.0000 </r>
       <r>   -7.4072    1.0000 </r>
       <r>   -7.1545    1.0000 </r>
       <r>   -4.9240    1.0000 </r>
       <r>   -4.3944    1.0000 </r>
       <r>   -4.0819    1.0000 </r>
       <r>   -3.3110    1.0000 </r>
       <r>   -3.2798    1.0000 </r>
       <r>   -2.5082    0.0000 </r>
       <r>   -1.6850    0.0000 </r>
       <r>    0.6025    0.0000 </r>
       <r>    0.6805    0.0000 </r>
       <r>    0.9898    0.0000 </r>
       <r>    1.3388    0.0000 </r>
       <r>    1.8308    0.0000 </r>
       <r>    1.9164    0.0000 </r>
       <r>    2.2839    0.0000 </r>
       <r>    2.3830    0.0000 </r>
       <r>    2.8966    0.0000 </r>
       <r>    3.1443    0.0000 </r>
       <r>    3.4755    0.0000 </r>
      </set>
      <set comment="kpoint 551">
       <r>  -10.7848    1.0000 </r>
       <r>  -10.1484    1.0000 </r>
       <r>   -9.9672    1.0000 </r>
       <r>   -9.2241    1.0000 </r>
       <r>   -8.6834    1.0000 </r>
       <r>   -8.5350    1.0000 </r>
       <r>   -8.2473    1.0000 </r>
       <r>   -7.9735    1.0000 </r>
       <r>   -7.3320    1.0000 </r>
       <r>   -7.2032    1.0000 </r>
       <r>   -4.9328    1.0000 </r>
       <r>   -4.3206    1.0000 </r>
       <r>   -4.1628    1.0000 </r>
       <r>   -3.2917    1.0000 </r>
       <r>   -3.2776    1.0000 </r>
       <r>   -2.3301    0.0000 </r>
       <r>   -1.9135    0.0000 </r>
       <r>    0.6113    0.0000 </r>
       <r>    0.6518    0.0000 </r>
       <r>    1.0827    0.0000 </r>
       <r>    1.2593    0.0000 </r>
       <r>    1.9259    0.0000 </r>
       <r>    2.1059    0.0000 </r>
       <r>    2.2983    0.0000 </r>
       <r>    2.3478    0.0000 </r>
       <r>    2.6524    0.0000 </r>
       <r>    3.2194    0.0000 </r>
       <r>    3.3820    0.0000 </r>
      </set>
      <set comment="kpoint 552">
       <r>  -10.7877    1.0000 </r>
       <r>  -10.0616    1.0000 </r>
       <r>  -10.0594    1.0000 </r>
       <r>   -9.2267    1.0000 </r>
       <r>   -8.6119    1.0000 </r>
       <r>   -8.6102    1.0000 </r>
       <r>   -8.1106    1.0000 </r>
       <r>   -8.1073    1.0000 </r>
       <r>   -7.2639    1.0000 </r>
       <r>   -7.2623    1.0000 </r>
       <r>   -4.9359    1.0000 </r>
       <r>   -4.2439    1.0000 </r>
       <r>   -4.2420    1.0000 </r>
       <r>   -3.2812    1.0000 </r>
       <r>   -3.2808    1.0000 </r>
       <r>   -2.1332    0.0000 </r>
       <r>   -2.1275    0.0000 </r>
       <r>    0.6273    0.0000 </r>
       <r>    0.6287    0.0000 </r>
       <r>    1.1696    0.0000 </r>
       <r>    1.1766    0.0000 </r>
       <r>    1.9293    0.0000 </r>
       <r>    2.3194    0.0000 </r>
       <r>    2.3194    0.0000 </r>
       <r>    2.3795    0.0000 </r>
       <r>    2.3883    0.0000 </r>
       <r>    3.2963    0.0000 </r>
       <r>    3.3001    0.0000 </r>
      </set>
      <set comment="kpoint 553">
       <r>  -10.7849    1.0000 </r>
       <r>  -10.1464    1.0000 </r>
       <r>   -9.9695    1.0000 </r>
       <r>   -9.2243    1.0000 </r>
       <r>   -8.6818    1.0000 </r>
       <r>   -8.5368    1.0000 </r>
       <r>   -8.2440    1.0000 </r>
       <r>   -7.9768    1.0000 </r>
       <r>   -7.3302    1.0000 </r>
       <r>   -7.2046    1.0000 </r>
       <r>   -4.9330    1.0000 </r>
       <r>   -4.3188    1.0000 </r>
       <r>   -4.1647    1.0000 </r>
       <r>   -3.2920    1.0000 </r>
       <r>   -3.2771    1.0000 </r>
       <r>   -2.3250    0.0000 </r>
       <r>   -1.9196    0.0000 </r>
       <r>    0.6095    0.0000 </r>
       <r>    0.6528    0.0000 </r>
       <r>    1.0898    0.0000 </r>
       <r>    1.2525    0.0000 </r>
       <r>    1.9265    0.0000 </r>
       <r>    2.1146    0.0000 </r>
       <r>    2.2981    0.0000 </r>
       <r>    2.3476    0.0000 </r>
       <r>    2.6438    0.0000 </r>
       <r>    3.2230    0.0000 </r>
       <r>    3.3780    0.0000 </r>
      </set>
      <set comment="kpoint 554">
       <r>  -10.6230    1.0000 </r>
       <r>  -10.0493    1.0000 </r>
       <r>   -9.7734    1.0000 </r>
       <r>   -9.0710    1.0000 </r>
       <r>   -8.5916    1.0000 </r>
       <r>   -8.3705    1.0000 </r>
       <r>   -8.2384    1.0000 </r>
       <r>   -7.8371    1.0000 </r>
       <r>   -7.3182    1.0000 </r>
       <r>   -7.1346    1.0000 </r>
       <r>   -4.6957    1.0000 </r>
       <r>   -4.1352    1.0000 </r>
       <r>   -3.8935    1.0000 </r>
       <r>   -3.1027    0.7129 </r>
       <r>   -3.0739    0.0702 </r>
       <r>   -2.2063    0.0000 </r>
       <r>   -1.5868    0.0000 </r>
       <r>    0.4812    0.0000 </r>
       <r>    0.5516    0.0000 </r>
       <r>    0.8605    0.0000 </r>
       <r>    1.1390    0.0000 </r>
       <r>    1.9621    0.0000 </r>
       <r>    1.9772    0.0000 </r>
       <r>    2.3147    0.0000 </r>
       <r>    2.3692    0.0000 </r>
       <r>    2.7216    0.0000 </r>
       <r>    3.2056    0.0000 </r>
       <r>    3.5121    0.0000 </r>
      </set>
      <set comment="kpoint 555">
       <r>  -10.6113    1.0000 </r>
       <r>  -10.1262    1.0000 </r>
       <r>   -9.6757    1.0000 </r>
       <r>   -9.0610    1.0000 </r>
       <r>   -8.6544    1.0000 </r>
       <r>   -8.3704    1.0000 </r>
       <r>   -8.2938    1.0000 </r>
       <r>   -7.7201    1.0000 </r>
       <r>   -7.3910    1.0000 </r>
       <r>   -7.0954    1.0000 </r>
       <r>   -4.6836    1.0000 </r>
       <r>   -4.2062    1.0000 </r>
       <r>   -3.8132    1.0000 </r>
       <r>   -3.1264    0.9873 </r>
       <r>   -3.0751    0.0824 </r>
       <r>   -2.3670    0.0000 </r>
       <r>   -1.3615    0.0000 </r>
       <r>    0.4738    0.0000 </r>
       <r>    0.5800    0.0000 </r>
       <r>    0.7678    0.0000 </r>
       <r>    1.2277    0.0000 </r>
       <r>    1.7200    0.0000 </r>
       <r>    1.9414    0.0000 </r>
       <r>    2.3129    0.0000 </r>
       <r>    2.4024    0.0000 </r>
       <r>    2.9135    0.0000 </r>
       <r>    3.1189    0.0000 </r>
       <r>    3.6342    0.0000 </r>
      </set>
      <set comment="kpoint 556">
       <r>  -10.5940    1.0000 </r>
       <r>  -10.1978    1.0000 </r>
       <r>   -9.5732    1.0000 </r>
       <r>   -9.0461    1.0000 </r>
       <r>   -8.7133    1.0000 </r>
       <r>   -8.5026    1.0000 </r>
       <r>   -8.2145    1.0000 </r>
       <r>   -7.6116    1.0000 </r>
       <r>   -7.4686    1.0000 </r>
       <r>   -7.0674    1.0000 </r>
       <r>   -4.6658    1.0000 </r>
       <r>   -4.2736    1.0000 </r>
       <r>   -3.7326    1.0000 </r>
       <r>   -3.1584    1.0000 </r>
       <r>   -3.0784    0.1231 </r>
       <r>   -2.5063    0.0000 </r>
       <r>   -1.1261    0.0000 </r>
       <r>    0.4767    0.0000 </r>
       <r>    0.6074    0.0000 </r>
       <r>    0.6705    0.0000 </r>
       <r>    1.3152    0.0000 </r>
       <r>    1.4650    0.0000 </r>
       <r>    1.9109    0.0000 </r>
       <r>    2.3167    0.0000 </r>
       <r>    2.4429    0.0000 </r>
       <r>    3.0350    0.0000 </r>
       <r>    3.0725    0.0000 </r>
       <r>    3.6152    0.0000 </r>
      </set>
      <set comment="kpoint 557">
       <r>  -10.5710    1.0000 </r>
       <r>  -10.2641    1.0000 </r>
       <r>   -9.4663    1.0000 </r>
       <r>   -9.0265    1.0000 </r>
       <r>   -8.7682    1.0000 </r>
       <r>   -8.6340    1.0000 </r>
       <r>   -8.1329    1.0000 </r>
       <r>   -7.5497    1.0000 </r>
       <r>   -7.5146    1.0000 </r>
       <r>   -7.0509    1.0000 </r>
       <r>   -4.6422    1.0000 </r>
       <r>   -4.3370    1.0000 </r>
       <r>   -3.6524    1.0000 </r>
       <r>   -3.1989    1.0000 </r>
       <r>   -3.0820    0.1837 </r>
       <r>   -2.6221    0.0000 </r>
       <r>   -0.8828    0.0000 </r>
       <r>    0.4913    0.0000 </r>
       <r>    0.5625    0.0000 </r>
       <r>    0.6319    0.0000 </r>
       <r>    1.2217    0.0000 </r>
       <r>    1.4008    0.0000 </r>
       <r>    1.8711    0.0000 </r>
       <r>    2.3242    0.0000 </r>
       <r>    2.4902    0.0000 </r>
       <r>    2.9535    0.0000 </r>
       <r>    3.1980    0.0000 </r>
       <r>    3.5895    0.0000 </r>
      </set>
      <set comment="kpoint 558">
       <r>  -10.5424    1.0000 </r>
       <r>  -10.3250    1.0000 </r>
       <r>   -9.3551    1.0000 </r>
       <r>   -9.0022    1.0000 </r>
       <r>   -8.8190    1.0000 </r>
       <r>   -8.7640    1.0000 </r>
       <r>   -8.0494    1.0000 </r>
       <r>   -7.6335    1.0000 </r>
       <r>   -7.4329    1.0000 </r>
       <r>   -7.0449    1.0000 </r>
       <r>   -4.6130    1.0000 </r>
       <r>   -4.3961    1.0000 </r>
       <r>   -3.5736    1.0000 </r>
       <r>   -3.2477    1.0000 </r>
       <r>   -3.0848    0.2401 </r>
       <r>   -2.7120    0.0000 </r>
       <r>   -0.6346    0.0000 </r>
       <r>    0.4322    0.0000 </r>
       <r>    0.5193    0.0000 </r>
       <r>    0.6517    0.0000 </r>
       <r>    1.0046    0.0000 </r>
       <r>    1.4838    0.0000 </r>
       <r>    1.8224    0.0000 </r>
       <r>    2.3331    0.0000 </r>
       <r>    2.5438    0.0000 </r>
       <r>    2.8746    0.0000 </r>
       <r>    3.2952    0.0000 </r>
       <r>    3.5584    0.0000 </r>
      </set>
      <set comment="kpoint 559">
       <r>  -10.5082    1.0000 </r>
       <r>  -10.3805    1.0000 </r>
       <r>   -9.2397    1.0000 </r>
       <r>   -8.9731    1.0000 </r>
       <r>   -8.8918    1.0000 </r>
       <r>   -8.8654    1.0000 </r>
       <r>   -7.9644    1.0000 </r>
       <r>   -7.7189    1.0000 </r>
       <r>   -7.3722    1.0000 </r>
       <r>   -7.0465    1.0000 </r>
       <r>   -4.5784    1.0000 </r>
       <r>   -4.4506    1.0000 </r>
       <r>   -3.4973    1.0000 </r>
       <r>   -3.3040    1.0000 </r>
       <r>   -3.0861    0.2703 </r>
       <r>   -2.7734    0.0000 </r>
       <r>   -0.3850    0.0000 </r>
       <r>    0.2653    0.0000 </r>
       <r>    0.5630    0.0000 </r>
       <r>    0.6654    0.0000 </r>
       <r>    0.8307    0.0000 </r>
       <r>    1.5633    0.0000 </r>
       <r>    1.7658    0.0000 </r>
       <r>    2.3408    0.0000 </r>
       <r>    2.6032    0.0000 </r>
       <r>    2.7987    0.0000 </r>
       <r>    3.3712    0.0000 </r>
       <r>    3.5216    0.0000 </r>
      </set>
      <set comment="kpoint 560">
       <r>  -10.4685    1.0000 </r>
       <r>  -10.4304    1.0000 </r>
       <r>   -9.1207    1.0000 </r>
       <r>   -9.0170    1.0000 </r>
       <r>   -8.9395    1.0000 </r>
       <r>   -8.9074    1.0000 </r>
       <r>   -7.8784    1.0000 </r>
       <r>   -7.8052    1.0000 </r>
       <r>   -7.3399    1.0000 </r>
       <r>   -7.0499    1.0000 </r>
       <r>   -4.5383    1.0000 </r>
       <r>   -4.5002    1.0000 </r>
       <r>   -3.4246    1.0000 </r>
       <r>   -3.3670    1.0000 </r>
       <r>   -3.0864    0.2778 </r>
       <r>   -2.8039    0.0000 </r>
       <r>   -0.1402    0.0000 </r>
       <r>    0.0589    0.0000 </r>
       <r>    0.6267    0.0000 </r>
       <r>    0.6721    0.0000 </r>
       <r>    0.7055    0.0000 </r>
       <r>    1.6384    0.0000 </r>
       <r>    1.7018    0.0000 </r>
       <r>    2.3451    0.0000 </r>
       <r>    2.6676    0.0000 </r>
       <r>    2.7262    0.0000 </r>
       <r>    3.4322    0.0000 </r>
       <r>    3.4783    0.0000 </r>
      </set>
      <set comment="kpoint 561">
       <r>  -10.4749    1.0000 </r>
       <r>  -10.4232    1.0000 </r>
       <r>   -9.1390    1.0000 </r>
       <r>   -8.9981    1.0000 </r>
       <r>   -8.9449    1.0000 </r>
       <r>   -8.9012    1.0000 </r>
       <r>   -7.8916    1.0000 </r>
       <r>   -7.7920    1.0000 </r>
       <r>   -7.3426    1.0000 </r>
       <r>   -7.0495    1.0000 </r>
       <r>   -4.5447    1.0000 </r>
       <r>   -4.4930    1.0000 </r>
       <r>   -3.4357    1.0000 </r>
       <r>   -3.3567    1.0000 </r>
       <r>   -3.0865    0.2794 </r>
       <r>   -2.8014    0.0000 </r>
       <r>   -0.1747    0.0000 </r>
       <r>    0.0898    0.0000 </r>
       <r>    0.6189    0.0000 </r>
       <r>    0.6714    0.0000 </r>
       <r>    0.7185    0.0000 </r>
       <r>    1.6316    0.0000 </r>
       <r>    1.7081    0.0000 </r>
       <r>    2.3448    0.0000 </r>
       <r>    2.6578    0.0000 </r>
       <r>    2.7366    0.0000 </r>
       <r>    3.4268    0.0000 </r>
       <r>    3.4825    0.0000 </r>
      </set>
      <set comment="kpoint 562">
       <r>  -10.5138    1.0000 </r>
       <r>  -10.3723    1.0000 </r>
       <r>   -9.2576    1.0000 </r>
       <r>   -8.9779    1.0000 </r>
       <r>   -8.8725    1.0000 </r>
       <r>   -8.8585    1.0000 </r>
       <r>   -7.9774    1.0000 </r>
       <r>   -7.7058    1.0000 </r>
       <r>   -7.3798    1.0000 </r>
       <r>   -7.0459    1.0000 </r>
       <r>   -4.5840    1.0000 </r>
       <r>   -4.4426    1.0000 </r>
       <r>   -3.5090    1.0000 </r>
       <r>   -3.2945    1.0000 </r>
       <r>   -3.0862    0.2728 </r>
       <r>   -2.7662    0.0000 </r>
       <r>   -0.4210    0.0000 </r>
       <r>    0.2901    0.0000 </r>
       <r>    0.5585    0.0000 </r>
       <r>    0.6634    0.0000 </r>
       <r>    0.8509    0.0000 </r>
       <r>    1.5561    0.0000 </r>
       <r>    1.7713    0.0000 </r>
       <r>    2.3400    0.0000 </r>
       <r>    2.5939    0.0000 </r>
       <r>    2.8095    0.0000 </r>
       <r>    3.3640    0.0000 </r>
       <r>    3.5249    0.0000 </r>
      </set>
      <set comment="kpoint 563">
       <r>  -10.5471    1.0000 </r>
       <r>  -10.3161    1.0000 </r>
       <r>   -9.3723    1.0000 </r>
       <r>   -9.0062    1.0000 </r>
       <r>   -8.8114    1.0000 </r>
       <r>   -8.7443    1.0000 </r>
       <r>   -8.0623    1.0000 </r>
       <r>   -7.6206    1.0000 </r>
       <r>   -7.4442    1.0000 </r>
       <r>   -7.0451    1.0000 </r>
       <r>   -4.6178    1.0000 </r>
       <r>   -4.3874    1.0000 </r>
       <r>   -3.5857    1.0000 </r>
       <r>   -3.2393    1.0000 </r>
       <r>   -3.0848    0.2405 </r>
       <r>   -2.7003    0.0000 </r>
       <r>   -0.6709    0.0000 </r>
       <r>    0.4501    0.0000 </r>
       <r>    0.5172    0.0000 </r>
       <r>    0.6485    0.0000 </r>
       <r>    1.0325    0.0000 </r>
       <r>    1.4763    0.0000 </r>
       <r>    1.8273    0.0000 </r>
       <r>    2.3321    0.0000 </r>
       <r>    2.5353    0.0000 </r>
       <r>    2.8857    0.0000 </r>
       <r>    3.2854    0.0000 </r>
       <r>    3.5610    0.0000 </r>
      </set>
      <set comment="kpoint 564">
       <r>  -10.5749    1.0000 </r>
       <r>  -10.2543    1.0000 </r>
       <r>   -9.4829    1.0000 </r>
       <r>   -9.0298    1.0000 </r>
       <r>   -8.7601    1.0000 </r>
       <r>   -8.6141    1.0000 </r>
       <r>   -8.1455    1.0000 </r>
       <r>   -7.5372    1.0000 </r>
       <r>   -7.5285    1.0000 </r>
       <r>   -7.0526    1.0000 </r>
       <r>   -4.6461    1.0000 </r>
       <r>   -4.3276    1.0000 </r>
       <r>   -3.6647    1.0000 </r>
       <r>   -3.1917    1.0000 </r>
       <r>   -3.0820    0.1823 </r>
       <r>   -2.6065    0.0000 </r>
       <r>   -0.9188    0.0000 </r>
       <r>    0.4912    0.0000 </r>
       <r>    0.5755    0.0000 </r>
       <r>    0.6277    0.0000 </r>
       <r>    1.2549    0.0000 </r>
       <r>    1.3930    0.0000 </r>
       <r>    1.8751    0.0000 </r>
       <r>    2.3233    0.0000 </r>
       <r>    2.4824    0.0000 </r>
       <r>    2.9649    0.0000 </r>
       <r>    3.1845    0.0000 </r>
       <r>    3.5916    0.0000 </r>
      </set>
      <set comment="kpoint 565">
       <r>  -10.5970    1.0000 </r>
       <r>  -10.1872    1.0000 </r>
       <r>   -9.5891    1.0000 </r>
       <r>   -9.0487    1.0000 </r>
       <r>   -8.7045    1.0000 </r>
       <r>   -8.4825    1.0000 </r>
       <r>   -8.2268    1.0000 </r>
       <r>   -7.6274    1.0000 </r>
       <r>   -7.4566    1.0000 </r>
       <r>   -7.0709    1.0000 </r>
       <r>   -4.6688    1.0000 </r>
       <r>   -4.2636    1.0000 </r>
       <r>   -3.7450    1.0000 </r>
       <r>   -3.1524    1.0000 </r>
       <r>   -3.0783    0.1227 </r>
       <r>   -2.4871    0.0000 </r>
       <r>   -1.1612    0.0000 </r>
       <r>    0.4782    0.0000 </r>
       <r>    0.6024    0.0000 </r>
       <r>    0.6810    0.0000 </r>
       <r>    1.3071    0.0000 </r>
       <r>    1.5009    0.0000 </r>
       <r>    1.9141    0.0000 </r>
       <r>    2.3162    0.0000 </r>
       <r>    2.4360    0.0000 </r>
       <r>    3.0466    0.0000 </r>
       <r>    3.0541    0.0000 </r>
       <r>    3.6192    0.0000 </r>
      </set>
      <set comment="kpoint 566">
       <r>  -10.6135    1.0000 </r>
       <r>  -10.1148    1.0000 </r>
       <r>   -9.6909    1.0000 </r>
       <r>   -9.0628    1.0000 </r>
       <r>   -8.6450    1.0000 </r>
       <r>   -8.3503    1.0000 </r>
       <r>   -8.3057    1.0000 </r>
       <r>   -7.7374    1.0000 </r>
       <r>   -7.3797    1.0000 </r>
       <r>   -7.1006    1.0000 </r>
       <r>   -4.6858    1.0000 </r>
       <r>   -4.1956    1.0000 </r>
       <r>   -3.8256    1.0000 </r>
       <r>   -3.1216    0.9712 </r>
       <r>   -3.0754    0.0849 </r>
       <r>   -2.3444    0.0000 </r>
       <r>   -1.3953    0.0000 </r>
       <r>    0.4767    0.0000 </r>
       <r>    0.5744    0.0000 </r>
       <r>    0.7771    0.0000 </r>
       <r>    1.2195    0.0000 </r>
       <r>    1.7566    0.0000 </r>
       <r>    1.9437    0.0000 </r>
       <r>    2.3133    0.0000 </r>
       <r>    2.3965    0.0000 </r>
       <r>    2.8899    0.0000 </r>
       <r>    3.1308    0.0000 </r>
       <r>    3.6285    0.0000 </r>
      </set>
      <set comment="kpoint 567">
       <r>  -10.6243    1.0000 </r>
       <r>  -10.0371    1.0000 </r>
       <r>   -9.7879    1.0000 </r>
       <r>   -9.0721    1.0000 </r>
       <r>   -8.5817    1.0000 </r>
       <r>   -8.3820    1.0000 </r>
       <r>   -8.2185    1.0000 </r>
       <r>   -7.8555    1.0000 </r>
       <r>   -7.3077    1.0000 </r>
       <r>   -7.1413    1.0000 </r>
       <r>   -4.6970    1.0000 </r>
       <r>   -4.1241    1.0000 </r>
       <r>   -3.9056    1.0000 </r>
       <r>   -3.0992    0.6223 </r>
       <r>   -3.0747    0.0775 </r>
       <r>   -2.1809    0.0000 </r>
       <r>   -1.6191    0.0000 </r>
       <r>    0.4852    0.0000 </r>
       <r>    0.5460    0.0000 </r>
       <r>    0.8692    0.0000 </r>
       <r>    1.1307    0.0000 </r>
       <r>    1.9635    0.0000 </r>
       <r>    2.0133    0.0000 </r>
       <r>    2.3161    0.0000 </r>
       <r>    2.3644    0.0000 </r>
       <r>    2.6932    0.0000 </r>
       <r>    3.2178    0.0000 </r>
       <r>    3.4964    0.0000 </r>
      </set>
      <set comment="kpoint 568">
       <r>  -10.6295    1.0000 </r>
       <r>   -9.9542    1.0000 </r>
       <r>   -9.8800    1.0000 </r>
       <r>   -9.0766    1.0000 </r>
       <r>   -8.5146    1.0000 </r>
       <r>   -8.4552    1.0000 </r>
       <r>   -8.0881    1.0000 </r>
       <r>   -7.9796    1.0000 </r>
       <r>   -7.2420    1.0000 </r>
       <r>   -7.1921    1.0000 </r>
       <r>   -4.7024    1.0000 </r>
       <r>   -4.0495    1.0000 </r>
       <r>   -3.9844    1.0000 </r>
       <r>   -3.0845    0.2332 </r>
       <r>   -3.0780    0.1176 </r>
       <r>   -1.9986    0.0000 </r>
       <r>   -1.8302    0.0000 </r>
       <r>    0.5020    0.0000 </r>
       <r>    0.5194    0.0000 </r>
       <r>    0.9597    0.0000 </r>
       <r>    1.0413    0.0000 </r>
       <r>    1.9732    0.0000 </r>
       <r>    2.2640    0.0000 </r>
       <r>    2.3261    0.0000 </r>
       <r>    2.3400    0.0000 </r>
       <r>    2.4705    0.0000 </r>
       <r>    3.3087    0.0000 </r>
       <r>    3.3916    0.0000 </r>
      </set>
      <set comment="kpoint 569">
       <r>  -10.6291    1.0000 </r>
       <r>   -9.9672    1.0000 </r>
       <r>   -9.8663    1.0000 </r>
       <r>   -9.0762    1.0000 </r>
       <r>   -8.5251    1.0000 </r>
       <r>   -8.4442    1.0000 </r>
       <r>   -8.1077    1.0000 </r>
       <r>   -7.9604    1.0000 </r>
       <r>   -7.2515    1.0000 </r>
       <r>   -7.1838    1.0000 </r>
       <r>   -4.7019    1.0000 </r>
       <r>   -4.0611    1.0000 </r>
       <r>   -3.9725    1.0000 </r>
       <r>   -3.0869    0.2890 </r>
       <r>   -3.0765    0.0982 </r>
       <r>   -2.0267    0.0000 </r>
       <r>   -1.7999    0.0000 </r>
       <r>    0.4970    0.0000 </r>
       <r>    0.5248    0.0000 </r>
       <r>    0.9513    0.0000 </r>
       <r>    1.0496    0.0000 </r>
       <r>    1.9728    0.0000 </r>
       <r>    2.2295    0.0000 </r>
       <r>    2.3236    0.0000 </r>
       <r>    2.3437    0.0000 </r>
       <r>    2.5025    0.0000 </r>
       <r>    3.2958    0.0000 </r>
       <r>    3.4056    0.0000 </r>
      </set>
      <set comment="kpoint 570">
       <r>  -10.4662    1.0000 </r>
       <r>   -9.8702    1.0000 </r>
       <r>   -9.6717    1.0000 </r>
       <r>   -8.9238    1.0000 </r>
       <r>   -8.4375    1.0000 </r>
       <r>   -8.2822    1.0000 </r>
       <r>   -8.1081    1.0000 </r>
       <r>   -7.8306    1.0000 </r>
       <r>   -7.2448    1.0000 </r>
       <r>   -7.1194    1.0000 </r>
       <r>   -4.4606    1.0000 </r>
       <r>   -3.8737    1.0000 </r>
       <r>   -3.6981    1.0000 </r>
       <r>   -2.8959    0.0000 </r>
       <r>   -2.8707    0.0000 </r>
       <r>   -1.9048    0.0000 </r>
       <r>   -1.4676    0.0000 </r>
       <r>    0.3759    0.0000 </r>
       <r>    0.4313    0.0000 </r>
       <r>    0.7217    0.0000 </r>
       <r>    0.9308    0.0000 </r>
       <r>    1.9914    0.0000 </r>
       <r>    2.0589    0.0000 </r>
       <r>    2.3248    0.0000 </r>
       <r>    2.3485    0.0000 </r>
       <r>    2.5432    0.0000 </r>
       <r>    3.2917    0.0000 </r>
       <r>    3.4765    0.0000 </r>
      </set>
      <set comment="kpoint 571">
       <r>  -10.4570    1.0000 </r>
       <r>   -9.9473    1.0000 </r>
       <r>   -9.5786    1.0000 </r>
       <r>   -8.9160    1.0000 </r>
       <r>   -8.4987    1.0000 </r>
       <r>   -8.2322    1.0000 </r>
       <r>   -8.2108    1.0000 </r>
       <r>   -7.7202    1.0000 </r>
       <r>   -7.3095    1.0000 </r>
       <r>   -7.0790    1.0000 </r>
       <r>   -4.4510    1.0000 </r>
       <r>   -3.9450    1.0000 </r>
       <r>   -3.6200    1.0000 </r>
       <r>   -2.9162    0.0000 </r>
       <r>   -2.8669    0.0000 </r>
       <r>   -2.0669    0.0000 </r>
       <r>   -1.2584    0.0000 </r>
       <r>    0.3624    0.0000 </r>
       <r>    0.4582    0.0000 </r>
       <r>    0.6329    0.0000 </r>
       <r>    1.0260    0.0000 </r>
       <r>    1.8279    0.0000 </r>
       <r>    1.9663    0.0000 </r>
       <r>    2.3278    0.0000 </r>
       <r>    2.3728    0.0000 </r>
       <r>    2.7223    0.0000 </r>
       <r>    3.1864    0.0000 </r>
       <r>    3.4716    0.0000 </r>
      </set>
      <set comment="kpoint 572">
       <r>  -10.4423    1.0000 </r>
       <r>  -10.0193    1.0000 </r>
       <r>   -9.4810    1.0000 </r>
       <r>   -8.9037    1.0000 </r>
       <r>   -8.5564    1.0000 </r>
       <r>   -8.3575    1.0000 </r>
       <r>   -8.1368    1.0000 </r>
       <r>   -7.6179    1.0000 </r>
       <r>   -7.3792    1.0000 </r>
       <r>   -7.0478    1.0000 </r>
       <r>   -4.4357    1.0000 </r>
       <r>   -4.0129    1.0000 </r>
       <r>   -3.5413    1.0000 </r>
       <r>   -2.9438    0.0000 </r>
       <r>   -2.8649    0.0000 </r>
       <r>   -2.2102    0.0000 </r>
       <r>   -1.0402    0.0000 </r>
       <r>    0.3581    0.0000 </r>
       <r>    0.4845    0.0000 </r>
       <r>    0.5455    0.0000 </r>
       <r>    1.1224    0.0000 </r>
       <r>    1.5903    0.0000 </r>
       <r>    1.9269    0.0000 </r>
       <r>    2.3367    0.0000 </r>
       <r>    2.4056    0.0000 </r>
       <r>    2.8789    0.0000 </r>
       <r>    3.0863    0.0000 </r>
       <r>    3.4631    0.0000 </r>
      </set>
      <set comment="kpoint 573">
       <r>  -10.4220    1.0000 </r>
       <r>  -10.0861    1.0000 </r>
       <r>   -9.3790    1.0000 </r>
       <r>   -8.8868    1.0000 </r>
       <r>   -8.6104    1.0000 </r>
       <r>   -8.4830    1.0000 </r>
       <r>   -8.0606    1.0000 </r>
       <r>   -7.5263    1.0000 </r>
       <r>   -7.4528    1.0000 </r>
       <r>   -7.0262    1.0000 </r>
       <r>   -4.4147    1.0000 </r>
       <r>   -4.0771    1.0000 </r>
       <r>   -3.4630    1.0000 </r>
       <r>   -2.9791    0.0000 </r>
       <r>   -2.8633    0.0000 </r>
       <r>   -2.3326    0.0000 </r>
       <r>   -0.8156    0.0000 </r>
       <r>    0.3657    0.0000 </r>
       <r>    0.4580    0.0000 </r>
       <r>    0.5081    0.0000 </r>
       <r>    1.2194    0.0000 </r>
       <r>    1.3514    0.0000 </r>
       <r>    1.8747    0.0000 </r>
       <r>    2.3494    0.0000 </r>
       <r>    2.4467    0.0000 </r>
       <r>    2.9910    0.0000 </r>
       <r>    3.0121    0.0000 </r>
       <r>    3.4501    0.0000 </r>
      </set>
      <set comment="kpoint 574">
       <r>  -10.3963    1.0000 </r>
       <r>  -10.1478    1.0000 </r>
       <r>   -9.2729    1.0000 </r>
       <r>   -8.8653    1.0000 </r>
       <r>   -8.6604    1.0000 </r>
       <r>   -8.6077    1.0000 </r>
       <r>   -7.9827    1.0000 </r>
       <r>   -7.5295    1.0000 </r>
       <r>   -7.4485    1.0000 </r>
       <r>   -7.0137    1.0000 </r>
       <r>   -4.3880    1.0000 </r>
       <r>   -4.1373    1.0000 </r>
       <r>   -3.3858    1.0000 </r>
       <r>   -3.0223    0.0000 </r>
       <r>   -2.8608    0.0000 </r>
       <r>   -2.4319    0.0000 </r>
       <r>   -0.5885    0.0000 </r>
       <r>    0.3668    0.0000 </r>
       <r>    0.3883    0.0000 </r>
       <r>    0.5276    0.0000 </r>
       <r>    1.1180    0.0000 </r>
       <r>    1.3162    0.0000 </r>
       <r>    1.8113    0.0000 </r>
       <r>    2.3634    0.0000 </r>
       <r>    2.4957    0.0000 </r>
       <r>    2.9008    0.0000 </r>
       <r>    3.1224    0.0000 </r>
       <r>    3.4315    0.0000 </r>
      </set>
      <set comment="kpoint 575">
       <r>  -10.3651    1.0000 </r>
       <r>  -10.2041    1.0000 </r>
       <r>   -9.1629    1.0000 </r>
       <r>   -8.8393    1.0000 </r>
       <r>   -8.7311    1.0000 </r>
       <r>   -8.7065    1.0000 </r>
       <r>   -7.9033    1.0000 </r>
       <r>   -7.6082    1.0000 </r>
       <r>   -7.3885    1.0000 </r>
       <r>   -7.0087    1.0000 </r>
       <r>   -4.3559    1.0000 </r>
       <r>   -4.1930    1.0000 </r>
       <r>   -3.3109    1.0000 </r>
       <r>   -3.0729    0.0607 </r>
       <r>   -2.8574    0.0000 </r>
       <r>   -2.5053    0.0000 </r>
       <r>   -0.3648    0.0000 </r>
       <r>    0.2645    0.0000 </r>
       <r>    0.4306    0.0000 </r>
       <r>    0.5420    0.0000 </r>
       <r>    0.9003    0.0000 </r>
       <r>    1.4119    0.0000 </r>
       <r>    1.7385    0.0000 </r>
       <r>    2.3758    0.0000 </r>
       <r>    2.5521    0.0000 </r>
       <r>    2.8156    0.0000 </r>
       <r>    3.2119    0.0000 </r>
       <r>    3.4056    0.0000 </r>
      </set>
      <set comment="kpoint 576">
       <r>  -10.3285    1.0000 </r>
       <r>  -10.2552    1.0000 </r>
       <r>   -9.0493    1.0000 </r>
       <r>   -8.8524    1.0000 </r>
       <r>   -8.8089    1.0000 </r>
       <r>   -8.7484    1.0000 </r>
       <r>   -7.8230    1.0000 </r>
       <r>   -7.6882    1.0000 </r>
       <r>   -7.3514    1.0000 </r>
       <r>   -7.0079    1.0000 </r>
       <r>   -4.3184    1.0000 </r>
       <r>   -4.2441    1.0000 </r>
       <r>   -3.2393    1.0000 </r>
       <r>   -3.1304    0.9941 </r>
       <r>   -2.8540    0.0000 </r>
       <r>   -2.5495    0.0000 </r>
       <r>   -0.1537    0.0000 </r>
       <r>    0.1386    0.0000 </r>
       <r>    0.5007    0.0000 </r>
       <r>    0.5503    0.0000 </r>
       <r>    0.7136    0.0000 </r>
       <r>    1.5054    0.0000 </r>
       <r>    1.6579    0.0000 </r>
       <r>    2.3839    0.0000 </r>
       <r>    2.6154    0.0000 </r>
       <r>    2.7359    0.0000 </r>
       <r>    3.2830    0.0000 </r>
       <r>    3.3707    0.0000 </r>
      </set>
      <set comment="kpoint 577">
       <r>  -10.3009    1.0000 </r>
       <r>  -10.2864    1.0000 </r>
       <r>   -8.9712    1.0000 </r>
       <r>   -8.9325    1.0000 </r>
       <r>   -8.7861    1.0000 </r>
       <r>   -8.7741    1.0000 </r>
       <r>   -7.7689    1.0000 </r>
       <r>   -7.7423    1.0000 </r>
       <r>   -7.3417    1.0000 </r>
       <r>   -7.0081    1.0000 </r>
       <r>   -4.2903    1.0000 </r>
       <r>   -4.2757    1.0000 </r>
       <r>   -3.1940    1.0000 </r>
       <r>   -3.1721    1.0000 </r>
       <r>   -2.8530    0.0000 </r>
       <r>   -2.5610    0.0000 </r>
       <r>   -0.0228    0.0000 </r>
       <r>    0.0313    0.0000 </r>
       <r>    0.5524    0.0000 </r>
       <r>    0.5723    0.0000 </r>
       <r>    0.6103    0.0000 </r>
       <r>    1.5713    0.0000 </r>
       <r>    1.5954    0.0000 </r>
       <r>    2.3862    0.0000 </r>
       <r>    2.6619    0.0000 </r>
       <r>    2.6852    0.0000 </r>
       <r>    3.3245    0.0000 </r>
       <r>    3.3385    0.0000 </r>
      </set>
      <set comment="kpoint 578">
       <r>  -10.3412    1.0000 </r>
       <r>  -10.2390    1.0000 </r>
       <r>   -9.0870    1.0000 </r>
       <r>   -8.8195    1.0000 </r>
       <r>   -8.8128    1.0000 </r>
       <r>   -8.7350    1.0000 </r>
       <r>   -7.8495    1.0000 </r>
       <r>   -7.6618    1.0000 </r>
       <r>   -7.3608    1.0000 </r>
       <r>   -7.0079    1.0000 </r>
       <r>   -4.3313    1.0000 </r>
       <r>   -4.2279    1.0000 </r>
       <r>   -3.2627    1.0000 </r>
       <r>   -3.1103    0.8641 </r>
       <r>   -2.8552    0.0000 </r>
       <r>   -2.5386    0.0000 </r>
       <r>   -0.2184    0.0000 </r>
       <r>    0.1798    0.0000 </r>
       <r>    0.4771    0.0000 </r>
       <r>    0.5481    0.0000 </r>
       <r>    0.7676    0.0000 </r>
       <r>    1.4803    0.0000 </r>
       <r>    1.6805    0.0000 </r>
       <r>    2.3820    0.0000 </r>
       <r>    2.5940    0.0000 </r>
       <r>    2.7611    0.0000 </r>
       <r>    3.2646    0.0000 </r>
       <r>    3.3810    0.0000 </r>
      </set>
      <set comment="kpoint 579">
       <r>  -10.3760    1.0000 </r>
       <r>  -10.1862    1.0000 </r>
       <r>   -9.1995    1.0000 </r>
       <r>   -8.8484    1.0000 </r>
       <r>   -8.6917    1.0000 </r>
       <r>   -8.6908    1.0000 </r>
       <r>   -7.9296    1.0000 </r>
       <r>   -7.5821    1.0000 </r>
       <r>   -7.4060    1.0000 </r>
       <r>   -7.0096    1.0000 </r>
       <r>   -4.3670    1.0000 </r>
       <r>   -4.1753    1.0000 </r>
       <r>   -3.3355    1.0000 </r>
       <r>   -3.0549    0.0024 </r>
       <r>   -2.8589    0.0000 </r>
       <r>   -2.4845    0.0000 </r>
       <r>   -0.4354    0.0000 </r>
       <r>    0.2958    0.0000 </r>
       <r>    0.4172    0.0000 </r>
       <r>    0.5375    0.0000 </r>
       <r>    0.9664    0.0000 </r>
       <r>    1.3862    0.0000 </r>
       <r>    1.7591    0.0000 </r>
       <r>    2.3723    0.0000 </r>
       <r>    2.5328    0.0000 </r>
       <r>    2.8425    0.0000 </r>
       <r>    3.1881    0.0000 </r>
       <r>    3.4131    0.0000 </r>
      </set>
      <set comment="kpoint 580">
       <r>  -10.4054    1.0000 </r>
       <r>  -10.1281    1.0000 </r>
       <r>   -9.3082    1.0000 </r>
       <r>   -8.8729    1.0000 </r>
       <r>   -8.6443    1.0000 </r>
       <r>   -8.5669    1.0000 </r>
       <r>   -8.0085    1.0000 </r>
       <r>   -7.5040    1.0000 </r>
       <r>   -7.4723    1.0000 </r>
       <r>   -7.0168    1.0000 </r>
       <r>   -4.3974    1.0000 </r>
       <r>   -4.1180    1.0000 </r>
       <r>   -3.4112    1.0000 </r>
       <r>   -3.0066    0.0000 </r>
       <r>   -2.8622    0.0000 </r>
       <r>   -2.4024    0.0000 </r>
       <r>   -0.6613    0.0000 </r>
       <r>    0.3818    0.0000 </r>
       <r>    0.3930    0.0000 </r>
       <r>    0.5212    0.0000 </r>
       <r>    1.1907    0.0000 </r>
       <r>    1.2902    0.0000 </r>
       <r>    1.8296    0.0000 </r>
       <r>    2.3591    0.0000 </r>
       <r>    2.4787    0.0000 </r>
       <r>    2.9293    0.0000 </r>
       <r>    3.0923    0.0000 </r>
       <r>    3.4367    0.0000 </r>
      </set>
      <set comment="kpoint 581">
       <r>  -10.4293    1.0000 </r>
       <r>  -10.0647    1.0000 </r>
       <r>   -9.4130    1.0000 </r>
       <r>   -8.8929    1.0000 </r>
       <r>   -8.5930    1.0000 </r>
       <r>   -8.4418    1.0000 </r>
       <r>   -8.0860    1.0000 </r>
       <r>   -7.5550    1.0000 </r>
       <r>   -7.4283    1.0000 </r>
       <r>   -7.0322    1.0000 </r>
       <r>   -4.4222    1.0000 </r>
       <r>   -4.0565    1.0000 </r>
       <r>   -3.4888    1.0000 </r>
       <r>   -2.9660    0.0000 </r>
       <r>   -2.8644    0.0000 </r>
       <r>   -2.2954    0.0000 </r>
       <r>   -0.8882    0.0000 </r>
       <r>    0.3643    0.0000 </r>
       <r>    0.4821    0.0000 </r>
       <r>    0.5000    0.0000 </r>
       <r>    1.1933    0.0000 </r>
       <r>    1.4267    0.0000 </r>
       <r>    1.8902    0.0000 </r>
       <r>    2.3453    0.0000 </r>
       <r>    2.4321    0.0000 </r>
       <r>    2.9748    0.0000 </r>
       <r>    3.0211    0.0000 </r>
       <r>    3.4537    0.0000 </r>
      </set>
      <set comment="kpoint 582">
       <r>  -10.4477    1.0000 </r>
       <r>   -9.9961    1.0000 </r>
       <r>   -9.5135    1.0000 </r>
       <r>   -8.9083    1.0000 </r>
       <r>   -8.5378    1.0000 </r>
       <r>   -8.3163    1.0000 </r>
       <r>   -8.1614    1.0000 </r>
       <r>   -7.6505    1.0000 </r>
       <r>   -7.3559    1.0000 </r>
       <r>   -7.0569    1.0000 </r>
       <r>   -4.4413    1.0000 </r>
       <r>   -3.9910    1.0000 </r>
       <r>   -3.5673    1.0000 </r>
       <r>   -2.9332    0.0000 </r>
       <r>   -2.8661    0.0000 </r>
       <r>   -2.1660    0.0000 </r>
       <r>   -1.1113    0.0000 </r>
       <r>    0.3607    0.0000 </r>
       <r>    0.4751    0.0000 </r>
       <r>    0.5690    0.0000 </r>
       <r>    1.0964    0.0000 </r>
       <r>    1.6656    0.0000 </r>
       <r>    1.9390    0.0000 </r>
       <r>    2.3336    0.0000 </r>
       <r>    2.3936    0.0000 </r>
       <r>    2.8341    0.0000 </r>
       <r>    3.1179    0.0000 </r>
       <r>    3.4654    0.0000 </r>
      </set>
      <set comment="kpoint 583">
       <r>  -10.4606    1.0000 </r>
       <r>   -9.9225    1.0000 </r>
       <r>   -9.6097    1.0000 </r>
       <r>   -8.9191    1.0000 </r>
       <r>   -8.4789    1.0000 </r>
       <r>   -8.2346    1.0000 </r>
       <r>   -8.1913    1.0000 </r>
       <r>   -7.7557    1.0000 </r>
       <r>   -7.2877    1.0000 </r>
       <r>   -7.0912    1.0000 </r>
       <r>   -4.4548    1.0000 </r>
       <r>   -3.9219    1.0000 </r>
       <r>   -3.6459    1.0000 </r>
       <r>   -2.9080    0.0000 </r>
       <r>   -2.8686    0.0000 </r>
       <r>   -2.0164    0.0000 </r>
       <r>   -1.3270    0.0000 </r>
       <r>    0.3680    0.0000 </r>
       <r>    0.4482    0.0000 </r>
       <r>    0.6566    0.0000 </r>
       <r>    1.0003    0.0000 </r>
       <r>    1.9013    0.0000 </r>
       <r>    1.9746    0.0000 </r>
       <r>    2.3265    0.0000 </r>
       <r>    2.3635    0.0000 </r>
       <r>    2.6699    0.0000 </r>
       <r>    3.2197    0.0000 </r>
       <r>    3.4730    0.0000 </r>
      </set>
      <set comment="kpoint 584">
       <r>  -10.4680    1.0000 </r>
       <r>   -9.8438    1.0000 </r>
       <r>   -9.7013    1.0000 </r>
       <r>   -8.9253    1.0000 </r>
       <r>   -8.4166    1.0000 </r>
       <r>   -8.3052    1.0000 </r>
       <r>   -8.0678    1.0000 </r>
       <r>   -7.8683    1.0000 </r>
       <r>   -7.2248    1.0000 </r>
       <r>   -7.1345    1.0000 </r>
       <r>   -4.4625    1.0000 </r>
       <r>   -3.8497    1.0000 </r>
       <r>   -3.7236    1.0000 </r>
       <r>   -2.8899    0.0000 </r>
       <r>   -2.8734    0.0000 </r>
       <r>   -1.8487    0.0000 </r>
       <r>   -1.5327    0.0000 </r>
       <r>    0.3838    0.0000 </r>
       <r>    0.4212    0.0000 </r>
       <r>    0.7459    0.0000 </r>
       <r>    0.9055    0.0000 </r>
       <r>    1.9956    0.0000 </r>
       <r>    2.1290    0.0000 </r>
       <r>    2.3259    0.0000 </r>
       <r>    2.3421    0.0000 </r>
       <r>    2.4839    0.0000 </r>
       <r>    3.3267    0.0000 </r>
       <r>    3.4779    0.0000 </r>
      </set>
      <set comment="kpoint 585">
       <r>  -10.4698    1.0000 </r>
       <r>   -9.7882    1.0000 </r>
       <r>   -9.7602    1.0000 </r>
       <r>   -8.9268    1.0000 </r>
       <r>   -8.3729    1.0000 </r>
       <r>   -8.3509    1.0000 </r>
       <r>   -7.9863    1.0000 </r>
       <r>   -7.9471    1.0000 </r>
       <r>   -7.1861    1.0000 </r>
       <r>   -7.1684    1.0000 </r>
       <r>   -4.4644    1.0000 </r>
       <r>   -3.7998    1.0000 </r>
       <r>   -3.7749    1.0000 </r>
       <r>   -2.8820    0.0000 </r>
       <r>   -2.8779    0.0000 </r>
       <r>   -1.7260    0.0000 </r>
       <r>   -1.6650    0.0000 </r>
       <r>    0.3963    0.0000 </r>
       <r>    0.4057    0.0000 </r>
       <r>    0.8126    0.0000 </r>
       <r>    0.8373    0.0000 </r>
       <r>    2.0013    0.0000 </r>
       <r>    2.2790    0.0000 </r>
       <r>    2.3293    0.0000 </r>
       <r>    2.3330    0.0000 </r>
       <r>    2.3443    0.0000 </r>
       <r>    3.4029    0.0000 </r>
       <r>    3.4603    0.0000 </r>
      </set>
      <set comment="kpoint 586">
       <r>  -10.3061    1.0000 </r>
       <r>   -9.6919    1.0000 </r>
       <r>   -9.5675    1.0000 </r>
       <r>   -8.7757    1.0000 </r>
       <r>   -8.2887    1.0000 </r>
       <r>   -8.1942    1.0000 </r>
       <r>   -7.9942    1.0000 </r>
       <r>   -7.8288    1.0000 </r>
       <r>   -7.1848    1.0000 </r>
       <r>   -7.1102    1.0000 </r>
       <r>   -4.2194    1.0000 </r>
       <r>   -3.6093    1.0000 </r>
       <r>   -3.4982    1.0000 </r>
       <r>   -2.6909    0.0000 </r>
       <r>   -2.6709    0.0000 </r>
       <r>   -1.6004    0.0000 </r>
       <r>   -1.3329    0.0000 </r>
       <r>    0.2859    0.0000 </r>
       <r>    0.3228    0.0000 </r>
       <r>    0.5848    0.0000 </r>
       <r>    0.7177    0.0000 </r>
       <r>    2.0036    0.0000 </r>
       <r>    2.0845    0.0000 </r>
       <r>    2.3140    0.0000 </r>
       <r>    2.3202    0.0000 </r>
       <r>    2.3592    0.0000 </r>
       <r>    3.2775    0.0000 </r>
       <r>    3.3949    0.0000 </r>
      </set>
      <set comment="kpoint 587">
       <r>  -10.2993    1.0000 </r>
       <r>   -9.7687    1.0000 </r>
       <r>   -9.4792    1.0000 </r>
       <r>   -8.7702    1.0000 </r>
       <r>   -8.3477    1.0000 </r>
       <r>   -8.1281    1.0000 </r>
       <r>   -8.1088    1.0000 </r>
       <r>   -7.7258    1.0000 </r>
       <r>   -7.2419    1.0000 </r>
       <r>   -7.0691    1.0000 </r>
       <r>   -4.2123    1.0000 </r>
       <r>   -3.6803    1.0000 </r>
       <r>   -3.4226    1.0000 </r>
       <r>   -2.7093    0.0000 </r>
       <r>   -2.6620    0.0000 </r>
       <r>   -1.7619    0.0000 </r>
       <r>   -1.1407    0.0000 </r>
       <r>    0.2682    0.0000 </r>
       <r>    0.3485    0.0000 </r>
       <r>    0.4979    0.0000 </r>
       <r>    0.8145    0.0000 </r>
       <r>    1.8839    0.0000 </r>
       <r>    1.9762    0.0000 </r>
       <r>    2.3202    0.0000 </r>
       <r>    2.3355    0.0000 </r>
       <r>    2.5272    0.0000 </r>
       <r>    3.2712    0.0000 </r>
       <r>    3.2823    0.0000 </r>
      </set>
      <set comment="kpoint 588">
       <r>  -10.2872    1.0000 </r>
       <r>   -9.8406    1.0000 </r>
       <r>   -9.3866    1.0000 </r>
       <r>   -8.7603    1.0000 </r>
       <r>   -8.4035    1.0000 </r>
       <r>   -8.2257    1.0000 </r>
       <r>   -8.0598    1.0000 </r>
       <r>   -7.6307    1.0000 </r>
       <r>   -7.3038    1.0000 </r>
       <r>   -7.0355    1.0000 </r>
       <r>   -4.1994    1.0000 </r>
       <r>   -3.7484    1.0000 </r>
       <r>   -3.3462    1.0000 </r>
       <r>   -2.7335    0.0000 </r>
       <r>   -2.6545    0.0000 </r>
       <r>   -1.9073    0.0000 </r>
       <r>   -0.9408    0.0000 </r>
       <r>    0.2586    0.0000 </r>
       <r>    0.3736    0.0000 </r>
       <r>    0.4154    0.0000 </r>
       <r>    0.9147    0.0000 </r>
       <r>    1.6737    0.0000 </r>
       <r>    1.9286    0.0000 </r>
       <r>    2.3326    0.0000 </r>
       <r>    2.3603    0.0000 </r>
       <r>    2.6800    0.0000 </r>
       <r>    3.1527    0.0000 </r>
       <r>    3.2886    0.0000 </r>
      </set>
      <set comment="kpoint 589">
       <r>  -10.2697    1.0000 </r>
       <r>   -9.9076    1.0000 </r>
       <r>   -9.2898    1.0000 </r>
       <r>   -8.7460    1.0000 </r>
       <r>   -8.4560    1.0000 </r>
       <r>   -8.3437    1.0000 </r>
       <r>   -7.9893    1.0000 </r>
       <r>   -7.5454    1.0000 </r>
       <r>   -7.3698    1.0000 </r>
       <r>   -7.0099    1.0000 </r>
       <r>   -4.1810    1.0000 </r>
       <r>   -3.8131    1.0000 </r>
       <r>   -3.2701    1.0000 </r>
       <r>   -2.7642    0.0000 </r>
       <r>   -2.6471    0.0000 </r>
       <r>   -2.0345    0.0000 </r>
       <r>   -0.7368    0.0000 </r>
       <r>    0.2609    0.0000 </r>
       <r>    0.3370    0.0000 </r>
       <r>    0.3964    0.0000 </r>
       <r>    1.0177    0.0000 </r>
       <r>    1.4568    0.0000 </r>
       <r>    1.8639    0.0000 </r>
       <r>    2.3491    0.0000 </r>
       <r>    2.3949    0.0000 </r>
       <r>    2.8166    0.0000 </r>
       <r>    3.0405    0.0000 </r>
       <r>    3.2929    0.0000 </r>
      </set>
      <set comment="kpoint 590">
       <r>  -10.2468    1.0000 </r>
       <r>   -9.9697    1.0000 </r>
       <r>   -9.1891    1.0000 </r>
       <r>   -8.7273    1.0000 </r>
       <r>   -8.5049    1.0000 </r>
       <r>   -8.4620    1.0000 </r>
       <r>   -7.9173    1.0000 </r>
       <r>   -7.4725    1.0000 </r>
       <r>   -7.4390    1.0000 </r>
       <r>   -6.9919    1.0000 </r>
       <r>   -4.1569    1.0000 </r>
       <r>   -3.8740    1.0000 </r>
       <r>   -3.1950    1.0000 </r>
       <r>   -2.8019    0.0000 </r>
       <r>   -2.6388    0.0000 </r>
       <r>   -2.1415    0.0000 </r>
       <r>   -0.5343    0.0000 </r>
       <r>    0.2618    0.0000 </r>
       <r>    0.2802    0.0000 </r>
       <r>    0.4156    0.0000 </r>
       <r>    1.1228    0.0000 </r>
       <r>    1.2367    0.0000 </r>
       <r>    1.7855    0.0000 </r>
       <r>    2.3670    0.0000 </r>
       <r>    2.4389    0.0000 </r>
       <r>    2.9350    0.0000 </r>
       <r>    2.9363    0.0000 </r>
       <r>    3.2914    0.0000 </r>
      </set>
      <set comment="kpoint 591">
       <r>  -10.2186    1.0000 </r>
       <r>  -10.0267    1.0000 </r>
       <r>   -9.0848    1.0000 </r>
       <r>   -8.7044    1.0000 </r>
       <r>   -8.5797    1.0000 </r>
       <r>   -8.5501    1.0000 </r>
       <r>   -7.8439    1.0000 </r>
       <r>   -7.5105    1.0000 </r>
       <r>   -7.4151    1.0000 </r>
       <r>   -6.9809    1.0000 </r>
       <r>   -4.1274    1.0000 </r>
       <r>   -3.9307    1.0000 </r>
       <r>   -3.1221    0.9732 </r>
       <r>   -2.8467    0.0000 </r>
       <r>   -2.6295    0.0000 </r>
       <r>   -2.2256    0.0000 </r>
       <r>   -0.3419    0.0000 </r>
       <r>    0.1877    0.0000 </r>
       <r>    0.3248    0.0000 </r>
       <r>    0.4302    0.0000 </r>
       <r>    1.0181    0.0000 </r>
       <r>    1.2291    0.0000 </r>
       <r>    1.6968    0.0000 </r>
       <r>    2.3832    0.0000 </r>
       <r>    2.4921    0.0000 </r>
       <r>    2.8368    0.0000 </r>
       <r>    3.0385    0.0000 </r>
       <r>    3.2803    0.0000 </r>
      </set>
      <set comment="kpoint 592">
       <r>  -10.1851    1.0000 </r>
       <r>  -10.0785    1.0000 </r>
       <r>   -8.9771    1.0000 </r>
       <r>   -8.6960    1.0000 </r>
       <r>   -8.6772    1.0000 </r>
       <r>   -8.5915    1.0000 </r>
       <r>   -7.7696    1.0000 </r>
       <r>   -7.5838    1.0000 </r>
       <r>   -7.3763    1.0000 </r>
       <r>   -6.9752    1.0000 </r>
       <r>   -4.0925    1.0000 </r>
       <r>   -3.9830    1.0000 </r>
       <r>   -3.0522    0.0013 </r>
       <r>   -2.8983    0.0000 </r>
       <r>   -2.6207    0.0000 </r>
       <r>   -2.2831    0.0000 </r>
       <r>   -0.1725    0.0000 </r>
       <r>    0.1100    0.0000 </r>
       <r>    0.4065    0.0000 </r>
       <r>    0.4398    0.0000 </r>
       <r>    0.8085    0.0000 </r>
       <r>    1.3358    0.0000 </r>
       <r>    1.6004    0.0000 </r>
       <r>    2.3951    0.0000 </r>
       <r>    2.5542    0.0000 </r>
       <r>    2.7460    0.0000 </r>
       <r>    3.1226    0.0000 </r>
       <r>    3.2563    0.0000 </r>
      </set>
      <set comment="kpoint 593">
       <r>  -10.1463    1.0000 </r>
       <r>  -10.1251    1.0000 </r>
       <r>   -8.8663    1.0000 </r>
       <r>   -8.8105    1.0000 </r>
       <r>   -8.6459    1.0000 </r>
       <r>   -8.6289    1.0000 </r>
       <r>   -7.6950    1.0000 </r>
       <r>   -7.6581    1.0000 </r>
       <r>   -7.3590    1.0000 </r>
       <r>   -6.9732    1.0000 </r>
       <r>   -4.0524    1.0000 </r>
       <r>   -4.0306    1.0000 </r>
       <r>   -2.9864    0.0000 </r>
       <r>   -2.9561    0.0000 </r>
       <r>   -2.6158    0.0000 </r>
       <r>   -2.3091    0.0000 </r>
       <r>   -0.0380    0.0000 </r>
       <r>    0.0193    0.0000 </r>
       <r>    0.4439    0.0000 </r>
       <r>    0.5356    0.0000 </r>
       <r>    0.6195    0.0000 </r>
       <r>    1.4415    0.0000 </r>
       <r>    1.4990    0.0000 </r>
       <r>    2.4007    0.0000 </r>
       <r>    2.6248    0.0000 </r>
       <r>    2.6631    0.0000 </r>
       <r>    3.1885    0.0000 </r>
       <r>    3.2170    0.0000 </r>
      </set>
      <set comment="kpoint 594">
       <r>  -10.1666    1.0000 </r>
       <r>  -10.1022    1.0000 </r>
       <r>   -8.9226    1.0000 </r>
       <r>   -8.7530    1.0000 </r>
       <r>   -8.6623    1.0000 </r>
       <r>   -8.6104    1.0000 </r>
       <r>   -7.7327    1.0000 </r>
       <r>   -7.6204    1.0000 </r>
       <r>   -7.3649    1.0000 </r>
       <r>   -6.9739    1.0000 </r>
       <r>   -4.0732    1.0000 </r>
       <r>   -4.0072    1.0000 </r>
       <r>   -3.0194    0.0000 </r>
       <r>   -2.9256    0.0000 </r>
       <r>   -2.6177    0.0000 </r>
       <r>   -2.3003    0.0000 </r>
       <r>   -0.0982    0.0000 </r>
       <r>    0.0637    0.0000 </r>
       <r>    0.4424    0.0000 </r>
       <r>    0.4672    0.0000 </r>
       <r>    0.7085    0.0000 </r>
       <r>    1.3943    0.0000 </r>
       <r>    1.5450    0.0000 </r>
       <r>    2.3988    0.0000 </r>
       <r>    2.5882    0.0000 </r>
       <r>    2.7037    0.0000 </r>
       <r>    3.1604    0.0000 </r>
       <r>    3.2368    0.0000 </r>
      </set>
      <set comment="kpoint 595">
       <r>  -10.2027    1.0000 </r>
       <r>  -10.0529    1.0000 </r>
       <r>   -9.0319    1.0000 </r>
       <r>   -8.6915    1.0000 </r>
       <r>   -8.6375    1.0000 </r>
       <r>   -8.5710    1.0000 </r>
       <r>   -7.8073    1.0000 </r>
       <r>   -7.5466    1.0000 </r>
       <r>   -7.3934    1.0000 </r>
       <r>   -6.9775    1.0000 </r>
       <r>   -4.1107    1.0000 </r>
       <r>   -3.9572    1.0000 </r>
       <r>   -3.0874    0.2998 </r>
       <r>   -2.8708    0.0000 </r>
       <r>   -2.6252    0.0000 </r>
       <r>   -2.2579    0.0000 </r>
       <r>   -0.2517    0.0000 </r>
       <r>    0.1460    0.0000 </r>
       <r>    0.3626    0.0000 </r>
       <r>    0.4354    0.0000 </r>
       <r>    0.9096    0.0000 </r>
       <r>    1.2880    0.0000 </r>
       <r>    1.6445    0.0000 </r>
       <r>    2.3900    0.0000 </r>
       <r>    2.5218    0.0000 </r>
       <r>    2.7906    0.0000 </r>
       <r>    3.0859    0.0000 </r>
       <r>    3.2687    0.0000 </r>
      </set>
      <set comment="kpoint 596">
       <r>  -10.2335    1.0000 </r>
       <r>   -9.9985    1.0000 </r>
       <r>   -9.1379    1.0000 </r>
       <r>   -8.7166    1.0000 </r>
       <r>   -8.5276    1.0000 </r>
       <r>   -8.5204    1.0000 </r>
       <r>   -7.8811    1.0000 </r>
       <r>   -7.4741    1.0000 </r>
       <r>   -7.4420    1.0000 </r>
       <r>   -6.9856    1.0000 </r>
       <r>   -4.1429    1.0000 </r>
       <r>   -3.9026    1.0000 </r>
       <r>   -3.1589    1.0000 </r>
       <r>   -2.8225    0.0000 </r>
       <r>   -2.6347    0.0000 </r>
       <r>   -2.1866    0.0000 </r>
       <r>   -0.4348    0.0000 </r>
       <r>    0.2207    0.0000 </r>
       <r>    0.3012    0.0000 </r>
       <r>    0.4230    0.0000 </r>
       <r>    1.1247    0.0000 </r>
       <r>    1.1815    0.0000 </r>
       <r>    1.7378    0.0000 </r>
       <r>    2.3756    0.0000 </r>
       <r>    2.4641    0.0000 </r>
       <r>    2.8851    0.0000 </r>
       <r>    2.9931    0.0000 </r>
       <r>    3.2864    0.0000 </r>
      </set>
      <set comment="kpoint 597">
       <r>  -10.2591    1.0000 </r>
       <r>   -9.9390    1.0000 </r>
       <r>   -9.2405    1.0000 </r>
       <r>   -8.7373    1.0000 </r>
       <r>   -8.4806    1.0000 </r>
       <r>   -8.4023    1.0000 </r>
       <r>   -7.9539    1.0000 </r>
       <r>   -7.5076    1.0000 </r>
       <r>   -7.4037    1.0000 </r>
       <r>   -7.0000    1.0000 </r>
       <r>   -4.1697    1.0000 </r>
       <r>   -3.8437    1.0000 </r>
       <r>   -3.2330    1.0000 </r>
       <r>   -2.7812    0.0000 </r>
       <r>   -2.6437    0.0000 </r>
       <r>   -2.0907    0.0000 </r>
       <r>   -0.6340    0.0000 </r>
       <r>    0.2704    0.0000 </r>
       <r>    0.2947    0.0000 </r>
       <r>    0.4059    0.0000 </r>
       <r>    1.0757    0.0000 </r>
       <r>    1.3445    0.0000 </r>
       <r>    1.8223    0.0000 </r>
       <r>    2.3583    0.0000 </r>
       <r>    2.4154    0.0000 </r>
       <r>    2.8823    0.0000 </r>
       <r>    2.9871    0.0000 </r>
       <r>    3.2927    0.0000 </r>
      </set>
      <set comment="kpoint 598">
       <r>  -10.2792    1.0000 </r>
       <r>   -9.8744    1.0000 </r>
       <r>   -9.3392    1.0000 </r>
       <r>   -8.7538    1.0000 </r>
       <r>   -8.4298    1.0000 </r>
       <r>   -8.2841    1.0000 </r>
       <r>   -8.0252    1.0000 </r>
       <r>   -7.5871    1.0000 </r>
       <r>   -7.3361    1.0000 </r>
       <r>   -7.0217    1.0000 </r>
       <r>   -4.1910    1.0000 </r>
       <r>   -3.7809    1.0000 </r>
       <r>   -3.3086    1.0000 </r>
       <r>   -2.7470    0.0000 </r>
       <r>   -2.6516    0.0000 </r>
       <r>   -1.9734    0.0000 </r>
       <r>   -0.8383    0.0000 </r>
       <r>    0.2602    0.0000 </r>
       <r>    0.3710    0.0000 </r>
       <r>    0.3846    0.0000 </r>
       <r>    0.9715    0.0000 </r>
       <r>    1.5633    0.0000 </r>
       <r>    1.8949    0.0000 </r>
       <r>    2.3408    0.0000 </r>
       <r>    2.3761    0.0000 </r>
       <r>    2.7542    0.0000 </r>
       <r>    3.0960    0.0000 </r>
       <r>    3.2911    0.0000 </r>
      </set>
      <set comment="kpoint 599">
       <r>  -10.2940    1.0000 </r>
       <r>   -9.8049    1.0000 </r>
       <r>   -9.4339    1.0000 </r>
       <r>   -8.7659    1.0000 </r>
       <r>   -8.3756    1.0000 </r>
       <r>   -8.1665    1.0000 </r>
       <r>   -8.0947    1.0000 </r>
       <r>   -7.6777    1.0000 </r>
       <r>   -7.2720    1.0000 </r>
       <r>   -7.0514    1.0000 </r>
       <r>   -4.2066    1.0000 </r>
       <r>   -3.7144    1.0000 </r>
       <r>   -3.3849    1.0000 </r>
       <r>   -2.7196    0.0000 </r>
       <r>   -2.6590    0.0000 </r>
       <r>   -1.8369    0.0000 </r>
       <r>   -1.0410    0.0000 </r>
       <r>    0.2642    0.0000 </r>
       <r>    0.3602    0.0000 </r>
       <r>    0.4512    0.0000 </r>
       <r>    0.8698    0.0000 </r>
       <r>    1.7769    0.0000 </r>
       <r>    1.9524    0.0000 </r>
       <r>    2.3260    0.0000 </r>
       <r>    2.3463    0.0000 </r>
       <r>    2.6094    0.0000 </r>
       <r>    3.2114    0.0000 </r>
       <r>    3.2855    0.0000 </r>
      </set>
      <set comment="kpoint 600">
       <r>  -10.3034    1.0000 </r>
       <r>   -9.7305    1.0000 </r>
       <r>   -9.5244    1.0000 </r>
       <r>   -8.7736    1.0000 </r>
       <r>   -8.3182    1.0000 </r>
       <r>   -8.1619    1.0000 </r>
       <r>   -8.0506    1.0000 </r>
       <r>   -7.7770    1.0000 </r>
       <r>   -7.2125    1.0000 </r>
       <r>   -7.0888    1.0000 </r>
       <r>   -4.2166    1.0000 </r>
       <r>   -3.6448    1.0000 </r>
       <r>   -3.4610    1.0000 </r>
       <r>   -2.6985    0.0000 </r>
       <r>   -2.6671    0.0000 </r>
       <r>   -1.6832    0.0000 </r>
       <r>   -1.2375    0.0000 </r>
       <r>    0.2780    0.0000 </r>
       <r>    0.3344    0.0000 </r>
       <r>    0.5357    0.0000 </r>
       <r>    0.7711    0.0000 </r>
       <r>    1.9823    0.0000 </r>
       <r>    1.9912    0.0000 </r>
       <r>    2.3165    0.0000 </r>
       <r>    2.3262    0.0000 </r>
       <r>    2.4488    0.0000 </r>
       <r>    3.2796    0.0000 </r>
       <r>    3.3326    0.0000 </r>
      </set>
      <set comment="kpoint 601">
       <r>  -10.3075    1.0000 </r>
       <r>   -9.6513    1.0000 </r>
       <r>   -9.6104    1.0000 </r>
       <r>   -8.7768    1.0000 </r>
       <r>   -8.2576    1.0000 </r>
       <r>   -8.2267    1.0000 </r>
       <r>   -7.9375    1.0000 </r>
       <r>   -7.8831    1.0000 </r>
       <r>   -7.1582    1.0000 </r>
       <r>   -7.1335    1.0000 </r>
       <r>   -4.2209    1.0000 </r>
       <r>   -3.5725    1.0000 </r>
       <r>   -3.5360    1.0000 </r>
       <r>   -2.6826    0.0000 </r>
       <r>   -2.6772    0.0000 </r>
       <r>   -1.5145    0.0000 </r>
       <r>   -1.4249    0.0000 </r>
       <r>    0.2985    0.0000 </r>
       <r>    0.3089    0.0000 </r>
       <r>    0.6246    0.0000 </r>
       <r>    0.6760    0.0000 </r>
       <r>    2.0087    0.0000 </r>
       <r>    2.1771    0.0000 </r>
       <r>    2.2734    0.0000 </r>
       <r>    2.3141    0.0000 </r>
       <r>    2.3156    0.0000 </r>
       <r>    3.2765    0.0000 </r>
       <r>    3.4588    0.0000 </r>
      </set>
      <set comment="kpoint 602">
       <r>  -10.1432    1.0000 </r>
       <r>   -9.5155    1.0000 </r>
       <r>   -9.4612    1.0000 </r>
       <r>   -8.6276    1.0000 </r>
       <r>   -8.1467    1.0000 </r>
       <r>   -8.1068    1.0000 </r>
       <r>   -7.9003    1.0000 </r>
       <r>   -7.8324    1.0000 </r>
       <r>   -7.1378    1.0000 </r>
       <r>   -7.1066    1.0000 </r>
       <r>   -3.9725    1.0000 </r>
       <r>   -3.3433    1.0000 </r>
       <r>   -3.2944    1.0000 </r>
       <r>   -2.4880    0.0000 </r>
       <r>   -2.4763    0.0000 </r>
       <r>   -1.2951    0.0000 </r>
       <r>   -1.1822    0.0000 </r>
       <r>    0.2117    0.0000 </r>
       <r>    0.2284    0.0000 </r>
       <r>    0.4520    0.0000 </r>
       <r>    0.5075    0.0000 </r>
       <r>    1.9970    0.0000 </r>
       <r>    2.0654    0.0000 </r>
       <r>    2.1733    0.0000 </r>
       <r>    2.2850    0.0000 </r>
       <r>    2.2854    0.0000 </r>
       <r>    3.0629    0.0000 </r>
       <r>    3.4899    0.0000 </r>
      </set>
      <set comment="kpoint 603">
       <r>  -10.1388    1.0000 </r>
       <r>   -9.5914    1.0000 </r>
       <r>   -9.3779    1.0000 </r>
       <r>   -8.6241    1.0000 </r>
       <r>   -8.2028    1.0000 </r>
       <r>   -8.0464    1.0000 </r>
       <r>   -8.0037    1.0000 </r>
       <r>   -7.7378    1.0000 </r>
       <r>   -7.1879    1.0000 </r>
       <r>   -7.0654    1.0000 </r>
       <r>   -3.9678    1.0000 </r>
       <r>   -3.4134    1.0000 </r>
       <r>   -3.2215    1.0000 </r>
       <r>   -2.5063    0.0000 </r>
       <r>   -2.4623    0.0000 </r>
       <r>   -1.4535    0.0000 </r>
       <r>   -1.0074    0.0000 </r>
       <r>    0.1920    0.0000 </r>
       <r>    0.2525    0.0000 </r>
       <r>    0.3668    0.0000 </r>
       <r>    0.6021    0.0000 </r>
       <r>    1.8920    0.0000 </r>
       <r>    1.9709    0.0000 </r>
       <r>    2.2918    0.0000 </r>
       <r>    2.2933    0.0000 </r>
       <r>    2.3308    0.0000 </r>
       <r>    3.0747    0.0000 </r>
       <r>    3.3546    0.0000 </r>
      </set>
      <set comment="kpoint 604">
       <r>  -10.1291    1.0000 </r>
       <r>   -9.6628    1.0000 </r>
       <r>   -9.2906    1.0000 </r>
       <r>   -8.6164    1.0000 </r>
       <r>   -8.2562    1.0000 </r>
       <r>   -8.1104    1.0000 </r>
       <r>   -7.9839    1.0000 </r>
       <r>   -7.6505    1.0000 </r>
       <r>   -7.2426    1.0000 </r>
       <r>   -7.0303    1.0000 </r>
       <r>   -3.9574    1.0000 </r>
       <r>   -3.4811    1.0000 </r>
       <r>   -3.1480    0.9999 </r>
       <r>   -2.5286    0.0000 </r>
       <r>   -2.4490    0.0000 </r>
       <r>   -1.5988    0.0000 </r>
       <r>   -0.8269    0.0000 </r>
       <r>    0.1794    0.0000 </r>
       <r>    0.2762    0.0000 </r>
       <r>    0.2877    0.0000 </r>
       <r>    0.7019    0.0000 </r>
       <r>    1.7101    0.0000 </r>
       <r>    1.9163    0.0000 </r>
       <r>    2.3078    0.0000 </r>
       <r>    2.3089    0.0000 </r>
       <r>    2.4783    0.0000 </r>
       <r>    3.0967    0.0000 </r>
       <r>    3.2227    0.0000 </r>
      </set>
      <set comment="kpoint 605">
       <r>  -10.1143    1.0000 </r>
       <r>   -9.7296    1.0000 </r>
       <r>   -9.1993    1.0000 </r>
       <r>   -8.6046    1.0000 </r>
       <r>   -8.3065    1.0000 </r>
       <r>   -8.2194    1.0000 </r>
       <r>   -7.9195    1.0000 </r>
       <r>   -7.5725    1.0000 </r>
       <r>   -7.3011    1.0000 </r>
       <r>   -7.0015    1.0000 </r>
       <r>   -3.9414    1.0000 </r>
       <r>   -3.5458    1.0000 </r>
       <r>   -3.0746    0.0765 </r>
       <r>   -2.5558    0.0000 </r>
       <r>   -2.4354    0.0000 </r>
       <r>   -1.7289    0.0000 </r>
       <r>   -0.6456    0.0000 </r>
       <r>    0.1790    0.0000 </r>
       <r>    0.2149    0.0000 </r>
       <r>    0.2978    0.0000 </r>
       <r>    0.8062    0.0000 </r>
       <r>    1.5207    0.0000 </r>
       <r>    1.8393    0.0000 </r>
       <r>    2.3265    0.0000 </r>
       <r>    2.3366    0.0000 </r>
       <r>    2.6152    0.0000 </r>
       <r>    3.0958    0.0000 </r>
       <r>    3.1216    0.0000 </r>
      </set>
      <set comment="kpoint 606">
       <r>  -10.0942    1.0000 </r>
       <r>   -9.7916    1.0000 </r>
       <r>   -9.1043    1.0000 </r>
       <r>   -8.5887    1.0000 </r>
       <r>   -8.3537    1.0000 </r>
       <r>   -8.3297    1.0000 </r>
       <r>   -7.8536    1.0000 </r>
       <r>   -7.5055    1.0000 </r>
       <r>   -7.3628    1.0000 </r>
       <r>   -6.9792    1.0000 </r>
       <r>   -3.9200    1.0000 </r>
       <r>   -3.6070    1.0000 </r>
       <r>   -3.0022    0.0000 </r>
       <r>   -2.5888    0.0000 </r>
       <r>   -2.4206    0.0000 </r>
       <r>   -1.8417    0.0000 </r>
       <r>   -0.4714    0.0000 </r>
       <r>    0.1484    0.0000 </r>
       <r>    0.1985    0.0000 </r>
       <r>    0.3163    0.0000 </r>
       <r>    0.9146    0.0000 </r>
       <r>    1.3253    0.0000 </r>
       <r>    1.7463    0.0000 </r>
       <r>    2.3468    0.0000 </r>
       <r>    2.3753    0.0000 </r>
       <r>    2.7404    0.0000 </r>
       <r>    2.9756    0.0000 </r>
       <r>    3.1410    0.0000 </r>
      </set>
      <set comment="kpoint 607">
       <r>  -10.0690    1.0000 </r>
       <r>   -9.8488    1.0000 </r>
       <r>   -9.0059    1.0000 </r>
       <r>   -8.5688    1.0000 </r>
       <r>   -8.4402    1.0000 </r>
       <r>   -8.3975    1.0000 </r>
       <r>   -7.7865    1.0000 </r>
       <r>   -7.4518    1.0000 </r>
       <r>   -7.4270    1.0000 </r>
       <r>   -6.9631    1.0000 </r>
       <r>   -3.8931    1.0000 </r>
       <r>   -3.6644    1.0000 </r>
       <r>   -2.9318    0.0000 </r>
       <r>   -2.6279    0.0000 </r>
       <r>   -2.4046    0.0000 </r>
       <r>   -1.9348    0.0000 </r>
       <r>   -0.3167    0.0000 </r>
       <r>    0.0876    0.0000 </r>
       <r>    0.2503    0.0000 </r>
       <r>    0.3309    0.0000 </r>
       <r>    1.0264    0.0000 </r>
       <r>    1.1259    0.0000 </r>
       <r>    1.6423    0.0000 </r>
       <r>    2.3657    0.0000 </r>
       <r>    2.4248    0.0000 </r>
       <r>    2.8524    0.0000 </r>
       <r>    2.8632    0.0000 </r>
       <r>    3.1479    0.0000 </r>
      </set>
      <set comment="kpoint 608">
       <r>  -10.0386    1.0000 </r>
       <r>   -9.9011    1.0000 </r>
       <r>   -8.9044    1.0000 </r>
       <r>   -8.5503    1.0000 </r>
       <r>   -8.5449    1.0000 </r>
       <r>   -8.4377    1.0000 </r>
       <r>   -7.7186    1.0000 </r>
       <r>   -7.4931    1.0000 </r>
       <r>   -7.4135    1.0000 </r>
       <r>   -6.9527    1.0000 </r>
       <r>   -3.8608    1.0000 </r>
       <r>   -3.7176    1.0000 </r>
       <r>   -2.8643    0.0000 </r>
       <r>   -2.6733    0.0000 </r>
       <r>   -2.3890    0.0000 </r>
       <r>   -2.0045    0.0000 </r>
       <r>   -0.1954    0.0000 </r>
       <r>    0.0313    0.0000 </r>
       <r>    0.3411    0.0000 </r>
       <r>    0.3476    0.0000 </r>
       <r>    0.9259    0.0000 </r>
       <r>    1.1408    0.0000 </r>
       <r>    1.5316    0.0000 </r>
       <r>    2.3807    0.0000 </r>
       <r>    2.4851    0.0000 </r>
       <r>    2.7595    0.0000 </r>
       <r>    2.9494    0.0000 </r>
       <r>    3.1372    0.0000 </r>
      </set>
      <set comment="kpoint 609">
       <r>  -10.0030    1.0000 </r>
       <r>   -9.9484    1.0000 </r>
       <r>   -8.8002    1.0000 </r>
       <r>   -8.6592    1.0000 </r>
       <r>   -8.5170    1.0000 </r>
       <r>   -8.4744    1.0000 </r>
       <r>   -7.6503    1.0000 </r>
       <r>   -7.5605    1.0000 </r>
       <r>   -7.3922    1.0000 </r>
       <r>   -6.9474    1.0000 </r>
       <r>   -3.8234    1.0000 </r>
       <r>   -3.7664    1.0000 </r>
       <r>   -2.8006    0.0000 </r>
       <r>   -2.7248    0.0000 </r>
       <r>   -2.3778    0.0000 </r>
       <r>   -2.0453    0.0000 </r>
       <r>   -0.1093    0.0000 </r>
       <r>   -0.0237    0.0000 </r>
       <r>    0.3466    0.0000 </r>
       <r>    0.4913    0.0000 </r>
       <r>    0.7304    0.0000 </r>
       <r>    1.2569    0.0000 </r>
       <r>    1.4170    0.0000 </r>
       <r>    2.3894    0.0000 </r>
       <r>    2.5560    0.0000 </r>
       <r>    2.6652    0.0000 </r>
       <r>    3.0290    0.0000 </r>
       <r>    3.1059    0.0000 </r>
      </set>
      <set comment="kpoint 610">
       <r>   -9.9906    1.0000 </r>
       <r>   -9.9624    1.0000 </r>
       <r>   -8.7665    1.0000 </r>
       <r>   -8.6936    1.0000 </r>
       <r>   -8.5074    1.0000 </r>
       <r>   -8.4852    1.0000 </r>
       <r>   -7.6286    1.0000 </r>
       <r>   -7.5820    1.0000 </r>
       <r>   -7.3893    1.0000 </r>
       <r>   -6.9467    1.0000 </r>
       <r>   -3.8104    1.0000 </r>
       <r>   -3.7810    1.0000 </r>
       <r>   -2.7819    0.0000 </r>
       <r>   -2.7417    0.0000 </r>
       <r>   -2.3761    0.0000 </r>
       <r>   -2.0512    0.0000 </r>
       <r>   -0.0840    0.0000 </r>
       <r>   -0.0455    0.0000 </r>
       <r>    0.3473    0.0000 </r>
       <r>    0.5477    0.0000 </r>
       <r>    0.6671    0.0000 </r>
       <r>    1.3007    0.0000 </r>
       <r>    1.3735    0.0000 </r>
       <r>    2.3907    0.0000 </r>
       <r>    2.5808    0.0000 </r>
       <r>    2.6372    0.0000 </r>
       <r>    3.0533    0.0000 </r>
       <r>    3.0891    0.0000 </r>
      </set>
      <set comment="kpoint 611">
       <r>  -10.0278    1.0000 </r>
       <r>   -9.9167    1.0000 </r>
       <r>   -8.8715    1.0000 </r>
       <r>   -8.5851    1.0000 </r>
       <r>   -8.5365    1.0000 </r>
       <r>   -8.4497    1.0000 </r>
       <r>   -7.6969    1.0000 </r>
       <r>   -7.5144    1.0000 </r>
       <r>   -7.4048    1.0000 </r>
       <r>   -6.9504    1.0000 </r>
       <r>   -3.8494    1.0000 </r>
       <r>   -3.7337    1.0000 </r>
       <r>   -2.8440    0.0000 </r>
       <r>   -2.6883    0.0000 </r>
       <r>   -2.3850    0.0000 </r>
       <r>   -2.0211    0.0000 </r>
       <r>   -0.1616    0.0000 </r>
       <r>    0.0099    0.0000 </r>
       <r>    0.3432    0.0000 </r>
       <r>    0.3916    0.0000 </r>
       <r>    0.8595    0.0000 </r>
       <r>    1.1843    0.0000 </r>
       <r>    1.4890    0.0000 </r>
       <r>    2.3843    0.0000 </r>
       <r>    2.5066    0.0000 </r>
       <r>    2.7283    0.0000 </r>
       <r>    2.9803    0.0000 </r>
       <r>    3.1282    0.0000 </r>
      </set>
      <set comment="kpoint 612">
       <r>  -10.0599    1.0000 </r>
       <r>   -9.8660    1.0000 </r>
       <r>   -8.9739    1.0000 </r>
       <r>   -8.5617    1.0000 </r>
       <r>   -8.4753    1.0000 </r>
       <r>   -8.4106    1.0000 </r>
       <r>   -7.7650    1.0000 </r>
       <r>   -7.4479    1.0000 </r>
       <r>   -7.4379    1.0000 </r>
       <r>   -6.9591    1.0000 </r>
       <r>   -3.8833    1.0000 </r>
       <r>   -3.6819    1.0000 </r>
       <r>   -2.9103    0.0000 </r>
       <r>   -2.6408    0.0000 </r>
       <r>   -2.3999    0.0000 </r>
       <r>   -1.9601    0.0000 </r>
       <r>   -0.2714    0.0000 </r>
       <r>    0.0650    0.0000 </r>
       <r>    0.2786    0.0000 </r>
       <r>    0.3344    0.0000 </r>
       <r>    1.0585    0.0000 </r>
       <r>    1.0693    0.0000 </r>
       <r>    1.6016    0.0000 </r>
       <r>    2.3712    0.0000 </r>
       <r>    2.4428    0.0000 </r>
       <r>    2.8290    0.0000 </r>
       <r>    2.8892    0.0000 </r>
       <r>    3.1462    0.0000 </r>
      </set>
      <set comment="kpoint 613">
       <r>  -10.0868    1.0000 </r>
       <r>   -9.8103    1.0000 </r>
       <r>   -9.0734    1.0000 </r>
       <r>   -8.5829    1.0000 </r>
       <r>   -8.3678    1.0000 </r>
       <r>   -8.3648    1.0000 </r>
       <r>   -7.8325    1.0000 </r>
       <r>   -7.4869    1.0000 </r>
       <r>   -7.3830    1.0000 </r>
       <r>   -6.9733    1.0000 </r>
       <r>   -3.9119    1.0000 </r>
       <r>   -3.6258    1.0000 </r>
       <r>   -2.9798    0.0000 </r>
       <r>   -2.5996    0.0000 </r>
       <r>   -2.4162    0.0000 </r>
       <r>   -1.8742    0.0000 </r>
       <r>   -0.4170    0.0000 </r>
       <r>    0.1238    0.0000 </r>
       <r>    0.2132    0.0000 </r>
       <r>    0.3211    0.0000 </r>
       <r>    0.9565    0.0000 </r>
       <r>    1.2582    0.0000 </r>
       <r>    1.7085    0.0000 </r>
       <r>    2.3533    0.0000 </r>
       <r>    2.3898    0.0000 </r>
       <r>    2.7821    0.0000 </r>
       <r>    2.9387    0.0000 </r>
       <r>    3.1452    0.0000 </r>
      </set>
      <set comment="kpoint 614">
       <r>  -10.1085    1.0000 </r>
       <r>   -9.7499    1.0000 </r>
       <r>   -9.1694    1.0000 </r>
       <r>   -8.6001    1.0000 </r>
       <r>   -8.3218    1.0000 </r>
       <r>   -8.2544    1.0000 </r>
       <r>   -7.8988    1.0000 </r>
       <r>   -7.5499    1.0000 </r>
       <r>   -7.3205    1.0000 </r>
       <r>   -6.9936    1.0000 </r>
       <r>   -3.9352    1.0000 </r>
       <r>   -3.5657    1.0000 </r>
       <r>   -3.0516    0.0011 </r>
       <r>   -2.5647    0.0000 </r>
       <r>   -2.4315    0.0000 </r>
       <r>   -1.7675    0.0000 </r>
       <r>   -0.5868    0.0000 </r>
       <r>    0.1846    0.0000 </r>
       <r>    0.1881    0.0000 </r>
       <r>    0.3036    0.0000 </r>
       <r>    0.8468    0.0000 </r>
       <r>    1.4549    0.0000 </r>
       <r>    1.8062    0.0000 </r>
       <r>    2.3332    0.0000 </r>
       <r>    2.3476    0.0000 </r>
       <r>    2.6612    0.0000 </r>
       <r>    3.0565    0.0000 </r>
       <r>    3.1296    0.0000 </r>
      </set>
      <set comment="kpoint 615">
       <r>  -10.1250    1.0000 </r>
       <r>   -9.6846    1.0000 </r>
       <r>   -9.2619    1.0000 </r>
       <r>   -8.6132    1.0000 </r>
       <r>   -8.2724    1.0000 </r>
       <r>   -8.1449    1.0000 </r>
       <r>   -7.9637    1.0000 </r>
       <r>   -7.6247    1.0000 </r>
       <r>   -7.2609    1.0000 </r>
       <r>   -7.0203    1.0000 </r>
       <r>   -3.9529    1.0000 </r>
       <r>   -3.5021    1.0000 </r>
       <r>   -3.1247    0.9828 </r>
       <r>   -2.5357    0.0000 </r>
       <r>   -2.4456    0.0000 </r>
       <r>   -1.6429    0.0000 </r>
       <r>   -0.7671    0.0000 </r>
       <r>    0.1795    0.0000 </r>
       <r>    0.2586    0.0000 </r>
       <r>    0.2827    0.0000 </r>
       <r>    0.7410    0.0000 </r>
       <r>    1.6462    0.0000 </r>
       <r>    1.8899    0.0000 </r>
       <r>    2.3137    0.0000 </r>
       <r>    2.3164    0.0000 </r>
       <r>    2.5281    0.0000 </r>
       <r>    3.1059    0.0000 </r>
       <r>    3.1814    0.0000 </r>
      </set>
      <set comment="kpoint 616">
       <r>  -10.1363    1.0000 </r>
       <r>   -9.6146    1.0000 </r>
       <r>   -9.3506    1.0000 </r>
       <r>   -8.6221    1.0000 </r>
       <r>   -8.2200    1.0000 </r>
       <r>   -8.0373    1.0000 </r>
       <r>   -8.0269    1.0000 </r>
       <r>   -7.7092    1.0000 </r>
       <r>   -7.2049    1.0000 </r>
       <r>   -7.0534    1.0000 </r>
       <r>   -3.9650    1.0000 </r>
       <r>   -3.4353    1.0000 </r>
       <r>   -3.1982    1.0000 </r>
       <r>   -2.5119    0.0000 </r>
       <r>   -2.4589    0.0000 </r>
       <r>   -1.5024    0.0000 </r>
       <r>   -0.9487    0.0000 </r>
       <r>    0.1885    0.0000 </r>
       <r>    0.2593    0.0000 </r>
       <r>    0.3354    0.0000 </r>
       <r>    0.6396    0.0000 </r>
       <r>    1.8304    0.0000 </r>
       <r>    1.9536    0.0000 </r>
       <r>    2.2959    0.0000 </r>
       <r>    2.2976    0.0000 </r>
       <r>    2.3839    0.0000 </r>
       <r>    3.0819    0.0000 </r>
       <r>    3.3118    0.0000 </r>
      </set>
      <set comment="kpoint 617">
       <r>  -10.1423    1.0000 </r>
       <r>   -9.5401    1.0000 </r>
       <r>   -9.4351    1.0000 </r>
       <r>   -8.6269    1.0000 </r>
       <r>   -8.1647    1.0000 </r>
       <r>   -8.0880    1.0000 </r>
       <r>   -7.9327    1.0000 </r>
       <r>   -7.8016    1.0000 </r>
       <r>   -7.1533    1.0000 </r>
       <r>   -7.0927    1.0000 </r>
       <r>   -3.9716    1.0000 </r>
       <r>   -3.3659    1.0000 </r>
       <r>   -3.2714    1.0000 </r>
       <r>   -2.4925    0.0000 </r>
       <r>   -2.4727    0.0000 </r>
       <r>   -1.3481    0.0000 </r>
       <r>   -1.1259    0.0000 </r>
       <r>    0.2062    0.0000 </r>
       <r>    0.2350    0.0000 </r>
       <r>    0.4185    0.0000 </r>
       <r>    0.5431    0.0000 </r>
       <r>    1.9909    0.0000 </r>
       <r>    2.0063    0.0000 </r>
       <r>    2.2295    0.0000 </r>
       <r>    2.2858    0.0000 </r>
       <r>    2.2874    0.0000 </r>
       <r>    3.0656    0.0000 </r>
       <r>    3.4461    0.0000 </r>
      </set>
      <set comment="kpoint 618">
       <r>   -9.9779    1.0000 </r>
       <r>   -9.3531    1.0000 </r>
       <r>   -9.3423    1.0000 </r>
       <r>   -8.4801    1.0000 </r>
       <r>   -8.0206    1.0000 </r>
       <r>   -8.0132    1.0000 </r>
       <r>   -7.8424    1.0000 </r>
       <r>   -7.8300    1.0000 </r>
       <r>   -7.1085    1.0000 </r>
       <r>   -7.1023    1.0000 </r>
       <r>   -3.7203    1.0000 </r>
       <r>   -3.0873    0.2994 </r>
       <r>   -3.0776    0.1126 </r>
       <r>   -2.2892    0.0000 </r>
       <r>   -2.2875    0.0000 </r>
       <r>   -1.0152    0.0000 </r>
       <r>   -0.9917    0.0000 </r>
       <r>    0.1500    0.0000 </r>
       <r>    0.1520    0.0000 </r>
       <r>    0.3069    0.0000 </r>
       <r>    0.3251    0.0000 </r>
       <r>    1.9689    0.0000 </r>
       <r>    1.9888    0.0000 </r>
       <r>    2.0153    0.0000 </r>
       <r>    2.2443    0.0000 </r>
       <r>    2.2452    0.0000 </r>
       <r>    2.8415    0.0000 </r>
       <r>    3.5328    0.0000 </r>
      </set>
      <set comment="kpoint 619">
       <r>   -9.9757    1.0000 </r>
       <r>   -9.4168    1.0000 </r>
       <r>   -9.2751    1.0000 </r>
       <r>   -8.4784    1.0000 </r>
       <r>   -8.0657    1.0000 </r>
       <r>   -7.9662    1.0000 </r>
       <r>   -7.9204    1.0000 </r>
       <r>   -7.7569    1.0000 </r>
       <r>   -7.1467    1.0000 </r>
       <r>   -7.0678    1.0000 </r>
       <r>   -3.7179    1.0000 </r>
       <r>   -3.1461    0.9999 </r>
       <r>   -3.0177    0.0000 </r>
       <r>   -2.3078    0.0000 </r>
       <r>   -2.2698    0.0000 </r>
       <r>   -1.1436    0.0000 </r>
       <r>   -0.8577    0.0000 </r>
       <r>    0.1329    0.0000 </r>
       <r>    0.1712    0.0000 </r>
       <r>    0.2418    0.0000 </r>
       <r>    0.3960    0.0000 </r>
       <r>    1.8634    0.0000 </r>
       <r>    1.9505    0.0000 </r>
       <r>    2.1356    0.0000 </r>
       <r>    2.2444    0.0000 </r>
       <r>    2.2526    0.0000 </r>
       <r>    2.8536    0.0000 </r>
       <r>    3.4088    0.0000 </r>
      </set>
      <set comment="kpoint 620">
       <r>   -9.9685    1.0000 </r>
       <r>   -9.4871    1.0000 </r>
       <r>   -9.1933    1.0000 </r>
       <r>   -8.4729    1.0000 </r>
       <r>   -8.1159    1.0000 </r>
       <r>   -8.0153    1.0000 </r>
       <r>   -7.9098    1.0000 </r>
       <r>   -7.6783    1.0000 </r>
       <r>   -7.1950    1.0000 </r>
       <r>   -7.0318    1.0000 </r>
       <r>   -3.7100    1.0000 </r>
       <r>   -3.2126    1.0000 </r>
       <r>   -2.9475    0.0000 </r>
       <r>   -2.3301    0.0000 </r>
       <r>   -2.2505    0.0000 </r>
       <r>   -1.2862    0.0000 </r>
       <r>   -0.6976    0.0000 </r>
       <r>    0.1204    0.0000 </r>
       <r>    0.1660    0.0000 </r>
       <r>    0.1927    0.0000 </r>
       <r>    0.4917    0.0000 </r>
       <r>    1.7059    0.0000 </r>
       <r>    1.8913    0.0000 </r>
       <r>    2.2538    0.0000 </r>
       <r>    2.2678    0.0000 </r>
       <r>    2.2764    0.0000 </r>
       <r>    2.8901    0.0000 </r>
       <r>    3.2726    0.0000 </r>
      </set>
      <set comment="kpoint 621">
       <r>   -9.9562    1.0000 </r>
       <r>   -9.5531    1.0000 </r>
       <r>   -9.1078    1.0000 </r>
       <r>   -8.4635    1.0000 </r>
       <r>   -8.1634    1.0000 </r>
       <r>   -8.1135    1.0000 </r>
       <r>   -7.8517    1.0000 </r>
       <r>   -7.6082    1.0000 </r>
       <r>   -7.2467    1.0000 </r>
       <r>   -7.0008    1.0000 </r>
       <r>   -3.6966    1.0000 </r>
       <r>   -3.2766    1.0000 </r>
       <r>   -2.8775    0.0000 </r>
       <r>   -2.3555    0.0000 </r>
       <r>   -2.2303    0.0000 </r>
       <r>   -1.4169    0.0000 </r>
       <r>   -0.5413    0.0000 </r>
       <r>    0.0978    0.0000 </r>
       <r>    0.1211    0.0000 </r>
       <r>    0.2127    0.0000 </r>
       <r>    0.5937    0.0000 </r>
       <r>    1.5428    0.0000 </r>
       <r>    1.8025    0.0000 </r>
       <r>    2.2745    0.0000 </r>
       <r>    2.2875    0.0000 </r>
       <r>    2.4109    0.0000 </r>
       <r>    2.9375    0.0000 </r>
       <r>    3.1390    0.0000 </r>
      </set>
      <set comment="kpoint 622">
       <r>   -9.9389    1.0000 </r>
       <r>   -9.6146    1.0000 </r>
       <r>   -9.0189    1.0000 </r>
       <r>   -8.4502    1.0000 </r>
       <r>   -8.2140    1.0000 </r>
       <r>   -8.2081    1.0000 </r>
       <r>   -7.7923    1.0000 </r>
       <r>   -7.5479    1.0000 </r>
       <r>   -7.3013    1.0000 </r>
       <r>   -6.9752    1.0000 </r>
       <r>   -3.6777    1.0000 </r>
       <r>   -3.3377    1.0000 </r>
       <r>   -2.8085    0.0000 </r>
       <r>   -2.3849    0.0000 </r>
       <r>   -2.2085    0.0000 </r>
       <r>   -1.5336    0.0000 </r>
       <r>   -0.4002    0.0000 </r>
       <r>    0.0377    0.0000 </r>
       <r>    0.1462    0.0000 </r>
       <r>    0.2300    0.0000 </r>
       <r>    0.7013    0.0000 </r>
       <r>    1.3743    0.0000 </r>
       <r>    1.6952    0.0000 </r>
       <r>    2.3071    0.0000 </r>
       <r>    2.3089    0.0000 </r>
       <r>    2.5381    0.0000 </r>
       <r>    2.9813    0.0000 </r>
       <r>    3.0100    0.0000 </r>
      </set>
      <set comment="kpoint 623">
       <r>   -9.9166    1.0000 </r>
       <r>   -9.6715    1.0000 </r>
       <r>   -8.9269    1.0000 </r>
       <r>   -8.4332    1.0000 </r>
       <r>   -8.3158    1.0000 </r>
       <r>   -8.2499    1.0000 </r>
       <r>   -7.7317    1.0000 </r>
       <r>   -7.4989    1.0000 </r>
       <r>   -7.3583    1.0000 </r>
       <r>   -6.9551    1.0000 </r>
       <r>   -3.6534    1.0000 </r>
       <r>   -3.3952    1.0000 </r>
       <r>   -2.7414    0.0000 </r>
       <r>   -2.4191    0.0000 </r>
       <r>   -2.1852    0.0000 </r>
       <r>   -1.6339    0.0000 </r>
       <r>   -0.2896    0.0000 </r>
       <r>   -0.0144    0.0000 </r>
       <r>    0.2113    0.0000 </r>
       <r>    0.2440    0.0000 </r>
       <r>    0.8141    0.0000 </r>
       <r>    1.2010    0.0000 </r>
       <r>    1.5772    0.0000 </r>
       <r>    2.3294    0.0000 </r>
       <r>    2.3521    0.0000 </r>
       <r>    2.6565    0.0000 </r>
       <r>    2.8873    0.0000 </r>
       <r>    3.0098    0.0000 </r>
      </set>
      <set comment="kpoint 624">
       <r>   -9.8892    1.0000 </r>
       <r>   -9.7238    1.0000 </r>
       <r>   -8.8320    1.0000 </r>
       <r>   -8.4180    1.0000 </r>
       <r>   -8.4125    1.0000 </r>
       <r>   -8.2885    1.0000 </r>
       <r>   -7.6704    1.0000 </r>
       <r>   -7.4625    1.0000 </r>
       <r>   -7.4171    1.0000 </r>
       <r>   -6.9407    1.0000 </r>
       <r>   -3.6239    1.0000 </r>
       <r>   -3.4490    1.0000 </r>
       <r>   -2.6771    0.0000 </r>
       <r>   -2.4585    0.0000 </r>
       <r>   -2.1618    0.0000 </r>
       <r>   -1.7143    0.0000 </r>
       <r>   -0.2170    0.0000 </r>
       <r>   -0.0589    0.0000 </r>
       <r>    0.2543    0.0000 </r>
       <r>    0.3236    0.0000 </r>
       <r>    0.9314    0.0000 </r>
       <r>    1.0240    0.0000 </r>
       <r>    1.4536    0.0000 </r>
       <r>    2.3463    0.0000 </r>
       <r>    2.4094    0.0000 </r>
       <r>    2.7640    0.0000 </r>
       <r>    2.7728    0.0000 </r>
       <r>    3.0149    0.0000 </r>
      </set>
      <set comment="kpoint 625">
       <r>   -9.8569    1.0000 </r>
       <r>   -9.7714    1.0000 </r>
       <r>   -8.7347    1.0000 </r>
       <r>   -8.5200    1.0000 </r>
       <r>   -8.3880    1.0000 </r>
       <r>   -8.3239    1.0000 </r>
       <r>   -7.6087    1.0000 </r>
       <r>   -7.4773    1.0000 </r>
       <r>   -7.4397    1.0000 </r>
       <r>   -6.9318    1.0000 </r>
       <r>   -3.5892    1.0000 </r>
       <r>   -3.4985    1.0000 </r>
       <r>   -2.6165    0.0000 </r>
       <r>   -2.5033    0.0000 </r>
       <r>   -2.1424    0.0000 </r>
       <r>   -1.7692    0.0000 </r>
       <r>   -0.1718    0.0000 </r>
       <r>   -0.0967    0.0000 </r>
       <r>    0.2606    0.0000 </r>
       <r>    0.4721    0.0000 </r>
       <r>    0.8452    0.0000 </r>
       <r>    1.0526    0.0000 </r>
       <r>    1.3276    0.0000 </r>
       <r>    2.3575    0.0000 </r>
       <r>    2.4790    0.0000 </r>
       <r>    2.6677    0.0000 </r>
       <r>    2.8574    0.0000 </r>
       <r>    2.9930    0.0000 </r>
      </set>
      <set comment="kpoint 626">
       <r>   -9.8198    1.0000 </r>
       <r>   -9.8141    1.0000 </r>
       <r>   -8.6353    1.0000 </r>
       <r>   -8.6211    1.0000 </r>
       <r>   -8.3600    1.0000 </r>
       <r>   -8.3559    1.0000 </r>
       <r>   -7.5471    1.0000 </r>
       <r>   -7.5385    1.0000 </r>
       <r>   -7.4314    1.0000 </r>
       <r>   -6.9286    1.0000 </r>
       <r>   -3.5496    1.0000 </r>
       <r>   -3.5435    1.0000 </r>
       <r>   -2.5604    0.0000 </r>
       <r>   -2.5536    0.0000 </r>
       <r>   -2.1338    0.0000 </r>
       <r>   -1.7909    0.0000 </r>
       <r>   -0.1379    0.0000 </r>
       <r>   -0.1300    0.0000 </r>
       <r>    0.2629    0.0000 </r>
       <r>    0.6400    0.0000 </r>
       <r>    0.6680    0.0000 </r>
       <r>    1.1767    0.0000 </r>
       <r>    1.2017    0.0000 </r>
       <r>    2.3618    0.0000 </r>
       <r>    2.5606    0.0000 </r>
       <r>    2.5731    0.0000 </r>
       <r>    2.9328    0.0000 </r>
       <r>    2.9446    0.0000 </r>
      </set>
      <set comment="kpoint 627">
       <r>   -9.8520    1.0000 </r>
       <r>   -9.7777    1.0000 </r>
       <r>   -8.7207    1.0000 </r>
       <r>   -8.5344    1.0000 </r>
       <r>   -8.3844    1.0000 </r>
       <r>   -8.3285    1.0000 </r>
       <r>   -7.6001    1.0000 </r>
       <r>   -7.4858    1.0000 </r>
       <r>   -7.4377    1.0000 </r>
       <r>   -6.9310    1.0000 </r>
       <r>   -3.5839    1.0000 </r>
       <r>   -3.5052    1.0000 </r>
       <r>   -2.6090    0.0000 </r>
       <r>   -2.5093    0.0000 </r>
       <r>   -2.1405    0.0000 </r>
       <r>   -1.7746    0.0000 </r>
       <r>   -0.1636    0.0000 </r>
       <r>   -0.1053    0.0000 </r>
       <r>    0.2611    0.0000 </r>
       <r>    0.4981    0.0000 </r>
       <r>    0.8163    0.0000 </r>
       <r>    1.0772    0.0000 </r>
       <r>    1.3025    0.0000 </r>
       <r>    2.3587    0.0000 </r>
       <r>    2.4899    0.0000 </r>
       <r>    2.6535    0.0000 </r>
       <r>    2.8730    0.0000 </r>
       <r>    2.9859    0.0000 </r>
      </set>
      <set comment="kpoint 628">
       <r>   -9.8850    1.0000 </r>
       <r>   -9.7308    1.0000 </r>
       <r>   -8.8184    1.0000 </r>
       <r>   -8.4325    1.0000 </r>
       <r>   -8.4093    1.0000 </r>
       <r>   -8.2936    1.0000 </r>
       <r>   -7.6618    1.0000 </r>
       <r>   -7.4585    1.0000 </r>
       <r>   -7.4255    1.0000 </r>
       <r>   -6.9390    1.0000 </r>
       <r>   -3.6192    1.0000 </r>
       <r>   -3.4563    1.0000 </r>
       <r>   -2.6689    0.0000 </r>
       <r>   -2.4635    0.0000 </r>
       <r>   -2.1590    0.0000 </r>
       <r>   -1.7241    0.0000 </r>
       <r>   -0.2066    0.0000 </r>
       <r>   -0.0686    0.0000 </r>
       <r>    0.2553    0.0000 </r>
       <r>    0.3457    0.0000 </r>
       <r>    0.9555    0.0000 </r>
       <r>    0.9948    0.0000 </r>
       <r>    1.4287    0.0000 </r>
       <r>    2.3484    0.0000 </r>
       <r>    2.4185    0.0000 </r>
       <r>    2.7571    0.0000 </r>
       <r>    2.7826    0.0000 </r>
       <r>    3.0130    0.0000 </r>
      </set>
      <set comment="kpoint 629">
       <r>   -9.9130    1.0000 </r>
       <r>   -9.6792    1.0000 </r>
       <r>   -8.9136    1.0000 </r>
       <r>   -8.4306    1.0000 </r>
       <r>   -8.3302    1.0000 </r>
       <r>   -8.2554    1.0000 </r>
       <r>   -7.7232    1.0000 </r>
       <r>   -7.4930    1.0000 </r>
       <r>   -7.3665    1.0000 </r>
       <r>   -6.9526    1.0000 </r>
       <r>   -3.6495    1.0000 </r>
       <r>   -3.4032    1.0000 </r>
       <r>   -2.7326    0.0000 </r>
       <r>   -2.4233    0.0000 </r>
       <r>   -2.1823    0.0000 </r>
       <r>   -1.6471    0.0000 </r>
       <r>   -0.2746    0.0000 </r>
       <r>   -0.0255    0.0000 </r>
       <r>    0.2268    0.0000 </r>
       <r>    0.2455    0.0000 </r>
       <r>    0.8375    0.0000 </r>
       <r>    1.1718    0.0000 </r>
       <r>    1.5531    0.0000 </r>
       <r>    2.3322    0.0000 </r>
       <r>    2.3594    0.0000 </r>
       <r>    2.6774    0.0000 </r>
       <r>    2.8704    0.0000 </r>
       <r>    3.0128    0.0000 </r>
      </set>
      <set comment="kpoint 630">
       <r>   -9.9360    1.0000 </r>
       <r>   -9.6229    1.0000 </r>
       <r>   -9.0061    1.0000 </r>
       <r>   -8.4481    1.0000 </r>
       <r>   -8.2283    1.0000 </r>
       <r>   -8.2141    1.0000 </r>
       <r>   -7.7839    1.0000 </r>
       <r>   -7.5403    1.0000 </r>
       <r>   -7.3092    1.0000 </r>
       <r>   -6.9719    1.0000 </r>
       <r>   -3.6745    1.0000 </r>
       <r>   -3.3461    1.0000 </r>
       <r>   -2.7992    0.0000 </r>
       <r>   -2.3883    0.0000 </r>
       <r>   -2.2060    0.0000 </r>
       <r>   -1.5496    0.0000 </r>
       <r>   -0.3800    0.0000 </r>
       <r>    0.0251    0.0000 </r>
       <r>    0.1547    0.0000 </r>
       <r>    0.2319    0.0000 </r>
       <r>    0.7238    0.0000 </r>
       <r>    1.3455    0.0000 </r>
       <r>    1.6726    0.0000 </r>
       <r>    2.3121    0.0000 </r>
       <r>    2.3126    0.0000 </r>
       <r>    2.5607    0.0000 </r>
       <r>    2.9884    0.0000 </r>
       <r>    2.9919    0.0000 </r>
      </set>
      <set comment="kpoint 631">
       <r>   -9.9541    1.0000 </r>
       <r>   -9.5620    1.0000 </r>
       <r>   -9.0955    1.0000 </r>
       <r>   -8.4619    1.0000 </r>
       <r>   -8.1698    1.0000 </r>
       <r>   -8.1276    1.0000 </r>
       <r>   -7.8436    1.0000 </r>
       <r>   -7.5991    1.0000 </r>
       <r>   -7.2543    1.0000 </r>
       <r>   -6.9967    1.0000 </r>
       <r>   -3.6942    1.0000 </r>
       <r>   -3.2855    1.0000 </r>
       <r>   -2.8679    0.0000 </r>
       <r>   -2.3582    0.0000 </r>
       <r>   -2.2282    0.0000 </r>
       <r>   -1.4353    0.0000 </r>
       <r>   -0.5179    0.0000 </r>
       <r>    0.0838    0.0000 </r>
       <r>    0.1245    0.0000 </r>
       <r>    0.2149    0.0000 </r>
       <r>    0.6152    0.0000 </r>
       <r>    1.5145    0.0000 </r>
       <r>    1.7826    0.0000 </r>
       <r>    2.2782    0.0000 </r>
       <r>    2.2907    0.0000 </r>
       <r>    2.4348    0.0000 </r>
       <r>    2.9467    0.0000 </r>
       <r>    3.1201    0.0000 </r>
      </set>
      <set comment="kpoint 632">
       <r>   -9.9670    1.0000 </r>
       <r>   -9.4967    1.0000 </r>
       <r>   -9.1815    1.0000 </r>
       <r>   -8.4718    1.0000 </r>
       <r>   -8.1226    1.0000 </r>
       <r>   -8.0290    1.0000 </r>
       <r>   -7.9019    1.0000 </r>
       <r>   -7.6680    1.0000 </r>
       <r>   -7.2022    1.0000 </r>
       <r>   -7.0269    1.0000 </r>
       <r>   -3.7084    1.0000 </r>
       <r>   -3.2218    1.0000 </r>
       <r>   -2.9378    0.0000 </r>
       <r>   -2.3323    0.0000 </r>
       <r>   -2.2487    0.0000 </r>
       <r>   -1.3066    0.0000 </r>
       <r>   -0.6731    0.0000 </r>
       <r>    0.1209    0.0000 </r>
       <r>    0.1505    0.0000 </r>
       <r>    0.1951    0.0000 </r>
       <r>    0.5123    0.0000 </r>
       <r>    1.6781    0.0000 </r>
       <r>    1.8758    0.0000 </r>
       <r>    2.2558    0.0000 </r>
       <r>    2.2706    0.0000 </r>
       <r>    2.3013    0.0000 </r>
       <r>    2.8990    0.0000 </r>
       <r>    3.2531    0.0000 </r>
      </set>
      <set comment="kpoint 633">
       <r>   -9.9750    1.0000 </r>
       <r>   -9.4270    1.0000 </r>
       <r>   -9.2638    1.0000 </r>
       <r>   -8.4779    1.0000 </r>
       <r>   -8.0728    1.0000 </r>
       <r>   -7.9585    1.0000 </r>
       <r>   -7.9335    1.0000 </r>
       <r>   -7.7454    1.0000 </r>
       <r>   -7.1534    1.0000 </r>
       <r>   -7.0623    1.0000 </r>
       <r>   -3.7171    1.0000 </r>
       <r>   -3.1556    1.0000 </r>
       <r>   -3.0079    0.0000 </r>
       <r>   -2.3096    0.0000 </r>
       <r>   -2.2682    0.0000 </r>
       <r>   -1.1658    0.0000 </r>
       <r>   -0.8334    0.0000 </r>
       <r>    0.1318    0.0000 </r>
       <r>    0.1736    0.0000 </r>
       <r>    0.2250    0.0000 </r>
       <r>    0.4154    0.0000 </r>
       <r>    1.8363    0.0000 </r>
       <r>    1.9418    0.0000 </r>
       <r>    2.1613    0.0000 </r>
       <r>    2.2449    0.0000 </r>
       <r>    2.2547    0.0000 </r>
       <r>    2.8591    0.0000 </r>
       <r>    3.3889    0.0000 </r>
      </set>
      <set comment="kpoint 634">
       <r>   -9.8107    1.0000 </r>
       <r>   -9.2438    1.0000 </r>
       <r>   -9.1741    1.0000 </r>
       <r>   -8.3340    1.0000 </r>
       <r>   -7.9362    1.0000 </r>
       <r>   -7.8899    1.0000 </r>
       <r>   -7.8597    1.0000 </r>
       <r>   -7.7867    1.0000 </r>
       <r>   -7.1155    1.0000 </r>
       <r>   -7.0770    1.0000 </r>
       <r>   -3.4635    1.0000 </r>
       <r>   -2.8782    0.0000 </r>
       <r>   -2.8150    0.0000 </r>
       <r>   -2.1120    0.0000 </r>
       <r>   -2.0895    0.0000 </r>
       <r>   -0.8316    0.0000 </r>
       <r>   -0.6945    0.0000 </r>
       <r>    0.0898    0.0000 </r>
       <r>    0.1044    0.0000 </r>
       <r>    0.1218    0.0000 </r>
       <r>    0.2055    0.0000 </r>
       <r>    1.8089    0.0000 </r>
       <r>    1.9139    0.0000 </r>
       <r>    1.9453    0.0000 </r>
       <r>    2.1967    0.0000 </r>
       <r>    2.2045    0.0000 </r>
       <r>    2.6243    0.0000 </r>
       <r>    3.4114    0.0000 </r>
      </set>
      <set comment="kpoint 635">
       <r>   -9.8106    1.0000 </r>
       <r>   -9.2463    1.0000 </r>
       <r>   -9.1714    1.0000 </r>
       <r>   -8.3339    1.0000 </r>
       <r>   -7.9381    1.0000 </r>
       <r>   -7.8880    1.0000 </r>
       <r>   -7.8627    1.0000 </r>
       <r>   -7.7839    1.0000 </r>
       <r>   -7.1169    1.0000 </r>
       <r>   -7.0758    1.0000 </r>
       <r>   -3.4634    1.0000 </r>
       <r>   -2.8806    0.0000 </r>
       <r>   -2.8125    0.0000 </r>
       <r>   -2.1142    0.0000 </r>
       <r>   -2.0873    0.0000 </r>
       <r>   -0.8349    0.0000 </r>
       <r>   -0.6913    0.0000 </r>
       <r>    0.0886    0.0000 </r>
       <r>    0.1055    0.0000 </r>
       <r>    0.1248    0.0000 </r>
       <r>    0.2024    0.0000 </r>
       <r>    1.8097    0.0000 </r>
       <r>    1.9146    0.0000 </r>
       <r>    1.9443    0.0000 </r>
       <r>    2.1968    0.0000 </r>
       <r>    2.2046    0.0000 </r>
       <r>    2.6238    0.0000 </r>
       <r>    3.4079    0.0000 </r>
      </set>
      <set comment="kpoint 636">
       <r>   -9.8056    1.0000 </r>
       <r>   -9.3148    1.0000 </r>
       <r>   -9.0954    1.0000 </r>
       <r>   -8.3303    1.0000 </r>
       <r>   -7.9843    1.0000 </r>
       <r>   -7.9440    1.0000 </r>
       <r>   -7.8380    1.0000 </r>
       <r>   -7.7146    1.0000 </r>
       <r>   -7.1599    1.0000 </r>
       <r>   -7.0396    1.0000 </r>
       <r>   -3.4579    1.0000 </r>
       <r>   -2.9450    0.0000 </r>
       <r>   -2.7462    0.0000 </r>
       <r>   -2.1389    0.0000 </r>
       <r>   -2.0618    0.0000 </r>
       <r>   -0.9712    0.0000 </r>
       <r>   -0.5524    0.0000 </r>
       <r>    0.0527    0.0000 </r>
       <r>    0.0800    0.0000 </r>
       <r>    0.1233    0.0000 </r>
       <r>    0.2911    0.0000 </r>
       <r>    1.6715    0.0000 </r>
       <r>    1.8549    0.0000 </r>
       <r>    2.0771    0.0000 </r>
       <r>    2.1986    0.0000 </r>
       <r>    2.2197    0.0000 </r>
       <r>    2.6702    0.0000 </r>
       <r>    3.2764    0.0000 </r>
      </set>
      <set comment="kpoint 637">
       <r>   -9.7959    1.0000 </r>
       <r>   -9.3793    1.0000 </r>
       <r>   -9.0160    1.0000 </r>
       <r>   -8.3231    1.0000 </r>
       <r>   -8.0297    1.0000 </r>
       <r>   -8.0283    1.0000 </r>
       <r>   -7.7865    1.0000 </r>
       <r>   -7.6529    1.0000 </r>
       <r>   -7.2057    1.0000 </r>
       <r>   -7.0074    1.0000 </r>
       <r>   -3.4470    1.0000 </r>
       <r>   -3.0075    0.0000 </r>
       <r>   -2.6803    0.0000 </r>
       <r>   -2.1646    0.0000 </r>
       <r>   -2.0346    0.0000 </r>
       <r>   -1.0999    0.0000 </r>
       <r>   -0.4244    0.0000 </r>
       <r>   -0.0107    0.0000 </r>
       <r>    0.0874    0.0000 </r>
       <r>    0.1406    0.0000 </r>
       <r>    0.3873    0.0000 </r>
       <r>    1.5305    0.0000 </r>
       <r>    1.7552    0.0000 </r>
       <r>    2.2069    0.0000 </r>
       <r>    2.2116    0.0000 </r>
       <r>    2.2394    0.0000 </r>
       <r>    2.7411    0.0000 </r>
       <r>    3.1454    0.0000 </r>
      </set>
      <set comment="kpoint 638">
       <r>   -9.7812    1.0000 </r>
       <r>   -9.4397    1.0000 </r>
       <r>   -8.9335    1.0000 </r>
       <r>   -8.3124    1.0000 </r>
       <r>   -8.1186    1.0000 </r>
       <r>   -8.0699    1.0000 </r>
       <r>   -7.7337    1.0000 </r>
       <r>   -7.5998    1.0000 </r>
       <r>   -7.2539    1.0000 </r>
       <r>   -6.9797    1.0000 </r>
       <r>   -3.4307    1.0000 </r>
       <r>   -3.0676    0.0274 </r>
       <r>   -2.6155    0.0000 </r>
       <r>   -2.1923    0.0000 </r>
       <r>   -2.0053    0.0000 </r>
       <r>   -1.2184    0.0000 </r>
       <r>   -0.3226    0.0000 </r>
       <r>   -0.0650    0.0000 </r>
       <r>    0.1262    0.0000 </r>
       <r>    0.1561    0.0000 </r>
       <r>    0.4907    0.0000 </r>
       <r>    1.3865    0.0000 </r>
       <r>    1.6343    0.0000 </r>
       <r>    2.2371    0.0000 </r>
       <r>    2.2611    0.0000 </r>
       <r>    2.3331    0.0000 </r>
       <r>    2.8123    0.0000 </r>
       <r>    3.0165    0.0000 </r>
      </set>
      <set comment="kpoint 639">
       <r>   -9.7618    1.0000 </r>
       <r>   -9.4959    1.0000 </r>
       <r>   -8.8482    1.0000 </r>
       <r>   -8.2983    1.0000 </r>
       <r>   -8.2099    1.0000 </r>
       <r>   -8.1089    1.0000 </r>
       <r>   -7.6800    1.0000 </r>
       <r>   -7.5562    1.0000 </r>
       <r>   -7.3042    1.0000 </r>
       <r>   -6.9567    1.0000 </r>
       <r>   -3.4091    1.0000 </r>
       <r>   -3.1247    0.9828 </r>
       <r>   -2.5527    0.0000 </r>
       <r>   -2.2229    0.0000 </r>
       <r>   -1.9740    0.0000 </r>
       <r>   -1.3239    0.0000 </r>
       <r>   -0.2597    0.0000 </r>
       <r>   -0.1099    0.0000 </r>
       <r>    0.1690    0.0000 </r>
       <r>    0.2093    0.0000 </r>
       <r>    0.6008    0.0000 </r>
       <r>    1.2393    0.0000 </r>
       <r>    1.5033    0.0000 </r>
       <r>    2.2758    0.0000 </r>
       <r>    2.2820    0.0000 </r>
       <r>    2.4544    0.0000 </r>
       <r>    2.8661    0.0000 </r>
       <r>    2.8917    0.0000 </r>
      </set>
      <set comment="kpoint 640">
       <r>   -9.7375    1.0000 </r>
       <r>   -9.5477    1.0000 </r>
       <r>   -8.7604    1.0000 </r>
       <r>   -8.3027    1.0000 </r>
       <r>   -8.2807    1.0000 </r>
       <r>   -8.1452    1.0000 </r>
       <r>   -7.6255    1.0000 </r>
       <r>   -7.5228    1.0000 </r>
       <r>   -7.3560    1.0000 </r>
       <r>   -6.9391    1.0000 </r>
       <r>   -3.3823    1.0000 </r>
       <r>   -3.1783    1.0000 </r>
       <r>   -2.4927    0.0000 </r>
       <r>   -2.2572    0.0000 </r>
       <r>   -1.9420    0.0000 </r>
       <r>   -1.4133    0.0000 </r>
       <r>   -0.2299    0.0000 </r>
       <r>   -0.1456    0.0000 </r>
       <r>    0.1788    0.0000 </r>
       <r>    0.3307    0.0000 </r>
       <r>    0.7170    0.0000 </r>
       <r>    1.0890    0.0000 </r>
       <r>    1.3685    0.0000 </r>
       <r>    2.2998    0.0000 </r>
       <r>    2.3280    0.0000 </r>
       <r>    2.5689    0.0000 </r>
       <r>    2.7728    0.0000 </r>
       <r>    2.8904    0.0000 </r>
      </set>
      <set comment="kpoint 641">
       <r>   -9.7085    1.0000 </r>
       <r>   -9.5950    1.0000 </r>
       <r>   -8.6705    1.0000 </r>
       <r>   -8.3961    1.0000 </r>
       <r>   -8.2597    1.0000 </r>
       <r>   -8.1787    1.0000 </r>
       <r>   -7.5707    1.0000 </r>
       <r>   -7.5004    1.0000 </r>
       <r>   -7.4092    1.0000 </r>
       <r>   -6.9271    1.0000 </r>
       <r>   -3.3505    1.0000 </r>
       <r>   -3.2282    1.0000 </r>
       <r>   -2.4362    0.0000 </r>
       <r>   -2.2957    0.0000 </r>
       <r>   -1.9132    0.0000 </r>
       <r>   -1.4811    0.0000 </r>
       <r>   -0.2162    0.0000 </r>
       <r>   -0.1723    0.0000 </r>
       <r>    0.1854    0.0000 </r>
       <r>    0.4738    0.0000 </r>
       <r>    0.8387    0.0000 </r>
       <r>    0.9356    0.0000 </r>
       <r>    1.2331    0.0000 </r>
       <r>    2.3128    0.0000 </r>
       <r>    2.3937    0.0000 </r>
       <r>    2.6617    0.0000 </r>
       <r>    2.6737    0.0000 </r>
       <r>    2.8799    0.0000 </r>
      </set>
      <set comment="kpoint 642">
       <r>   -9.6748    1.0000 </r>
       <r>   -9.6378    1.0000 </r>
       <r>   -8.5789    1.0000 </r>
       <r>   -8.4895    1.0000 </r>
       <r>   -8.2354    1.0000 </r>
       <r>   -8.2091    1.0000 </r>
       <r>   -7.5158    1.0000 </r>
       <r>   -7.4891    1.0000 </r>
       <r>   -7.4633    1.0000 </r>
       <r>   -6.9211    1.0000 </r>
       <r>   -3.3138    1.0000 </r>
       <r>   -3.2738    1.0000 </r>
       <r>   -2.3839    0.0000 </r>
       <r>   -2.3388    0.0000 </r>
       <r>   -1.8950    0.0000 </r>
       <r>   -1.5189    0.0000 </r>
       <r>   -0.2064    0.0000 </r>
       <r>   -0.1912    0.0000 </r>
       <r>    0.1887    0.0000 </r>
       <r>    0.6263    0.0000 </r>
       <r>    0.7801    0.0000 </r>
       <r>    0.9654    0.0000 </r>
       <r>    1.0993    0.0000 </r>
       <r>    2.3195    0.0000 </r>
       <r>    2.4724    0.0000 </r>
       <r>    2.5601    0.0000 </r>
       <r>    2.7645    0.0000 </r>
       <r>    2.8362    0.0000 </r>
      </set>
      <set comment="kpoint 643">
       <r>   -9.6761    1.0000 </r>
       <r>   -9.6364    1.0000 </r>
       <r>   -8.5822    1.0000 </r>
       <r>   -8.4861    1.0000 </r>
       <r>   -8.2365    1.0000 </r>
       <r>   -8.2080    1.0000 </r>
       <r>   -7.5179    1.0000 </r>
       <r>   -7.4894    1.0000 </r>
       <r>   -7.4612    1.0000 </r>
       <r>   -6.9212    1.0000 </r>
       <r>   -3.3151    1.0000 </r>
       <r>   -3.2724    1.0000 </r>
       <r>   -2.3866    0.0000 </r>
       <r>   -2.3361    0.0000 </r>
       <r>   -1.8955    0.0000 </r>
       <r>   -1.5183    0.0000 </r>
       <r>   -0.2039    0.0000 </r>
       <r>   -0.1938    0.0000 </r>
       <r>    0.1886    0.0000 </r>
       <r>    0.6244    0.0000 </r>
       <r>    0.7818    0.0000 </r>
       <r>    0.9685    0.0000 </r>
       <r>    1.0962    0.0000 </r>
       <r>    2.3194    0.0000 </r>
       <r>    2.4695    0.0000 </r>
       <r>    2.5633    0.0000 </r>
       <r>    2.7656    0.0000 </r>
       <r>    2.8356    0.0000 </r>
      </set>
      <set comment="kpoint 644">
       <r>   -9.7096    1.0000 </r>
       <r>   -9.5934    1.0000 </r>
       <r>   -8.6738    1.0000 </r>
       <r>   -8.3927    1.0000 </r>
       <r>   -8.2606    1.0000 </r>
       <r>   -8.1774    1.0000 </r>
       <r>   -7.5728    1.0000 </r>
       <r>   -7.5010    1.0000 </r>
       <r>   -7.4072    1.0000 </r>
       <r>   -6.9274    1.0000 </r>
       <r>   -3.3516    1.0000 </r>
       <r>   -3.2265    1.0000 </r>
       <r>   -2.4390    0.0000 </r>
       <r>   -2.2931    0.0000 </r>
       <r>   -1.9144    0.0000 </r>
       <r>   -1.4795    0.0000 </r>
       <r>   -0.2141    0.0000 </r>
       <r>   -0.1751    0.0000 </r>
       <r>    0.1852    0.0000 </r>
       <r>    0.4717    0.0000 </r>
       <r>    0.8419    0.0000 </r>
       <r>    0.9369    0.0000 </r>
       <r>    1.2300    0.0000 </r>
       <r>    2.3125    0.0000 </r>
       <r>    2.3912    0.0000 </r>
       <r>    2.6651    0.0000 </r>
       <r>    2.6749    0.0000 </r>
       <r>    2.8797    0.0000 </r>
      </set>
      <set comment="kpoint 645">
       <r>   -9.7385    1.0000 </r>
       <r>   -9.5459    1.0000 </r>
       <r>   -8.7636    1.0000 </r>
       <r>   -8.2993    1.0000 </r>
       <r>   -8.2815    1.0000 </r>
       <r>   -8.1438    1.0000 </r>
       <r>   -7.6277    1.0000 </r>
       <r>   -7.5239    1.0000 </r>
       <r>   -7.3541    1.0000 </r>
       <r>   -6.9395    1.0000 </r>
       <r>   -3.3833    1.0000 </r>
       <r>   -3.1766    1.0000 </r>
       <r>   -2.4954    0.0000 </r>
       <r>   -2.2546    0.0000 </r>
       <r>   -1.9436    0.0000 </r>
       <r>   -1.4110    0.0000 </r>
       <r>   -0.2283    0.0000 </r>
       <r>   -0.1484    0.0000 </r>
       <r>    0.1784    0.0000 </r>
       <r>    0.3287    0.0000 </r>
       <r>    0.7201    0.0000 </r>
       <r>    1.0898    0.0000 </r>
       <r>    1.3655    0.0000 </r>
       <r>    2.2994    0.0000 </r>
       <r>    2.3259    0.0000 </r>
       <r>    2.5703    0.0000 </r>
       <r>    2.7764    0.0000 </r>
       <r>    2.8908    0.0000 </r>
      </set>
      <set comment="kpoint 646">
       <r>   -9.7625    1.0000 </r>
       <r>   -9.4939    1.0000 </r>
       <r>   -8.8513    1.0000 </r>
       <r>   -8.2989    1.0000 </r>
       <r>   -8.2065    1.0000 </r>
       <r>   -8.1074    1.0000 </r>
       <r>   -7.6821    1.0000 </r>
       <r>   -7.5577    1.0000 </r>
       <r>   -7.3023    1.0000 </r>
       <r>   -6.9573    1.0000 </r>
       <r>   -3.4099    1.0000 </r>
       <r>   -3.1228    0.9761 </r>
       <r>   -2.5554    0.0000 </r>
       <r>   -2.2205    0.0000 </r>
       <r>   -1.9758    0.0000 </r>
       <r>   -1.3212    0.0000 </r>
       <r>   -0.2591    0.0000 </r>
       <r>   -0.1128    0.0000 </r>
       <r>    0.1684    0.0000 </r>
       <r>    0.2079    0.0000 </r>
       <r>    0.6039    0.0000 </r>
       <r>    1.2398    0.0000 </r>
       <r>    1.5004    0.0000 </r>
       <r>    2.2741    0.0000 </r>
       <r>    2.2815    0.0000 </r>
       <r>    2.4558    0.0000 </r>
       <r>    2.8670    0.0000 </r>
       <r>    2.8954    0.0000 </r>
      </set>
      <set comment="kpoint 647">
       <r>   -9.7818    1.0000 </r>
       <r>   -9.4376    1.0000 </r>
       <r>   -8.9366    1.0000 </r>
       <r>   -8.3129    1.0000 </r>
       <r>   -8.1153    1.0000 </r>
       <r>   -8.0682    1.0000 </r>
       <r>   -7.7358    1.0000 </r>
       <r>   -7.6017    1.0000 </r>
       <r>   -7.2522    1.0000 </r>
       <r>   -6.9804    1.0000 </r>
       <r>   -3.4313    1.0000 </r>
       <r>   -3.0656    0.0194 </r>
       <r>   -2.6182    0.0000 </r>
       <r>   -2.1899    0.0000 </r>
       <r>   -2.0072    0.0000 </r>
       <r>   -1.2153    0.0000 </r>
       <r>   -0.3234    0.0000 </r>
       <r>   -0.0679    0.0000 </r>
       <r>    0.1259    0.0000 </r>
       <r>    0.1554    0.0000 </r>
       <r>    0.4939    0.0000 </r>
       <r>    1.3866    0.0000 </r>
       <r>    1.6315    0.0000 </r>
       <r>    2.2358    0.0000 </r>
       <r>    2.2605    0.0000 </r>
       <r>    2.3345    0.0000 </r>
       <r>    2.8137    0.0000 </r>
       <r>    3.0203    0.0000 </r>
      </set>
      <set comment="kpoint 648">
       <r>   -9.7963    1.0000 </r>
       <r>   -9.3771    1.0000 </r>
       <r>   -9.0189    1.0000 </r>
       <r>   -8.3235    1.0000 </r>
       <r>   -8.0265    1.0000 </r>
       <r>   -8.0265    1.0000 </r>
       <r>   -7.7885    1.0000 </r>
       <r>   -7.6551    1.0000 </r>
       <r>   -7.2041    1.0000 </r>
       <r>   -7.0083    1.0000 </r>
       <r>   -3.4474    1.0000 </r>
       <r>   -3.0054    0.0000 </r>
       <r>   -2.6830    0.0000 </r>
       <r>   -2.1623    0.0000 </r>
       <r>   -2.0366    0.0000 </r>
       <r>   -1.0967    0.0000 </r>
       <r>   -0.4265    0.0000 </r>
       <r>   -0.0137    0.0000 </r>
       <r>    0.0880    0.0000 </r>
       <r>    0.1398    0.0000 </r>
       <r>    0.3905    0.0000 </r>
       <r>    1.5302    0.0000 </r>
       <r>    1.7528    0.0000 </r>
       <r>    2.2082    0.0000 </r>
       <r>    2.2108    0.0000 </r>
       <r>    2.2389    0.0000 </r>
       <r>    2.7426    0.0000 </r>
       <r>    3.1491    0.0000 </r>
      </set>
      <set comment="kpoint 649">
       <r>   -9.8059    1.0000 </r>
       <r>   -9.3124    1.0000 </r>
       <r>   -9.0982    1.0000 </r>
       <r>   -8.3305    1.0000 </r>
       <r>   -7.9825    1.0000 </r>
       <r>   -7.9409    1.0000 </r>
       <r>   -7.8400    1.0000 </r>
       <r>   -7.7171    1.0000 </r>
       <r>   -7.1584    1.0000 </r>
       <r>   -7.0407    1.0000 </r>
       <r>   -3.4582    1.0000 </r>
       <r>   -2.9427    0.0000 </r>
       <r>   -2.7488    0.0000 </r>
       <r>   -2.1366    0.0000 </r>
       <r>   -2.0639    0.0000 </r>
       <r>   -0.9679    0.0000 </r>
       <r>   -0.5552    0.0000 </r>
       <r>    0.0497    0.0000 </r>
       <r>    0.0810    0.0000 </r>
       <r>    0.1223    0.0000 </r>
       <r>    0.2942    0.0000 </r>
       <r>    1.6709    0.0000 </r>
       <r>    1.8532    0.0000 </r>
       <r>    2.0783    0.0000 </r>
       <r>    2.1982    0.0000 </r>
       <r>    2.2193    0.0000 </r>
       <r>    2.6715    0.0000 </r>
       <r>    3.2800    0.0000 </r>
      </set>
      <set comment="kpoint 650">
       <r>   -9.6422    1.0000 </r>
       <r>   -9.1337    1.0000 </r>
       <r>   -9.0125    1.0000 </r>
       <r>   -8.1903    1.0000 </r>
       <r>   -7.8851    1.0000 </r>
       <r>   -7.8541    1.0000 </r>
       <r>   -7.7786    1.0000 </r>
       <r>   -7.7723    1.0000 </r>
       <r>   -7.1275    1.0000 </r>
       <r>   -7.0608    1.0000 </r>
       <r>   -3.2029    1.0000 </r>
       <r>   -2.6684    0.0000 </r>
       <r>   -2.5592    0.0000 </r>
       <r>   -1.9478    0.0000 </r>
       <r>   -1.8943    0.0000 </r>
       <r>   -0.6316    0.0000 </r>
       <r>   -0.4135    0.0000 </r>
       <r>   -0.0421    0.0000 </r>
       <r>    0.0540    0.0000 </r>
       <r>    0.0644    0.0000 </r>
       <r>    0.0946    0.0000 </r>
       <r>    1.6373    0.0000 </r>
       <r>    1.8214    0.0000 </r>
       <r>    1.8634    0.0000 </r>
       <r>    2.1478    0.0000 </r>
       <r>    2.1670    0.0000 </r>
       <r>    2.4266    0.0000 </r>
       <r>    3.2455    0.0000 </r>
      </set>
      <set comment="kpoint 651">
       <r>   -9.6440    1.0000 </r>
       <r>   -9.0817    1.0000 </r>
       <r>   -9.0672    1.0000 </r>
       <r>   -8.1915    1.0000 </r>
       <r>   -7.8333    1.0000 </r>
       <r>   -7.8216    1.0000 </r>
       <r>   -7.8195    1.0000 </r>
       <r>   -7.8123    1.0000 </r>
       <r>   -7.0970    1.0000 </r>
       <r>   -7.0892    1.0000 </r>
       <r>   -3.2050    1.0000 </r>
       <r>   -2.6205    0.0000 </r>
       <r>   -2.6072    0.0000 </r>
       <r>   -1.9258    0.0000 </r>
       <r>   -1.9179    0.0000 </r>
       <r>   -0.5320    0.0000 </r>
       <r>   -0.5079    0.0000 </r>
       <r>    0.0175    0.0000 </r>
       <r>    0.0273    0.0000 </r>
       <r>    0.0546    0.0000 </r>
       <r>    0.0565    0.0000 </r>
       <r>    1.7401    0.0000 </r>
       <r>    1.7603    0.0000 </r>
       <r>    1.8598    0.0000 </r>
       <r>    2.1534    0.0000 </r>
       <r>    2.1554    0.0000 </r>
       <r>    2.3921    0.0000 </r>
       <r>    3.2950    0.0000 </r>
      </set>
      <set comment="kpoint 652">
       <r>   -9.6412    1.0000 </r>
       <r>   -9.1475    1.0000 </r>
       <r>   -8.9974    1.0000 </r>
       <r>   -8.1896    1.0000 </r>
       <r>   -7.9000    1.0000 </r>
       <r>   -7.8631    1.0000 </r>
       <r>   -7.7689    1.0000 </r>
       <r>   -7.7599    1.0000 </r>
       <r>   -7.1358    1.0000 </r>
       <r>   -7.0536    1.0000 </r>
       <r>   -3.2018    1.0000 </r>
       <r>   -2.6814    0.0000 </r>
       <r>   -2.5459    0.0000 </r>
       <r>   -1.9555    0.0000 </r>
       <r>   -1.8860    0.0000 </r>
       <r>   -0.6564    0.0000 </r>
       <r>   -0.3922    0.0000 </r>
       <r>   -0.0503    0.0000 </r>
       <r>    0.0550    0.0000 </r>
       <r>    0.0672    0.0000 </r>
       <r>    0.1060    0.0000 </r>
       <r>    1.6169    0.0000 </r>
       <r>    1.8085    0.0000 </r>
       <r>    1.8835    0.0000 </r>
       <r>    2.1476    0.0000 </r>
       <r>    2.1703    0.0000 </r>
       <r>    2.4381    0.0000 </r>
       <r>    3.2199    0.0000 </r>
      </set>
      <set comment="kpoint 653">
       <r>   -9.6337    1.0000 </r>
       <r>   -9.2098    1.0000 </r>
       <r>   -8.9245    1.0000 </r>
       <r>   -8.1845    1.0000 </r>
       <r>   -7.9716    1.0000 </r>
       <r>   -7.9028    1.0000 </r>
       <r>   -7.7242    1.0000 </r>
       <r>   -7.7070    1.0000 </r>
       <r>   -7.1768    1.0000 </r>
       <r>   -7.0211    1.0000 </r>
       <r>   -3.1933    1.0000 </r>
       <r>   -2.7412    0.0000 </r>
       <r>   -2.4850    0.0000 </r>
       <r>   -1.9841    0.0000 </r>
       <r>   -1.8517    0.0000 </r>
       <r>   -0.7796    0.0000 </r>
       <r>   -0.2988    0.0000 </r>
       <r>   -0.1083    0.0000 </r>
       <r>    0.0789    0.0000 </r>
       <r>    0.0803    0.0000 </r>
       <r>    0.1936    0.0000 </r>
       <r>    1.4937    0.0000 </r>
       <r>    1.6988    0.0000 </r>
       <r>    2.0065    0.0000 </r>
       <r>    2.1519    0.0000 </r>
       <r>    2.1898    0.0000 </r>
       <r>    2.5314    0.0000 </r>
       <r>    3.0962    0.0000 </r>
      </set>
      <set comment="kpoint 654">
       <r>   -9.6217    1.0000 </r>
       <r>   -9.2684    1.0000 </r>
       <r>   -8.8488    1.0000 </r>
       <r>   -8.1762    1.0000 </r>
       <r>   -8.0474    1.0000 </r>
       <r>   -7.9405    1.0000 </r>
       <r>   -7.6784    1.0000 </r>
       <r>   -7.6614    1.0000 </r>
       <r>   -7.2196    1.0000 </r>
       <r>   -6.9922    1.0000 </r>
       <r>   -3.1796    1.0000 </r>
       <r>   -2.7992    0.0000 </r>
       <r>   -2.4255    0.0000 </r>
       <r>   -2.0126    0.0000 </r>
       <r>   -1.8145    0.0000 </r>
       <r>   -0.8972    0.0000 </r>
       <r>   -0.2440    0.0000 </r>
       <r>   -0.1563    0.0000 </r>
       <r>    0.0932    0.0000 </r>
       <r>    0.1422    0.0000 </r>
       <r>    0.2896    0.0000 </r>
       <r>    1.3702    0.0000 </r>
       <r>    1.5649    0.0000 </r>
       <r>    2.1289    0.0000 </r>
       <r>    2.1683    0.0000 </r>
       <r>    2.2111    0.0000 </r>
       <r>    2.6323    0.0000 </r>
       <r>    2.9746    0.0000 </r>
      </set>
      <set comment="kpoint 655">
       <r>   -9.6050    1.0000 </r>
       <r>   -9.3231    1.0000 </r>
       <r>   -8.7707    1.0000 </r>
       <r>   -8.1647    1.0000 </r>
       <r>   -8.1264    1.0000 </r>
       <r>   -7.9761    1.0000 </r>
       <r>   -7.6317    1.0000 </r>
       <r>   -7.6236    1.0000 </r>
       <r>   -7.2639    1.0000 </r>
       <r>   -6.9676    1.0000 </r>
       <r>   -3.1607    1.0000 </r>
       <r>   -2.8549    0.0000 </r>
       <r>   -2.3681    0.0000 </r>
       <r>   -2.0417    0.0000 </r>
       <r>   -1.7748    0.0000 </r>
       <r>   -1.0061    0.0000 </r>
       <r>   -0.2260    0.0000 </r>
       <r>   -0.1941    0.0000 </r>
       <r>    0.1045    0.0000 </r>
       <r>    0.2428    0.0000 </r>
       <r>    0.3936    0.0000 </r>
       <r>    1.2462    0.0000 </r>
       <r>    1.4224    0.0000 </r>
       <r>    2.1980    0.0000 </r>
       <r>    2.2317    0.0000 </r>
       <r>    2.2497    0.0000 </r>
       <r>    2.7158    0.0000 </r>
       <r>    2.8554    0.0000 </r>
      </set>
      <set comment="kpoint 656">
       <r>   -9.5838    1.0000 </r>
       <r>   -9.3738    1.0000 </r>
       <r>   -8.6905    1.0000 </r>
       <r>   -8.2079    1.0000 </r>
       <r>   -8.1502    1.0000 </r>
       <r>   -8.0094    1.0000 </r>
       <r>   -7.5942    1.0000 </r>
       <r>   -7.5843    1.0000 </r>
       <r>   -7.3095    1.0000 </r>
       <r>   -6.9479    1.0000 </r>
       <r>   -3.1367    0.9985 </r>
       <r>   -2.9076    0.0000 </r>
       <r>   -2.3136    0.0000 </r>
       <r>   -2.0725    0.0000 </r>
       <r>   -1.7338    0.0000 </r>
       <r>   -1.1026    0.0000 </r>
       <r>   -0.2281    0.0000 </r>
       <r>   -0.2217    0.0000 </r>
       <r>    0.1136    0.0000 </r>
       <r>    0.3644    0.0000 </r>
       <r>    0.5052    0.0000 </r>
       <r>    1.1210    0.0000 </r>
       <r>    1.2780    0.0000 </r>
       <r>    2.2418    0.0000 </r>
       <r>    2.2496    0.0000 </r>
       <r>    2.3675    0.0000 </r>
       <r>    2.7401    0.0000 </r>
       <r>    2.7642    0.0000 </r>
      </set>
      <set comment="kpoint 657">
       <r>   -9.5581    1.0000 </r>
       <r>   -9.4205    1.0000 </r>
       <r>   -8.6085    1.0000 </r>
       <r>   -8.2910    1.0000 </r>
       <r>   -8.1326    1.0000 </r>
       <r>   -8.0402    1.0000 </r>
       <r>   -7.5732    1.0000 </r>
       <r>   -7.5365    1.0000 </r>
       <r>   -7.3560    1.0000 </r>
       <r>   -6.9335    1.0000 </r>
       <r>   -3.1078    0.8220 </r>
       <r>   -2.9571    0.0000 </r>
       <r>   -2.2625    0.0000 </r>
       <r>   -2.1058    0.0000 </r>
       <r>   -1.6950    0.0000 </r>
       <r>   -1.1817    0.0000 </r>
       <r>   -0.2394    0.0000 </r>
       <r>   -0.2373    0.0000 </r>
       <r>    0.1201    0.0000 </r>
       <r>    0.4945    0.0000 </r>
       <r>    0.6238    0.0000 </r>
       <r>    0.9943    0.0000 </r>
       <r>    1.1350    0.0000 </r>
       <r>    2.2632    0.0000 </r>
       <r>    2.2996    0.0000 </r>
       <r>    2.4799    0.0000 </r>
       <r>    2.6306    0.0000 </r>
       <r>    2.7682    0.0000 </r>
      </set>
      <set comment="kpoint 658">
       <r>   -9.5279    1.0000 </r>
       <r>   -9.4629    1.0000 </r>
       <r>   -8.5252    1.0000 </r>
       <r>   -8.3750    1.0000 </r>
       <r>   -8.1121    1.0000 </r>
       <r>   -8.0685    1.0000 </r>
       <r>   -7.5609    1.0000 </r>
       <r>   -7.4885    1.0000 </r>
       <r>   -7.4032    1.0000 </r>
       <r>   -6.9250    1.0000 </r>
       <r>   -3.0742    0.0725 </r>
       <r>   -3.0027    0.0000 </r>
       <r>   -2.2152    0.0000 </r>
       <r>   -2.1421    0.0000 </r>
       <r>   -1.6656    0.0000 </r>
       <r>   -1.2351    0.0000 </r>
       <r>   -0.2479    0.0000 </r>
       <r>   -0.2464    0.0000 </r>
       <r>    0.1240    0.0000 </r>
       <r>    0.6268    0.0000 </r>
       <r>    0.7489    0.0000 </r>
       <r>    0.8655    0.0000 </r>
       <r>    0.9951    0.0000 </r>
       <r>    2.2715    0.0000 </r>
       <r>    2.3709    0.0000 </r>
       <r>    2.5286    0.0000 </r>
       <r>    2.5835    0.0000 </r>
       <r>    2.7299    0.0000 </r>
      </set>
      <set comment="kpoint 659">
       <r>   -9.5010    1.0000 </r>
       <r>   -9.4932    1.0000 </r>
       <r>   -8.4592    1.0000 </r>
       <r>   -8.4412    1.0000 </r>
       <r>   -8.0941    1.0000 </r>
       <r>   -8.0887    1.0000 </r>
       <r>   -7.5575    1.0000 </r>
       <r>   -7.4510    1.0000 </r>
       <r>   -7.4406    1.0000 </r>
       <r>   -6.9225    1.0000 </r>
       <r>   -3.0444    0.0002 </r>
       <r>   -3.0360    0.0000 </r>
       <r>   -2.1821    0.0000 </r>
       <r>   -2.1720    0.0000 </r>
       <r>   -1.6559    0.0000 </r>
       <r>   -1.2518    0.0000 </r>
       <r>   -0.2514    0.0000 </r>
       <r>   -0.2483    0.0000 </r>
       <r>    0.1251    0.0000 </r>
       <r>    0.7347    0.0000 </r>
       <r>    0.7587    0.0000 </r>
       <r>    0.8597    0.0000 </r>
       <r>    0.8799    0.0000 </r>
       <r>    2.2739    0.0000 </r>
       <r>    2.4362    0.0000 </r>
       <r>    2.4545    0.0000 </r>
       <r>    2.6595    0.0000 </r>
       <r>    2.6726    0.0000 </r>
      </set>
      <set comment="kpoint 660">
       <r>   -9.5347    1.0000 </r>
       <r>   -9.4542    1.0000 </r>
       <r>   -8.5432    1.0000 </r>
       <r>   -8.3569    1.0000 </r>
       <r>   -8.1169    1.0000 </r>
       <r>   -8.0625    1.0000 </r>
       <r>   -7.5629    1.0000 </r>
       <r>   -7.4989    1.0000 </r>
       <r>   -7.3930    1.0000 </r>
       <r>   -6.9262    1.0000 </r>
       <r>   -3.0816    0.1764 </r>
       <r>   -2.9934    0.0000 </r>
       <r>   -2.2261    0.0000 </r>
       <r>   -2.1326    0.0000 </r>
       <r>   -1.6708    0.0000 </r>
       <r>   -1.2267    0.0000 </r>
       <r>   -0.2497    0.0000 </r>
       <r>   -0.2425    0.0000 </r>
       <r>    0.1234    0.0000 </r>
       <r>    0.6023    0.0000 </r>
       <r>    0.7297    0.0000 </r>
       <r>    0.8887    0.0000 </r>
       <r>    1.0161    0.0000 </r>
       <r>    2.2703    0.0000 </r>
       <r>    2.3549    0.0000 </r>
       <r>    2.5489    0.0000 </r>
       <r>    2.5677    0.0000 </r>
       <r>    2.7388    0.0000 </r>
      </set>
      <set comment="kpoint 661">
       <r>   -9.5640    1.0000 </r>
       <r>   -9.4109    1.0000 </r>
       <r>   -8.6262    1.0000 </r>
       <r>   -8.2730    1.0000 </r>
       <r>   -8.1367    1.0000 </r>
       <r>   -8.0337    1.0000 </r>
       <r>   -7.5771    1.0000 </r>
       <r>   -7.5469    1.0000 </r>
       <r>   -7.3459    1.0000 </r>
       <r>   -6.9360    1.0000 </r>
       <r>   -3.1143    0.9163 </r>
       <r>   -2.9469    0.0000 </r>
       <r>   -2.2741    0.0000 </r>
       <r>   -2.0969    0.0000 </r>
       <r>   -1.7032    0.0000 </r>
       <r>   -1.1672    0.0000 </r>
       <r>   -0.2398    0.0000 </r>
       <r>   -0.2333    0.0000 </r>
       <r>    0.1190    0.0000 </r>
       <r>    0.4697    0.0000 </r>
       <r>    0.6057    0.0000 </r>
       <r>    1.0167    0.0000 </r>
       <r>    1.1567    0.0000 </r>
       <r>    2.2609    0.0000 </r>
       <r>    2.2863    0.0000 </r>
       <r>    2.4624    0.0000 </r>
       <r>    2.6524    0.0000 </r>
       <r>    2.7710    0.0000 </r>
      </set>
      <set comment="kpoint 662">
       <r>   -9.5887    1.0000 </r>
       <r>   -9.3634    1.0000 </r>
       <r>   -8.7078    1.0000 </r>
       <r>   -8.1902    1.0000 </r>
       <r>   -8.1536    1.0000 </r>
       <r>   -8.0023    1.0000 </r>
       <r>   -7.5999    1.0000 </r>
       <r>   -7.5947    1.0000 </r>
       <r>   -7.2996    1.0000 </r>
       <r>   -6.9515    1.0000 </r>
       <r>   -3.1422    0.9996 </r>
       <r>   -2.8967    0.0000 </r>
       <r>   -2.3258    0.0000 </r>
       <r>   -2.0642    0.0000 </r>
       <r>   -1.7431    0.0000 </r>
       <r>   -1.0841    0.0000 </r>
       <r>   -0.2250    0.0000 </r>
       <r>   -0.2204    0.0000 </r>
       <r>    0.1119    0.0000 </r>
       <r>    0.3403    0.0000 </r>
       <r>    0.4883    0.0000 </r>
       <r>    1.1428    0.0000 </r>
       <r>    1.3002    0.0000 </r>
       <r>    2.2313    0.0000 </r>
       <r>    2.2463    0.0000 </r>
       <r>    2.3488    0.0000 </r>
       <r>    2.7598    0.0000 </r>
       <r>    2.7631    0.0000 </r>
      </set>
      <set comment="kpoint 663">
       <r>   -9.6090    1.0000 </r>
       <r>   -9.3118    1.0000 </r>
       <r>   -8.7876    1.0000 </r>
       <r>   -8.1675    1.0000 </r>
       <r>   -8.1092    1.0000 </r>
       <r>   -7.9685    1.0000 </r>
       <r>   -7.6420    1.0000 </r>
       <r>   -7.6312    1.0000 </r>
       <r>   -7.2543    1.0000 </r>
       <r>   -6.9723    1.0000 </r>
       <r>   -3.1651    1.0000 </r>
       <r>   -2.8433    0.0000 </r>
       <r>   -2.3808    0.0000 </r>
       <r>   -2.0338    0.0000 </r>
       <r>   -1.7842    0.0000 </r>
       <r>   -0.9849    0.0000 </r>
       <r>   -0.2259    0.0000 </r>
       <r>   -0.1911    0.0000 </r>
       <r>    0.1023    0.0000 </r>
       <r>    0.2214    0.0000 </r>
       <r>    0.3780    0.0000 </r>
       <r>    1.2674    0.0000 </r>
       <r>    1.4446    0.0000 </r>
       <r>    2.1905    0.0000 </r>
       <r>    2.2277    0.0000 </r>
       <r>    2.2304    0.0000 </r>
       <r>    2.7049    0.0000 </r>
       <r>    2.8792    0.0000 </r>
      </set>
      <set comment="kpoint 664">
       <r>   -9.6247    1.0000 </r>
       <r>   -9.2562    1.0000 </r>
       <r>   -8.8652    1.0000 </r>
       <r>   -8.1783    1.0000 </r>
       <r>   -8.0307    1.0000 </r>
       <r>   -7.9324    1.0000 </r>
       <r>   -7.6885    1.0000 </r>
       <r>   -7.6707    1.0000 </r>
       <r>   -7.2104    1.0000 </r>
       <r>   -6.9979    1.0000 </r>
       <r>   -3.1829    1.0000 </r>
       <r>   -2.7870    0.0000 </r>
       <r>   -2.4386    0.0000 </r>
       <r>   -2.0049    0.0000 </r>
       <r>   -1.8236    0.0000 </r>
       <r>   -0.8741    0.0000 </r>
       <r>   -0.2503    0.0000 </r>
       <r>   -0.1515    0.0000 </r>
       <r>    0.0905    0.0000 </r>
       <r>    0.1268    0.0000 </r>
       <r>    0.2753    0.0000 </r>
       <r>    1.3911    0.0000 </r>
       <r>    1.5864    0.0000 </r>
       <r>    2.1092    0.0000 </r>
       <r>    2.1636    0.0000 </r>
       <r>    2.2068    0.0000 </r>
       <r>    2.6173    0.0000 </r>
       <r>    2.9988    0.0000 </r>
      </set>
      <set comment="kpoint 665">
       <r>   -9.6357    1.0000 </r>
       <r>   -9.1968    1.0000 </r>
       <r>   -8.9403    1.0000 </r>
       <r>   -8.1859    1.0000 </r>
       <r>   -7.9558    1.0000 </r>
       <r>   -7.8942    1.0000 </r>
       <r>   -7.7341    1.0000 </r>
       <r>   -7.7179    1.0000 </r>
       <r>   -7.1680    1.0000 </r>
       <r>   -7.0275    1.0000 </r>
       <r>   -3.1955    1.0000 </r>
       <r>   -2.7285    0.0000 </r>
       <r>   -2.4983    0.0000 </r>
       <r>   -1.9765    0.0000 </r>
       <r>   -1.8603    0.0000 </r>
       <r>   -0.7552    0.0000 </r>
       <r>   -0.3138    0.0000 </r>
       <r>   -0.1018    0.0000 </r>
       <r>    0.0719    0.0000 </r>
       <r>    0.0774    0.0000 </r>
       <r>    0.1807    0.0000 </r>
       <r>    1.5142    0.0000 </r>
       <r>    1.7180    0.0000 </r>
       <r>    1.9866    0.0000 </r>
       <r>    2.1498    0.0000 </r>
       <r>    2.1857    0.0000 </r>
       <r>    2.5157    0.0000 </r>
       <r>    3.1215    0.0000 </r>
      </set>
      <set comment="kpoint 666">
       <r>   -9.4730    1.0000 </r>
       <r>   -9.0235    1.0000 </r>
       <r>   -8.8600    1.0000 </r>
       <r>   -8.0500    1.0000 </r>
       <r>   -7.9190    1.0000 </r>
       <r>   -7.7873    1.0000 </r>
       <r>   -7.7749    1.0000 </r>
       <r>   -7.6807    1.0000 </r>
       <r>   -7.1440    1.0000 </r>
       <r>   -7.0535    1.0000 </r>
       <r>   -2.9396    0.0000 </r>
       <r>   -2.4599    0.0000 </r>
       <r>   -2.3161    0.0000 </r>
       <r>   -1.7998    0.0000 </r>
       <r>   -1.7032    0.0000 </r>
       <r>   -0.4157    0.0000 </r>
       <r>   -0.1888    0.0000 </r>
       <r>   -0.1785    0.0000 </r>
       <r>   -0.0060    0.0000 </r>
       <r>    0.0267    0.0000 </r>
       <r>    0.0763    0.0000 </r>
       <r>    1.4776    0.0000 </r>
       <r>    1.6788    0.0000 </r>
       <r>    1.7751    0.0000 </r>
       <r>    2.1013    0.0000 </r>
       <r>    2.1378    0.0000 </r>
       <r>    2.2658    0.0000 </r>
       <r>    3.0016    0.0000 </r>
      </set>
      <set comment="kpoint 667">
       <r>   -9.4765    1.0000 </r>
       <r>   -8.9631    1.0000 </r>
       <r>   -8.9250    1.0000 </r>
       <r>   -8.0522    1.0000 </r>
       <r>   -7.8641    1.0000 </r>
       <r>   -7.8335    1.0000 </r>
       <r>   -7.7397    1.0000 </r>
       <r>   -7.7179    1.0000 </r>
       <r>   -7.1077    1.0000 </r>
       <r>   -7.0864    1.0000 </r>
       <r>   -2.9437    0.0000 </r>
       <r>   -2.4043    0.0000 </r>
       <r>   -2.3710    0.0000 </r>
       <r>   -1.7648    0.0000 </r>
       <r>   -1.7435    0.0000 </r>
       <r>   -0.3081    0.0000 </r>
       <r>   -0.2498    0.0000 </r>
       <r>   -0.1231    0.0000 </r>
       <r>   -0.0785    0.0000 </r>
       <r>    0.0250    0.0000 </r>
       <r>    0.0332    0.0000 </r>
       <r>    1.5872    0.0000 </r>
       <r>    1.6615    0.0000 </r>
       <r>    1.7747    0.0000 </r>
       <r>    2.1101    0.0000 </r>
       <r>    2.1194    0.0000 </r>
       <r>    2.1735    0.0000 </r>
       <r>    3.0391    0.0000 </r>
      </set>
      <set comment="kpoint 668">
       <r>   -9.4757    1.0000 </r>
       <r>   -8.9872    1.0000 </r>
       <r>   -8.8998    1.0000 </r>
       <r>   -8.0516    1.0000 </r>
       <r>   -7.8853    1.0000 </r>
       <r>   -7.8144    1.0000 </r>
       <r>   -7.7540    1.0000 </r>
       <r>   -7.7031    1.0000 </r>
       <r>   -7.1216    1.0000 </r>
       <r>   -7.0734    1.0000 </r>
       <r>   -2.9427    0.0000 </r>
       <r>   -2.4264    0.0000 </r>
       <r>   -2.3489    0.0000 </r>
       <r>   -1.7804    0.0000 </r>
       <r>   -1.7268    0.0000 </r>
       <r>   -0.3467    0.0000 </r>
       <r>   -0.2223    0.0000 </r>
       <r>   -0.1408    0.0000 </r>
       <r>   -0.0573    0.0000 </r>
       <r>    0.0242    0.0000 </r>
       <r>    0.0443    0.0000 </r>
       <r>    1.5502    0.0000 </r>
       <r>    1.6992    0.0000 </r>
       <r>    1.7523    0.0000 </r>
       <r>    2.1060    0.0000 </r>
       <r>    2.1258    0.0000 </r>
       <r>    2.1952    0.0000 </r>
       <r>    3.0155    0.0000 </r>
      </set>
      <set comment="kpoint 669">
       <r>   -9.4704    1.0000 </r>
       <r>   -9.0463    1.0000 </r>
       <r>   -8.8339    1.0000 </r>
       <r>   -8.0483    1.0000 </r>
       <r>   -7.9422    1.0000 </r>
       <r>   -7.7887    1.0000 </r>
       <r>   -7.7704    1.0000 </r>
       <r>   -7.6654    1.0000 </r>
       <r>   -7.1586    1.0000 </r>
       <r>   -7.0415    1.0000 </r>
       <r>   -2.9366    0.0000 </r>
       <r>   -2.4817    0.0000 </r>
       <r>   -2.2944    0.0000 </r>
       <r>   -1.8145    0.0000 </r>
       <r>   -1.6853    0.0000 </r>
       <r>   -0.4581    0.0000 </r>
       <r>   -0.1925    0.0000 </r>
       <r>   -0.1791    0.0000 </r>
       <r>    0.0187    0.0000 </r>
       <r>    0.0296    0.0000 </r>
       <r>    0.1038    0.0000 </r>
       <r>    1.4413    0.0000 </r>
       <r>    1.6346    0.0000 </r>
       <r>    1.8134    0.0000 </r>
       <r>    2.1005    0.0000 </r>
       <r>    2.1454    0.0000 </r>
       <r>    2.3073    0.0000 </r>
       <r>    2.9814    0.0000 </r>
      </set>
      <set comment="kpoint 670">
       <r>   -9.4609    1.0000 </r>
       <r>   -9.1023    1.0000 </r>
       <r>   -8.7655    1.0000 </r>
       <r>   -8.0422    1.0000 </r>
       <r>   -8.0037    1.0000 </r>
       <r>   -7.8218    1.0000 </r>
       <r>   -7.7325    1.0000 </r>
       <r>   -7.6267    1.0000 </r>
       <r>   -7.1969    1.0000 </r>
       <r>   -7.0127    1.0000 </r>
       <r>   -2.9254    0.0000 </r>
       <r>   -2.5361    0.0000 </r>
       <r>   -2.2416    0.0000 </r>
       <r>   -1.8464    0.0000 </r>
       <r>   -1.6404    0.0000 </r>
       <r>   -0.5720    0.0000 </r>
       <r>   -0.2334    0.0000 </r>
       <r>   -0.1746    0.0000 </r>
       <r>    0.0392    0.0000 </r>
       <r>    0.1043    0.0000 </r>
       <r>    0.1985    0.0000 </r>
       <r>    1.3347    0.0000 </r>
       <r>    1.4884    0.0000 </r>
       <r>    1.9294    0.0000 </r>
       <r>    2.1053    0.0000 </r>
       <r>    2.1663    0.0000 </r>
       <r>    2.4383    0.0000 </r>
       <r>    2.8783    0.0000 </r>
      </set>
      <set comment="kpoint 671">
       <r>   -9.4469    1.0000 </r>
       <r>   -9.1548    1.0000 </r>
       <r>   -8.6951    1.0000 </r>
       <r>   -8.0689    1.0000 </r>
       <r>   -8.0333    1.0000 </r>
       <r>   -7.8531    1.0000 </r>
       <r>   -7.7010    1.0000 </r>
       <r>   -7.5871    1.0000 </r>
       <r>   -7.2362    1.0000 </r>
       <r>   -6.9876    1.0000 </r>
       <r>   -2.9092    0.0000 </r>
       <r>   -2.5889    0.0000 </r>
       <r>   -2.1910    0.0000 </r>
       <r>   -1.8768    0.0000 </r>
       <r>   -1.5923    0.0000 </r>
       <r>   -0.6822    0.0000 </r>
       <r>   -0.2635    0.0000 </r>
       <r>   -0.1889    0.0000 </r>
       <r>    0.0492    0.0000 </r>
       <r>    0.1992    0.0000 </r>
       <r>    0.3082    0.0000 </r>
       <r>    1.2300    0.0000 </r>
       <r>    1.3357    0.0000 </r>
       <r>    2.0466    0.0000 </r>
       <r>    2.1225    0.0000 </r>
       <r>    2.1861    0.0000 </r>
       <r>    2.5555    0.0000 </r>
       <r>    2.7679    0.0000 </r>
      </set>
      <set comment="kpoint 672">
       <r>   -9.4287    1.0000 </r>
       <r>   -9.2037    1.0000 </r>
       <r>   -8.6229    1.0000 </r>
       <r>   -8.1374    1.0000 </r>
       <r>   -8.0217    1.0000 </r>
       <r>   -7.8827    1.0000 </r>
       <r>   -7.6759    1.0000 </r>
       <r>   -7.5469    1.0000 </r>
       <r>   -7.2763    1.0000 </r>
       <r>   -6.9668    1.0000 </r>
       <r>   -2.8882    0.0000 </r>
       <r>   -2.6396    0.0000 </r>
       <r>   -2.1434    0.0000 </r>
       <r>   -1.9066    0.0000 </r>
       <r>   -1.5424    0.0000 </r>
       <r>   -0.7841    0.0000 </r>
       <r>   -0.2829    0.0000 </r>
       <r>   -0.2106    0.0000 </r>
       <r>    0.0579    0.0000 </r>
       <r>    0.3029    0.0000 </r>
       <r>    0.4214    0.0000 </r>
       <r>    1.1267    0.0000 </r>
       <r>    1.1835    0.0000 </r>
       <r>    2.1532    0.0000 </r>
       <r>    2.1638    0.0000 </r>
       <r>    2.2032    0.0000 </r>
       <r>    2.6353    0.0000 </r>
       <r>    2.6612    0.0000 </r>
      </set>
      <set comment="kpoint 673">
       <r>   -9.4062    1.0000 </r>
       <r>   -9.2490    1.0000 </r>
       <r>   -8.5495    1.0000 </r>
       <r>   -8.2085    1.0000 </r>
       <r>   -8.0075    1.0000 </r>
       <r>   -7.9102    1.0000 </r>
       <r>   -7.6574    1.0000 </r>
       <r>   -7.5063    1.0000 </r>
       <r>   -7.3169    1.0000 </r>
       <r>   -6.9509    1.0000 </r>
       <r>   -2.8623    0.0000 </r>
       <r>   -2.6876    0.0000 </r>
       <r>   -2.0991    0.0000 </r>
       <r>   -1.9366    0.0000 </r>
       <r>   -1.4937    0.0000 </r>
       <r>   -0.8726    0.0000 </r>
       <r>   -0.2920    0.0000 </r>
       <r>   -0.2344    0.0000 </r>
       <r>    0.0647    0.0000 </r>
       <r>    0.4150    0.0000 </r>
       <r>    0.5336    0.0000 </r>
       <r>    1.0243    0.0000 </r>
       <r>    1.0345    0.0000 </r>
       <r>    2.1978    0.0000 </r>
       <r>    2.2165    0.0000 </r>
       <r>    2.2797    0.0000 </r>
       <r>    2.5592    0.0000 </r>
       <r>    2.6593    0.0000 </r>
      </set>
      <set comment="kpoint 674">
       <r>   -9.3795    1.0000 </r>
       <r>   -9.2903    1.0000 </r>
       <r>   -8.4752    1.0000 </r>
       <r>   -8.2813    1.0000 </r>
       <r>   -7.9907    1.0000 </r>
       <r>   -7.9356    1.0000 </r>
       <r>   -7.6455    1.0000 </r>
       <r>   -7.4652    1.0000 </r>
       <r>   -7.3579    1.0000 </r>
       <r>   -6.9404    1.0000 </r>
       <r>   -2.8319    0.0000 </r>
       <r>   -2.7325    0.0000 </r>
       <r>   -2.0581    0.0000 </r>
       <r>   -1.9678    0.0000 </r>
       <r>   -1.4528    0.0000 </r>
       <r>   -0.9400    0.0000 </r>
       <r>   -0.2917    0.0000 </r>
       <r>   -0.2571    0.0000 </r>
       <r>    0.0692    0.0000 </r>
       <r>    0.5349    0.0000 </r>
       <r>    0.6433    0.0000 </r>
       <r>    0.8903    0.0000 </r>
       <r>    0.9218    0.0000 </r>
       <r>    2.2253    0.0000 </r>
       <r>    2.2559    0.0000 </r>
       <r>    2.3915    0.0000 </r>
       <r>    2.4636    0.0000 </r>
       <r>    2.6276    0.0000 </r>
      </set>
      <set comment="kpoint 675">
       <r>   -9.3486    1.0000 </r>
       <r>   -9.3278    1.0000 </r>
       <r>   -8.4005    1.0000 </r>
       <r>   -8.3553    1.0000 </r>
       <r>   -7.9714    1.0000 </r>
       <r>   -7.9587    1.0000 </r>
       <r>   -7.6402    1.0000 </r>
       <r>   -7.4240    1.0000 </r>
       <r>   -7.3991    1.0000 </r>
       <r>   -6.9356    1.0000 </r>
       <r>   -2.7971    0.0000 </r>
       <r>   -2.7737    0.0000 </r>
       <r>   -2.0205    0.0000 </r>
       <r>   -2.0008    0.0000 </r>
       <r>   -1.4305    0.0000 </r>
       <r>   -0.9744    0.0000 </r>
       <r>   -0.2830    0.0000 </r>
       <r>   -0.2761    0.0000 </r>
       <r>    0.0712    0.0000 </r>
       <r>    0.6623    0.0000 </r>
       <r>    0.7501    0.0000 </r>
       <r>    0.7519    0.0000 </r>
       <r>    0.8182    0.0000 </r>
       <r>    2.2292    0.0000 </r>
       <r>    2.3265    0.0000 </r>
       <r>    2.3760    0.0000 </r>
       <r>    2.4953    0.0000 </r>
       <r>    2.5563    0.0000 </r>
      </set>
      <set comment="kpoint 676">
       <r>   -9.3612    1.0000 </r>
       <r>   -9.3136    1.0000 </r>
       <r>   -8.4299    1.0000 </r>
       <r>   -8.3261    1.0000 </r>
       <r>   -7.9795    1.0000 </r>
       <r>   -7.9497    1.0000 </r>
       <r>   -7.6415    1.0000 </r>
       <r>   -7.4404    1.0000 </r>
       <r>   -7.3828    1.0000 </r>
       <r>   -6.9367    1.0000 </r>
       <r>   -2.8111    0.0000 </r>
       <r>   -2.7581    0.0000 </r>
       <r>   -2.0365    0.0000 </r>
       <r>   -1.9859    0.0000 </r>
       <r>   -1.4363    0.0000 </r>
       <r>   -0.9659    0.0000 </r>
       <r>   -0.2895    0.0000 </r>
       <r>   -0.2676    0.0000 </r>
       <r>    0.0707    0.0000 </r>
       <r>    0.6200    0.0000 </r>
       <r>    0.7127    0.0000 </r>
       <r>    0.7965    0.0000 </r>
       <r>    0.8544    0.0000 </r>
       <r>    2.2283    0.0000 </r>
       <r>    2.2983    0.0000 </r>
       <r>    2.4080    0.0000 </r>
       <r>    2.4619    0.0000 </r>
       <r>    2.5836    0.0000 </r>
      </set>
      <set comment="kpoint 677">
       <r>   -9.3904    1.0000 </r>
       <r>   -9.2746    1.0000 </r>
       <r>   -8.5045    1.0000 </r>
       <r>   -8.2524    1.0000 </r>
       <r>   -7.9978    1.0000 </r>
       <r>   -7.9256    1.0000 </r>
       <r>   -7.6495    1.0000 </r>
       <r>   -7.4816    1.0000 </r>
       <r>   -7.3417    1.0000 </r>
       <r>   -6.9437    1.0000 </r>
       <r>   -2.8442    0.0000 </r>
       <r>   -2.7154    0.0000 </r>
       <r>   -2.0752    0.0000 </r>
       <r>   -1.9536    0.0000 </r>
       <r>   -1.4676    0.0000 </r>
       <r>   -0.9174    0.0000 </r>
       <r>   -0.2955    0.0000 </r>
       <r>   -0.2471    0.0000 </r>
       <r>    0.0677    0.0000 </r>
       <r>    0.4952    0.0000 </r>
       <r>    0.6045    0.0000 </r>
       <r>    0.9370    0.0000 </r>
       <r>    0.9572    0.0000 </r>
       <r>    2.2225    0.0000 </r>
       <r>    2.2322    0.0000 </r>
       <r>    2.3548    0.0000 </r>
       <r>    2.4986    0.0000 </r>
       <r>    2.6439    0.0000 </r>
      </set>
      <set comment="kpoint 678">
       <r>   -9.4155    1.0000 </r>
       <r>   -9.2317    1.0000 </r>
       <r>   -8.5785    1.0000 </r>
       <r>   -8.1802    1.0000 </r>
       <r>   -8.0135    1.0000 </r>
       <r>   -7.8994    1.0000 </r>
       <r>   -7.6640    1.0000 </r>
       <r>   -7.5225    1.0000 </r>
       <r>   -7.3009    1.0000 </r>
       <r>   -6.9563    1.0000 </r>
       <r>   -2.8729    0.0000 </r>
       <r>   -2.6692    0.0000 </r>
       <r>   -2.1173    0.0000 </r>
       <r>   -1.9229    0.0000 </r>
       <r>   -1.5128    0.0000 </r>
       <r>   -0.8409    0.0000 </r>
       <r>   -0.2927    0.0000 </r>
       <r>   -0.2239    0.0000 </r>
       <r>    0.0624    0.0000 </r>
       <r>    0.3779    0.0000 </r>
       <r>    0.4933    0.0000 </r>
       <r>    1.0593    0.0000 </r>
       <r>    1.0830    0.0000 </r>
       <r>    2.1790    0.0000 </r>
       <r>    2.2119    0.0000 </r>
       <r>    2.2413    0.0000 </r>
       <r>    2.5967    0.0000 </r>
       <r>    2.6585    0.0000 </r>
      </set>
      <set comment="kpoint 679">
       <r>   -9.4363    1.0000 </r>
       <r>   -9.1850    1.0000 </r>
       <r>   -8.6514    1.0000 </r>
       <r>   -8.1100    1.0000 </r>
       <r>   -8.0267    1.0000 </r>
       <r>   -7.8710    1.0000 </r>
       <r>   -7.6852    1.0000 </r>
       <r>   -7.5631    1.0000 </r>
       <r>   -7.2605    1.0000 </r>
       <r>   -6.9742    1.0000 </r>
       <r>   -2.8969    0.0000 </r>
       <r>   -2.6201    0.0000 </r>
       <r>   -2.1627    0.0000 </r>
       <r>   -1.8931    0.0000 </r>
       <r>   -1.5626    0.0000 </r>
       <r>   -0.7466    0.0000 </r>
       <r>   -0.2801    0.0000 </r>
       <r>   -0.2006    0.0000 </r>
       <r>    0.0548    0.0000 </r>
       <r>    0.2687    0.0000 </r>
       <r>    0.3800    0.0000 </r>
       <r>    1.1617    0.0000 </r>
       <r>    1.2333    0.0000 </r>
       <r>    2.1248    0.0000 </r>
       <r>    2.1396    0.0000 </r>
       <r>    2.1971    0.0000 </r>
       <r>    2.6148    0.0000 </r>
       <r>    2.7004    0.0000 </r>
      </set>
      <set comment="kpoint 680">
       <r>   -9.4529    1.0000 </r>
       <r>   -9.1346    1.0000 </r>
       <r>   -8.7229    1.0000 </r>
       <r>   -8.0427    1.0000 </r>
       <r>   -8.0372    1.0000 </r>
       <r>   -7.8408    1.0000 </r>
       <r>   -7.7129    1.0000 </r>
       <r>   -7.6030    1.0000 </r>
       <r>   -7.2207    1.0000 </r>
       <r>   -6.9967    1.0000 </r>
       <r>   -2.9161    0.0000 </r>
       <r>   -2.5684    0.0000 </r>
       <r>   -2.2114    0.0000 </r>
       <r>   -1.8632    0.0000 </r>
       <r>   -1.6123    0.0000 </r>
       <r>   -0.6412    0.0000 </r>
       <r>   -0.2570    0.0000 </r>
       <r>   -0.1810    0.0000 </r>
       <r>    0.0455    0.0000 </r>
       <r>    0.1680    0.0000 </r>
       <r>    0.2669    0.0000 </r>
       <r>    1.2651    0.0000 </r>
       <r>    1.3862    0.0000 </r>
       <r>    2.0074    0.0000 </r>
       <r>    2.1141    0.0000 </r>
       <r>    2.1789    0.0000 </r>
       <r>    2.5200    0.0000 </r>
       <r>    2.8084    0.0000 </r>
      </set>
      <set comment="kpoint 681">
       <r>   -9.4651    1.0000 </r>
       <r>   -9.0807    1.0000 </r>
       <r>   -8.7926    1.0000 </r>
       <r>   -8.0450    1.0000 </r>
       <r>   -7.9788    1.0000 </r>
       <r>   -7.8087    1.0000 </r>
       <r>   -7.7469    1.0000 </r>
       <r>   -7.6423    1.0000 </r>
       <r>   -7.1818    1.0000 </r>
       <r>   -7.0234    1.0000 </r>
       <r>   -2.9303    0.0000 </r>
       <r>   -2.5148    0.0000 </r>
       <r>   -2.2627    0.0000 </r>
       <r>   -1.8323    0.0000 </r>
       <r>   -1.6594    0.0000 </r>
       <r>   -0.5293    0.0000 </r>
       <r>   -0.2232    0.0000 </r>
       <r>   -0.1720    0.0000 </r>
       <r>    0.0354    0.0000 </r>
       <r>    0.0763    0.0000 </r>
       <r>    0.1606    0.0000 </r>
       <r>    1.3703    0.0000 </r>
       <r>    1.5379    0.0000 </r>
       <r>    1.8905    0.0000 </r>
       <r>    2.1019    0.0000 </r>
       <r>    2.1584    0.0000 </r>
       <r>    2.3954    0.0000 </r>
       <r>    2.9337    0.0000 </r>
      </set>
      <set comment="kpoint 682">
       <r>   -9.3039    1.0000 </r>
       <r>   -8.9138    1.0000 </r>
       <r>   -8.7192    1.0000 </r>
       <r>   -7.9620    1.0000 </r>
       <r>   -7.9141    1.0000 </r>
       <r>   -7.8299    1.0000 </r>
       <r>   -7.6991    1.0000 </r>
       <r>   -7.5974    1.0000 </r>
       <r>   -7.1650    1.0000 </r>
       <r>   -7.0562    1.0000 </r>
       <r>   -2.6749    0.0000 </r>
       <r>   -2.2554    0.0000 </r>
       <r>   -2.0938    0.0000 </r>
       <r>   -1.6712    0.0000 </r>
       <r>   -1.5195    0.0000 </r>
       <r>   -0.2807    0.0000 </r>
       <r>   -0.1854    0.0000 </r>
       <r>   -0.1118    0.0000 </r>
       <r>   -0.0949    0.0000 </r>
       <r>   -0.0127    0.0000 </r>
       <r>    0.2390    0.0000 </r>
       <r>    1.3341    0.0000 </r>
       <r>    1.4859    0.0000 </r>
       <r>    1.6839    0.0000 </r>
       <r>    2.0591    0.0000 </r>
       <r>    2.1221    0.0000 </r>
       <r>    2.1454    0.0000 </r>
       <r>    2.7662    0.0000 </r>
      </set>
      <set comment="kpoint 683">
       <r>   -9.3089    1.0000 </r>
       <r>   -8.8599    1.0000 </r>
       <r>   -8.7787    1.0000 </r>
       <r>   -7.9178    1.0000 </r>
       <r>   -7.9169    1.0000 </r>
       <r>   -7.8629    1.0000 </r>
       <r>   -7.6706    1.0000 </r>
       <r>   -7.6284    1.0000 </r>
       <r>   -7.1313    1.0000 </r>
       <r>   -7.0855    1.0000 </r>
       <r>   -2.6808    0.0000 </r>
       <r>   -2.2068    0.0000 </r>
       <r>   -2.1394    0.0000 </r>
       <r>   -1.6315    0.0000 </r>
       <r>   -1.5693    0.0000 </r>
       <r>   -0.2420    0.0000 </r>
       <r>   -0.1614    0.0000 </r>
       <r>   -0.0988    0.0000 </r>
       <r>   -0.0907    0.0000 </r>
       <r>   -0.0003    0.0000 </r>
       <r>    0.1296    0.0000 </r>
       <r>    1.4289    0.0000 </r>
       <r>    1.5787    0.0000 </r>
       <r>    1.6343    0.0000 </r>
       <r>    1.9957    0.0000 </r>
       <r>    2.0725    0.0000 </r>
       <r>    2.1008    0.0000 </r>
       <r>    2.8042    0.0000 </r>
      </set>
      <set comment="kpoint 684">
       <r>   -9.3098    1.0000 </r>
       <r>   -8.8360    1.0000 </r>
       <r>   -8.8035    1.0000 </r>
       <r>   -7.9174    1.0000 </r>
       <r>   -7.9006    1.0000 </r>
       <r>   -7.8780    1.0000 </r>
       <r>   -7.6585    1.0000 </r>
       <r>   -7.6410    1.0000 </r>
       <r>   -7.1170    1.0000 </r>
       <r>   -7.0990    1.0000 </r>
       <r>   -2.6819    0.0000 </r>
       <r>   -2.1866    0.0000 </r>
       <r>   -2.1588    0.0000 </r>
       <r>   -1.6149    0.0000 </r>
       <r>   -1.5879    0.0000 </r>
       <r>   -0.2168    0.0000 </r>
       <r>   -0.1919    0.0000 </r>
       <r>   -0.0853    0.0000 </r>
       <r>   -0.0840    0.0000 </r>
       <r>    0.0288    0.0000 </r>
       <r>    0.0821    0.0000 </r>
       <r>    1.4775    0.0000 </r>
       <r>    1.5281    0.0000 </r>
       <r>    1.6831    0.0000 </r>
       <r>    1.9464    0.0000 </r>
       <r>    2.0805    0.0000 </r>
       <r>    2.0913    0.0000 </r>
       <r>    2.8307    0.0000 </r>
      </set>
      <set comment="kpoint 685">
       <r>   -9.3066    1.0000 </r>
       <r>   -8.8910    1.0000 </r>
       <r>   -8.7449    1.0000 </r>
       <r>   -7.9430    1.0000 </r>
       <r>   -7.9155    1.0000 </r>
       <r>   -7.8430    1.0000 </r>
       <r>   -7.6875    1.0000 </r>
       <r>   -7.6104    1.0000 </r>
       <r>   -7.1502    1.0000 </r>
       <r>   -7.0686    1.0000 </r>
       <r>   -2.6781    0.0000 </r>
       <r>   -2.2349    0.0000 </r>
       <r>   -2.1122    0.0000 </r>
       <r>   -1.6564    0.0000 </r>
       <r>   -1.5401    0.0000 </r>
       <r>   -0.2610    0.0000 </r>
       <r>   -0.1399    0.0000 </r>
       <r>   -0.1307    0.0000 </r>
       <r>   -0.1023    0.0000 </r>
       <r>   -0.0134    0.0000 </r>
       <r>    0.1898    0.0000 </r>
       <r>    1.3806    0.0000 </r>
       <r>    1.5628    0.0000 </r>
       <r>    1.6314    0.0000 </r>
       <r>    2.0644    0.0000 </r>
       <r>    2.0679    0.0000 </r>
       <r>    2.1125    0.0000 </r>
       <r>    2.7873    0.0000 </r>
      </set>
      <set comment="kpoint 686">
       <r>   -9.2993    1.0000 </r>
       <r>   -8.9433    1.0000 </r>
       <r>   -8.6843    1.0000 </r>
       <r>   -7.9897    1.0000 </r>
       <r>   -7.9114    1.0000 </r>
       <r>   -7.8129    1.0000 </r>
       <r>   -7.7152    1.0000 </r>
       <r>   -7.5789    1.0000 </r>
       <r>   -7.1846    1.0000 </r>
       <r>   -7.0409    1.0000 </r>
       <r>   -2.6694    0.0000 </r>
       <r>   -2.2834    0.0000 </r>
       <r>   -2.0677    0.0000 </r>
       <r>   -1.6940    0.0000 </r>
       <r>   -1.4882    0.0000 </r>
       <r>   -0.2937    0.0000 </r>
       <r>   -0.2454    0.0000 </r>
       <r>   -0.1264    0.0000 </r>
       <r>   -0.0586    0.0000 </r>
       <r>   -0.0080    0.0000 </r>
       <r>    0.2978    0.0000 </r>
       <r>    1.2879    0.0000 </r>
       <r>    1.4048    0.0000 </r>
       <r>    1.7385    0.0000 </r>
       <r>    2.0553    0.0000 </r>
       <r>    2.1335    0.0000 </r>
       <r>    2.2262    0.0000 </r>
       <r>    2.7442    0.0000 </r>
      </set>
      <set comment="kpoint 687">
       <r>   -9.2880    1.0000 </r>
       <r>   -8.9927    1.0000 </r>
       <r>   -8.6221    1.0000 </r>
       <r>   -8.0404    1.0000 </r>
       <r>   -7.9049    1.0000 </r>
       <r>   -7.7877    1.0000 </r>
       <r>   -7.7417    1.0000 </r>
       <r>   -7.5466    1.0000 </r>
       <r>   -7.2197    1.0000 </r>
       <r>   -7.0163    1.0000 </r>
       <r>   -2.6560    0.0000 </r>
       <r>   -2.3315    0.0000 </r>
       <r>   -2.0257    0.0000 </r>
       <r>   -1.7284    0.0000 </r>
       <r>   -1.4327    0.0000 </r>
       <r>   -0.3560    0.0000 </r>
       <r>   -0.3153    0.0000 </r>
       <r>   -0.1538    0.0000 </r>
       <r>    0.0033    0.0000 </r>
       <r>    0.0240    0.0000 </r>
       <r>    0.4015    0.0000 </r>
       <r>    1.1994    0.0000 </r>
       <r>    1.2436    0.0000 </r>
       <r>    1.8490    0.0000 </r>
       <r>    2.0560    0.0000 </r>
       <r>    2.1522    0.0000 </r>
       <r>    2.3784    0.0000 </r>
       <r>    2.6380    0.0000 </r>
      </set>
      <set comment="kpoint 688">
       <r>   -9.2727    1.0000 </r>
       <r>   -9.0390    1.0000 </r>
       <r>   -8.5587    1.0000 </r>
       <r>   -8.0948    1.0000 </r>
       <r>   -7.8961    1.0000 </r>
       <r>   -7.7674    1.0000 </r>
       <r>   -7.7667    1.0000 </r>
       <r>   -7.5136    1.0000 </r>
       <r>   -7.2551    1.0000 </r>
       <r>   -6.9954    1.0000 </r>
       <r>   -2.6379    0.0000 </r>
       <r>   -2.3784    0.0000 </r>
       <r>   -1.9865    0.0000 </r>
       <r>   -1.7601    0.0000 </r>
       <r>   -1.3750    0.0000 </r>
       <r>   -0.4621    0.0000 </r>
       <r>   -0.3260    0.0000 </r>
       <r>   -0.1831    0.0000 </r>
       <r>    0.0139    0.0000 </r>
       <r>    0.1167    0.0000 </r>
       <r>    0.4994    0.0000 </r>
       <r>    1.0855    0.0000 </r>
       <r>    1.1147    0.0000 </r>
       <r>    1.9622    0.0000 </r>
       <r>    2.0687    0.0000 </r>
       <r>    2.1676    0.0000 </r>
       <r>    2.4989    0.0000 </r>
       <r>    2.5388    0.0000 </r>
      </set>
      <set comment="kpoint 689">
       <r>   -9.2534    1.0000 </r>
       <r>   -9.0820    1.0000 </r>
       <r>   -8.4944    1.0000 </r>
       <r>   -8.1523    1.0000 </r>
       <r>   -7.8852    1.0000 </r>
       <r>   -7.7901    1.0000 </r>
       <r>   -7.7520    1.0000 </r>
       <r>   -7.4801    1.0000 </r>
       <r>   -7.2907    1.0000 </r>
       <r>   -6.9790    1.0000 </r>
       <r>   -2.6152    0.0000 </r>
       <r>   -2.4234    0.0000 </r>
       <r>   -1.9504    0.0000 </r>
       <r>   -1.7898    0.0000 </r>
       <r>   -1.3180    0.0000 </r>
       <r>   -0.5580    0.0000 </r>
       <r>   -0.3266    0.0000 </r>
       <r>   -0.2133    0.0000 </r>
       <r>    0.0223    0.0000 </r>
       <r>    0.2189    0.0000 </r>
       <r>    0.5911    0.0000 </r>
       <r>    0.9324    0.0000 </r>
       <r>    1.0332    0.0000 </r>
       <r>    2.0770    0.0000 </r>
       <r>    2.0944    0.0000 </r>
       <r>    2.1793    0.0000 </r>
       <r>    2.4463    0.0000 </r>
       <r>    2.5540    0.0000 </r>
      </set>
      <set comment="kpoint 690">
       <r>   -9.2302    1.0000 </r>
       <r>   -9.1217    1.0000 </r>
       <r>   -8.4297    1.0000 </r>
       <r>   -8.2123    1.0000 </r>
       <r>   -7.8720    1.0000 </r>
       <r>   -7.8118    1.0000 </r>
       <r>   -7.7415    1.0000 </r>
       <r>   -7.4460    1.0000 </r>
       <r>   -7.3263    1.0000 </r>
       <r>   -6.9673    1.0000 </r>
       <r>   -2.5882    0.0000 </r>
       <r>   -2.4661    0.0000 </r>
       <r>   -1.9170    0.0000 </r>
       <r>   -1.8183    0.0000 </r>
       <r>   -1.2673    0.0000 </r>
       <r>   -0.6364    0.0000 </r>
       <r>   -0.3183    0.0000 </r>
       <r>   -0.2429    0.0000 </r>
       <r>    0.0283    0.0000 </r>
       <r>    0.3304    0.0000 </r>
       <r>    0.6772    0.0000 </r>
       <r>    0.7857    0.0000 </r>
       <r>    0.9540    0.0000 </r>
       <r>    2.1336    0.0000 </r>
       <r>    2.1873    0.0000 </r>
       <r>    2.1920    0.0000 </r>
       <r>    2.3601    0.0000 </r>
       <r>    2.5311    0.0000 </r>
      </set>
      <set comment="kpoint 691">
       <r>   -9.2031    1.0000 </r>
       <r>   -9.1578    1.0000 </r>
       <r>   -8.3651    1.0000 </r>
       <r>   -8.2743    1.0000 </r>
       <r>   -7.8568    1.0000 </r>
       <r>   -7.8318    1.0000 </r>
       <r>   -7.7357    1.0000 </r>
       <r>   -7.4114    1.0000 </r>
       <r>   -7.3616    1.0000 </r>
       <r>   -6.9608    1.0000 </r>
       <r>   -2.5571    0.0000 </r>
       <r>   -2.5059    0.0000 </r>
       <r>   -1.8860    0.0000 </r>
       <r>   -1.8465    0.0000 </r>
       <r>   -1.2327    0.0000 </r>
       <r>   -0.6866    0.0000 </r>
       <r>   -0.3024    0.0000 </r>
       <r>   -0.2707    0.0000 </r>
       <r>    0.0316    0.0000 </r>
       <r>    0.4506    0.0000 </r>
       <r>    0.6459    0.0000 </r>
       <r>    0.7589    0.0000 </r>
       <r>    0.8758    0.0000 </r>
       <r>    2.1856    0.0000 </r>
       <r>    2.1916    0.0000 </r>
       <r>    2.2819    0.0000 </r>
       <r>    2.3045    0.0000 </r>
       <r>    2.4567    0.0000 </r>
      </set>
      <set comment="kpoint 692">
       <r>   -9.1903    1.0000 </r>
       <r>   -9.1722    1.0000 </r>
       <r>   -8.3378    1.0000 </r>
       <r>   -8.3012    1.0000 </r>
       <r>   -7.8499    1.0000 </r>
       <r>   -7.8395    1.0000 </r>
       <r>   -7.7347    1.0000 </r>
       <r>   -7.3967    1.0000 </r>
       <r>   -7.3765    1.0000 </r>
       <r>   -6.9596    1.0000 </r>
       <r>   -2.5424    0.0000 </r>
       <r>   -2.5221    0.0000 </r>
       <r>   -1.8753    0.0000 </r>
       <r>   -1.8567    0.0000 </r>
       <r>   -1.2259    0.0000 </r>
       <r>   -0.6964    0.0000 </r>
       <r>   -0.2950    0.0000 </r>
       <r>   -0.2806    0.0000 </r>
       <r>    0.0322    0.0000 </r>
       <r>    0.5136    0.0000 </r>
       <r>    0.5790    0.0000 </r>
       <r>    0.7973    0.0000 </r>
       <r>    0.8378    0.0000 </r>
       <r>    2.1924    0.0000 </r>
       <r>    2.2132    0.0000 </r>
       <r>    2.2494    0.0000 </r>
       <r>    2.3577    0.0000 </r>
       <r>    2.4100    0.0000 </r>
      </set>
      <set comment="kpoint 693">
       <r>   -9.2190    1.0000 </r>
       <r>   -9.1376    1.0000 </r>
       <r>   -8.4021    1.0000 </r>
       <r>   -8.2384    1.0000 </r>
       <r>   -7.8660    1.0000 </r>
       <r>   -7.8203    1.0000 </r>
       <r>   -7.7385    1.0000 </r>
       <r>   -7.4315    1.0000 </r>
       <r>   -7.3413    1.0000 </r>
       <r>   -6.9638    1.0000 </r>
       <r>   -2.5752    0.0000 </r>
       <r>   -2.4837    0.0000 </r>
       <r>   -1.9054    0.0000 </r>
       <r>   -1.8283    0.0000 </r>
       <r>   -1.2499    0.0000 </r>
       <r>   -0.6627    0.0000 </r>
       <r>   -0.3141    0.0000 </r>
       <r>   -0.2544    0.0000 </r>
       <r>    0.0301    0.0000 </r>
       <r>    0.3894    0.0000 </r>
       <r>    0.7153    0.0000 </r>
       <r>    0.7167    0.0000 </r>
       <r>    0.9156    0.0000 </r>
       <r>    2.1556    0.0000 </r>
       <r>    2.1896    0.0000 </r>
       <r>    2.2480    0.0000 </r>
       <r>    2.3233    0.0000 </r>
       <r>    2.4991    0.0000 </r>
      </set>
      <set comment="kpoint 694">
       <r>   -9.2439    1.0000 </r>
       <r>   -9.0995    1.0000 </r>
       <r>   -8.4668    1.0000 </r>
       <r>   -8.1774    1.0000 </r>
       <r>   -7.8800    1.0000 </r>
       <r>   -7.7993    1.0000 </r>
       <r>   -7.7471    1.0000 </r>
       <r>   -7.4658    1.0000 </r>
       <r>   -7.3059    1.0000 </r>
       <r>   -6.9732    1.0000 </r>
       <r>   -2.6040    0.0000 </r>
       <r>   -2.4421    0.0000 </r>
       <r>   -1.9375    0.0000 </r>
       <r>   -1.8000    0.0000 </r>
       <r>   -1.2953    0.0000 </r>
       <r>   -0.5952    0.0000 </r>
       <r>   -0.3262    0.0000 </r>
       <r>   -0.2255    0.0000 </r>
       <r>    0.0253    0.0000 </r>
       <r>    0.2737    0.0000 </r>
       <r>    0.6324    0.0000 </r>
       <r>    0.8588    0.0000 </r>
       <r>    0.9939    0.0000 </r>
       <r>    2.1104    0.0000 </r>
       <r>    2.1338    0.0000 </r>
       <r>    2.1833    0.0000 </r>
       <r>    2.4059    0.0000 </r>
       <r>    2.5517    0.0000 </r>
      </set>
      <set comment="kpoint 695">
       <r>   -9.2649    1.0000 </r>
       <r>   -9.0579    1.0000 </r>
       <r>   -8.5313    1.0000 </r>
       <r>   -8.1187    1.0000 </r>
       <r>   -7.8919    1.0000 </r>
       <r>   -7.7766    1.0000 </r>
       <r>   -7.7605    1.0000 </r>
       <r>   -7.4997    1.0000 </r>
       <r>   -7.2704    1.0000 </r>
       <r>   -6.9876    1.0000 </r>
       <r>   -2.6286    0.0000 </r>
       <r>   -2.3979    0.0000 </r>
       <r>   -1.9723    0.0000 </r>
       <r>   -1.7709    0.0000 </r>
       <r>   -1.3507    0.0000 </r>
       <r>   -0.5061    0.0000 </r>
       <r>   -0.3301    0.0000 </r>
       <r>   -0.1956    0.0000 </r>
       <r>    0.0179    0.0000 </r>
       <r>    0.1670    0.0000 </r>
       <r>    0.5429    0.0000 </r>
       <r>    1.0089    0.0000 </r>
       <r>    1.0740    0.0000 </r>
       <r>    2.0188    0.0000 </r>
       <r>    2.0785    0.0000 </r>
       <r>    2.1733    0.0000 </r>
       <r>    2.4956    0.0000 </r>
       <r>    2.5366    0.0000 </r>
      </set>
      <set comment="kpoint 696">
       <r>   -9.2819    1.0000 </r>
       <r>   -9.0129    1.0000 </r>
       <r>   -8.5951    1.0000 </r>
       <r>   -8.0629    1.0000 </r>
       <r>   -7.9015    1.0000 </r>
       <r>   -7.7787    1.0000 </r>
       <r>   -7.7522    1.0000 </r>
       <r>   -7.5329    1.0000 </r>
       <r>   -7.2349    1.0000 </r>
       <r>   -7.0066    1.0000 </r>
       <r>   -2.6487    0.0000 </r>
       <r>   -2.3517    0.0000 </r>
       <r>   -2.0099    0.0000 </r>
       <r>   -1.7403    0.0000 </r>
       <r>   -1.4088    0.0000 </r>
       <r>   -0.4040    0.0000 </r>
       <r>   -0.3243    0.0000 </r>
       <r>   -0.1659    0.0000 </r>
       <r>    0.0082    0.0000 </r>
       <r>    0.0697    0.0000 </r>
       <r>    0.4474    0.0000 </r>
       <r>    1.1570    0.0000 </r>
       <r>    1.1648    0.0000 </r>
       <r>    1.9047    0.0000 </r>
       <r>    2.0600    0.0000 </r>
       <r>    2.1595    0.0000 </r>
       <r>    2.4441    0.0000 </r>
       <r>    2.5911    0.0000 </r>
      </set>
      <set comment="kpoint 697">
       <r>   -9.2949    1.0000 </r>
       <r>   -8.9648    1.0000 </r>
       <r>   -8.6579    1.0000 </r>
       <r>   -8.0106    1.0000 </r>
       <r>   -7.9090    1.0000 </r>
       <r>   -7.8019    1.0000 </r>
       <r>   -7.7263    1.0000 </r>
       <r>   -7.5655    1.0000 </r>
       <r>   -7.1996    1.0000 </r>
       <r>   -7.0297    1.0000 </r>
       <r>   -2.6642    0.0000 </r>
       <r>   -2.3039    0.0000 </r>
       <r>   -2.0505    0.0000 </r>
       <r>   -1.7072    0.0000 </r>
       <r>   -1.4657    0.0000 </r>
       <r>   -0.3080    0.0000 </r>
       <r>   -0.2949    0.0000 </r>
       <r>   -0.1376    0.0000 </r>
       <r>   -0.0177    0.0000 </r>
       <r>   -0.0030    0.0000 </r>
       <r>    0.3458    0.0000 </r>
       <r>    1.2435    0.0000 </r>
       <r>    1.3249    0.0000 </r>
       <r>    1.7928    0.0000 </r>
       <r>    2.0542    0.0000 </r>
       <r>    2.1422    0.0000 </r>
       <r>    2.3037    0.0000 </r>
       <r>    2.6980    0.0000 </r>
      </set>
      <set comment="kpoint 698">
       <r>   -9.1358    1.0000 </r>
       <r>   -8.8051    1.0000 </r>
       <r>   -8.5931    1.0000 </r>
       <r>   -8.0141    1.0000 </r>
       <r>   -7.8976    1.0000 </r>
       <r>   -7.7839    1.0000 </r>
       <r>   -7.6271    1.0000 </r>
       <r>   -7.5296    1.0000 </r>
       <r>   -7.1903    1.0000 </r>
       <r>   -7.0704    1.0000 </r>
       <r>   -2.4110    0.0000 </r>
       <r>   -2.0588    0.0000 </r>
       <r>   -1.9025    0.0000 </r>
       <r>   -1.5650    0.0000 </r>
       <r>   -1.3507    0.0000 </r>
       <r>   -0.3416    0.0000 </r>
       <r>   -0.1699    0.0000 </r>
       <r>   -0.1133    0.0000 </r>
       <r>   -0.0604    0.0000 </r>
       <r>    0.0647    0.0000 </r>
       <r>    0.4609    0.0000 </r>
       <r>    1.2111    0.0000 </r>
       <r>    1.2594    0.0000 </r>
       <r>    1.5925    0.0000 </r>
       <r>    2.0236    0.0000 </r>
       <r>    2.0503    0.0000 </r>
       <r>    2.1247    0.0000 </r>
       <r>    2.5436    0.0000 </r>
      </set>
      <set comment="kpoint 699">
       <r>   -9.1419    1.0000 </r>
       <r>   -8.7582    1.0000 </r>
       <r>   -8.6456    1.0000 </r>
       <r>   -7.9805    1.0000 </r>
       <r>   -7.9191    1.0000 </r>
       <r>   -7.7868    1.0000 </r>
       <r>   -7.6055    1.0000 </r>
       <r>   -7.5541    1.0000 </r>
       <r>   -7.1598    1.0000 </r>
       <r>   -7.0955    1.0000 </r>
       <r>   -2.4183    0.0000 </r>
       <r>   -2.0188    0.0000 </r>
       <r>   -1.9360    0.0000 </r>
       <r>   -1.5217    0.0000 </r>
       <r>   -1.4087    0.0000 </r>
       <r>   -0.3216    0.0000 </r>
       <r>   -0.2287    0.0000 </r>
       <r>   -0.0915    0.0000 </r>
       <r>   -0.0572    0.0000 </r>
       <r>    0.1520    0.0000 </r>
       <r>    0.3713    0.0000 </r>
       <r>    1.2897    0.0000 </r>
       <r>    1.4288    0.0000 </r>
       <r>    1.4950    0.0000 </r>
       <r>    1.8693    0.0000 </r>
       <r>    2.0460    0.0000 </r>
       <r>    2.1037    0.0000 </r>
       <r>    2.6264    0.0000 </r>
      </set>
      <set comment="kpoint 700">
       <r>   -9.1442    1.0000 </r>
       <r>   -8.7092    1.0000 </r>
       <r>   -8.6968    1.0000 </r>
       <r>   -7.9506    1.0000 </r>
       <r>   -7.9444    1.0000 </r>
       <r>   -7.7879    1.0000 </r>
       <r>   -7.5830    1.0000 </r>
       <r>   -7.5778    1.0000 </r>
       <r>   -7.1303    1.0000 </r>
       <r>   -7.1230    1.0000 </r>
       <r>   -2.4212    0.0000 </r>
       <r>   -1.9802    0.0000 </r>
       <r>   -1.9720    0.0000 </r>
       <r>   -1.4738    0.0000 </r>
       <r>   -1.4625    0.0000 </r>
       <r>   -0.2900    0.0000 </r>
       <r>   -0.2757    0.0000 </r>
       <r>   -0.0731    0.0000 </r>
       <r>   -0.0689    0.0000 </r>
       <r>    0.2493    0.0000 </r>
       <r>    0.2762    0.0000 </r>
       <r>    1.3742    0.0000 </r>
       <r>    1.4030    0.0000 </r>
       <r>    1.5760    0.0000 </r>
       <r>    1.7170    0.0000 </r>
       <r>    2.0718    0.0000 </r>
       <r>    2.0789    0.0000 </r>
       <r>    2.6764    0.0000 </r>
      </set>
      <set comment="kpoint 701">
       <r>   -9.1428    1.0000 </r>
       <r>   -8.7462    1.0000 </r>
       <r>   -8.6584    1.0000 </r>
       <r>   -7.9734    1.0000 </r>
       <r>   -7.9245    1.0000 </r>
       <r>   -7.7872    1.0000 </r>
       <r>   -7.6005    1.0000 </r>
       <r>   -7.5595    1.0000 </r>
       <r>   -7.1521    1.0000 </r>
       <r>   -7.1024    1.0000 </r>
       <r>   -2.4195    0.0000 </r>
       <r>   -2.0100    0.0000 </r>
       <r>   -1.9434    0.0000 </r>
       <r>   -1.5118    0.0000 </r>
       <r>   -1.4213    0.0000 </r>
       <r>   -0.3108    0.0000 </r>
       <r>   -0.2466    0.0000 </r>
       <r>   -0.0863    0.0000 </r>
       <r>   -0.0597    0.0000 </r>
       <r>    0.1785    0.0000 </r>
       <r>    0.3453    0.0000 </r>
       <r>    1.3167    0.0000 </r>
       <r>    1.4645    0.0000 </r>
       <r>    1.4819    0.0000 </r>
       <r>    1.8138    0.0000 </r>
       <r>    2.0529    0.0000 </r>
       <r>    2.0972    0.0000 </r>
       <r>    2.6374    0.0000 </r>
      </set>
      <set comment="kpoint 702">
       <r>   -9.1377    1.0000 </r>
       <r>   -8.7937    1.0000 </r>
       <r>   -8.6062    1.0000 </r>
       <r>   -8.0061    1.0000 </r>
       <r>   -7.9020    1.0000 </r>
       <r>   -7.7847    1.0000 </r>
       <r>   -7.6224    1.0000 </r>
       <r>   -7.5353    1.0000 </r>
       <r>   -7.1825    1.0000 </r>
       <r>   -7.0766    1.0000 </r>
       <r>   -2.4133    0.0000 </r>
       <r>   -2.0495    0.0000 </r>
       <r>   -1.9091    0.0000 </r>
       <r>   -1.5564    0.0000 </r>
       <r>   -1.3646    0.0000 </r>
       <r>   -0.3343    0.0000 </r>
       <r>   -0.1914    0.0000 </r>
       <r>   -0.1074    0.0000 </r>
       <r>   -0.0574    0.0000 </r>
       <r>    0.0865    0.0000 </r>
       <r>    0.4362    0.0000 </r>
       <r>    1.2363    0.0000 </r>
       <r>    1.3132    0.0000 </r>
       <r>    1.5603    0.0000 </r>
       <r>    1.9924    0.0000 </r>
       <r>    2.0291    0.0000 </r>
       <r>    2.1194    0.0000 </r>
       <r>    2.5721    0.0000 </r>
      </set>
      <set comment="kpoint 703">
       <r>   -9.1289    1.0000 </r>
       <r>   -8.8388    1.0000 </r>
       <r>   -8.5528    1.0000 </r>
       <r>   -8.0424    1.0000 </r>
       <r>   -7.8832    1.0000 </r>
       <r>   -7.7803    1.0000 </r>
       <r>   -7.6432    1.0000 </r>
       <r>   -7.5102    1.0000 </r>
       <r>   -7.2135    1.0000 </r>
       <r>   -7.0535    1.0000 </r>
       <r>   -2.4026    0.0000 </r>
       <r>   -2.0898    0.0000 </r>
       <r>   -1.8773    0.0000 </r>
       <r>   -1.5965    0.0000 </r>
       <r>   -1.3043    0.0000 </r>
       <r>   -0.3466    0.0000 </r>
       <r>   -0.1314    0.0000 </r>
       <r>   -0.1246    0.0000 </r>
       <r>   -0.0909    0.0000 </r>
       <r>    0.0275    0.0000 </r>
       <r>    0.5204    0.0000 </r>
       <r>    1.1458    0.0000 </r>
       <r>    1.1618    0.0000 </r>
       <r>    1.6614    0.0000 </r>
       <r>    2.0111    0.0000 </r>
       <r>    2.1368    0.0000 </r>
       <r>    2.1732    0.0000 </r>
       <r>    2.4777    0.0000 </r>
      </set>
      <set comment="kpoint 704">
       <r>   -9.1164    1.0000 </r>
       <r>   -8.8815    1.0000 </r>
       <r>   -8.4986    1.0000 </r>
       <r>   -8.0822    1.0000 </r>
       <r>   -7.8680    1.0000 </r>
       <r>   -7.7742    1.0000 </r>
       <r>   -7.6630    1.0000 </r>
       <r>   -7.4844    1.0000 </r>
       <r>   -7.2448    1.0000 </r>
       <r>   -7.0336    1.0000 </r>
       <r>   -2.3875    0.0000 </r>
       <r>   -2.1302    0.0000 </r>
       <r>   -1.8482    0.0000 </r>
       <r>   -1.6325    0.0000 </r>
       <r>   -1.2420    0.0000 </r>
       <r>   -0.3485    0.0000 </r>
       <r>   -0.1700    0.0000 </r>
       <r>   -0.1577    0.0000 </r>
       <r>   -0.0464    0.0000 </r>
       <r>    0.0147    0.0000 </r>
       <r>    0.5969    0.0000 </r>
       <r>    0.9839    0.0000 </r>
       <r>    1.0929    0.0000 </r>
       <r>    1.7670    0.0000 </r>
       <r>    2.0021    0.0000 </r>
       <r>    2.1492    0.0000 </r>
       <r>    2.3398    0.0000 </r>
       <r>    2.3883    0.0000 </r>
      </set>
      <set comment="kpoint 705">
       <r>   -9.1002    1.0000 </r>
       <r>   -8.9215    1.0000 </r>
       <r>   -8.4441    1.0000 </r>
       <r>   -8.1253    1.0000 </r>
       <r>   -7.8562    1.0000 </r>
       <r>   -7.7663    1.0000 </r>
       <r>   -7.6816    1.0000 </r>
       <r>   -7.4579    1.0000 </r>
       <r>   -7.2760    1.0000 </r>
       <r>   -7.0174    1.0000 </r>
       <r>   -2.3682    0.0000 </r>
       <r>   -2.1700    0.0000 </r>
       <r>   -1.8213    0.0000 </r>
       <r>   -1.6646    0.0000 </r>
       <r>   -1.1805    0.0000 </r>
       <r>   -0.3413    0.0000 </r>
       <r>   -0.2579    0.0000 </r>
       <r>   -0.1859    0.0000 </r>
       <r>    0.0159    0.0000 </r>
       <r>    0.0426    0.0000 </r>
       <r>    0.6661    0.0000 </r>
       <r>    0.8289    0.0000 </r>
       <r>    1.0293    0.0000 </r>
       <r>    1.8766    0.0000 </r>
       <r>    2.0044    0.0000 </r>
       <r>    2.1577    0.0000 </r>
       <r>    2.3049    0.0000 </r>
       <r>    2.4494    0.0000 </r>
      </set>
      <set comment="kpoint 706">
       <r>   -9.0805    1.0000 </r>
       <r>   -8.9585    1.0000 </r>
       <r>   -8.3897    1.0000 </r>
       <r>   -8.1714    1.0000 </r>
       <r>   -7.8477    1.0000 </r>
       <r>   -7.7567    1.0000 </r>
       <r>   -7.6990    1.0000 </r>
       <r>   -7.4306    1.0000 </r>
       <r>   -7.3068    1.0000 </r>
       <r>   -7.0054    1.0000 </r>
       <r>   -2.3449    0.0000 </r>
       <r>   -2.2086    0.0000 </r>
       <r>   -1.7963    0.0000 </r>
       <r>   -1.6937    0.0000 </r>
       <r>   -1.1247    0.0000 </r>
       <r>   -0.3363    0.0000 </r>
       <r>   -0.3264    0.0000 </r>
       <r>   -0.2153    0.0000 </r>
       <r>    0.0190    0.0000 </r>
       <r>    0.1421    0.0000 </r>
       <r>    0.6814    0.0000 </r>
       <r>    0.7289    0.0000 </r>
       <r>    0.9700    0.0000 </r>
       <r>    1.9893    0.0000 </r>
       <r>    2.0196    0.0000 </r>
       <r>    2.1633    0.0000 </r>
       <r>    2.2288    0.0000 </r>
       <r>    2.4422    0.0000 </r>
      </set>
      <set comment="kpoint 707">
       <r>   -9.0572    1.0000 </r>
       <r>   -8.9925    1.0000 </r>
       <r>   -8.3359    1.0000 </r>
       <r>   -8.2199    1.0000 </r>
       <r>   -7.8426    1.0000 </r>
       <r>   -7.7455    1.0000 </r>
       <r>   -7.7150    1.0000 </r>
       <r>   -7.4026    1.0000 </r>
       <r>   -7.3371    1.0000 </r>
       <r>   -6.9978    1.0000 </r>
       <r>   -2.3179    0.0000 </r>
       <r>   -2.2452    0.0000 </r>
       <r>   -1.7722    0.0000 </r>
       <r>   -1.7202    0.0000 </r>
       <r>   -1.0826    0.0000 </r>
       <r>   -0.3935    0.0000 </r>
       <r>   -0.3054    0.0000 </r>
       <r>   -0.2449    0.0000 </r>
       <r>    0.0214    0.0000 </r>
       <r>    0.2516    0.0000 </r>
       <r>    0.5420    0.0000 </r>
       <r>    0.7867    0.0000 </r>
       <r>    0.9139    0.0000 </r>
       <r>    2.0482    0.0000 </r>
       <r>    2.1038    0.0000 </r>
       <r>    2.1614    0.0000 </r>
       <r>    2.1666    0.0000 </r>
       <r>    2.3598    0.0000 </r>
      </set>
      <set comment="kpoint 708">
       <r>   -9.0305    1.0000 </r>
       <r>   -9.0234    1.0000 </r>
       <r>   -8.2832    1.0000 </r>
       <r>   -8.2707    1.0000 </r>
       <r>   -7.8406    1.0000 </r>
       <r>   -7.7327    1.0000 </r>
       <r>   -7.7297    1.0000 </r>
       <r>   -7.3738    1.0000 </r>
       <r>   -7.3668    1.0000 </r>
       <r>   -6.9949    1.0000 </r>
       <r>   -2.2874    0.0000 </r>
       <r>   -2.2793    0.0000 </r>
       <r>   -1.7484    0.0000 </r>
       <r>   -1.7449    0.0000 </r>
       <r>   -1.0641    0.0000 </r>
       <r>   -0.4180    0.0000 </r>
       <r>   -0.2800    0.0000 </r>
       <r>   -0.2737    0.0000 </r>
       <r>    0.0223    0.0000 </r>
       <r>    0.3707    0.0000 </r>
       <r>    0.4111    0.0000 </r>
       <r>    0.8416    0.0000 </r>
       <r>    0.8594    0.0000 </r>
       <r>    2.0899    0.0000 </r>
       <r>    2.1044    0.0000 </r>
       <r>    2.1679    0.0000 </r>
       <r>    2.2180    0.0000 </r>
       <r>    2.2537    0.0000 </r>
      </set>
      <set comment="kpoint 709">
       <r>   -9.0509    1.0000 </r>
       <r>   -9.0005    1.0000 </r>
       <r>   -8.3230    1.0000 </r>
       <r>   -8.2319    1.0000 </r>
       <r>   -7.8419    1.0000 </r>
       <r>   -7.7428    1.0000 </r>
       <r>   -7.7184    1.0000 </r>
       <r>   -7.3958    1.0000 </r>
       <r>   -7.3444    1.0000 </r>
       <r>   -6.9966    1.0000 </r>
       <r>   -2.3106    0.0000 </r>
       <r>   -2.2539    0.0000 </r>
       <r>   -1.7688    0.0000 </r>
       <r>   -1.7240    0.0000 </r>
       <r>   -1.0754    0.0000 </r>
       <r>   -0.4034    0.0000 </r>
       <r>   -0.3002    0.0000 </r>
       <r>   -0.2519    0.0000 </r>
       <r>    0.0217    0.0000 </r>
       <r>    0.2892    0.0000 </r>
       <r>    0.4989    0.0000 </r>
       <r>    0.8046    0.0000 </r>
       <r>    0.8957    0.0000 </r>
       <r>    2.0591    0.0000 </r>
       <r>    2.1405    0.0000 </r>
       <r>    2.1437    0.0000 </r>
       <r>    2.1671    0.0000 </r>
       <r>    2.3274    0.0000 </r>
      </set>
      <set comment="kpoint 710">
       <r>   -9.0750    1.0000 </r>
       <r>   -8.9673    1.0000 </r>
       <r>   -8.3766    1.0000 </r>
       <r>   -8.1827    1.0000 </r>
       <r>   -7.8463    1.0000 </r>
       <r>   -7.7544    1.0000 </r>
       <r>   -7.7027    1.0000 </r>
       <r>   -7.4241    1.0000 </r>
       <r>   -7.3143    1.0000 </r>
       <r>   -7.0030    1.0000 </r>
       <r>   -2.3385    0.0000 </r>
       <r>   -2.2178    0.0000 </r>
       <r>   -1.7926    0.0000 </r>
       <r>   -1.6980    0.0000 </r>
       <r>   -1.1127    0.0000 </r>
       <r>   -0.3536    0.0000 </r>
       <r>   -0.3228    0.0000 </r>
       <r>   -0.2225    0.0000 </r>
       <r>    0.0195    0.0000 </r>
       <r>    0.1767    0.0000 </r>
       <r>    0.6358    0.0000 </r>
       <r>    0.7475    0.0000 </r>
       <r>    0.9509    0.0000 </r>
       <r>    2.0259    0.0000 </r>
       <r>    2.0267    0.0000 </r>
       <r>    2.1643    0.0000 </r>
       <r>    2.2081    0.0000 </r>
       <r>    2.4209    0.0000 </r>
      </set>
      <set comment="kpoint 711">
       <r>   -9.0956    1.0000 </r>
       <r>   -8.9310    1.0000 </r>
       <r>   -8.4308    1.0000 </r>
       <r>   -8.1360    1.0000 </r>
       <r>   -7.8541    1.0000 </r>
       <r>   -7.7643    1.0000 </r>
       <r>   -7.6856    1.0000 </r>
       <r>   -7.4516    1.0000 </r>
       <r>   -7.2836    1.0000 </r>
       <r>   -7.0139    1.0000 </r>
       <r>   -2.3627    0.0000 </r>
       <r>   -2.1796    0.0000 </r>
       <r>   -1.8172    0.0000 </r>
       <r>   -1.6698    0.0000 </r>
       <r>   -1.1661    0.0000 </r>
       <r>   -0.3398    0.0000 </r>
       <r>   -0.2797    0.0000 </r>
       <r>   -0.1931    0.0000 </r>
       <r>    0.0164    0.0000 </r>
       <r>    0.0741    0.0000 </r>
       <r>    0.6859    0.0000 </r>
       <r>    0.7808    0.0000 </r>
       <r>    1.0090    0.0000 </r>
       <r>    1.9125    0.0000 </r>
       <r>    2.0077    0.0000 </r>
       <r>    2.1594    0.0000 </r>
       <r>    2.2818    0.0000 </r>
       <r>    2.4603    0.0000 </r>
      </set>
      <set comment="kpoint 712">
       <r>   -9.1127    1.0000 </r>
       <r>   -8.8917    1.0000 </r>
       <r>   -8.4853    1.0000 </r>
       <r>   -8.0921    1.0000 </r>
       <r>   -7.8651    1.0000 </r>
       <r>   -7.7726    1.0000 </r>
       <r>   -7.6673    1.0000 </r>
       <r>   -7.4783    1.0000 </r>
       <r>   -7.2526    1.0000 </r>
       <r>   -7.0291    1.0000 </r>
       <r>   -2.3830    0.0000 </r>
       <r>   -2.1399    0.0000 </r>
       <r>   -1.8434    0.0000 </r>
       <r>   -1.6386    0.0000 </r>
       <r>   -1.2269    0.0000 </r>
       <r>   -0.3496    0.0000 </r>
       <r>   -0.1929    0.0000 </r>
       <r>   -0.1646    0.0000 </r>
       <r>   -0.0181    0.0000 </r>
       <r>    0.0139    0.0000 </r>
       <r>    0.6182    0.0000 </r>
       <r>    0.9336    0.0000 </r>
       <r>    1.0712    0.0000 </r>
       <r>    1.8019    0.0000 </r>
       <r>    2.0018    0.0000 </r>
       <r>    2.1518    0.0000 </r>
       <r>    2.3632    0.0000 </r>
       <r>    2.3846    0.0000 </r>
      </set>
      <set comment="kpoint 713">
       <r>   -9.1261    1.0000 </r>
       <r>   -8.8497    1.0000 </r>
       <r>   -8.5395    1.0000 </r>
       <r>   -8.0514    1.0000 </r>
       <r>   -7.8796    1.0000 </r>
       <r>   -7.7791    1.0000 </r>
       <r>   -7.6478    1.0000 </r>
       <r>   -7.5044    1.0000 </r>
       <r>   -7.2213    1.0000 </r>
       <r>   -7.0480    1.0000 </r>
       <r>   -2.3991    0.0000 </r>
       <r>   -2.0994    0.0000 </r>
       <r>   -1.8717    0.0000 </r>
       <r>   -1.6038    0.0000 </r>
       <r>   -1.2896    0.0000 </r>
       <r>   -0.3506    0.0000 </r>
       <r>   -0.1378    0.0000 </r>
       <r>   -0.1082    0.0000 </r>
       <r>   -0.0996    0.0000 </r>
       <r>    0.0201    0.0000 </r>
       <r>    0.5433    0.0000 </r>
       <r>    1.0935    0.0000 </r>
       <r>    1.1383    0.0000 </r>
       <r>    1.6949    0.0000 </r>
       <r>    2.0078    0.0000 </r>
       <r>    2.1406    0.0000 </r>
       <r>    2.2290    0.0000 </r>
       <r>    2.4509    0.0000 </r>
      </set>
      <set comment="kpoint 714">
       <r>   -8.9697    1.0000 </r>
       <r>   -8.6984    1.0000 </r>
       <r>   -8.4852    1.0000 </r>
       <r>   -8.0752    1.0000 </r>
       <r>   -7.9867    1.0000 </r>
       <r>   -7.6606    1.0000 </r>
       <r>   -7.5594    1.0000 </r>
       <r>   -7.4774    1.0000 </r>
       <r>   -7.2199    1.0000 </r>
       <r>   -7.0975    1.0000 </r>
       <r>   -2.1505    0.0000 </r>
       <r>   -1.8755    0.0000 </r>
       <r>   -1.7530    0.0000 </r>
       <r>   -1.4838    0.0000 </r>
       <r>   -1.2139    0.0000 </r>
       <r>   -0.3577    0.0000 </r>
       <r>   -0.2285    0.0000 </r>
       <r>   -0.1338    0.0000 </r>
       <r>   -0.0943    0.0000 </r>
       <r>    0.3217    0.0000 </r>
       <r>    0.6700    0.0000 </r>
       <r>    1.0171    0.0000 </r>
       <r>    1.1129    0.0000 </r>
       <r>    1.5019    0.0000 </r>
       <r>    1.9583    0.0000 </r>
       <r>    2.0010    0.0000 </r>
       <r>    2.1475    0.0000 </r>
       <r>    2.2992    0.0000 </r>
      </set>
      <set comment="kpoint 715">
       <r>   -8.9765    1.0000 </r>
       <r>   -8.6588    1.0000 </r>
       <r>   -8.5292    1.0000 </r>
       <r>   -8.0520    1.0000 </r>
       <r>   -7.9990    1.0000 </r>
       <r>   -7.6631    1.0000 </r>
       <r>   -7.5447    1.0000 </r>
       <r>   -7.4953    1.0000 </r>
       <r>   -7.1932    1.0000 </r>
       <r>   -7.1181    1.0000 </r>
       <r>   -2.1587    0.0000 </r>
       <r>   -1.8463    0.0000 </r>
       <r>   -1.7728    0.0000 </r>
       <r>   -1.4387    0.0000 </r>
       <r>   -1.2743    0.0000 </r>
       <r>   -0.3559    0.0000 </r>
       <r>   -0.2776    0.0000 </r>
       <r>   -0.1197    0.0000 </r>
       <r>   -0.0955    0.0000 </r>
       <r>    0.3988    0.0000 </r>
       <r>    0.6136    0.0000 </r>
       <r>    1.1738    0.0000 </r>
       <r>    1.1864    0.0000 </r>
       <r>    1.4125    0.0000 </r>
       <r>    1.7636    0.0000 </r>
       <r>    2.0362    0.0000 </r>
       <r>    2.1330    0.0000 </r>
       <r>    2.3856    0.0000 </r>
      </set>
      <set comment="kpoint 716">
       <r>   -8.9799    1.0000 </r>
       <r>   -8.6177    1.0000 </r>
       <r>   -8.5726    1.0000 </r>
       <r>   -8.0317    1.0000 </r>
       <r>   -8.0139    1.0000 </r>
       <r>   -7.6644    1.0000 </r>
       <r>   -7.5292    1.0000 </r>
       <r>   -7.5125    1.0000 </r>
       <r>   -7.1673    1.0000 </r>
       <r>   -7.1409    1.0000 </r>
       <r>   -2.1629    0.0000 </r>
       <r>   -1.8191    0.0000 </r>
       <r>   -1.7947    0.0000 </r>
       <r>   -1.3890    0.0000 </r>
       <r>   -1.3324    0.0000 </r>
       <r>   -0.3438    0.0000 </r>
       <r>   -0.3144    0.0000 </r>
       <r>   -0.1088    0.0000 </r>
       <r>   -0.1001    0.0000 </r>
       <r>    0.4735    0.0000 </r>
       <r>    0.5505    0.0000 </r>
       <r>    1.2419    0.0000 </r>
       <r>    1.3295    0.0000 </r>
       <r>    1.3624    0.0000 </r>
       <r>    1.5741    0.0000 </r>
       <r>    2.0725    0.0000 </r>
       <r>    2.1084    0.0000 </r>
       <r>    2.4776    0.0000 </r>
      </set>
      <set comment="kpoint 717">
       <r>   -8.9800    1.0000 </r>
       <r>   -8.6150    1.0000 </r>
       <r>   -8.5753    1.0000 </r>
       <r>   -8.0313    1.0000 </r>
       <r>   -8.0142    1.0000 </r>
       <r>   -7.6644    1.0000 </r>
       <r>   -7.5288    1.0000 </r>
       <r>   -7.5129    1.0000 </r>
       <r>   -7.1655    1.0000 </r>
       <r>   -7.1427    1.0000 </r>
       <r>   -2.1631    0.0000 </r>
       <r>   -1.8191    0.0000 </r>
       <r>   -1.7943    0.0000 </r>
       <r>   -1.3869    0.0000 </r>
       <r>   -1.3350    0.0000 </r>
       <r>   -0.3393    0.0000 </r>
       <r>   -0.3205    0.0000 </r>
       <r>   -0.1078    0.0000 </r>
       <r>   -0.1009    0.0000 </r>
       <r>    0.4811    0.0000 </r>
       <r>    0.5432    0.0000 </r>
       <r>    1.2535    0.0000 </r>
       <r>    1.3171    0.0000 </r>
       <r>    1.3877    0.0000 </r>
       <r>    1.5479    0.0000 </r>
       <r>    2.0758    0.0000 </r>
       <r>    2.1055    0.0000 </r>
       <r>    2.4875    0.0000 </r>
      </set>
      <set comment="kpoint 718">
       <r>   -8.9768    1.0000 </r>
       <r>   -8.6562    1.0000 </r>
       <r>   -8.5319    1.0000 </r>
       <r>   -8.0514    1.0000 </r>
       <r>   -7.9992    1.0000 </r>
       <r>   -7.6632    1.0000 </r>
       <r>   -7.5444    1.0000 </r>
       <r>   -7.4959    1.0000 </r>
       <r>   -7.1913    1.0000 </r>
       <r>   -7.1197    1.0000 </r>
       <r>   -2.1591    0.0000 </r>
       <r>   -1.8458    0.0000 </r>
       <r>   -1.7719    0.0000 </r>
       <r>   -1.4371    0.0000 </r>
       <r>   -1.2774    0.0000 </r>
       <r>   -0.3527    0.0000 </r>
       <r>   -0.2852    0.0000 </r>
       <r>   -0.1186    0.0000 </r>
       <r>   -0.0963    0.0000 </r>
       <r>    0.4067    0.0000 </r>
       <r>    0.6066    0.0000 </r>
       <r>    1.1845    0.0000 </r>
       <r>    1.2110    0.0000 </r>
       <r>    1.3992    0.0000 </r>
       <r>    1.7364    0.0000 </r>
       <r>    2.0395    0.0000 </r>
       <r>    2.1309    0.0000 </r>
       <r>    2.4018    0.0000 </r>
      </set>
      <set comment="kpoint 719">
       <r>   -8.9703    1.0000 </r>
       <r>   -8.6958    1.0000 </r>
       <r>   -8.4879    1.0000 </r>
       <r>   -8.0744    1.0000 </r>
       <r>   -7.9868    1.0000 </r>
       <r>   -7.6606    1.0000 </r>
       <r>   -7.5591    1.0000 </r>
       <r>   -7.4780    1.0000 </r>
       <r>   -7.2180    1.0000 </r>
       <r>   -7.0990    1.0000 </r>
       <r>   -2.1512    0.0000 </r>
       <r>   -1.8746    0.0000 </r>
       <r>   -1.7518    0.0000 </r>
       <r>   -1.4828    0.0000 </r>
       <r>   -1.2174    0.0000 </r>
       <r>   -0.3558    0.0000 </r>
       <r>   -0.2377    0.0000 </r>
       <r>   -0.1325    0.0000 </r>
       <r>   -0.0949    0.0000 </r>
       <r>    0.3296    0.0000 </r>
       <r>    0.6634    0.0000 </r>
       <r>    1.0408    0.0000 </r>
       <r>    1.1227    0.0000 </r>
       <r>    1.4879    0.0000 </r>
       <r>    1.9305    0.0000 </r>
       <r>    2.0039    0.0000 </r>
       <r>    2.1464    0.0000 </r>
       <r>    2.3097    0.0000 </r>
      </set>
      <set comment="kpoint 720">
       <r>   -8.9605    1.0000 </r>
       <r>   -8.7336    1.0000 </r>
       <r>   -8.4437    1.0000 </r>
       <r>   -8.1003    1.0000 </r>
       <r>   -7.9768    1.0000 </r>
       <r>   -7.6569    1.0000 </r>
       <r>   -7.5731    1.0000 </r>
       <r>   -7.4592    1.0000 </r>
       <r>   -7.2450    1.0000 </r>
       <r>   -7.0809    1.0000 </r>
       <r>   -2.1393    0.0000 </r>
       <r>   -1.9048    0.0000 </r>
       <r>   -1.7335    0.0000 </r>
       <r>   -1.5237    0.0000 </r>
       <r>   -1.1567    0.0000 </r>
       <r>   -0.3499    0.0000 </r>
       <r>   -0.1779    0.0000 </r>
       <r>   -0.1494    0.0000 </r>
       <r>   -0.0973    0.0000 </r>
       <r>    0.2537    0.0000 </r>
       <r>    0.7136    0.0000 </r>
       <r>    0.8781    0.0000 </r>
       <r>    1.0680    0.0000 </r>
       <r>    1.5827    0.0000 </r>
       <r>    1.9730    0.0000 </r>
       <r>    2.1273    0.0000 </r>
       <r>    2.1534    0.0000 </r>
       <r>    2.2283    0.0000 </r>
      </set>
      <set comment="kpoint 721">
       <r>   -8.9474    1.0000 </r>
       <r>   -8.7694    1.0000 </r>
       <r>   -8.3997    1.0000 </r>
       <r>   -8.1291    1.0000 </r>
       <r>   -7.9689    1.0000 </r>
       <r>   -7.6519    1.0000 </r>
       <r>   -7.5863    1.0000 </r>
       <r>   -7.4395    1.0000 </r>
       <r>   -7.2719    1.0000 </r>
       <r>   -7.0659    1.0000 </r>
       <r>   -2.1237    0.0000 </r>
       <r>   -1.9360    0.0000 </r>
       <r>   -1.7163    0.0000 </r>
       <r>   -1.5599    0.0000 </r>
       <r>   -1.0981    0.0000 </r>
       <r>   -0.3365    0.0000 </r>
       <r>   -0.1691    0.0000 </r>
       <r>   -0.1059    0.0000 </r>
       <r>   -0.1038    0.0000 </r>
       <r>    0.1843    0.0000 </r>
       <r>    0.7235    0.0000 </r>
       <r>    0.7580    0.0000 </r>
       <r>    1.0198    0.0000 </r>
       <r>    1.6832    0.0000 </r>
       <r>    1.9503    0.0000 </r>
       <r>    2.1539    0.0000 </r>
       <r>    2.1558    0.0000 </r>
       <r>    2.3153    0.0000 </r>
      </set>
      <set comment="kpoint 722">
       <r>   -8.9311    1.0000 </r>
       <r>   -8.8028    1.0000 </r>
       <r>   -8.3563    1.0000 </r>
       <r>   -8.1607    1.0000 </r>
       <r>   -7.9631    1.0000 </r>
       <r>   -7.6457    1.0000 </r>
       <r>   -7.5986    1.0000 </r>
       <r>   -7.4189    1.0000 </r>
       <r>   -7.2985    1.0000 </r>
       <r>   -7.0543    1.0000 </r>
       <r>   -2.1045    0.0000 </r>
       <r>   -1.9673    0.0000 </r>
       <r>   -1.6995    0.0000 </r>
       <r>   -1.5918    0.0000 </r>
       <r>   -1.0458    0.0000 </r>
       <r>   -0.3175    0.0000 </r>
       <r>   -0.1913    0.0000 </r>
       <r>   -0.1146    0.0000 </r>
       <r>   -0.0223    0.0000 </r>
       <r>    0.1276    0.0000 </r>
       <r>    0.5775    0.0000 </r>
       <r>    0.7973    0.0000 </r>
       <r>    0.9774    0.0000 </r>
       <r>    1.7887    0.0000 </r>
       <r>    1.9387    0.0000 </r>
       <r>    2.0882    0.0000 </r>
       <r>    2.1571    0.0000 </r>
       <r>    2.3603    0.0000 </r>
      </set>
      <set comment="kpoint 723">
       <r>   -8.9117    1.0000 </r>
       <r>   -8.8338    1.0000 </r>
       <r>   -8.3139    1.0000 </r>
       <r>   -8.1951    1.0000 </r>
       <r>   -7.9593    1.0000 </r>
       <r>   -7.6384    1.0000 </r>
       <r>   -7.6100    1.0000 </r>
       <r>   -7.3972    1.0000 </r>
       <r>   -7.3243    1.0000 </r>
       <r>   -7.0464    1.0000 </r>
       <r>   -2.0822    0.0000 </r>
       <r>   -1.9980    0.0000 </r>
       <r>   -1.6821    0.0000 </r>
       <r>   -1.6195    0.0000 </r>
       <r>   -1.0052    0.0000 </r>
       <r>   -0.2945    0.0000 </r>
       <r>   -0.2156    0.0000 </r>
       <r>   -0.1278    0.0000 </r>
       <r>    0.0728    0.0000 </r>
       <r>    0.0888    0.0000 </r>
       <r>    0.4405    0.0000 </r>
       <r>    0.8329    0.0000 </r>
       <r>    0.9397    0.0000 </r>
       <r>    1.8984    0.0000 </r>
       <r>    1.9400    0.0000 </r>
       <r>    2.0328    0.0000 </r>
       <r>    2.1584    0.0000 </r>
       <r>    2.2582    0.0000 </r>
      </set>
      <set comment="kpoint 724">
       <r>   -8.8893    1.0000 </r>
       <r>   -8.8621    1.0000 </r>
       <r>   -8.2729    1.0000 </r>
       <r>   -8.2318    1.0000 </r>
       <r>   -7.9574    1.0000 </r>
       <r>   -7.6300    1.0000 </r>
       <r>   -7.6204    1.0000 </r>
       <r>   -7.3744    1.0000 </r>
       <r>   -7.3493    1.0000 </r>
       <r>   -7.0423    1.0000 </r>
       <r>   -2.0569    0.0000 </r>
       <r>   -2.0275    0.0000 </r>
       <r>   -1.6634    0.0000 </r>
       <r>   -1.6437    0.0000 </r>
       <r>   -0.9824    0.0000 </r>
       <r>   -0.2692    0.0000 </r>
       <r>   -0.2413    0.0000 </r>
       <r>   -0.1375    0.0000 </r>
       <r>    0.0694    0.0000 </r>
       <r>    0.1787    0.0000 </r>
       <r>    0.3130    0.0000 </r>
       <r>    0.8661    0.0000 </r>
       <r>    0.9053    0.0000 </r>
       <r>    1.9551    0.0000 </r>
       <r>    1.9891    0.0000 </r>
       <r>    2.0115    0.0000 </r>
       <r>    2.1436    0.0000 </r>
       <r>    2.1594    0.0000 </r>
      </set>
      <set comment="kpoint 725">
       <r>   -8.8877    1.0000 </r>
       <r>   -8.8639    1.0000 </r>
       <r>   -8.2708    1.0000 </r>
       <r>   -8.2337    1.0000 </r>
       <r>   -7.9574    1.0000 </r>
       <r>   -7.6299    1.0000 </r>
       <r>   -7.6206    1.0000 </r>
       <r>   -7.3732    1.0000 </r>
       <r>   -7.3506    1.0000 </r>
       <r>   -7.0422    1.0000 </r>
       <r>   -2.0552    0.0000 </r>
       <r>   -2.0293    0.0000 </r>
       <r>   -1.6649    0.0000 </r>
       <r>   -1.6425    0.0000 </r>
       <r>   -0.9816    0.0000 </r>
       <r>   -0.2676    0.0000 </r>
       <r>   -0.2431    0.0000 </r>
       <r>   -0.1376    0.0000 </r>
       <r>    0.0683    0.0000 </r>
       <r>    0.1953    0.0000 </r>
       <r>    0.2950    0.0000 </r>
       <r>    0.8723    0.0000 </r>
       <r>    0.8988    0.0000 </r>
       <r>    1.9586    0.0000 </r>
       <r>    1.9842    0.0000 </r>
       <r>    2.0283    0.0000 </r>
       <r>    2.1267    0.0000 </r>
       <r>    2.1594    0.0000 </r>
      </set>
      <set comment="kpoint 726">
       <r>   -8.9103    1.0000 </r>
       <r>   -8.8358    1.0000 </r>
       <r>   -8.3116    1.0000 </r>
       <r>   -8.1967    1.0000 </r>
       <r>   -7.9593    1.0000 </r>
       <r>   -7.6383    1.0000 </r>
       <r>   -7.6101    1.0000 </r>
       <r>   -7.3961    1.0000 </r>
       <r>   -7.3258    1.0000 </r>
       <r>   -7.0459    1.0000 </r>
       <r>   -2.0806    0.0000 </r>
       <r>   -1.9997    0.0000 </r>
       <r>   -1.6838    0.0000 </r>
       <r>   -1.6186    0.0000 </r>
       <r>   -1.0031    0.0000 </r>
       <r>   -0.2932    0.0000 </r>
       <r>   -0.2174    0.0000 </r>
       <r>   -0.1280    0.0000 </r>
       <r>    0.0855    0.0000 </r>
       <r>    0.0880    0.0000 </r>
       <r>    0.4213    0.0000 </r>
       <r>    0.8389    0.0000 </r>
       <r>    0.9328    0.0000 </r>
       <r>    1.9148    0.0000 </r>
       <r>    1.9418    0.0000 </r>
       <r>    2.0264    0.0000 </r>
       <r>    2.1585    0.0000 </r>
       <r>    2.2419    0.0000 </r>
      </set>
      <set comment="kpoint 727">
       <r>   -8.9299    1.0000 </r>
       <r>   -8.8050    1.0000 </r>
       <r>   -8.3539    1.0000 </r>
       <r>   -8.1622    1.0000 </r>
       <r>   -7.9631    1.0000 </r>
       <r>   -7.6456    1.0000 </r>
       <r>   -7.5988    1.0000 </r>
       <r>   -7.4179    1.0000 </r>
       <r>   -7.3001    1.0000 </r>
       <r>   -7.0536    1.0000 </r>
       <r>   -2.1031    0.0000 </r>
       <r>   -1.9689    0.0000 </r>
       <r>   -1.7012    0.0000 </r>
       <r>   -1.5913    0.0000 </r>
       <r>   -1.0428    0.0000 </r>
       <r>   -0.3166    0.0000 </r>
       <r>   -0.1930    0.0000 </r>
       <r>   -0.1146    0.0000 </r>
       <r>   -0.0084    0.0000 </r>
       <r>    0.1223    0.0000 </r>
       <r>    0.5571    0.0000 </r>
       <r>    0.8034    0.0000 </r>
       <r>    0.9699    0.0000 </r>
       <r>    1.8046    0.0000 </r>
       <r>    1.9391    0.0000 </r>
       <r>    2.0805    0.0000 </r>
       <r>    2.1571    0.0000 </r>
       <r>    2.3504    0.0000 </r>
      </set>
      <set comment="kpoint 728">
       <r>   -8.9464    1.0000 </r>
       <r>   -8.7717    1.0000 </r>
       <r>   -8.3972    1.0000 </r>
       <r>   -8.1303    1.0000 </r>
       <r>   -7.9688    1.0000 </r>
       <r>   -7.6518    1.0000 </r>
       <r>   -7.5865    1.0000 </r>
       <r>   -7.4387    1.0000 </r>
       <r>   -7.2737    1.0000 </r>
       <r>   -7.0649    1.0000 </r>
       <r>   -2.1225    0.0000 </r>
       <r>   -1.9374    0.0000 </r>
       <r>   -1.7180    0.0000 </r>
       <r>   -1.5599    0.0000 </r>
       <r>   -1.0946    0.0000 </r>
       <r>   -0.3364    0.0000 </r>
       <r>   -0.1707    0.0000 </r>
       <r>   -0.1034    0.0000 </r>
       <r>   -0.0936    0.0000 </r>
       <r>    0.1775    0.0000 </r>
       <r>    0.7020    0.0000 </r>
       <r>    0.7642    0.0000 </r>
       <r>    1.0116    0.0000 </r>
       <r>    1.6986    0.0000 </r>
       <r>    1.9493    0.0000 </r>
       <r>    2.1451    0.0000 </r>
       <r>    2.1559    0.0000 </r>
       <r>    2.3380    0.0000 </r>
      </set>
      <set comment="kpoint 729">
       <r>   -8.9597    1.0000 </r>
       <r>   -8.7360    1.0000 </r>
       <r>   -8.4411    1.0000 </r>
       <r>   -8.1013    1.0000 </r>
       <r>   -7.9767    1.0000 </r>
       <r>   -7.6568    1.0000 </r>
       <r>   -7.5734    1.0000 </r>
       <r>   -7.4585    1.0000 </r>
       <r>   -7.2469    1.0000 </r>
       <r>   -7.0797    1.0000 </r>
       <r>   -2.1383    0.0000 </r>
       <r>   -1.9061    0.0000 </r>
       <r>   -1.7350    0.0000 </r>
       <r>   -1.5242    0.0000 </r>
       <r>   -1.1531    0.0000 </r>
       <r>   -0.3506    0.0000 </r>
       <r>   -0.1671    0.0000 </r>
       <r>   -0.1508    0.0000 </r>
       <r>   -0.0967    0.0000 </r>
       <r>    0.2461    0.0000 </r>
       <r>    0.7200    0.0000 </r>
       <r>    0.8554    0.0000 </r>
       <r>    1.0590    0.0000 </r>
       <r>    1.5975    0.0000 </r>
       <r>    1.9709    0.0000 </r>
       <r>    2.1537    0.0000 </r>
       <r>    2.1553    0.0000 </r>
       <r>    2.2185    0.0000 </r>
      </set>
      <set comment="kpoint 730">
       <r>   -8.8067    1.0000 </r>
       <r>   -8.5943    1.0000 </r>
       <r>   -8.3995    1.0000 </r>
       <r>   -8.1447    1.0000 </r>
       <r>   -8.0940    1.0000 </r>
       <r>   -7.5455    1.0000 </r>
       <r>   -7.4963    1.0000 </r>
       <r>   -7.4400    1.0000 </r>
       <r>   -7.2540    1.0000 </r>
       <r>   -7.1386    1.0000 </r>
       <r>   -1.8976    0.0000 </r>
       <r>   -1.7123    0.0000 </r>
       <r>   -1.6505    0.0000 </r>
       <r>   -1.4306    0.0000 </r>
       <r>   -1.1392    0.0000 </r>
       <r>   -0.3351    0.0000 </r>
       <r>   -0.2673    0.0000 </r>
       <r>   -0.1659    0.0000 </r>
       <r>   -0.0936    0.0000 </r>
       <r>    0.5911    0.0000 </r>
       <r>    0.7716    0.0000 </r>
       <r>    0.8506    0.0000 </r>
       <r>    1.0434    0.0000 </r>
       <r>    1.4124    0.0000 </r>
       <r>    1.8402    0.0000 </r>
       <r>    2.0035    0.0000 </r>
       <r>    2.0784    0.0000 </r>
       <r>    2.1816    0.0000 </r>
      </set>
      <set comment="kpoint 731">
       <r>   -8.8137    1.0000 </r>
       <r>   -8.5625    1.0000 </r>
       <r>   -8.4330    1.0000 </r>
       <r>   -8.1317    1.0000 </r>
       <r>   -8.0992    1.0000 </r>
       <r>   -7.5471    1.0000 </r>
       <r>   -7.4884    1.0000 </r>
       <r>   -7.4519    1.0000 </r>
       <r>   -7.2318    1.0000 </r>
       <r>   -7.1543    1.0000 </r>
       <r>   -1.9057    0.0000 </r>
       <r>   -1.6964    0.0000 </r>
       <r>   -1.6581    0.0000 </r>
       <r>   -1.3867    0.0000 </r>
       <r>   -1.1905    0.0000 </r>
       <r>   -0.3461    0.0000 </r>
       <r>   -0.3049    0.0000 </r>
       <r>   -0.1575    0.0000 </r>
       <r>   -0.1146    0.0000 </r>
       <r>    0.6622    0.0000 </r>
       <r>    0.8293    0.0000 </r>
       <r>    0.9318    0.0000 </r>
       <r>    1.0856    0.0000 </r>
       <r>    1.3320    0.0000 </r>
       <r>    1.6455    0.0000 </r>
       <r>    2.0520    0.0000 </r>
       <r>    2.1514    0.0000 </r>
       <r>    2.1865    0.0000 </r>
      </set>
      <set comment="kpoint 732">
       <r>   -8.8179    1.0000 </r>
       <r>   -8.5298    1.0000 </r>
       <r>   -8.4668    1.0000 </r>
       <r>   -8.1206    1.0000 </r>
       <r>   -8.1056    1.0000 </r>
       <r>   -7.5479    1.0000 </r>
       <r>   -7.4799    1.0000 </r>
       <r>   -7.4627    1.0000 </r>
       <r>   -7.2102    1.0000 </r>
       <r>   -7.1721    1.0000 </r>
       <r>   -1.9106    0.0000 </r>
       <r>   -1.6829    0.0000 </r>
       <r>   -1.6663    0.0000 </r>
       <r>   -1.3391    0.0000 </r>
       <r>   -1.2433    0.0000 </r>
       <r>   -0.3503    0.0000 </r>
       <r>   -0.3303    0.0000 </r>
       <r>   -0.1493    0.0000 </r>
       <r>   -0.1298    0.0000 </r>
       <r>    0.7211    0.0000 </r>
       <r>    0.8018    0.0000 </r>
       <r>    1.0997    0.0000 </r>
       <r>    1.1357    0.0000 </r>
       <r>    1.2588    0.0000 </r>
       <r>    1.4566    0.0000 </r>
       <r>    2.1002    0.0000 </r>
       <r>    2.1726    0.0000 </r>
       <r>    2.2312    0.0000 </r>
      </set>
      <set comment="kpoint 733">
       <r>   -8.8191    1.0000 </r>
       <r>   -8.5006    1.0000 </r>
       <r>   -8.4963    1.0000 </r>
       <r>   -8.1134    1.0000 </r>
       <r>   -8.1114    1.0000 </r>
       <r>   -7.5482    1.0000 </r>
       <r>   -7.4727    1.0000 </r>
       <r>   -7.4707    1.0000 </r>
       <r>   -7.1917    1.0000 </r>
       <r>   -7.1894    1.0000 </r>
       <r>   -1.9121    0.0000 </r>
       <r>   -1.6756    0.0000 </r>
       <r>   -1.6716    0.0000 </r>
       <r>   -1.2956    0.0000 </r>
       <r>   -1.2886    0.0000 </r>
       <r>   -0.3459    0.0000 </r>
       <r>   -0.3444    0.0000 </r>
       <r>   -0.1410    0.0000 </r>
       <r>   -0.1404    0.0000 </r>
       <r>    0.7654    0.0000 </r>
       <r>    0.7676    0.0000 </r>
       <r>    1.1934    0.0000 </r>
       <r>    1.1937    0.0000 </r>
       <r>    1.2503    0.0000 </r>
       <r>    1.2990    0.0000 </r>
       <r>    2.1400    0.0000 </r>
       <r>    2.1431    0.0000 </r>
       <r>    2.3133    0.0000 </r>
      </set>
      <set comment="kpoint 734">
       <r>   -8.8175    1.0000 </r>
       <r>   -8.5339    1.0000 </r>
       <r>   -8.4625    1.0000 </r>
       <r>   -8.1229    1.0000 </r>
       <r>   -8.1038    1.0000 </r>
       <r>   -7.5478    1.0000 </r>
       <r>   -7.4818    1.0000 </r>
       <r>   -7.4606    1.0000 </r>
       <r>   -7.2125    1.0000 </r>
       <r>   -7.1701    1.0000 </r>
       <r>   -1.9102    0.0000 </r>
       <r>   -1.6869    0.0000 </r>
       <r>   -1.6622    0.0000 </r>
       <r>   -1.3461    0.0000 </r>
       <r>   -1.2363    0.0000 </r>
       <r>   -0.3485    0.0000 </r>
       <r>   -0.3313    0.0000 </r>
       <r>   -0.1500    0.0000 </r>
       <r>   -0.1290    0.0000 </r>
       <r>    0.7177    0.0000 </r>
       <r>    0.8029    0.0000 </r>
       <r>    1.0939    0.0000 </r>
       <r>    1.1358    0.0000 </r>
       <r>    1.2596    0.0000 </r>
       <r>    1.4630    0.0000 </r>
       <r>    2.0963    0.0000 </r>
       <r>    2.1743    0.0000 </r>
       <r>    2.2274    0.0000 </r>
      </set>
      <set comment="kpoint 735">
       <r>   -8.8131    1.0000 </r>
       <r>   -8.5665    1.0000 </r>
       <r>   -8.4286    1.0000 </r>
       <r>   -8.1343    1.0000 </r>
       <r>   -8.0976    1.0000 </r>
       <r>   -7.5467    1.0000 </r>
       <r>   -7.4903    1.0000 </r>
       <r>   -7.4497    1.0000 </r>
       <r>   -7.2343    1.0000 </r>
       <r>   -7.1525    1.0000 </r>
       <r>   -1.9049    0.0000 </r>
       <r>   -1.7003    0.0000 </r>
       <r>   -1.6540    0.0000 </r>
       <r>   -1.3936    0.0000 </r>
       <r>   -1.1838    0.0000 </r>
       <r>   -0.3440    0.0000 </r>
       <r>   -0.3053    0.0000 </r>
       <r>   -0.1582    0.0000 </r>
       <r>   -0.1135    0.0000 </r>
       <r>    0.6575    0.0000 </r>
       <r>    0.8296    0.0000 </r>
       <r>    0.9263    0.0000 </r>
       <r>    1.0862    0.0000 </r>
       <r>    1.3332    0.0000 </r>
       <r>    1.6522    0.0000 </r>
       <r>    2.0478    0.0000 </r>
       <r>    2.1481    0.0000 </r>
       <r>    2.1864    0.0000 </r>
      </set>
      <set comment="kpoint 736">
       <r>   -8.8057    1.0000 </r>
       <r>   -8.5980    1.0000 </r>
       <r>   -8.3950    1.0000 </r>
       <r>   -8.1476    1.0000 </r>
       <r>   -8.0928    1.0000 </r>
       <r>   -7.5450    1.0000 </r>
       <r>   -7.4981    1.0000 </r>
       <r>   -7.4378    1.0000 </r>
       <r>   -7.2566    1.0000 </r>
       <r>   -7.1370    1.0000 </r>
       <r>   -1.8964    0.0000 </r>
       <r>   -1.7162    0.0000 </r>
       <r>   -1.6462    0.0000 </r>
       <r>   -1.4372    0.0000 </r>
       <r>   -1.1330    0.0000 </r>
       <r>   -0.3327    0.0000 </r>
       <r>   -0.2672    0.0000 </r>
       <r>   -0.1668    0.0000 </r>
       <r>   -0.0921    0.0000 </r>
       <r>    0.5854    0.0000 </r>
       <r>    0.7665    0.0000 </r>
       <r>    0.8501    0.0000 </r>
       <r>    1.0444    0.0000 </r>
       <r>    1.4139    0.0000 </r>
       <r>    1.8471    0.0000 </r>
       <r>    1.9993    0.0000 </r>
       <r>    2.0755    0.0000 </r>
       <r>    2.1807    0.0000 </r>
      </set>
      <set comment="kpoint 737">
       <r>   -8.7956    1.0000 </r>
       <r>   -8.6282    1.0000 </r>
       <r>   -8.3621    1.0000 </r>
       <r>   -8.1631    1.0000 </r>
       <r>   -8.0891    1.0000 </r>
       <r>   -7.5427    1.0000 </r>
       <r>   -7.5053    1.0000 </r>
       <r>   -7.4247    1.0000 </r>
       <r>   -7.2789    1.0000 </r>
       <r>   -7.1239    1.0000 </r>
       <r>   -1.8847    0.0000 </r>
       <r>   -1.7342    0.0000 </r>
       <r>   -1.6380    0.0000 </r>
       <r>   -1.4767    0.0000 </r>
       <r>   -1.0865    0.0000 </r>
       <r>   -0.3166    0.0000 </r>
       <r>   -0.2164    0.0000 </r>
       <r>   -0.1767    0.0000 </r>
       <r>   -0.0628    0.0000 </r>
       <r>    0.5036    0.0000 </r>
       <r>    0.6154    0.0000 </r>
       <r>    0.8669    0.0000 </r>
       <r>    1.0098    0.0000 </r>
       <r>    1.5015    0.0000 </r>
       <r>    1.9546    0.0000 </r>
       <r>    2.0116    0.0000 </r>
       <r>    2.0437    0.0000 </r>
       <r>    2.1709    0.0000 </r>
      </set>
      <set comment="kpoint 738">
       <r>   -8.7828    1.0000 </r>
       <r>   -8.6569    1.0000 </r>
       <r>   -8.3303    1.0000 </r>
       <r>   -8.1809    1.0000 </r>
       <r>   -8.0863    1.0000 </r>
       <r>   -7.5397    1.0000 </r>
       <r>   -7.5119    1.0000 </r>
       <r>   -7.4105    1.0000 </r>
       <r>   -7.3010    1.0000 </r>
       <r>   -7.1135    1.0000 </r>
       <r>   -1.8703    0.0000 </r>
       <r>   -1.7539    0.0000 </r>
       <r>   -1.6284    0.0000 </r>
       <r>   -1.5116    0.0000 </r>
       <r>   -1.0467    0.0000 </r>
       <r>   -0.2973    0.0000 </r>
       <r>   -0.1885    0.0000 </r>
       <r>   -0.1529    0.0000 </r>
       <r>   -0.0238    0.0000 </r>
       <r>    0.4158    0.0000 </r>
       <r>    0.4736    0.0000 </r>
       <r>    0.8815    0.0000 </r>
       <r>    0.9818    0.0000 </r>
       <r>    1.5951    0.0000 </r>
       <r>    1.9171    0.0000 </r>
       <r>    1.9581    0.0000 </r>
       <r>    2.1662    0.0000 </r>
       <r>    2.1911    0.0000 </r>
      </set>
      <set comment="kpoint 739">
       <r>   -8.7672    1.0000 </r>
       <r>   -8.6837    1.0000 </r>
       <r>   -8.2998    1.0000 </r>
       <r>   -8.2011    1.0000 </r>
       <r>   -8.0845    1.0000 </r>
       <r>   -7.5362    1.0000 </r>
       <r>   -7.5180    1.0000 </r>
       <r>   -7.3949    1.0000 </r>
       <r>   -7.3224    1.0000 </r>
       <r>   -7.1060    1.0000 </r>
       <r>   -1.8534    0.0000 </r>
       <r>   -1.7747    0.0000 </r>
       <r>   -1.6167    0.0000 </r>
       <r>   -1.5419    0.0000 </r>
       <r>   -1.0163    0.0000 </r>
       <r>   -0.2764    0.0000 </r>
       <r>   -0.2026    0.0000 </r>
       <r>   -0.0768    0.0000 </r>
       <r>    0.0261    0.0000 </r>
       <r>    0.3267    0.0000 </r>
       <r>    0.3415    0.0000 </r>
       <r>    0.8952    0.0000 </r>
       <r>    0.9591    0.0000 </r>
       <r>    1.6941    0.0000 </r>
       <r>    1.8899    0.0000 </r>
       <r>    1.9168    0.0000 </r>
       <r>    2.1185    0.0000 </r>
       <r>    2.1672    0.0000 </r>
      </set>
      <set comment="kpoint 740">
       <r>   -8.7491    1.0000 </r>
       <r>   -8.7085    1.0000 </r>
       <r>   -8.2711    1.0000 </r>
       <r>   -8.2236    1.0000 </r>
       <r>   -8.0835    1.0000 </r>
       <r>   -7.5321    1.0000 </r>
       <r>   -7.5236    1.0000 </r>
       <r>   -7.3780    1.0000 </r>
       <r>   -7.3429    1.0000 </r>
       <r>   -7.1015    1.0000 </r>
       <r>   -1.8345    0.0000 </r>
       <r>   -1.7960    0.0000 </r>
       <r>   -1.6021    0.0000 </r>
       <r>   -1.5678    0.0000 </r>
       <r>   -0.9975    0.0000 </r>
       <r>   -0.2555    0.0000 </r>
       <r>   -0.2190    0.0000 </r>
       <r>    0.0115    0.0000 </r>
       <r>    0.0865    0.0000 </r>
       <r>    0.2197    0.0000 </r>
       <r>    0.2411    0.0000 </r>
       <r>    0.9087    0.0000 </r>
       <r>    0.9406    0.0000 </r>
       <r>    1.7977    0.0000 </r>
       <r>    1.8753    0.0000 </r>
       <r>    1.8890    0.0000 </r>
       <r>    2.0109    0.0000 </r>
       <r>    2.1702    0.0000 </r>
      </set>
      <set comment="kpoint 741">
       <r>   -8.7311    1.0000 </r>
       <r>   -8.7285    1.0000 </r>
       <r>   -8.2483    1.0000 </r>
       <r>   -8.2443    1.0000 </r>
       <r>   -8.0832    1.0000 </r>
       <r>   -7.5287    1.0000 </r>
       <r>   -7.5274    1.0000 </r>
       <r>   -7.3624    1.0000 </r>
       <r>   -7.3598    1.0000 </r>
       <r>   -7.1001    1.0000 </r>
       <r>   -1.8170    0.0000 </r>
       <r>   -1.8141    0.0000 </r>
       <r>   -1.5894    0.0000 </r>
       <r>   -1.5842    0.0000 </r>
       <r>   -0.9916    0.0000 </r>
       <r>   -0.2376    0.0000 </r>
       <r>   -0.2354    0.0000 </r>
       <r>    0.1088    0.0000 </r>
       <r>    0.1117    0.0000 </r>
       <r>    0.1373    0.0000 </r>
       <r>    0.1821    0.0000 </r>
       <r>    0.9228    0.0000 </r>
       <r>    0.9248    0.0000 </r>
       <r>    1.8748    0.0000 </r>
       <r>    1.8757    0.0000 </r>
       <r>    1.9019    0.0000 </r>
       <r>    1.9047    0.0000 </r>
       <r>    2.1716    0.0000 </r>
      </set>
      <set comment="kpoint 742">
       <r>   -8.7514    1.0000 </r>
       <r>   -8.7056    1.0000 </r>
       <r>   -8.2753    1.0000 </r>
       <r>   -8.2197    1.0000 </r>
       <r>   -8.0837    1.0000 </r>
       <r>   -7.5332    1.0000 </r>
       <r>   -7.5223    1.0000 </r>
       <r>   -7.3805    1.0000 </r>
       <r>   -7.3404    1.0000 </r>
       <r>   -7.1018    1.0000 </r>
       <r>   -1.8371    0.0000 </r>
       <r>   -1.7928    0.0000 </r>
       <r>   -1.6072    0.0000 </r>
       <r>   -1.5623    0.0000 </r>
       <r>   -0.9991    0.0000 </r>
       <r>   -0.2578    0.0000 </r>
       <r>   -0.2171    0.0000 </r>
       <r>    0.0092    0.0000 </r>
       <r>    0.0819    0.0000 </r>
       <r>    0.2231    0.0000 </r>
       <r>    0.2472    0.0000 </r>
       <r>    0.9105    0.0000 </r>
       <r>    0.9386    0.0000 </r>
       <r>    1.7950    0.0000 </r>
       <r>    1.8772    0.0000 </r>
       <r>    1.8890    0.0000 </r>
       <r>    2.0137    0.0000 </r>
       <r>    2.1699    0.0000 </r>
      </set>
      <set comment="kpoint 743">
       <r>   -8.7692    1.0000 </r>
       <r>   -8.6806    1.0000 </r>
       <r>   -8.3041    1.0000 </r>
       <r>   -8.1974    1.0000 </r>
       <r>   -8.0850    1.0000 </r>
       <r>   -7.5372    1.0000 </r>
       <r>   -7.5166    1.0000 </r>
       <r>   -7.3973    1.0000 </r>
       <r>   -7.3198    1.0000 </r>
       <r>   -7.1066    1.0000 </r>
       <r>   -1.8557    0.0000 </r>
       <r>   -1.7713    0.0000 </r>
       <r>   -1.6215    0.0000 </r>
       <r>   -1.5361    0.0000 </r>
       <r>   -1.0194    0.0000 </r>
       <r>   -0.2789    0.0000 </r>
       <r>   -0.2009    0.0000 </r>
       <r>   -0.0787    0.0000 </r>
       <r>    0.0223    0.0000 </r>
       <r>    0.3334    0.0000 </r>
       <r>    0.3454    0.0000 </r>
       <r>    0.8968    0.0000 </r>
       <r>    0.9572    0.0000 </r>
       <r>    1.6916    0.0000 </r>
       <r>    1.8926    0.0000 </r>
       <r>    1.9176    0.0000 </r>
       <r>    2.1211    0.0000 </r>
       <r>    2.1669    0.0000 </r>
      </set>
      <set comment="kpoint 744">
       <r>   -8.7844    1.0000 </r>
       <r>   -8.6535    1.0000 </r>
       <r>   -8.3347    1.0000 </r>
       <r>   -8.1775    1.0000 </r>
       <r>   -8.0871    1.0000 </r>
       <r>   -7.5405    1.0000 </r>
       <r>   -7.5103    1.0000 </r>
       <r>   -7.4128    1.0000 </r>
       <r>   -7.2984    1.0000 </r>
       <r>   -7.1145    1.0000 </r>
       <r>   -1.8723    0.0000 </r>
       <r>   -1.7503    0.0000 </r>
       <r>   -1.6330    0.0000 </r>
       <r>   -1.5055    0.0000 </r>
       <r>   -1.0511    0.0000 </r>
       <r>   -0.2998    0.0000 </r>
       <r>   -0.1871    0.0000 </r>
       <r>   -0.1542    0.0000 </r>
       <r>   -0.0267    0.0000 </r>
       <r>    0.4226    0.0000 </r>
       <r>    0.4779    0.0000 </r>
       <r>    0.8829    0.0000 </r>
       <r>    0.9801    0.0000 </r>
       <r>    1.5928    0.0000 </r>
       <r>    1.9205    0.0000 </r>
       <r>    1.9598    0.0000 </r>
       <r>    2.1663    0.0000 </r>
       <r>    2.1890    0.0000 </r>
      </set>
      <set comment="kpoint 745">
       <r>   -8.7969    1.0000 </r>
       <r>   -8.6247    1.0000 </r>
       <r>   -8.3666    1.0000 </r>
       <r>   -8.1600    1.0000 </r>
       <r>   -8.0901    1.0000 </r>
       <r>   -7.5433    1.0000 </r>
       <r>   -7.5036    1.0000 </r>
       <r>   -7.4270    1.0000 </r>
       <r>   -7.2763    1.0000 </r>
       <r>   -7.1252    1.0000 </r>
       <r>   -1.8863    0.0000 </r>
       <r>   -1.7304    0.0000 </r>
       <r>   -1.6424    0.0000 </r>
       <r>   -1.4703    0.0000 </r>
       <r>   -1.0919    0.0000 </r>
       <r>   -0.3191    0.0000 </r>
       <r>   -0.2171    0.0000 </r>
       <r>   -0.1755    0.0000 </r>
       <r>   -0.0649    0.0000 </r>
       <r>    0.5100    0.0000 </r>
       <r>    0.6201    0.0000 </r>
       <r>    0.8679    0.0000 </r>
       <r>    1.0085    0.0000 </r>
       <r>    1.4995    0.0000 </r>
       <r>    1.9585    0.0000 </r>
       <r>    2.0140    0.0000 </r>
       <r>    2.0368    0.0000 </r>
       <r>    2.1715    0.0000 </r>
      </set>
      <set comment="kpoint 746">
       <r>   -8.6482    1.0000 </r>
       <r>   -8.4937    1.0000 </r>
       <r>   -8.3395    1.0000 </r>
       <r>   -8.2222    1.0000 </r>
       <r>   -8.2164    1.0000 </r>
       <r>   -7.4400    1.0000 </r>
       <r>   -7.4380    1.0000 </r>
       <r>   -7.4163    1.0000 </r>
       <r>   -7.2927    1.0000 </r>
       <r>   -7.1938    1.0000 </r>
       <r>   -1.6585    0.0000 </r>
       <r>   -1.5909    0.0000 </r>
       <r>   -1.5779    0.0000 </r>
       <r>   -1.4092    0.0000 </r>
       <r>   -1.1573    0.0000 </r>
       <r>   -0.2943    0.0000 </r>
       <r>   -0.2833    0.0000 </r>
       <r>   -0.2061    0.0000 </r>
       <r>   -0.0246    0.0000 </r>
       <r>    0.5326    0.0000 </r>
       <r>    0.8687    0.0000 </r>
       <r>    1.0002    0.0000 </r>
       <r>    1.0032    0.0000 </r>
       <r>    1.3222    0.0000 </r>
       <r>    1.6616    0.0000 </r>
       <r>    1.9042    0.0000 </r>
       <r>    2.0432    0.0000 </r>
       <r>    2.1934    0.0000 </r>
      </set>
      <set comment="kpoint 747">
       <r>   -8.6549    1.0000 </r>
       <r>   -8.4703    1.0000 </r>
       <r>   -8.3609    1.0000 </r>
       <r>   -8.2188    1.0000 </r>
       <r>   -8.2161    1.0000 </r>
       <r>   -7.4399    1.0000 </r>
       <r>   -7.4368    1.0000 </r>
       <r>   -7.4227    1.0000 </r>
       <r>   -7.2756    1.0000 </r>
       <r>   -7.2049    1.0000 </r>
       <r>   -1.6649    0.0000 </r>
       <r>   -1.5913    0.0000 </r>
       <r>   -1.5771    0.0000 </r>
       <r>   -1.3708    0.0000 </r>
       <r>   -1.1883    0.0000 </r>
       <r>   -0.3083    0.0000 </r>
       <r>   -0.3083    0.0000 </r>
       <r>   -0.1986    0.0000 </r>
       <r>   -0.0789    0.0000 </r>
       <r>    0.6784    0.0000 </r>
       <r>    0.9390    0.0000 </r>
       <r>    1.0120    0.0000 </r>
       <r>    1.0273    0.0000 </r>
       <r>    1.2529    0.0000 </r>
       <r>    1.4896    0.0000 </r>
       <r>    1.9575    0.0000 </r>
       <r>    2.1032    0.0000 </r>
       <r>    2.2293    0.0000 </r>
      </set>
      <set comment="kpoint 748">
       <r>   -8.6592    1.0000 </r>
       <r>   -8.4465    1.0000 </r>
       <r>   -8.3835    1.0000 </r>
       <r>   -8.2166    1.0000 </r>
       <r>   -8.2160    1.0000 </r>
       <r>   -7.4398    1.0000 </r>
       <r>   -7.4351    1.0000 </r>
       <r>   -7.4278    1.0000 </r>
       <r>   -7.2588    1.0000 </r>
       <r>   -7.2177    1.0000 </r>
       <r>   -1.6692    0.0000 </r>
       <r>   -1.5897    0.0000 </r>
       <r>   -1.5783    0.0000 </r>
       <r>   -1.3306    0.0000 </r>
       <r>   -1.2239    0.0000 </r>
       <r>   -0.3225    0.0000 </r>
       <r>   -0.3199    0.0000 </r>
       <r>   -0.1873    0.0000 </r>
       <r>   -0.1212    0.0000 </r>
       <r>    0.8319    0.0000 </r>
       <r>    0.9866    0.0000 </r>
       <r>    1.0205    0.0000 </r>
       <r>    1.0588    0.0000 </r>
       <r>    1.1911    0.0000 </r>
       <r>    1.3142    0.0000 </r>
       <r>    2.0209    0.0000 </r>
       <r>    2.1616    0.0000 </r>
       <r>    2.2395    0.0000 </r>
      </set>
      <set comment="kpoint 749">
       <r>   -8.6612    1.0000 </r>
       <r>   -8.4226    1.0000 </r>
       <r>   -8.4067    1.0000 </r>
       <r>   -8.2162    1.0000 </r>
       <r>   -8.2153    1.0000 </r>
       <r>   -7.4397    1.0000 </r>
       <r>   -7.4327    1.0000 </r>
       <r>   -7.4317    1.0000 </r>
       <r>   -7.2427    1.0000 </r>
       <r>   -7.2320    1.0000 </r>
       <r>   -1.6712    0.0000 </r>
       <r>   -1.5869    0.0000 </r>
       <r>   -1.5808    0.0000 </r>
       <r>   -1.2899    0.0000 </r>
       <r>   -1.2626    0.0000 </r>
       <r>   -0.3273    0.0000 </r>
       <r>   -0.3272    0.0000 </r>
       <r>   -0.1703    0.0000 </r>
       <r>   -0.1529    0.0000 </r>
       <r>    0.9849    0.0000 </r>
       <r>    1.0124    0.0000 </r>
       <r>    1.0213    0.0000 </r>
       <r>    1.0982    0.0000 </r>
       <r>    1.1373    0.0000 </r>
       <r>    1.1501    0.0000 </r>
       <r>    2.0926    0.0000 </r>
       <r>    2.1530    0.0000 </r>
       <r>    2.2164    0.0000 </r>
      </set>
      <set comment="kpoint 750">
       <r>   -8.6608    1.0000 </r>
       <r>   -8.4304    1.0000 </r>
       <r>   -8.3989    1.0000 </r>
       <r>   -8.2171    1.0000 </r>
       <r>   -8.2148    1.0000 </r>
       <r>   -7.4397    1.0000 </r>
       <r>   -7.4347    1.0000 </r>
       <r>   -7.4295    1.0000 </r>
       <r>   -7.2474    1.0000 </r>
       <r>   -7.2276    1.0000 </r>
       <r>   -1.6708    0.0000 </r>
       <r>   -1.5839    0.0000 </r>
       <r>   -1.5837    0.0000 </r>
       <r>   -1.3032    0.0000 </r>
       <r>   -1.2498    0.0000 </r>
       <r>   -0.3285    0.0000 </r>
       <r>   -0.3246    0.0000 </r>
       <r>   -0.1755    0.0000 </r>
       <r>   -0.1457    0.0000 </r>
       <r>    0.9546    0.0000 </r>
       <r>    1.0088    0.0000 </r>
       <r>    1.0206    0.0000 </r>
       <r>    1.0916    0.0000 </r>
       <r>    1.1458    0.0000 </r>
       <r>    1.1818    0.0000 </r>
       <r>    2.0766    0.0000 </r>
       <r>    2.1710    0.0000 </r>
       <r>    2.2027    0.0000 </r>
      </set>
      <set comment="kpoint 751">
       <r>   -8.6581    1.0000 </r>
       <r>   -8.4543    1.0000 </r>
       <r>   -8.3757    1.0000 </r>
       <r>   -8.2187    1.0000 </r>
       <r>   -8.2148    1.0000 </r>
       <r>   -7.4396    1.0000 </r>
       <r>   -7.4369    1.0000 </r>
       <r>   -7.4252    1.0000 </r>
       <r>   -7.2638    1.0000 </r>
       <r>   -7.2137    1.0000 </r>
       <r>   -1.6680    0.0000 </r>
       <r>   -1.5862    0.0000 </r>
       <r>   -1.5815    0.0000 </r>
       <r>   -1.3442    0.0000 </r>
       <r>   -1.2120    0.0000 </r>
       <r>   -0.3217    0.0000 </r>
       <r>   -0.3162    0.0000 </r>
       <r>   -0.1909    0.0000 </r>
       <r>   -0.1115    0.0000 </r>
       <r>    0.7992    0.0000 </r>
       <r>    0.9775    0.0000 </r>
       <r>    1.0171    0.0000 </r>
       <r>    1.0541    0.0000 </r>
       <r>    1.2015    0.0000 </r>
       <r>    1.3510    0.0000 </r>
       <r>    2.0067    0.0000 </r>
       <r>    2.1470    0.0000 </r>
       <r>    2.2549    0.0000 </r>
      </set>
      <set comment="kpoint 752">
       <r>   -8.6531    1.0000 </r>
       <r>   -8.4779    1.0000 </r>
       <r>   -8.3533    1.0000 </r>
       <r>   -8.2213    1.0000 </r>
       <r>   -8.2152    1.0000 </r>
       <r>   -7.4396    1.0000 </r>
       <r>   -7.4384    1.0000 </r>
       <r>   -7.4199    1.0000 </r>
       <r>   -7.2808    1.0000 </r>
       <r>   -7.2014    1.0000 </r>
       <r>   -1.6629    0.0000 </r>
       <r>   -1.5873    0.0000 </r>
       <r>   -1.5805    0.0000 </r>
       <r>   -1.3841    0.0000 </r>
       <r>   -1.1778    0.0000 </r>
       <r>   -0.3053    0.0000 </r>
       <r>   -0.3040    0.0000 </r>
       <r>   -0.2011    0.0000 </r>
       <r>   -0.0662    0.0000 </r>
       <r>    0.6471    0.0000 </r>
       <r>    0.9237    0.0000 </r>
       <r>    1.0071    0.0000 </r>
       <r>    1.0244    0.0000 </r>
       <r>    1.2651    0.0000 </r>
       <r>    1.5268    0.0000 </r>
       <r>    1.9455    0.0000 </r>
       <r>    2.0876    0.0000 </r>
       <r>    2.2180    0.0000 </r>
      </set>
      <set comment="kpoint 753">
       <r>   -8.6458    1.0000 </r>
       <r>   -8.5010    1.0000 </r>
       <r>   -8.3322    1.0000 </r>
       <r>   -8.2252    1.0000 </r>
       <r>   -8.2157    1.0000 </r>
       <r>   -7.4396    1.0000 </r>
       <r>   -7.4395    1.0000 </r>
       <r>   -7.4132    1.0000 </r>
       <r>   -7.2980    1.0000 </r>
       <r>   -7.1909    1.0000 </r>
       <r>   -1.6558    0.0000 </r>
       <r>   -1.5863    0.0000 </r>
       <r>   -1.5816    0.0000 </r>
       <r>   -1.4220    0.0000 </r>
       <r>   -1.1484    0.0000 </r>
       <r>   -0.2897    0.0000 </r>
       <r>   -0.2777    0.0000 </r>
       <r>   -0.2080    0.0000 </r>
       <r>   -0.0087    0.0000 </r>
       <r>    0.5033    0.0000 </r>
       <r>    0.8476    0.0000 </r>
       <r>    0.9948    0.0000 </r>
       <r>    1.0019    0.0000 </r>
       <r>    1.3361    0.0000 </r>
       <r>    1.6963    0.0000 </r>
       <r>    1.8949    0.0000 </r>
       <r>    2.0276    0.0000 </r>
       <r>    2.1876    0.0000 </r>
      </set>
      <set comment="kpoint 754">
       <r>   -8.6362    1.0000 </r>
       <r>   -8.5233    1.0000 </r>
       <r>   -8.3124    1.0000 </r>
       <r>   -8.2305    1.0000 </r>
       <r>   -8.2164    1.0000 </r>
       <r>   -7.4401    1.0000 </r>
       <r>   -7.4396    1.0000 </r>
       <r>   -7.4051    1.0000 </r>
       <r>   -7.3151    1.0000 </r>
       <r>   -7.1823    1.0000 </r>
       <r>   -1.6469    0.0000 </r>
       <r>   -1.5850    0.0000 </r>
       <r>   -1.5825    0.0000 </r>
       <r>   -1.4569    0.0000 </r>
       <r>   -1.1247    0.0000 </r>
       <r>   -0.2749    0.0000 </r>
       <r>   -0.2379    0.0000 </r>
       <r>   -0.2132    0.0000 </r>
       <r>    0.0613    0.0000 </r>
       <r>    0.3690    0.0000 </r>
       <r>    0.7535    0.0000 </r>
       <r>    0.9828    0.0000 </r>
       <r>    0.9858    0.0000 </r>
       <r>    1.4136    0.0000 </r>
       <r>    1.8309    0.0000 </r>
       <r>    1.8569    0.0000 </r>
       <r>    1.9702    0.0000 </r>
       <r>    2.1779    0.0000 </r>
      </set>
      <set comment="kpoint 755">
       <r>   -8.6245    1.0000 </r>
       <r>   -8.5447    1.0000 </r>
       <r>   -8.2944    1.0000 </r>
       <r>   -8.2374    1.0000 </r>
       <r>   -8.2169    1.0000 </r>
       <r>   -7.4404    1.0000 </r>
       <r>   -7.4396    1.0000 </r>
       <r>   -7.3955    1.0000 </r>
       <r>   -7.3318    1.0000 </r>
       <r>   -7.1759    1.0000 </r>
       <r>   -1.6367    0.0000 </r>
       <r>   -1.5909    0.0000 </r>
       <r>   -1.5752    0.0000 </r>
       <r>   -1.4882    0.0000 </r>
       <r>   -1.1071    0.0000 </r>
       <r>   -0.2606    0.0000 </r>
       <r>   -0.2181    0.0000 </r>
       <r>   -0.1852    0.0000 </r>
       <r>    0.1435    0.0000 </r>
       <r>    0.2451    0.0000 </r>
       <r>    0.6475    0.0000 </r>
       <r>    0.9731    0.0000 </r>
       <r>    0.9750    0.0000 </r>
       <r>    1.4967    0.0000 </r>
       <r>    1.8331    0.0000 </r>
       <r>    1.8715    0.0000 </r>
       <r>    1.9186    0.0000 </r>
       <r>    2.1843    0.0000 </r>
      </set>
      <set comment="kpoint 756">
       <r>   -8.6108    1.0000 </r>
       <r>   -8.5647    1.0000 </r>
       <r>   -8.2782    1.0000 </r>
       <r>   -8.2462    1.0000 </r>
       <r>   -8.2174    1.0000 </r>
       <r>   -7.4406    1.0000 </r>
       <r>   -7.4396    1.0000 </r>
       <r>   -7.3844    1.0000 </r>
       <r>   -7.3477    1.0000 </r>
       <r>   -7.1716    1.0000 </r>
       <r>   -1.6257    0.0000 </r>
       <r>   -1.5988    0.0000 </r>
       <r>   -1.5640    0.0000 </r>
       <r>   -1.5154    0.0000 </r>
       <r>   -1.0957    0.0000 </r>
       <r>   -0.2479    0.0000 </r>
       <r>   -0.2237    0.0000 </r>
       <r>   -0.1194    0.0000 </r>
       <r>    0.1323    0.0000 </r>
       <r>    0.2362    0.0000 </r>
       <r>    0.5365    0.0000 </r>
       <r>    0.9663    0.0000 </r>
       <r>    0.9685    0.0000 </r>
       <r>    1.5841    0.0000 </r>
       <r>    1.8241    0.0000 </r>
       <r>    1.8244    0.0000 </r>
       <r>    1.8758    0.0000 </r>
       <r>    2.1977    0.0000 </r>
      </set>
      <set comment="kpoint 757">
       <r>   -8.5951    1.0000 </r>
       <r>   -8.5832    1.0000 </r>
       <r>   -8.2640    1.0000 </r>
       <r>   -8.2569    1.0000 </r>
       <r>   -8.2177    1.0000 </r>
       <r>   -7.4406    1.0000 </r>
       <r>   -7.4396    1.0000 </r>
       <r>   -7.3718    1.0000 </r>
       <r>   -7.3626    1.0000 </r>
       <r>   -7.1696    1.0000 </r>
       <r>   -1.6146    0.0000 </r>
       <r>   -1.6084    0.0000 </r>
       <r>   -1.5487    0.0000 </r>
       <r>   -1.5384    0.0000 </r>
       <r>   -1.0905    0.0000 </r>
       <r>   -0.2370    0.0000 </r>
       <r>   -0.2310    0.0000 </r>
       <r>   -0.0406    0.0000 </r>
       <r>    0.0312    0.0000 </r>
       <r>    0.3339    0.0000 </r>
       <r>    0.4295    0.0000 </r>
       <r>    0.9629    0.0000 </r>
       <r>    0.9658    0.0000 </r>
       <r>    1.6736    0.0000 </r>
       <r>    1.7443    0.0000 </r>
       <r>    1.8310    0.0000 </r>
       <r>    1.8443    0.0000 </r>
       <r>    2.2076    0.0000 </r>
      </set>
      <set comment="kpoint 758">
       <r>   -8.6001    1.0000 </r>
       <r>   -8.5776    1.0000 </r>
       <r>   -8.2696    1.0000 </r>
       <r>   -8.2518    1.0000 </r>
       <r>   -8.2178    1.0000 </r>
       <r>   -7.4405    1.0000 </r>
       <r>   -7.4396    1.0000 </r>
       <r>   -7.3763    1.0000 </r>
       <r>   -7.3578    1.0000 </r>
       <r>   -7.1700    1.0000 </r>
       <r>   -1.6190    0.0000 </r>
       <r>   -1.6039    0.0000 </r>
       <r>   -1.5570    0.0000 </r>
       <r>   -1.5291    0.0000 </r>
       <r>   -1.0915    0.0000 </r>
       <r>   -0.2402    0.0000 </r>
       <r>   -0.2284    0.0000 </r>
       <r>   -0.0576    0.0000 </r>
       <r>    0.0509    0.0000 </r>
       <r>    0.3095    0.0000 </r>
       <r>    0.4553    0.0000 </r>
       <r>    0.9629    0.0000 </r>
       <r>    0.9665    0.0000 </r>
       <r>    1.6559    0.0000 </r>
       <r>    1.7611    0.0000 </r>
       <r>    1.8264    0.0000 </r>
       <r>    1.8523    0.0000 </r>
       <r>    2.2058    0.0000 </r>
      </set>
      <set comment="kpoint 759">
       <r>   -8.6152    1.0000 </r>
       <r>   -8.5586    1.0000 </r>
       <r>   -8.2843    1.0000 </r>
       <r>   -8.2417    1.0000 </r>
       <r>   -8.2176    1.0000 </r>
       <r>   -7.4404    1.0000 </r>
       <r>   -7.4395    1.0000 </r>
       <r>   -7.3886    1.0000 </r>
       <r>   -7.3427    1.0000 </r>
       <r>   -7.1726    1.0000 </r>
       <r>   -1.6299    0.0000 </r>
       <r>   -1.5944    0.0000 </r>
       <r>   -1.5713    0.0000 </r>
       <r>   -1.5051    0.0000 </r>
       <r>   -1.0987    0.0000 </r>
       <r>   -0.2516    0.0000 </r>
       <r>   -0.2216    0.0000 </r>
       <r>   -0.1335    0.0000 </r>
       <r>    0.1546    0.0000 </r>
       <r>    0.2116    0.0000 </r>
       <r>    0.5650    0.0000 </r>
       <r>    0.9664    0.0000 </r>
       <r>    0.9706    0.0000 </r>
       <r>    1.5667    0.0000 </r>
       <r>    1.8234    0.0000 </r>
       <r>    1.8369    0.0000 </r>
       <r>    1.8867    0.0000 </r>
       <r>    2.1940    0.0000 </r>
      </set>
      <set comment="kpoint 760">
       <r>   -8.6283    1.0000 </r>
       <r>   -8.5381    1.0000 </r>
       <r>   -8.3010    1.0000 </r>
       <r>   -8.2334    1.0000 </r>
       <r>   -8.2173    1.0000 </r>
       <r>   -7.4403    1.0000 </r>
       <r>   -7.4392    1.0000 </r>
       <r>   -7.3993    1.0000 </r>
       <r>   -7.3266    1.0000 </r>
       <r>   -7.1776    1.0000 </r>
       <r>   -1.6405    0.0000 </r>
       <r>   -1.5866    0.0000 </r>
       <r>   -1.5815    0.0000 </r>
       <r>   -1.4769    0.0000 </r>
       <r>   -1.1121    0.0000 </r>
       <r>   -0.2649    0.0000 </r>
       <r>   -0.2163    0.0000 </r>
       <r>   -0.1965    0.0000 </r>
       <r>    0.1214    0.0000 </r>
       <r>    0.2699    0.0000 </r>
       <r>    0.6753    0.0000 </r>
       <r>    0.9737    0.0000 </r>
       <r>    0.9779    0.0000 </r>
       <r>    1.4802    0.0000 </r>
       <r>    1.8358    0.0000 </r>
       <r>    1.8712    0.0000 </r>
       <r>    1.9318    0.0000 </r>
       <r>    2.1814    0.0000 </r>
      </set>
      <set comment="kpoint 761">
       <r>   -8.6394    1.0000 </r>
       <r>   -8.5164    1.0000 </r>
       <r>   -8.3194    1.0000 </r>
       <r>   -8.2270    1.0000 </r>
       <r>   -8.2169    1.0000 </r>
       <r>   -7.4401    1.0000 </r>
       <r>   -7.4387    1.0000 </r>
       <r>   -7.4086    1.0000 </r>
       <r>   -7.3098    1.0000 </r>
       <r>   -7.1847    1.0000 </r>
       <r>   -1.6502    0.0000 </r>
       <r>   -1.5879    0.0000 </r>
       <r>   -1.5810    0.0000 </r>
       <r>   -1.4448    0.0000 </r>
       <r>   -1.1317    0.0000 </r>
       <r>   -0.2794    0.0000 </r>
       <r>   -0.2463    0.0000 </r>
       <r>   -0.2115    0.0000 </r>
       <r>    0.0423    0.0000 </r>
       <r>    0.3961    0.0000 </r>
       <r>    0.7788    0.0000 </r>
       <r>    0.9857    0.0000 </r>
       <r>    0.9881    0.0000 </r>
       <r>    1.3983    0.0000 </r>
       <r>    1.8075    0.0000 </r>
       <r>    1.8631    0.0000 </r>
       <r>    1.9850    0.0000 </r>
       <r>    2.1814    0.0000 </r>
      </set>
      <set comment="kpoint 762">
       <r>   -8.4958    1.0000 </r>
       <r>   -8.3976    1.0000 </r>
       <r>   -8.3512    1.0000 </r>
       <r>   -8.3086    1.0000 </r>
       <r>   -8.3067    1.0000 </r>
       <r>   -7.4050    1.0000 </r>
       <r>   -7.3846    1.0000 </r>
       <r>   -7.3455    1.0000 </r>
       <r>   -7.3362    1.0000 </r>
       <r>   -7.2631    1.0000 </r>
       <r>   -1.5648    0.0000 </r>
       <r>   -1.4804    0.0000 </r>
       <r>   -1.4430    0.0000 </r>
       <r>   -1.4243    0.0000 </r>
       <r>   -1.2675    0.0000 </r>
       <r>   -0.2751    0.0000 </r>
       <r>   -0.2636    0.0000 </r>
       <r>   -0.2463    0.0000 </r>
       <r>    0.1171    0.0000 </r>
       <r>    0.3098    0.0000 </r>
       <r>    0.9874    0.0000 </r>
       <r>    1.1232    0.0000 </r>
       <r>    1.1490    0.0000 </r>
       <r>    1.2278    0.0000 </r>
       <r>    1.4209    0.0000 </r>
       <r>    1.8050    0.0000 </r>
       <r>    2.1253    0.0000 </r>
       <r>    2.2058    0.0000 </r>
      </set>
      <set comment="kpoint 763">
       <r>   -8.5013    1.0000 </r>
       <r>   -8.3830    1.0000 </r>
       <r>   -8.3468    1.0000 </r>
       <r>   -8.3166    1.0000 </r>
       <r>   -8.3125    1.0000 </r>
       <r>   -7.4064    1.0000 </r>
       <r>   -7.3899    1.0000 </r>
       <r>   -7.3430    1.0000 </r>
       <r>   -7.3246    1.0000 </r>
       <r>   -7.2699    1.0000 </r>
       <r>   -1.5628    0.0000 </r>
       <r>   -1.4948    0.0000 </r>
       <r>   -1.4448    0.0000 </r>
       <r>   -1.3965    0.0000 </r>
       <r>   -1.2787    0.0000 </r>
       <r>   -0.2888    0.0000 </r>
       <r>   -0.2705    0.0000 </r>
       <r>   -0.2335    0.0000 </r>
       <r>    0.0284    0.0000 </r>
       <r>    0.4362    0.0000 </r>
       <r>    0.9962    0.0000 </r>
       <r>    1.1628    0.0000 </r>
       <r>    1.1729    0.0000 </r>
       <r>    1.2268    0.0000 </r>
       <r>    1.2849    0.0000 </r>
       <r>    1.8299    0.0000 </r>
       <r>    2.1704    0.0000 </r>
       <r>    2.1971    0.0000 </r>
      </set>
      <set comment="kpoint 764">
       <r>   -8.5052    1.0000 </r>
       <r>   -8.3687    1.0000 </r>
       <r>   -8.3418    1.0000 </r>
       <r>   -8.3262    1.0000 </r>
       <r>   -8.3187    1.0000 </r>
       <r>   -7.4064    1.0000 </r>
       <r>   -7.3947    1.0000 </r>
       <r>   -7.3413    1.0000 </r>
       <r>   -7.3132    1.0000 </r>
       <r>   -7.2779    1.0000 </r>
       <r>   -1.5570    0.0000 </r>
       <r>   -1.5097    0.0000 </r>
       <r>   -1.4463    0.0000 </r>
       <r>   -1.3693    0.0000 </r>
       <r>   -1.2932    0.0000 </r>
       <r>   -0.2945    0.0000 </r>
       <r>   -0.2784    0.0000 </r>
       <r>   -0.2126    0.0000 </r>
       <r>   -0.0474    0.0000 </r>
       <r>    0.5714    0.0000 </r>
       <r>    1.0108    0.0000 </r>
       <r>    1.1248    0.0000 </r>
       <r>    1.1338    0.0000 </r>
       <r>    1.2032    0.0000 </r>
       <r>    1.2678    0.0000 </r>
       <r>    1.8687    0.0000 </r>
       <r>    2.0940    0.0000 </r>
       <r>    2.2860    0.0000 </r>
      </set>
      <set comment="kpoint 765">
       <r>   -8.5073    1.0000 </r>
       <r>   -8.3550    1.0000 </r>
       <r>   -8.3372    1.0000 </r>
       <r>   -8.3362    1.0000 </r>
       <r>   -8.3251    1.0000 </r>
       <r>   -7.4050    1.0000 </r>
       <r>   -7.3989    1.0000 </r>
       <r>   -7.3402    1.0000 </r>
       <r>   -7.3022    1.0000 </r>
       <r>   -7.2870    1.0000 </r>
       <r>   -1.5479    0.0000 </r>
       <r>   -1.5241    0.0000 </r>
       <r>   -1.4472    0.0000 </r>
       <r>   -1.3437    0.0000 </r>
       <r>   -1.3113    0.0000 </r>
       <r>   -0.2940    0.0000 </r>
       <r>   -0.2863    0.0000 </r>
       <r>   -0.1817    0.0000 </r>
       <r>   -0.1099    0.0000 </r>
       <r>    0.7103    0.0000 </r>
       <r>    0.9833    0.0000 </r>
       <r>    1.0320    0.0000 </r>
       <r>    1.0842    0.0000 </r>
       <r>    1.2403    0.0000 </r>
       <r>    1.2743    0.0000 </r>
       <r>    1.9198    0.0000 </r>
       <r>    2.0221    0.0000 </r>
       <r>    2.3271    0.0000 </r>
      </set>
      <set comment="kpoint 766">
       <r>   -8.5078    1.0000 </r>
       <r>   -8.3495    1.0000 </r>
       <r>   -8.3420    1.0000 </r>
       <r>   -8.3313    1.0000 </r>
       <r>   -8.3302    1.0000 </r>
       <r>   -7.4023    1.0000 </r>
       <r>   -7.4021    1.0000 </r>
       <r>   -7.3399    1.0000 </r>
       <r>   -7.2970    1.0000 </r>
       <r>   -7.2918    1.0000 </r>
       <r>   -1.5371    0.0000 </r>
       <r>   -1.5361    0.0000 </r>
       <r>   -1.4473    0.0000 </r>
       <r>   -1.3329    0.0000 </r>
       <r>   -1.3206    0.0000 </r>
       <r>   -0.2926    0.0000 </r>
       <r>   -0.2893    0.0000 </r>
       <r>   -0.1595    0.0000 </r>
       <r>   -0.1392    0.0000 </r>
       <r>    0.7809    0.0000 </r>
       <r>    0.9098    0.0000 </r>
       <r>    1.0513    0.0000 </r>
       <r>    1.0605    0.0000 </r>
       <r>    1.2560    0.0000 </r>
       <r>    1.2677    0.0000 </r>
       <r>    1.9563    0.0000 </r>
       <r>    1.9808    0.0000 </r>
       <r>    2.3526    0.0000 </r>
      </set>
      <set comment="kpoint 767">
       <r>   -8.5065    1.0000 </r>
       <r>   -8.3628    1.0000 </r>
       <r>   -8.3373    1.0000 </r>
       <r>   -8.3301    1.0000 </r>
       <r>   -8.3240    1.0000 </r>
       <r>   -7.4043    1.0000 </r>
       <r>   -7.3986    1.0000 </r>
       <r>   -7.3404    1.0000 </r>
       <r>   -7.3078    1.0000 </r>
       <r>   -7.2823    1.0000 </r>
       <r>   -1.5478    0.0000 </r>
       <r>   -1.5223    0.0000 </r>
       <r>   -1.4465    0.0000 </r>
       <r>   -1.3574    0.0000 </r>
       <r>   -1.3008    0.0000 </r>
       <r>   -0.2959    0.0000 </r>
       <r>   -0.2822    0.0000 </r>
       <r>   -0.1969    0.0000 </r>
       <r>   -0.0841    0.0000 </r>
       <r>    0.6569    0.0000 </r>
       <r>    1.0259    0.0000 </r>
       <r>    1.0405    0.0000 </r>
       <r>    1.0966    0.0000 </r>
       <r>    1.2232    0.0000 </r>
       <r>    1.2764    0.0000 </r>
       <r>    1.8992    0.0000 </r>
       <r>    2.0494    0.0000 </r>
       <r>    2.3059    0.0000 </r>
      </set>
      <set comment="kpoint 768">
       <r>   -8.5034    1.0000 </r>
       <r>   -8.3767    1.0000 </r>
       <r>   -8.3429    1.0000 </r>
       <r>   -8.3196    1.0000 </r>
       <r>   -8.3178    1.0000 </r>
       <r>   -7.4052    1.0000 </r>
       <r>   -7.3941    1.0000 </r>
       <r>   -7.3416    1.0000 </r>
       <r>   -7.3190    1.0000 </r>
       <r>   -7.2737    1.0000 </r>
       <r>   -1.5556    0.0000 </r>
       <r>   -1.5074    0.0000 </r>
       <r>   -1.4451    0.0000 </r>
       <r>   -1.3840    0.0000 </r>
       <r>   -1.2845    0.0000 </r>
       <r>   -0.2942    0.0000 </r>
       <r>   -0.2742    0.0000 </r>
       <r>   -0.2233    0.0000 </r>
       <r>   -0.0158    0.0000 </r>
       <r>    0.5183    0.0000 </r>
       <r>    1.0075    0.0000 </r>
       <r>    1.1404    0.0000 </r>
       <r>    1.1839    0.0000 </r>
       <r>    1.1934    0.0000 </r>
       <r>    1.2555    0.0000 </r>
       <r>    1.8529    0.0000 </r>
       <r>    2.1234    0.0000 </r>
       <r>    2.2386    0.0000 </r>
      </set>
      <set comment="kpoint 769">
       <r>   -8.4987    1.0000 </r>
       <r>   -8.3910    1.0000 </r>
       <r>   -8.3478    1.0000 </r>
       <r>   -8.3119    1.0000 </r>
       <r>   -8.3106    1.0000 </r>
       <r>   -7.4046    1.0000 </r>
       <r>   -7.3890    1.0000 </r>
       <r>   -7.3435    1.0000 </r>
       <r>   -7.3306    1.0000 </r>
       <r>   -7.2663    1.0000 </r>
       <r>   -1.5598    0.0000 </r>
       <r>   -1.4924    0.0000 </r>
       <r>   -1.4431    0.0000 </r>
       <r>   -1.4118    0.0000 </r>
       <r>   -1.2718    0.0000 </r>
       <r>   -0.2856    0.0000 </r>
       <r>   -0.2666    0.0000 </r>
       <r>   -0.2406    0.0000 </r>
       <r>    0.0656    0.0000 </r>
       <r>    0.3863    0.0000 </r>
       <r>    0.9954    0.0000 </r>
       <r>    1.1433    0.0000 </r>
       <r>    1.1914    0.0000 </r>
       <r>    1.1979    0.0000 </r>
       <r>    1.3408    0.0000 </r>
       <r>    1.8196    0.0000 </r>
       <r>    2.1689    0.0000 </r>
       <r>    2.2082    0.0000 </r>
      </set>
      <set comment="kpoint 770">
       <r>   -8.4923    1.0000 </r>
       <r>   -8.4054    1.0000 </r>
       <r>   -8.3520    1.0000 </r>
       <r>   -8.3065    1.0000 </r>
       <r>   -8.3034    1.0000 </r>
       <r>   -7.4025    1.0000 </r>
       <r>   -7.3836    1.0000 </r>
       <r>   -7.3461    1.0000 </r>
       <r>   -7.3422    1.0000 </r>
       <r>   -7.2601    1.0000 </r>
       <r>   -1.5602    0.0000 </r>
       <r>   -1.4783    0.0000 </r>
       <r>   -1.4411    0.0000 </r>
       <r>   -1.4396    0.0000 </r>
       <r>   -1.2623    0.0000 </r>
       <r>   -0.2682    0.0000 </r>
       <r>   -0.2604    0.0000 </r>
       <r>   -0.2505    0.0000 </r>
       <r>    0.1596    0.0000 </r>
       <r>    0.2638    0.0000 </r>
       <r>    0.9888    0.0000 </r>
       <r>    1.1047    0.0000 </r>
       <r>    1.1057    0.0000 </r>
       <r>    1.2489    0.0000 </r>
       <r>    1.4660    0.0000 </r>
       <r>    1.8010    0.0000 </r>
       <r>    2.0951    0.0000 </r>
       <r>    2.1917    0.0000 </r>
      </set>
      <set comment="kpoint 771">
       <r>   -8.4844    1.0000 </r>
       <r>   -8.4196    1.0000 </r>
       <r>   -8.3554    1.0000 </r>
       <r>   -8.3019    1.0000 </r>
       <r>   -8.2979    1.0000 </r>
       <r>   -7.3987    1.0000 </r>
       <r>   -7.3779    1.0000 </r>
       <r>   -7.3535    1.0000 </r>
       <r>   -7.3494    1.0000 </r>
       <r>   -7.2553    1.0000 </r>
       <r>   -1.5564    0.0000 </r>
       <r>   -1.4663    0.0000 </r>
       <r>   -1.4658    0.0000 </r>
       <r>   -1.4394    0.0000 </r>
       <r>   -1.2557    0.0000 </r>
       <r>   -0.2560    0.0000 </r>
       <r>   -0.2550    0.0000 </r>
       <r>   -0.2402    0.0000 </r>
       <r>    0.1522    0.0000 </r>
       <r>    0.2651    0.0000 </r>
       <r>    0.9871    0.0000 </r>
       <r>    0.9893    0.0000 </r>
       <r>    1.0704    0.0000 </r>
       <r>    1.3116    0.0000 </r>
       <r>    1.5455    0.0000 </r>
       <r>    1.7979    0.0000 </r>
       <r>    2.0270    0.0000 </r>
       <r>    2.2082    0.0000 </r>
      </set>
      <set comment="kpoint 772">
       <r>   -8.4751    1.0000 </r>
       <r>   -8.4334    1.0000 </r>
       <r>   -8.3578    1.0000 </r>
       <r>   -8.2982    1.0000 </r>
       <r>   -8.2944    1.0000 </r>
       <r>   -7.3934    1.0000 </r>
       <r>   -7.3722    1.0000 </r>
       <r>   -7.3643    1.0000 </r>
       <r>   -7.3533    1.0000 </r>
       <r>   -7.2520    1.0000 </r>
       <r>   -1.5484    0.0000 </r>
       <r>   -1.4910    0.0000 </r>
       <r>   -1.4556    0.0000 </r>
       <r>   -1.4386    0.0000 </r>
       <r>   -1.2516    0.0000 </r>
       <r>   -0.2561    0.0000 </r>
       <r>   -0.2536    0.0000 </r>
       <r>   -0.2005    0.0000 </r>
       <r>    0.0525    0.0000 </r>
       <r>    0.3801    0.0000 </r>
       <r>    0.8604    0.0000 </r>
       <r>    0.9902    0.0000 </r>
       <r>    1.0416    0.0000 </r>
       <r>    1.3776    0.0000 </r>
       <r>    1.5649    0.0000 </r>
       <r>    1.8105    0.0000 </r>
       <r>    1.9631    0.0000 </r>
       <r>    2.2354    0.0000 </r>
      </set>
      <set comment="kpoint 773">
       <r>   -8.4644    1.0000 </r>
       <r>   -8.4466    1.0000 </r>
       <r>   -8.3592    1.0000 </r>
       <r>   -8.2958    1.0000 </r>
       <r>   -8.2927    1.0000 </r>
       <r>   -7.3865    1.0000 </r>
       <r>   -7.3743    1.0000 </r>
       <r>   -7.3667    1.0000 </r>
       <r>   -7.3577    1.0000 </r>
       <r>   -7.2501    1.0000 </r>
       <r>   -1.5362    0.0000 </r>
       <r>   -1.5129    0.0000 </r>
       <r>   -1.4482    0.0000 </r>
       <r>   -1.4395    0.0000 </r>
       <r>   -1.2494    0.0000 </r>
       <r>   -0.2553    0.0000 </r>
       <r>   -0.2531    0.0000 </r>
       <r>   -0.1479    0.0000 </r>
       <r>   -0.0346    0.0000 </r>
       <r>    0.4996    0.0000 </r>
       <r>    0.7309    0.0000 </r>
       <r>    0.9982    0.0000 </r>
       <r>    1.0188    0.0000 </r>
       <r>    1.4438    0.0000 </r>
       <r>    1.5369    0.0000 </r>
       <r>    1.8380    0.0000 </r>
       <r>    1.9061    0.0000 </r>
       <r>    2.2658    0.0000 </r>
      </set>
      <set comment="kpoint 774">
       <r>   -8.4589    1.0000 </r>
       <r>   -8.4526    1.0000 </r>
       <r>   -8.3596    1.0000 </r>
       <r>   -8.2949    1.0000 </r>
       <r>   -8.2928    1.0000 </r>
       <r>   -7.3833    1.0000 </r>
       <r>   -7.3783    1.0000 </r>
       <r>   -7.3626    1.0000 </r>
       <r>   -7.3615    1.0000 </r>
       <r>   -7.2497    1.0000 </r>
       <r>   -1.5314    0.0000 </r>
       <r>   -1.5200    0.0000 </r>
       <r>   -1.4434    0.0000 </r>
       <r>   -1.4425    0.0000 </r>
       <r>   -1.2491    0.0000 </r>
       <r>   -0.2542    0.0000 </r>
       <r>   -0.2539    0.0000 </r>
       <r>   -0.1086    0.0000 </r>
       <r>   -0.0820    0.0000 </r>
       <r>    0.5562    0.0000 </r>
       <r>    0.6719    0.0000 </r>
       <r>    1.0020    0.0000 </r>
       <r>    1.0115    0.0000 </r>
       <r>    1.4837    0.0000 </r>
       <r>    1.5048    0.0000 </r>
       <r>    1.8587    0.0000 </r>
       <r>    1.8787    0.0000 </r>
       <r>    2.2744    0.0000 </r>
      </set>
      <set comment="kpoint 775">
       <r>   -8.4701    1.0000 </r>
       <r>   -8.4398    1.0000 </r>
       <r>   -8.3590    1.0000 </r>
       <r>   -8.2956    1.0000 </r>
       <r>   -8.2944    1.0000 </r>
       <r>   -7.3910    1.0000 </r>
       <r>   -7.3689    1.0000 </r>
       <r>   -7.3679    1.0000 </r>
       <r>   -7.3567    1.0000 </r>
       <r>   -7.2508    1.0000 </r>
       <r>   -1.5460    0.0000 </r>
       <r>   -1.5001    0.0000 </r>
       <r>   -1.4481    0.0000 </r>
       <r>   -1.4410    0.0000 </r>
       <r>   -1.2506    0.0000 </r>
       <r>   -0.2550    0.0000 </r>
       <r>   -0.2539    0.0000 </r>
       <r>   -0.1692    0.0000 </r>
       <r>   -0.0029    0.0000 </r>
       <r>    0.4477    0.0000 </r>
       <r>    0.7861    0.0000 </r>
       <r>    0.9909    0.0000 </r>
       <r>    1.0307    0.0000 </r>
       <r>    1.4200    0.0000 </r>
       <r>    1.5506    0.0000 </r>
       <r>    1.8232    0.0000 </r>
       <r>    1.9304    0.0000 </r>
       <r>    2.2535    0.0000 </r>
      </set>
      <set comment="kpoint 776">
       <r>   -8.4801    1.0000 </r>
       <r>   -8.4262    1.0000 </r>
       <r>   -8.3573    1.0000 </r>
       <r>   -8.2981    1.0000 </r>
       <r>   -8.2974    1.0000 </r>
       <r>   -7.3972    1.0000 </r>
       <r>   -7.3734    1.0000 </r>
       <r>   -7.3586    1.0000 </r>
       <r>   -7.3524    1.0000 </r>
       <r>   -7.2535    1.0000 </r>
       <r>   -1.5565    0.0000 </r>
       <r>   -1.4770    0.0000 </r>
       <r>   -1.4564    0.0000 </r>
       <r>   -1.4405    0.0000 </r>
       <r>   -1.2539    0.0000 </r>
       <r>   -0.2552    0.0000 </r>
       <r>   -0.2552    0.0000 </r>
       <r>   -0.2166    0.0000 </r>
       <r>    0.0893    0.0000 </r>
       <r>    0.3290    0.0000 </r>
       <r>    0.9171    0.0000 </r>
       <r>    0.9849    0.0000 </r>
       <r>    1.0560    0.0000 </r>
       <r>    1.3535    0.0000 </r>
       <r>    1.5631    0.0000 </r>
       <r>    1.8017    0.0000 </r>
       <r>    1.9905    0.0000 </r>
       <r>    2.2210    0.0000 </r>
      </set>
      <set comment="kpoint 777">
       <r>   -8.4887    1.0000 </r>
       <r>   -8.4120    1.0000 </r>
       <r>   -8.3547    1.0000 </r>
       <r>   -8.3024    1.0000 </r>
       <r>   -8.3016    1.0000 </r>
       <r>   -7.4019    1.0000 </r>
       <r>   -7.3790    1.0000 </r>
       <r>   -7.3486    1.0000 </r>
       <r>   -7.3476    1.0000 </r>
       <r>   -7.2576    1.0000 </r>
       <r>   -1.5628    0.0000 </r>
       <r>   -1.4673    0.0000 </r>
       <r>   -1.4515    0.0000 </r>
       <r>   -1.4414    0.0000 </r>
       <r>   -1.2594    0.0000 </r>
       <r>   -0.2584    0.0000 </r>
       <r>   -0.2529    0.0000 </r>
       <r>   -0.2515    0.0000 </r>
       <r>    0.1938    0.0000 </r>
       <r>    0.2178    0.0000 </r>
       <r>    0.9838    0.0000 </r>
       <r>    1.0418    0.0000 </r>
       <r>    1.0871    0.0000 </r>
       <r>    1.2886    0.0000 </r>
       <r>    1.5208    0.0000 </r>
       <r>    1.7955    0.0000 </r>
       <r>    2.0564    0.0000 </r>
       <r>    2.1956    0.0000 </r>
      </set>
     </set>
    </set>
   </array>
  </eigenvalues>
  <separator name="orbital magnetization" >
   <v name="MAGDIPOLOUT">      0.00000000      0.00000000      0.00000000</v>
  </separator>
  <dos>
   <i name="efermi">     -3.09477472 </i>
   <total>
    <array>
     <dimension dim="1">gridpoints</dimension>
     <dimension dim="2">spin</dimension>
     <field>energy</field>
     <field>total</field>
     <field>integrated</field>
     <set>
      <set comment="spin 1">
       <r>   -14.5290     0.0000     0.0000 </r>
       <r>   -14.4648     0.0000     0.0000 </r>
       <r>   -14.4006     0.0000     0.0000 </r>
       <r>   -14.3364     0.0000     0.0000 </r>
       <r>   -14.2721     0.0000     0.0000 </r>
       <r>   -14.2079     0.0000     0.0000 </r>
       <r>   -14.1437     0.0000     0.0000 </r>
       <r>   -14.0795     0.0000     0.0000 </r>
       <r>   -14.0153     0.0000     0.0000 </r>
       <r>   -13.9511     0.0000     0.0000 </r>
       <r>   -13.8869     0.0000     0.0000 </r>
       <r>   -13.8227     0.0000     0.0000 </r>
       <r>   -13.7584     0.0000     0.0000 </r>
       <r>   -13.6942     0.0002     0.0000 </r>
       <r>   -13.6300     0.5092     0.0327 </r>
       <r>   -13.5658     1.3773     0.1211 </r>
       <r>   -13.5016     1.3881     0.2103 </r>
       <r>   -13.4374     1.3765     0.2987 </r>
       <r>   -13.3732     1.4103     0.3892 </r>
       <r>   -13.3090     1.4068     0.4796 </r>
       <r>   -13.2447     1.3965     0.5692 </r>
       <r>   -13.1805     1.4023     0.6593 </r>
       <r>   -13.1163     1.3844     0.7482 </r>
       <r>   -13.0521     1.3691     0.8361 </r>
       <r>   -12.9879     1.3514     0.9229 </r>
       <r>   -12.9237     1.4090     1.0133 </r>
       <r>   -12.8595     1.4557     1.1068 </r>
       <r>   -12.7953     1.3924     1.1962 </r>
       <r>   -12.7310     1.3815     1.2849 </r>
       <r>   -12.6668     1.4062     1.3752 </r>
       <r>   -12.6026     1.4163     1.4662 </r>
       <r>   -12.5384     1.4106     1.5567 </r>
       <r>   -12.4742     1.3714     1.6448 </r>
       <r>   -12.4100     1.4710     1.7393 </r>
       <r>   -12.3458     1.3792     1.8278 </r>
       <r>   -12.2816     1.4695     1.9222 </r>
       <r>   -12.2173     1.4197     2.0133 </r>
       <r>   -12.1531     1.6480     2.1192 </r>
       <r>   -12.0889     2.7375     2.2949 </r>
       <r>   -12.0247     2.7429     2.4711 </r>
       <r>   -11.9605     2.8146     2.6518 </r>
       <r>   -11.8963     2.7656     2.8294 </r>
       <r>   -11.8321     2.8362     3.0115 </r>
       <r>   -11.7679     2.8791     3.1964 </r>
       <r>   -11.7036     2.7657     3.3740 </r>
       <r>   -11.6394     2.8407     3.5564 </r>
       <r>   -11.5752     2.7641     3.7339 </r>
       <r>   -11.5110     2.9234     3.9216 </r>
       <r>   -11.4468     2.8952     4.1075 </r>
       <r>   -11.3826     2.7766     4.2858 </r>
       <r>   -11.3184     2.9944     4.4781 </r>
       <r>   -11.2542     2.7091     4.6520 </r>
       <r>   -11.1900     3.0289     4.8465 </r>
       <r>   -11.1257     2.7292     5.0218 </r>
       <r>   -11.0615     3.0471     5.2174 </r>
       <r>   -10.9973     2.9385     5.4061 </r>
       <r>   -10.9331     2.7655     5.5837 </r>
       <r>   -10.8689     3.1207     5.7841 </r>
       <r>   -10.8047     2.7578     5.9612 </r>
       <r>   -10.7405     3.1715     6.1648 </r>
       <r>   -10.6763     2.8458     6.3475 </r>
       <r>   -10.6120     2.9029     6.5340 </r>
       <r>   -10.5478     3.2600     6.7433 </r>
       <r>   -10.4836     2.7978     6.9229 </r>
       <r>   -10.4194     3.0865     7.1211 </r>
       <r>   -10.3552     3.1055     7.3205 </r>
       <r>   -10.2910     2.9350     7.5090 </r>
       <r>   -10.2268     3.1843     7.7135 </r>
       <r>   -10.1626     3.0803     7.9113 </r>
       <r>   -10.0983     3.0621     8.1079 </r>
       <r>   -10.0341     3.2636     8.3175 </r>
       <r>    -9.9699     2.9699     8.5082 </r>
       <r>    -9.9057     3.3332     8.7222 </r>
       <r>    -9.8415     3.1775     8.9262 </r>
       <r>    -9.7773     3.2526     9.1351 </r>
       <r>    -9.7131     3.2326     9.3427 </r>
       <r>    -9.6489     3.2635     9.5522 </r>
       <r>    -9.5846     3.4585     9.7743 </r>
       <r>    -9.5204     3.0784     9.9720 </r>
       <r>    -9.4562     3.5833    10.2021 </r>
       <r>    -9.3920     3.4613    10.4243 </r>
       <r>    -9.3278     3.2916    10.6357 </r>
       <r>    -9.2636     3.6193    10.8681 </r>
       <r>    -9.1994     3.6758    11.1041 </r>
       <r>    -9.1352     3.4823    11.3277 </r>
       <r>    -9.0709     3.9276    11.5799 </r>
       <r>    -9.0067     3.7616    11.8215 </r>
       <r>    -8.9425     3.8664    12.0697 </r>
       <r>    -8.8783     5.5734    12.4276 </r>
       <r>    -8.8141     5.2296    12.7634 </r>
       <r>    -8.7499     5.8201    13.1371 </r>
       <r>    -8.6857     6.3720    13.5463 </r>
       <r>    -8.6215     5.5631    13.9035 </r>
       <r>    -8.5572     5.7361    14.2718 </r>
       <r>    -8.4930     5.4043    14.6189 </r>
       <r>    -8.4288     5.6583    14.9822 </r>
       <r>    -8.3646     5.5598    15.3392 </r>
       <r>    -8.3004     6.5858    15.7621 </r>
       <r>    -8.2362     5.7016    16.1282 </r>
       <r>    -8.1720     6.0482    16.5166 </r>
       <r>    -8.1078     5.0583    16.8414 </r>
       <r>    -8.0435     5.2706    17.1798 </r>
       <r>    -7.9793     4.8763    17.4929 </r>
       <r>    -7.9151     5.2399    17.8294 </r>
       <r>    -7.8509     4.7761    18.1361 </r>
       <r>    -7.7867     4.9268    18.4525 </r>
       <r>    -7.7225     5.0895    18.7793 </r>
       <r>    -7.6583     4.9267    19.0956 </r>
       <r>    -7.5941     5.0375    19.4191 </r>
       <r>    -7.5299     5.3605    19.7633 </r>
       <r>    -7.4656     5.5331    20.1186 </r>
       <r>    -7.4014     6.8036    20.5555 </r>
       <r>    -7.3372     6.8353    20.9944 </r>
       <r>    -7.2730     5.0609    21.3193 </r>
       <r>    -7.2088     5.2737    21.6580 </r>
       <r>    -7.1446     5.0871    21.9846 </r>
       <r>    -7.0804     5.6474    22.3473 </r>
       <r>    -7.0162     6.3948    22.7579 </r>
       <r>    -6.9519     5.6856    23.1230 </r>
       <r>    -6.8877     4.0739    23.3846 </r>
       <r>    -6.8235     2.7351    23.5602 </r>
       <r>    -6.7593     2.4071    23.7148 </r>
       <r>    -6.6951     2.4297    23.8708 </r>
       <r>    -6.6309     2.2085    24.0126 </r>
       <r>    -6.5667     2.2714    24.1585 </r>
       <r>    -6.5025     2.1849    24.2987 </r>
       <r>    -6.4382     1.9972    24.4270 </r>
       <r>    -6.3740     2.2209    24.5696 </r>
       <r>    -6.3098     1.9010    24.6917 </r>
       <r>    -6.2456     1.9631    24.8177 </r>
       <r>    -6.1814     1.9217    24.9411 </r>
       <r>    -6.1172     1.9064    25.0635 </r>
       <r>    -6.0530     1.8877    25.1848 </r>
       <r>    -5.9888     1.8068    25.3008 </r>
       <r>    -5.9245     2.0158    25.4302 </r>
       <r>    -5.8603     1.5211    25.5279 </r>
       <r>    -5.7961     1.9893    25.6556 </r>
       <r>    -5.7319     1.7717    25.7694 </r>
       <r>    -5.6677     1.7632    25.8826 </r>
       <r>    -5.6035     1.4634    25.9766 </r>
       <r>    -5.5393     2.0888    26.1107 </r>
       <r>    -5.4751     1.5767    26.2119 </r>
       <r>    -5.4108     1.5243    26.3098 </r>
       <r>    -5.3466     1.9772    26.4368 </r>
       <r>    -5.2824     1.5999    26.5395 </r>
       <r>    -5.2182     1.6550    26.6458 </r>
       <r>    -5.1540     1.3635    26.7333 </r>
       <r>    -5.0898     2.1055    26.8685 </r>
       <r>    -5.0256     1.5244    26.9664 </r>
       <r>    -4.9614     1.2944    27.0495 </r>
       <r>    -4.8971     2.0123    27.1788 </r>
       <r>    -4.8329     1.5350    27.2773 </r>
       <r>    -4.7687     1.6331    27.3822 </r>
       <r>    -4.7045     1.4929    27.4780 </r>
       <r>    -4.6403     1.6130    27.5816 </r>
       <r>    -4.5761     1.7100    27.6914 </r>
       <r>    -4.5119     1.4620    27.7853 </r>
       <r>    -4.4477     1.7001    27.8945 </r>
       <r>    -4.3834     1.6451    28.0001 </r>
       <r>    -4.3192     1.3454    28.0865 </r>
       <r>    -4.2550     1.6617    28.1932 </r>
       <r>    -4.1908     1.6281    28.2977 </r>
       <r>    -4.1266     1.6290    28.4023 </r>
       <r>    -4.0624     1.5740    28.5034 </r>
       <r>    -3.9982     1.1974    28.5803 </r>
       <r>    -3.9340     1.8910    28.7017 </r>
       <r>    -3.8698     1.7954    28.8170 </r>
       <r>    -3.8055     1.2719    28.8987 </r>
       <r>    -3.7413     1.1210    28.9707 </r>
       <r>    -3.6771     2.2345    29.1141 </r>
       <r>    -3.6129     1.5304    29.2124 </r>
       <r>    -3.5487     1.1850    29.2885 </r>
       <r>    -3.4845     1.6532    29.3947 </r>
       <r>    -3.4203     1.7048    29.5041 </r>
       <r>    -3.3561     1.4311    29.5960 </r>
       <r>    -3.2918     1.6913    29.7046 </r>
       <r>    -3.2276     1.5205    29.8023 </r>
       <r>    -3.1634     1.3871    29.8913 </r>
       <r>    -3.0992     1.5382    29.9901 </r>
       <r>    -3.0350     2.0005    30.1186 </r>
       <r>    -2.9708     1.2224    30.1971 </r>
       <r>    -2.9066     1.5110    30.2941 </r>
       <r>    -2.8424     1.9204    30.4174 </r>
       <r>    -2.7781     1.5108    30.5144 </r>
       <r>    -2.7139     1.3304    30.5998 </r>
       <r>    -2.6497     1.7654    30.7132 </r>
       <r>    -2.5855     1.8504    30.8320 </r>
       <r>    -2.5213     1.2414    30.9117 </r>
       <r>    -2.4571     1.6259    31.0161 </r>
       <r>    -2.3929     1.8477    31.1348 </r>
       <r>    -2.3287     1.6840    31.2429 </r>
       <r>    -2.2644     1.6827    31.3510 </r>
       <r>    -2.2002     1.4272    31.4426 </r>
       <r>    -2.1360     1.8843    31.5636 </r>
       <r>    -2.0718     1.7894    31.6785 </r>
       <r>    -2.0076     1.8549    31.7976 </r>
       <r>    -1.9434     1.6474    31.9034 </r>
       <r>    -1.8792     1.9498    32.0286 </r>
       <r>    -1.8150     1.7979    32.1440 </r>
       <r>    -1.7507     2.1887    32.2846 </r>
       <r>    -1.6865     2.0326    32.4151 </r>
       <r>    -1.6223     2.5863    32.5812 </r>
       <r>    -1.5581     2.8929    32.7669 </r>
       <r>    -1.4939     2.3822    32.9199 </r>
       <r>    -1.4297     2.9723    33.1107 </r>
       <r>    -1.3655     1.6859    33.2190 </r>
       <r>    -1.3013     1.4482    33.3120 </r>
       <r>    -1.2370     1.7093    33.4218 </r>
       <r>    -1.1728     1.3508    33.5085 </r>
       <r>    -1.1086     1.5110    33.6055 </r>
       <r>    -1.0444     1.4377    33.6978 </r>
       <r>    -0.9802     1.1609    33.7724 </r>
       <r>    -0.9160     0.9743    33.8349 </r>
       <r>    -0.8518     0.8027    33.8865 </r>
       <r>    -0.7876     0.8865    33.9434 </r>
       <r>    -0.7233     1.0695    34.0121 </r>
       <r>    -0.6591     1.0920    34.0822 </r>
       <r>    -0.5949     1.0101    34.1471 </r>
       <r>    -0.5307     2.0991    34.2819 </r>
       <r>    -0.4665     3.1712    34.4855 </r>
       <r>    -0.4023     5.7455    34.8544 </r>
       <r>    -0.3381     5.8423    35.2296 </r>
       <r>    -0.2739     6.9759    35.6775 </r>
       <r>    -0.2097     7.5566    36.1627 </r>
       <r>    -0.1454     6.2004    36.5609 </r>
       <r>    -0.0812     6.1651    36.9567 </r>
       <r>    -0.0170     4.0624    37.2176 </r>
       <r>     0.0472     4.6513    37.5163 </r>
       <r>     0.1114     4.9448    37.8338 </r>
       <r>     0.1756     4.7484    38.1387 </r>
       <r>     0.2398     4.4971    38.4275 </r>
       <r>     0.3040     4.4619    38.7140 </r>
       <r>     0.3683     4.0325    38.9729 </r>
       <r>     0.4325     3.7873    39.2161 </r>
       <r>     0.4967     4.1214    39.4807 </r>
       <r>     0.5609     4.1372    39.7464 </r>
       <r>     0.6251     4.6568    40.0454 </r>
       <r>     0.6893     5.0483    40.3696 </r>
       <r>     0.7535     4.8083    40.6783 </r>
       <r>     0.8177     5.7610    41.0483 </r>
       <r>     0.8820     5.7269    41.4160 </r>
       <r>     0.9462     5.9407    41.7975 </r>
       <r>     1.0104     7.2959    42.2660 </r>
       <r>     1.0746     6.1882    42.6633 </r>
       <r>     1.1388     7.0313    43.1148 </r>
       <r>     1.2030     7.6826    43.6081 </r>
       <r>     1.2672     8.5395    44.1565 </r>
       <r>     1.3314     8.5318    44.7043 </r>
       <r>     1.3957     8.7295    45.2648 </r>
       <r>     1.4599     8.1251    45.7866 </r>
       <r>     1.5241     8.5578    46.3361 </r>
       <r>     1.5883     7.8222    46.8384 </r>
       <r>     1.6525     7.2001    47.3007 </r>
       <r>     1.7167     8.2113    47.8280 </r>
       <r>     1.7809     6.4532    48.2423 </r>
       <r>     1.8451     6.9130    48.6862 </r>
       <r>     1.9094     7.0980    49.1420 </r>
       <r>     1.9736     6.4502    49.5562 </r>
       <r>     2.0378     7.1173    50.0132 </r>
       <r>     2.1020     6.6531    50.4404 </r>
       <r>     2.1662     7.7972    50.9411 </r>
       <r>     2.2304     7.8482    51.4451 </r>
       <r>     2.2946     6.6134    51.8697 </r>
       <r>     2.3588     7.5596    52.3551 </r>
       <r>     2.4231     6.3588    52.7634 </r>
       <r>     2.4873     5.8949    53.1420 </r>
       <r>     2.5515     4.8075    53.4507 </r>
       <r>     2.6157     3.8736    53.6994 </r>
       <r>     2.6799     4.0618    53.9602 </r>
       <r>     2.7441     2.5003    54.1208 </r>
       <r>     2.8083     2.6515    54.2910 </r>
       <r>     2.8725     2.2644    54.4364 </r>
       <r>     2.9368     2.2671    54.5820 </r>
       <r>     3.0010     2.2170    54.7244 </r>
       <r>     3.0652     1.9605    54.8503 </r>
       <r>     3.1294     2.1630    54.9892 </r>
       <r>     3.1936     1.8185    55.1059 </r>
       <r>     3.2578     1.8263    55.2232 </r>
       <r>     3.3220     2.1842    55.3634 </r>
       <r>     3.3862     1.5004    55.4598 </r>
       <r>     3.4504     1.7346    55.5712 </r>
       <r>     3.5147     1.7335    55.6825 </r>
       <r>     3.5789     1.2573    55.7632 </r>
       <r>     3.6431     1.0961    55.8336 </r>
       <r>     3.7073     1.0425    55.9005 </r>
       <r>     3.7715     1.0341    55.9669 </r>
       <r>     3.8357     0.4408    55.9952 </r>
       <r>     3.8999     0.0739    56.0000 </r>
       <r>     3.9641     0.0001    56.0000 </r>
       <r>     4.0284     0.0000    56.0000 </r>
       <r>     4.0926     0.0000    56.0000 </r>
       <r>     4.1568     0.0000    56.0000 </r>
       <r>     4.2210     0.0000    56.0000 </r>
       <r>     4.2852     0.0000    56.0000 </r>
       <r>     4.3494     0.0000    56.0000 </r>
       <r>     4.4136     0.0000    56.0000 </r>
       <r>     4.4778     0.0000    56.0000 </r>
       <r>     4.5421     0.0000    56.0000 </r>
       <r>     4.6063     0.0000    56.0000 </r>
       <r>     4.6705     0.0000    56.0000 </r>
       <r>     4.7347     0.0000    56.0000 </r>
      </set>
     </set>
    </array>
   </total>
  </dos>
 </calculation>
 <structure name="finalpos" >
  <crystal>
   <varray name="basis" >
    <v>      11.91867068       5.14104636       0.00000000 </v>
    <v>       0.01064425       2.08187646       0.00000000 </v>
    <v>       0.00000000       0.00000000      40.00000000 </v>
   </varray>
   <i name="volume">    990.33909484 </i>
   <varray name="rec_basis" >
    <v>       0.08408742      -0.00042992       0.00000000 </v>
    <v>      -0.20764792       0.48139756       0.00000000 </v>
    <v>       0.00000000       0.00000000       0.02500000 </v>
   </varray>
  </crystal>
  <varray name="positions" >
   <v>       0.95694018       0.35771191       0.12232262 </v>
   <v>       0.15694018       0.35771191       0.12232262 </v>
   <v>       0.35694018       0.35771191       0.12232262 </v>
   <v>       0.55694018       0.35771191       0.12232262 </v>
   <v>       0.75694018       0.35771191       0.12232262 </v>
   <v>       0.04305982       0.64228809       0.07767738 </v>
   <v>       0.24305982       0.64228809       0.07767738 </v>
   <v>       0.44305982       0.64228809       0.07767738 </v>
   <v>       0.64305982       0.64228809       0.07767738 </v>
   <v>       0.84305982       0.64228809       0.07767738 </v>
   <v>       0.95343816       0.86649866       0.14741039 </v>
   <v>       0.15343816       0.86649866       0.14741039 </v>
   <v>       0.35343816       0.86649866       0.14741039 </v>
   <v>       0.55343816       0.86649866       0.14741039 </v>
   <v>       0.75343816       0.86649866       0.14741039 </v>
   <v>       0.04656184       0.13350134       0.05258961 </v>
   <v>       0.24656184       0.13350134       0.05258961 </v>
   <v>       0.44656184       0.13350134       0.05258961 </v>
   <v>       0.64656184       0.13350134       0.05258961 </v>
   <v>       0.84656184       0.13350134       0.05258961 </v>
  </varray>
 </structure>
</modeling>
