  75  75   0   0
  0.5815868E+02  0.1161076E-08  0.1053976E-08  0.4000000E-08  0.5000000E-15
  1.000000000000000E-004
  CAR 
 Phonopy                                 
      2.36274813    -15.08004922  301     -3.62882912      1.00000000
    -15.080  0.0000E+00  0.0000E+00
    -15.022  0.0000E+00  0.0000E+00
    -14.964  0.0000E+00  0.0000E+00
    -14.906  0.0000E+00  0.0000E+00
    -14.847  0.0000E+00  0.0000E+00
    -14.789  0.0000E+00  0.0000E+00
    -14.731  0.0000E+00  0.0000E+00
    -14.673  0.0000E+00  0.0000E+00
    -14.615  0.0000E+00  0.0000E+00
    -14.557  0.5740E-14  0.3337E-15
    -14.499  0.6570E-09  0.3820E-10
    -14.440  0.5681E-05  0.3304E-06
    -14.382  0.4040E-02  0.2352E-03
    -14.324  0.2783E+00  0.1642E-01
    -14.266  0.2561E+01  0.1653E+00
    -14.208  0.5487E+01  0.4844E+00
    -14.150  0.6087E+01  0.8383E+00
    -14.092  0.6108E+01  0.1193E+01
    -14.033  0.6112E+01  0.1549E+01
    -13.975  0.6117E+01  0.1904E+01
    -13.917  0.6122E+01  0.2260E+01
    -13.859  0.6152E+01  0.2618E+01
    -13.801  0.6092E+01  0.2972E+01
    -13.743  0.6196E+01  0.3332E+01
    -13.685  0.6094E+01  0.3687E+01
    -13.626  0.6212E+01  0.4048E+01
    -13.568  0.6068E+01  0.4401E+01
    -13.510  0.6326E+01  0.4769E+01
    -13.452  0.5898E+01  0.5111E+01
    -13.394  0.6610E+01  0.5496E+01
    -13.336  0.5637E+01  0.5824E+01
    -13.278  0.6700E+01  0.6213E+01
    -13.219  0.5979E+01  0.6561E+01
    -13.161  0.5947E+01  0.6907E+01
    -13.103  0.6921E+01  0.7309E+01
    -13.045  0.5424E+01  0.7624E+01
    -12.987  0.6572E+01  0.8006E+01
    -12.929  0.6708E+01  0.8396E+01
    -12.871  0.5227E+01  0.8700E+01
    -12.812  0.6970E+01  0.9106E+01
    -12.754  0.6574E+01  0.9488E+01
    -12.696  0.5173E+01  0.9789E+01
    -12.638  0.7011E+01  0.1020E+02
    -12.580  0.6750E+01  0.1059E+02
    -12.522  0.5268E+01  0.1090E+02
    -12.464  0.6468E+01  0.1127E+02
    -12.405  0.7436E+01  0.1170E+02
    -12.347  0.5295E+01  0.1201E+02
    -12.289  0.5923E+01  0.1236E+02
    -12.231  0.7509E+01  0.1279E+02
    -12.173  0.6382E+01  0.1316E+02
    -12.115  0.4975E+01  0.1345E+02
    -12.057  0.7191E+01  0.1387E+02
    -11.998  0.7182E+01  0.1429E+02
    -11.940  0.5764E+01  0.1462E+02
    -11.882  0.5339E+01  0.1493E+02
    -11.824  0.7840E+01  0.1539E+02
    -11.766  0.6765E+01  0.1578E+02
    -11.708  0.5446E+01  0.1610E+02
    -11.650  0.5942E+01  0.1645E+02
    -11.591  0.7808E+01  0.1690E+02
    -11.533  0.6846E+01  0.1730E+02
    -11.475  0.5149E+01  0.1760E+02
    -11.417  0.6491E+01  0.1797E+02
    -11.359  0.8782E+01  0.1848E+02
    -11.301  0.1138E+02  0.1915E+02
    -11.243  0.1089E+02  0.1978E+02
    -11.184  0.1174E+02  0.2046E+02
    -11.126  0.1369E+02  0.2126E+02
    -11.068  0.1277E+02  0.2200E+02
    -11.010  0.1165E+02  0.2268E+02
    -10.952  0.1111E+02  0.2332E+02
    -10.894  0.1381E+02  0.2413E+02
    -10.836  0.1320E+02  0.2489E+02
    -10.777  0.1214E+02  0.2560E+02
    -10.719  0.1107E+02  0.2624E+02
    -10.661  0.1299E+02  0.2700E+02
    -10.603  0.1399E+02  0.2781E+02
    -10.545  0.1279E+02  0.2856E+02
    -10.487  0.1140E+02  0.2922E+02
    -10.429  0.1195E+02  0.2991E+02
    -10.370  0.1415E+02  0.3074E+02
    -10.312  0.1392E+02  0.3155E+02
    -10.254  0.1192E+02  0.3224E+02
    -10.196  0.1176E+02  0.3292E+02
    -10.138  0.1303E+02  0.3368E+02
    -10.080  0.1461E+02  0.3453E+02
    -10.022  0.1364E+02  0.3532E+02
     -9.963  0.1218E+02  0.3603E+02
     -9.905  0.1110E+02  0.3668E+02
     -9.847  0.1507E+02  0.3755E+02
     -9.789  0.1540E+02  0.3845E+02
     -9.731  0.1194E+02  0.3914E+02
     -9.673  0.1279E+02  0.3989E+02
     -9.615  0.1322E+02  0.4066E+02
     -9.556  0.1467E+02  0.4151E+02
     -9.498  0.1503E+02  0.4238E+02
     -9.440  0.1444E+02  0.4322E+02
     -9.382  0.1157E+02  0.4389E+02
     -9.324  0.1319E+02  0.4466E+02
     -9.266  0.1808E+02  0.4571E+02
     -9.208  0.1534E+02  0.4660E+02
     -9.149  0.1271E+02  0.4734E+02
     -9.091  0.1348E+02  0.4813E+02
     -9.033  0.1674E+02  0.4910E+02
     -8.975  0.1816E+02  0.5016E+02
     -8.917  0.1611E+02  0.5109E+02
     -8.859  0.1545E+02  0.5199E+02
     -8.801  0.1713E+02  0.5299E+02
     -8.742  0.2354E+02  0.5436E+02
     -8.684  0.1914E+02  0.5547E+02
     -8.626  0.1494E+02  0.5634E+02
     -8.568  0.1431E+02  0.5717E+02
     -8.510  0.1741E+02  0.5818E+02
     -8.452  0.1622E+02  0.5912E+02
     -8.394  0.1378E+02  0.5993E+02
     -8.336  0.1345E+02  0.6071E+02
     -8.277  0.1449E+02  0.6155E+02
     -8.219  0.1508E+02  0.6243E+02
     -8.161  0.1420E+02  0.6325E+02
     -8.103  0.1298E+02  0.6401E+02
     -8.045  0.1338E+02  0.6479E+02
     -7.987  0.1482E+02  0.6565E+02
     -7.929  0.1465E+02  0.6650E+02
     -7.870  0.1305E+02  0.6726E+02
     -7.812  0.1106E+02  0.6790E+02
     -7.754  0.1315E+02  0.6866E+02
     -7.696  0.1386E+02  0.6947E+02
     -7.638  0.1177E+02  0.7015E+02
     -7.580  0.1081E+02  0.7078E+02
     -7.522  0.1199E+02  0.7148E+02
     -7.463  0.1287E+02  0.7223E+02
     -7.405  0.1218E+02  0.7294E+02
     -7.347  0.1206E+02  0.7364E+02
     -7.289  0.1343E+02  0.7442E+02
     -7.231  0.1313E+02  0.7518E+02
     -7.173  0.1210E+02  0.7589E+02
     -7.115  0.1377E+02  0.7669E+02
     -7.056  0.1373E+02  0.7748E+02
     -6.998  0.1099E+02  0.7812E+02
     -6.940  0.9516E+01  0.7868E+02
     -6.882  0.8680E+01  0.7918E+02
     -6.824  0.9757E+01  0.7975E+02
     -6.766  0.8968E+01  0.8027E+02
     -6.708  0.7616E+01  0.8071E+02
     -6.649  0.8414E+01  0.8120E+02
     -6.591  0.1041E+02  0.8181E+02
     -6.533  0.1398E+02  0.8262E+02
     -6.475  0.1362E+02  0.8341E+02
     -6.417  0.1233E+02  0.8413E+02
     -6.359  0.1283E+02  0.8488E+02
     -6.301  0.1196E+02  0.8557E+02
     -6.242  0.1473E+02  0.8643E+02
     -6.184  0.1622E+02  0.8737E+02
     -6.126  0.1558E+02  0.8828E+02
     -6.068  0.1485E+02  0.8914E+02
     -6.010  0.1424E+02  0.8997E+02
     -5.952  0.1600E+02  0.9090E+02
     -5.894  0.1564E+02  0.9181E+02
     -5.835  0.1540E+02  0.9270E+02
     -5.777  0.1530E+02  0.9359E+02
     -5.719  0.1405E+02  0.9441E+02
     -5.661  0.1522E+02  0.9529E+02
     -5.603  0.1748E+02  0.9631E+02
     -5.545  0.1632E+02  0.9726E+02
     -5.487  0.1471E+02  0.9812E+02
     -5.428  0.1661E+02  0.9908E+02
     -5.370  0.1638E+02  0.1000E+03
     -5.312  0.1933E+02  0.1012E+03
     -5.254  0.2167E+02  0.1024E+03
     -5.196  0.1804E+02  0.1035E+03
     -5.138  0.1663E+02  0.1044E+03
     -5.080  0.1888E+02  0.1055E+03
     -5.021  0.1795E+02  0.1066E+03
     -4.963  0.1353E+02  0.1074E+03
     -4.905  0.1537E+02  0.1083E+03
     -4.847  0.1523E+02  0.1091E+03
     -4.789  0.1555E+02  0.1100E+03
     -4.731  0.1583E+02  0.1110E+03
     -4.673  0.1227E+02  0.1117E+03
     -4.614  0.1318E+02  0.1124E+03
     -4.556  0.1764E+02  0.1135E+03
     -4.498  0.1445E+02  0.1143E+03
     -4.440  0.1295E+02  0.1151E+03
     -4.382  0.1465E+02  0.1159E+03
     -4.324  0.1605E+02  0.1168E+03
     -4.266  0.1754E+02  0.1179E+03
     -4.207  0.1558E+02  0.1188E+03
     -4.149  0.1238E+02  0.1195E+03
     -4.091  0.1137E+02  0.1202E+03
     -4.033  0.1285E+02  0.1209E+03
     -3.975  0.1150E+02  0.1216E+03
     -3.917  0.1116E+02  0.1222E+03
     -3.859  0.1036E+02  0.1228E+03
     -3.800  0.1043E+02  0.1234E+03
     -3.742  0.9472E+01  0.1240E+03
     -3.684  0.8510E+01  0.1245E+03
     -3.626  0.9550E+01  0.1250E+03
     -3.568  0.1010E+02  0.1256E+03
     -3.510  0.7338E+01  0.1260E+03
     -3.452  0.6683E+01  0.1264E+03
     -3.393  0.6155E+01  0.1268E+03
     -3.335  0.7493E+01  0.1272E+03
     -3.277  0.7756E+01  0.1277E+03
     -3.219  0.6276E+01  0.1280E+03
     -3.161  0.6119E+01  0.1284E+03
     -3.103  0.5851E+01  0.1287E+03
     -3.045  0.7406E+01  0.1292E+03
     -2.986  0.6985E+01  0.1296E+03
     -2.928  0.5750E+01  0.1299E+03
     -2.870  0.6103E+01  0.1303E+03
     -2.812  0.6075E+01  0.1306E+03
     -2.754  0.6073E+01  0.1310E+03
     -2.696  0.7275E+01  0.1314E+03
     -2.638  0.6301E+01  0.1318E+03
     -2.579  0.5200E+01  0.1321E+03
     -2.521  0.6066E+01  0.1324E+03
     -2.463  0.6433E+01  0.1328E+03
     -2.405  0.6459E+01  0.1332E+03
     -2.347  0.6487E+01  0.1335E+03
     -2.289  0.6177E+01  0.1339E+03
     -2.231  0.5899E+01  0.1342E+03
     -2.172  0.5448E+01  0.1346E+03
     -2.114  0.6092E+01  0.1349E+03
     -2.056  0.7893E+01  0.1354E+03
     -1.998  0.5926E+01  0.1357E+03
     -1.940  0.5605E+01  0.1360E+03
     -1.882  0.6138E+01  0.1364E+03
     -1.824  0.5698E+01  0.1367E+03
     -1.765  0.7779E+01  0.1372E+03
     -1.707  0.7060E+01  0.1376E+03
     -1.649  0.7409E+01  0.1380E+03
     -1.591  0.6231E+01  0.1384E+03
     -1.533  0.6669E+01  0.1388E+03
     -1.475  0.1085E+02  0.1394E+03
     -1.417  0.2435E+02  0.1408E+03
     -1.358  0.3499E+02  0.1429E+03
     -1.300  0.3259E+02  0.1448E+03
     -1.242  0.2360E+02  0.1461E+03
     -1.184  0.1920E+02  0.1472E+03
     -1.126  0.1649E+02  0.1482E+03
     -1.068  0.1080E+02  0.1488E+03
     -1.010  0.6835E+01  0.1492E+03
     -0.951  0.5809E+01  0.1496E+03
     -0.893  0.7075E+01  0.1500E+03
     -0.835  0.9502E+01  0.1505E+03
     -0.777  0.1054E+02  0.1511E+03
     -0.719  0.1182E+02  0.1518E+03
     -0.661  0.1223E+02  0.1525E+03
     -0.603  0.1662E+02  0.1535E+03
     -0.544  0.2142E+02  0.1548E+03
     -0.486  0.2420E+02  0.1562E+03
     -0.428  0.2500E+02  0.1576E+03
     -0.370  0.2618E+02  0.1591E+03
     -0.312  0.2758E+02  0.1607E+03
     -0.254  0.2439E+02  0.1622E+03
     -0.196  0.2238E+02  0.1635E+03
     -0.137  0.2181E+02  0.1647E+03
     -0.079  0.2229E+02  0.1660E+03
     -0.021  0.2169E+02  0.1673E+03
      0.037  0.2428E+02  0.1687E+03
      0.095  0.2041E+02  0.1699E+03
      0.153  0.2330E+02  0.1712E+03
      0.211  0.2347E+02  0.1726E+03
      0.270  0.2029E+02  0.1738E+03
      0.328  0.1848E+02  0.1749E+03
      0.386  0.1961E+02  0.1760E+03
      0.444  0.1928E+02  0.1771E+03
      0.502  0.2100E+02  0.1783E+03
      0.560  0.1981E+02  0.1795E+03
      0.618  0.1941E+02  0.1806E+03
      0.677  0.1979E+02  0.1818E+03
      0.735  0.1902E+02  0.1829E+03
      0.793  0.1825E+02  0.1839E+03
      0.851  0.2182E+02  0.1852E+03
      0.909  0.2626E+02  0.1867E+03
      0.967  0.2837E+02  0.1884E+03
      1.025  0.2833E+02  0.1900E+03
      1.084  0.2579E+02  0.1915E+03
      1.142  0.2302E+02  0.1929E+03
      1.200  0.2324E+02  0.1942E+03
      1.258  0.2556E+02  0.1957E+03
      1.316  0.2356E+02  0.1971E+03
      1.374  0.2143E+02  0.1983E+03
      1.432  0.1688E+02  0.1993E+03
      1.491  0.8798E+01  0.1998E+03
      1.549  0.2606E+01  0.2000E+03
      1.607  0.5786E+00  0.2000E+03
      1.665  0.7910E-01  0.2000E+03
      1.723  0.1626E-02  0.2000E+03
      1.781  0.3093E-05  0.2000E+03
      1.839  0.4613E-09  0.2000E+03
      1.898  0.4971E-14  0.2000E+03
      1.956  0.0000E+00  0.2000E+03
      2.014  0.0000E+00  0.2000E+03
      2.072  0.0000E+00  0.2000E+03
      2.130  0.0000E+00  0.2000E+03
      2.188  0.0000E+00  0.2000E+03
      2.246  0.0000E+00  0.2000E+03
      2.305  0.0000E+00  0.2000E+03
      2.363  0.0000E+00  0.2000E+03
