 running   42 mpi-ranks, on    1 nodes
 distrk:  each k-point on   42 cores,    1 groups
 distr:  one band on    1 cores,   42 groups
 vasp.6.5.0 16Dec24 (build Jan 08 2025 16:17:04) complex                        
  
 POSCAR found type information on POSCAR Be
 POSCAR found :  1 types and       6 ions
 Reading from existing POTCAR
 scaLAPACK will be used
 -----------------------------------------------------------------------------
|                                                                             |
|           W    W    AA    RRRRR   N    N  II  N    N   GGGG   !!!           |
|           W    W   A  A   R    R  NN   N  II  NN   N  G    G  !!!           |
|           W    W  A    A  R    R  N N  N  II  N N  N  G       !!!           |
|           W WW W  AAAAAA  RRRRR   N  N N  II  N  N N  G  GGG   !            |
|           WW  WW  A    A  R   R   N   NN  II  N   NN  G    G                |
|           W    W  A    A  R    R  N    N  II  N    N   GGGG   !!!           |
|                                                                             |
|     For optimal performance we recommend to set                             |
|       NCORE = 2 up to number-of-cores-per-socket                            |
|     NCORE specifies how many cores store one orbital (NPAR=cpu/NCORE).      |
|     This setting can greatly improve the performance of VASP for DFT.       |
|     The default, NCORE=1 might be grossly inefficient on modern             |
|     multi-core architectures or massively parallel machines. Do your        |
|     own testing! More info at https://www.vasp.at/wiki/index.php/NCORE      |
|     Unfortunately you need to use the default for GW and RPA                |
|     calculations (for HF NCORE is supported but not extensively tested      |
|     yet).                                                                   |
|                                                                             |
 -----------------------------------------------------------------------------

 Reading from existing POTCAR
 LDA part: xc-table for (Slater+PW92), standard interpolation
 POSCAR, INCAR and KPOINTS ok, starting setup
 FFT: planning ... GRIDC
 FFT: planning ... GRID_SOFT
 FFT: planning ... GRID
 WAVECAR not read
 entering main loop
       N       E                     dE             d eps       ncg     rms          rms(c)
DAV:   1     0.224626740311E+01    0.22463E+01   -0.54765E+03 12852   0.229E+02
DAV:   2    -0.224014093910E+02   -0.24648E+02   -0.23937E+02 19278   0.373E+01
DAV:   3    -0.225080689245E+02   -0.10666E+00   -0.10663E+00 14574   0.243E+00
DAV:   4    -0.225083303433E+02   -0.26142E-03   -0.26142E-03 23856   0.133E-01
DAV:   5    -0.225083304097E+02   -0.66465E-07   -0.65878E-07 14070   0.135E-03    0.309E+00
DAV:   6    -0.213318342157E+02    0.11765E+01   -0.87919E+00 17682   0.263E+00    0.164E+00
DAV:   7    -0.211456555805E+02    0.18618E+00   -0.11816E+00 19530   0.134E+00    0.889E-01
DAV:   8    -0.210741024573E+02    0.71553E-01   -0.20904E-01 22008   0.481E-01    0.337E-01
DAV:   9    -0.210636991355E+02    0.10403E-01   -0.13603E-02 21966   0.161E-01    0.119E-01
DAV:  10    -0.210619997287E+02    0.16994E-02   -0.20868E-03 21210   0.559E-02    0.524E-02
DAV:  11    -0.210615729332E+02    0.42680E-03   -0.23054E-03 20454   0.390E-02    0.249E-02
DAV:  12    -0.210618855314E+02   -0.31260E-03   -0.30208E-04 17934   0.205E-02    0.151E-02
DAV:  13    -0.210623119761E+02   -0.42644E-03   -0.18570E-04 16800   0.134E-02    0.707E-03
DAV:  14    -0.210625266948E+02   -0.21472E-03   -0.28881E-05 16212   0.652E-03    0.409E-03
DAV:  15    -0.210626367516E+02   -0.11006E-03   -0.83704E-06 16086   0.315E-03    0.222E-03
DAV:  16    -0.210627337779E+02   -0.97026E-04   -0.80625E-06 16128   0.253E-03    0.898E-04
DAV:  17    -0.210627509974E+02   -0.17220E-04   -0.86698E-07 16506   0.937E-04    0.543E-04
DAV:  18    -0.210627696771E+02   -0.18680E-04   -0.15538E-06 17262   0.695E-04    0.185E-04
DAV:  19    -0.210627726095E+02   -0.29323E-05   -0.83097E-08 18690   0.222E-04    0.106E-04
DAV:  20    -0.210627734837E+02   -0.87428E-06   -0.21858E-08 15750   0.119E-04
   1 F= -.21062773E+02 E0= -.21062349E+02  d E =-.210628E+02
 curvature:   0.00 expect dE= 0.000E+00 dE for cont linesearch  0.000E+00
 trial: gam= 0.00000 g(F)=  0.117E-02 g(S)=  0.170E-01 ort = 0.000E+00 (trialstep = 0.100E+01)
 search vector abs. value=  0.182E-01
 bond charge predicted
       N       E                     dE             d eps       ncg     rms          rms(c)
DAV:   1    -0.210748046853E+02   -0.12032E-01   -0.70682E-02 20580   0.589E-01    0.849E-02
DAV:   2    -0.210744357903E+02    0.36889E-03   -0.25063E-03 14658   0.698E-02    0.456E-02
DAV:   3    -0.210743652457E+02    0.70545E-04   -0.42043E-04 17262   0.291E-02    0.239E-02
DAV:   4    -0.210743243017E+02    0.40944E-04   -0.12934E-04 20496   0.160E-02    0.738E-03
DAV:   5    -0.210743165215E+02    0.77802E-05   -0.79122E-06 17220   0.486E-03    0.203E-03
DAV:   6    -0.210743186863E+02   -0.21647E-05   -0.80094E-07 16842   0.153E-03    0.906E-04
DAV:   7    -0.210743238571E+02   -0.51708E-05   -0.96036E-07 16296   0.855E-04    0.396E-04
DAV:   8    -0.210743265116E+02   -0.26545E-05   -0.23214E-07 17556   0.307E-04    0.289E-04
DAV:   9    -0.210743297061E+02   -0.31945E-05   -0.58253E-07 16464   0.461E-04    0.128E-04
DAV:  10    -0.210743308549E+02   -0.11488E-05   -0.15351E-07 17220   0.218E-04    0.492E-05
DAV:  11    -0.210743310585E+02   -0.20360E-06   -0.92409E-09 17514   0.427E-05
   2 F= -.21074331E+02 E0= -.21074097E+02  d E =-.115576E-01
 trial-energy change:   -0.011558  1 .order   -0.011630   -0.018222   -0.005038
 step:   1.4006(harm=  1.3822)  dis= 0.00699  next Energy=   -21.075336 (dE=-0.126E-01)
 bond charge predicted
       N       E                     dE             d eps       ncg     rms          rms(c)
DAV:   1    -0.210753676507E+02   -0.10368E-02   -0.11221E-02 21042   0.234E-01    0.330E-02
DAV:   2    -0.210753139416E+02    0.53709E-04   -0.27604E-04 14490   0.247E-02    0.182E-02
DAV:   3    -0.210752986590E+02    0.15283E-04   -0.54217E-05 15624   0.108E-02    0.857E-03
DAV:   4    -0.210752905270E+02    0.81320E-05   -0.19970E-05 17808   0.593E-03    0.273E-03
DAV:   5    -0.210752879272E+02    0.25999E-05   -0.14008E-06 16842   0.189E-03    0.847E-04
DAV:   6    -0.210752881065E+02   -0.17931E-06   -0.12829E-07 17220   0.602E-04
   3 F= -.21075288E+02 E0= -.21075064E+02  d E =-.125146E-01
 curvature:  -0.69 expect dE=-0.440E-03 dE for cont linesearch -0.547E-06
 trial: gam= 0.04162 g(F)=  0.611E-03 g(S)=  0.271E-04 ort =-0.120E-03 (trialstep = 0.108E+01)
 search vector abs. value=  0.660E-03
 bond charge predicted
       N       E                     dE             d eps       ncg     rms          rms(c)
DAV:   1    -0.210759791309E+02   -0.69120E-03   -0.13157E-02 16002   0.168E-01    0.371E-02
DAV:   2    -0.210758472095E+02    0.13192E-03   -0.15497E-03 14070   0.529E-02    0.118E-02
DAV:   3    -0.210758358651E+02    0.11344E-04   -0.15341E-04 16548   0.158E-02    0.584E-03
DAV:   4    -0.210758350919E+02    0.77323E-06   -0.11842E-05 17430   0.549E-03    0.238E-03
DAV:   5    -0.210758353921E+02   -0.30025E-06   -0.70587E-07 18816   0.162E-03
   4 F= -.21075835E+02 E0= -.21075610E+02  d E =-.547286E-03
 trial-energy change:   -0.000547  1 .order   -0.000543   -0.000684   -0.000402
 step:   2.3476(harm=  2.6171)  dis= 0.00641  next Energy=   -21.076078 (dE=-0.790E-03)
 bond charge predicted
       N       E                     dE             d eps       ncg     rms          rms(c)
DAV:   1    -0.210763243924E+02   -0.48930E-03   -0.18122E-02 13776   0.197E-01    0.442E-02
DAV:   2    -0.210761325920E+02    0.19180E-03   -0.21775E-03 16044   0.624E-02    0.137E-02
DAV:   3    -0.210761184335E+02    0.14158E-04   -0.20607E-04 16464   0.179E-02    0.681E-03
DAV:   4    -0.210761170395E+02    0.13940E-05   -0.15934E-05 16254   0.640E-03    0.282E-03
DAV:   5    -0.210761173406E+02   -0.30109E-06   -0.99965E-07 18438   0.192E-03
   5 F= -.21076117E+02 E0= -.21075883E+02  d E =-.829234E-03
 curvature:  -1.32 expect dE=-0.234E-04 dE for cont linesearch -0.977E-05
 ZBRENT: extrapolating
 opt :   2.6406  next Energy=   -21.076128 (dE=-0.839E-03)
 bond charge predicted
       N       E                     dE             d eps       ncg     rms          rms(c)
DAV:   1    -0.210761394161E+02   -0.22377E-04   -0.97417E-04 16800   0.457E-02    0.103E-02
DAV:   2    -0.210761288398E+02    0.10576E-04   -0.11670E-04 17304   0.144E-02    0.319E-03
DAV:   3    -0.210761283475E+02    0.49222E-06   -0.11059E-05 16842   0.419E-03    0.158E-03
DAV:   4    -0.210761283301E+02    0.17423E-07   -0.86420E-07 16674   0.149E-03
   6 F= -.21076128E+02 E0= -.21075891E+02  d E =-.840224E-03
 curvature:  -1.38 expect dE=-0.154E-04 dE for cont linesearch -0.437E-08
 trial: gam= 0.00843 g(F)=  0.107E-04 g(S)=  0.430E-06 ort = 0.144E-05 (trialstep = 0.139E+01)
 search vector abs. value=  0.112E-04
 bond charge predicted
       N       E                     dE             d eps       ncg     rms          rms(c)
DAV:   1    -0.210761436925E+02   -0.15345E-04   -0.26450E-04 14742   0.256E-02    0.414E-03
DAV:   2    -0.210761424105E+02    0.12820E-05   -0.19767E-05 16884   0.583E-03    0.143E-03
DAV:   3    -0.210761423571E+02    0.53370E-07   -0.20802E-06 16716   0.181E-03
   7 F= -.21076142E+02 E0= -.21075905E+02  d E =-.140270E-04
 ZBRENT: can't locate minimum, use default step
 trial-energy change:   -0.000014  1 .order   -0.000014   -0.000016   -0.000012
 step:   5.5689(harm=  5.8971)  dis= 0.00215  next Energy=   -21.076161 (dE=-0.329E-04)
 bond charge predicted
       N       E                     dE             d eps       ncg     rms          rms(c)
DAV:   1    -0.210761743046E+02   -0.31894E-04   -0.23585E-03 12852   0.767E-02    0.123E-02
DAV:   2    -0.210761607590E+02    0.13546E-04   -0.17520E-04 14364   0.173E-02    0.427E-03
DAV:   3    -0.210761598561E+02    0.90286E-06   -0.18496E-05 16968   0.552E-03    0.216E-03
DAV:   4    -0.210761600720E+02   -0.21585E-06   -0.15317E-06 18228   0.196E-03
   8 F= -.21076160E+02 E0= -.21075923E+02  d E =-.317418E-04
 curvature:  -2.95 expect dE=-0.677E-04 dE for cont linesearch -0.519E-07
 trial: gam= 2.10266 g(F)=  0.122E-04 g(S)=  0.108E-04 ort =-0.444E-06 (trialstep = 0.353E+00)
 search vector abs. value=  0.707E-04
 bond charge predicted
       N       E                     dE             d eps       ncg     rms          rms(c)
DAV:   1    -0.210761683436E+02   -0.84875E-05   -0.90292E-05 17766   0.152E-02    0.186E-03
DAV:   2    -0.210761679771E+02    0.36648E-06   -0.63001E-06 17010   0.322E-03
   9 F= -.21076168E+02 E0= -.21075931E+02  d E =-.790520E-05
 ZBRENT: can't locate minimum, use default step
 trial-energy change:   -0.000008  1 .order   -0.000007   -0.000008   -0.000007
 step:   1.4138(harm=  4.1814)  dis= 0.00138  next Energy=   -21.076206 (dE=-0.461E-04)
 bond charge predicted
       N       E                     dE             d eps       ncg     rms          rms(c)
DAV:   1    -0.210761911219E+02   -0.22778E-04   -0.81553E-04 12936   0.457E-02    0.547E-03
DAV:   2    -0.210761882722E+02    0.28497E-05   -0.58036E-05 18648   0.103E-02    0.230E-03
DAV:   3    -0.210761879600E+02    0.31225E-06   -0.53262E-06 18648   0.296E-03
  10 F= -.21076188E+02 E0= -.21075951E+02  d E =-.278880E-04
 curvature:  -3.20 expect dE=-0.495E-04 dE for cont linesearch -0.138E-04
 ZBRENT: increasing intervall
 opt :   3.5345  next Energy=   -21.076219 (dE=-0.592E-04)
 bond charge predicted
       N       E                     dE             d eps       ncg     rms          rms(c)
DAV:   1    -0.210762274640E+02   -0.39192E-04   -0.31616E-03 13020   0.909E-02    0.104E-02
DAV:   2    -0.210762171012E+02    0.10363E-04   -0.22040E-04 19362   0.200E-02    0.430E-03
DAV:   3    -0.210762156078E+02    0.14933E-05   -0.19477E-05 19866   0.566E-03    0.236E-03
DAV:   4    -0.210762155579E+02    0.49963E-07   -0.67577E-07 19908   0.179E-03
  11 F= -.21076216E+02 E0= -.21075978E+02  d E =-.554859E-04
 curvature:  -7.25 expect dE=-0.551E-04 dE for cont linesearch -0.937E-05
 ZBRENT: increasing intervall
 opt :   7.7759  next Energy=   -21.076223 (dE=-0.625E-04)
 bond charge predicted
       N       E                     dE             d eps       ncg     rms          rms(c)
DAV:   1    -0.210762683414E+02   -0.52734E-04   -0.12712E-02 12936   0.182E-01    0.204E-02
DAV:   2    -0.210762283881E+02    0.39953E-04   -0.86959E-04 20244   0.394E-02    0.832E-03
DAV:   3    -0.210762221073E+02    0.62808E-05   -0.75121E-05 20496   0.111E-02    0.444E-03
DAV:   4    -0.210762219948E+02    0.11247E-06   -0.23717E-06 19530   0.338E-03
  12 F= -.21076222E+02 E0= -.21075976E+02  d E =-.619229E-04
 curvature:  -5.43 expect dE=-0.549E-04 dE for cont linesearch -0.244E-05
 ZBRENT: bracketing found
 ZBRENT: interpolating
 opt :   6.2019  next Energy=   -21.076226 (dE=-0.664E-04)
 bond charge predicted
       N       E                     dE             d eps       ncg     rms          rms(c)
DAV:   1    -0.210762322389E+02   -0.10132E-04   -0.17354E-03 13356   0.673E-02    0.741E-03
DAV:   2    -0.210762286338E+02    0.36051E-05   -0.12000E-04 20160   0.148E-02    0.315E-03
DAV:   3    -0.210762276303E+02    0.10035E-05   -0.10166E-05 17682   0.415E-03    0.161E-03
DAV:   4    -0.210762281445E+02   -0.51418E-06   -0.35522E-07 17430   0.133E-03
  13 F= -.21076228E+02 E0= -.21075987E+02  d E =-.680725E-04
 curvature:  -9.87 expect dE=-0.667E-04 dE for cont linesearch -0.316E-09
 trial: gam= 0.18600 g(F)=  0.584E-05 g(S)=  0.922E-06 ort = 0.476E-07 (trialstep = 0.152E+01)
 search vector abs. value=  0.922E-05
 bond charge predicted
       N       E                     dE             d eps       ncg     rms          rms(c)
DAV:   1    -0.210762368817E+02   -0.92513E-05   -0.33595E-04 17346   0.267E-02    0.604E-03
DAV:   2    -0.210762348148E+02    0.20669E-05   -0.88243E-06 18732   0.442E-03    0.249E-03
DAV:   3    -0.210762346684E+02    0.14636E-06   -0.27250E-06 17010   0.185E-03
  14 F= -.21076235E+02 E0= -.21075992E+02  d E =-.652391E-05
 trial-energy change:   -0.000007  1 .order   -0.000006   -0.000010   -0.000001
 step:   1.7145(harm=  1.7145)  dis= 0.00069  next Energy=   -21.076234 (dE=-0.580E-05)
 bond charge predicted
       N       E                     dE             d eps       ncg     rms          rms(c)
DAV:   1    -0.210762348693E+02   -0.54522E-07   -0.50305E-06 18186   0.328E-03    0.818E-04
DAV:   2    -0.210762349624E+02   -0.93116E-07   -0.11126E-07 17514   0.507E-04
  15 F= -.21076235E+02 E0= -.21075993E+02  d E =-.681791E-05
 curvature:  -1.17 expect dE=-0.427E-06 dE for cont linesearch -0.907E-09
 ZBRENT: interpolating
 opt :   1.6952  next Energy=   -21.076235 (dE=-0.682E-05)
 bond charge predicted
       N       E                     dE             d eps       ncg     rms          rms(c)
DAV:   1    -0.210762350942E+02   -0.22491E-06   -0.15664E-07 17052   0.492E-04    0.970E-05
DAV:   2    -0.210762351400E+02   -0.45805E-07   -0.56870E-09 17388   0.102E-04
  16 F= -.21076235E+02 E0= -.21075993E+02  d E =-.699551E-05
 curvature:  -1.05 expect dE=-0.398E-06 dE for cont linesearch -0.426E-08
 ZBRENT: bisectioning
 opt :   1.6092  next Energy=   -21.076235 (dE=-0.703E-05)
 bond charge predicted
       N       E                     dE             d eps       ncg     rms          rms(c)
DAV:   1    -0.210762351856E+02   -0.91374E-07   -0.10536E-06 17808   0.150E-03    0.337E-04
DAV:   2    -0.210762351858E+02   -0.25440E-09   -0.26930E-08 17262   0.241E-04
  17 F= -.21076235E+02 E0= -.21075993E+02  d E =-.704133E-05
 curvature:  -9.26 expect dE=-0.323E-05 dE for cont linesearch -0.922E-08
 ZBRENT: interpolating
 opt :   1.6377  next Energy=   -21.076235 (dE=-0.704E-05)
 bond charge predicted
       N       E                     dE             d eps       ncg     rms          rms(c)
DAV:   1    -0.210762352091E+02   -0.23501E-07   -0.17066E-07 16842   0.558E-04    0.993E-05
DAV:   2    -0.210762352217E+02   -0.12597E-07   -0.20979E-09 17514   0.820E-05
  18 F= -.21076235E+02 E0= -.21075993E+02  d E =-.707718E-05
 curvature:  -1.37 expect dE=-0.479E-06 dE for cont linesearch -0.108E-08
 ZBRENT: bisectioning
 opt :   1.6665  next Energy=   -21.076235 (dE=-0.708E-05)
 bond charge predicted
       N       E                     dE             d eps       ncg     rms          rms(c)
DAV:   1    -0.210762352426E+02   -0.33551E-07   -0.10722E-07 16926   0.488E-04    0.114E-04
DAV:   2    -0.210762352548E+02   -0.12136E-07   -0.27319E-09 17430   0.806E-05
  19 F= -.21076235E+02 E0= -.21075993E+02  d E =-.711027E-05
 curvature:  -2.92 expect dE=-0.105E-05 dE for cont linesearch -0.300E-09
 trial: gam= 0.05714 g(F)=  0.285E-06 g(S)=  0.740E-07 ort =-0.308E-07 (trialstep = 0.155E+01)
 search vector abs. value=  0.386E-06
 bond charge predicted
       N       E                     dE             d eps       ncg     rms          rms(c)
DAV:   1    -0.210762358472E+02   -0.60461E-06   -0.13982E-05 17934   0.567E-03    0.130E-03
DAV:   2    -0.210762356751E+02    0.17212E-06   -0.16757E-06 15918   0.171E-03
  20 F= -.21076236E+02 E0= -.21075993E+02  d E =-.420352E-06
 trial-energy change:   -0.000000  1 .order   -0.000000   -0.000001   -0.000000
 step:   2.6351(harm=  2.6351)  dis= 0.00016  next Energy=   -21.076236 (dE=-0.471E-06)
 reached required accuracy - stopping structural energy minimisation
