       N       E                     dE             d eps       ncg     rms          rms(c)
DAV:   1     0.842793675089E+03    0.84279E+03   -0.34011E+04  5136   0.858E+02
DAV:   2    -0.154576490138E+03   -0.99737E+03   -0.96166E+03  7944   0.180E+02
DAV:   3    -0.265090629180E+03   -0.11051E+03   -0.10867E+03  6360   0.663E+01
DAV:   4    -0.268497253745E+03   -0.34066E+01   -0.33880E+01  6708   0.131E+01
DAV:   5    -0.268586476980E+03   -0.89223E-01   -0.89072E-01  7164   0.184E+00    0.150E+01
DAV:   6    -0.258650478722E+03    0.99360E+01   -0.73887E+00  5592   0.552E+00    0.883E+00
DAV:   7    -0.253491927304E+03    0.51586E+01   -0.85075E+00  5604   0.595E+00    0.170E+00
DAV:   8    -0.253215134113E+03    0.27679E+00   -0.88373E-01  6708   0.197E+00    0.115E+00
DAV:   9    -0.253005887048E+03    0.20925E+00   -0.82394E-02  6120   0.783E-01    0.392E-01
DAV:  10    -0.252949147132E+03    0.56740E-01   -0.50731E-02  6078   0.491E-01    0.322E-01
DAV:  11    -0.252914905703E+03    0.34241E-01   -0.74810E-02  6060   0.493E-01    0.209E-01
DAV:  12    -0.252942549991E+03   -0.27644E-01   -0.31866E-02  5952   0.381E-01    0.204E-01
DAV:  13    -0.252943480263E+03   -0.93027E-03   -0.81623E-03  5892   0.238E-01    0.105E-01
DAV:  14    -0.252952228426E+03   -0.87482E-02   -0.19741E-03  6450   0.945E-02    0.371E-02
DAV:  15    -0.252960255140E+03   -0.80267E-02   -0.10804E-03  5508   0.589E-02    0.451E-02
DAV:  16    -0.252962132786E+03   -0.18776E-02   -0.15281E-04  6246   0.246E-02    0.238E-02
DAV:  17    -0.252963364421E+03   -0.12316E-02   -0.13040E-04  5856   0.272E-02    0.970E-03
DAV:  18    -0.252964116566E+03   -0.75214E-03   -0.71526E-05  5880   0.152E-02    0.785E-03
DAV:  19    -0.252964244125E+03   -0.12756E-03   -0.78895E-06  5820   0.684E-03    0.180E-03
DAV:  20    -0.252964367315E+03   -0.12319E-03   -0.27509E-06  5388   0.349E-03    0.662E-04
DAV:  21    -0.252964409238E+03   -0.41923E-04   -0.49869E-07  5652   0.909E-04    0.106E-03
DAV:  22    -0.252964436016E+03   -0.26778E-04   -0.15484E-07  5526   0.609E-04    0.365E-04
DAV:  23    -0.252964438917E+03   -0.29004E-05   -0.17960E-09  4182   0.222E-04    0.220E-04
DAV:  24    -0.252964443711E+03   -0.47946E-05   -0.24115E-08  4410   0.266E-04    0.135E-04
DAV:  25    -0.252964444439E+03   -0.72820E-06    0.24215E-09  4068   0.132E-04    0.306E-05
DAV:  26    -0.252964445141E+03   -0.70110E-06    0.84563E-10  3540   0.104E-04    0.448E-05
DAV:  27    -0.252964445184E+03   -0.43554E-07    0.38283E-09  4296   0.630E-05    0.141E-05
DAV:  28    -0.252964445247E+03   -0.63144E-07    0.42253E-09  3522   0.244E-05    0.449E-06
DAV:  29    -0.252964445270E+03   -0.22264E-07    0.42905E-09  3714   0.148E-05    0.399E-06
DAV:  30    -0.252964445282E+03   -0.12572E-07    0.43219E-09  3666   0.980E-06    0.169E-06
DAV:  31    -0.252964445289E+03   -0.70113E-08    0.43347E-09  3762   0.574E-06
   1 F= -.26431420E+03 E0= -.26429192E+03  d E =-.445646E-01
