   2   2   0   0
  0.7938175E+01  0.2264783E-09  0.2264783E-09  0.3574103E-09  0.5000000E-15
  1.000000000000000E-004
  CAR 
 Convergence                             
    113.56746630     -9.95170509  301      6.93545450      1.00000000
     -9.952  0.0000E+00  0.0000E+00
     -9.540  0.0000E+00  0.0000E+00
     -9.128  0.0000E+00  0.0000E+00
     -8.717  0.0000E+00  0.0000E+00
     -8.305  0.0000E+00  0.0000E+00
     -7.893  0.0000E+00  0.0000E+00
     -7.481  0.0000E+00  0.0000E+00
     -7.070  0.0000E+00  0.0000E+00
     -6.658  0.0000E+00  0.0000E+00
     -6.246  0.0000E+00  0.0000E+00
     -5.834  0.0000E+00  0.0000E+00
     -5.423  0.0000E+00  0.0000E+00
     -5.011  0.0000E+00  0.0000E+00
     -4.599  0.1785E-16  0.7350E-17
     -4.187  0.1660E-01  0.6834E-02
     -3.776  0.9806E-01  0.4867E-01
     -3.364  0.1386E+00  0.1099E+00
     -2.952  0.1771E+00  0.1846E+00
     -2.541  0.2172E+00  0.2756E+00
     -2.129  0.2261E+00  0.3743E+00
     -1.717  0.2592E+00  0.4842E+00
     -1.305  0.2732E+00  0.6003E+00
     -0.894  0.3058E+00  0.7311E+00
     -0.482  0.3046E+00  0.8667E+00
     -0.070  0.3250E+00  0.1006E+01
      0.342  0.3667E+00  0.1166E+01
      0.753  0.3657E+00  0.1321E+01
      1.165  0.4071E+00  0.1498E+01
      1.577  0.3952E+00  0.1670E+01
      1.988  0.4990E+00  0.1882E+01
      2.400  0.4616E+00  0.2087E+01
      2.812  0.5049E+00  0.2309E+01
      3.224  0.4541E+00  0.2510E+01
      3.635  0.4774E+00  0.2723E+01
      4.047  0.4925E+00  0.2938E+01
      4.459  0.5505E+00  0.3174E+01
      4.871  0.4443E+00  0.3370E+01
      5.282  0.4693E+00  0.3571E+01
      5.694  0.2778E+00  0.3698E+01
      6.106  0.3544E+00  0.3849E+01
      6.518  0.1593E+00  0.3917E+01
      6.929  0.1922E+00  0.3999E+01
      7.341  0.7954E-01  0.4035E+01
      7.753  0.1215E+00  0.4086E+01
      8.164  0.2015E+00  0.4173E+01
      8.576  0.4860E+00  0.4379E+01
      8.988  0.9138E+00  0.4769E+01
      9.400  0.6879E+00  0.5067E+01
      9.811  0.5074E+00  0.5289E+01
     10.223  0.4690E+00  0.5496E+01
     10.635  0.4905E+00  0.5706E+01
     11.047  0.4386E+00  0.5898E+01
     11.458  0.4205E+00  0.6080E+01
     11.870  0.4500E+00  0.6272E+01
     12.282  0.3898E+00  0.6442E+01
     12.693  0.3619E+00  0.6601E+01
     13.105  0.6378E+00  0.6873E+01
     13.517  0.7226E+00  0.7192E+01
     13.929  0.7331E+00  0.7508E+01
     14.340  0.5595E+00  0.7754E+01
     14.752  0.6391E+00  0.8030E+01
     15.164  0.5902E+00  0.8282E+01
     15.576  0.6103E+00  0.8551E+01
     15.987  0.5686E+00  0.8796E+01
     16.399  0.6364E+00  0.9067E+01
     16.811  0.5782E+00  0.9321E+01
     17.223  0.6249E+00  0.9593E+01
     17.634  0.5841E+00  0.9850E+01
     18.046  0.6134E+00  0.1011E+02
     18.458  0.5990E+00  0.1037E+02
     18.869  0.5616E+00  0.1061E+02
     19.281  0.5506E+00  0.1086E+02
     19.693  0.4633E+00  0.1106E+02
     20.105  0.5271E+00  0.1129E+02
     20.516  0.7564E+00  0.1161E+02
     20.928  0.1075E+01  0.1208E+02
     21.340  0.9820E+00  0.1251E+02
     21.752  0.1002E+01  0.1294E+02
     22.163  0.9600E+00  0.1337E+02
     22.575  0.1163E+01  0.1387E+02
     22.987  0.1200E+01  0.1439E+02
     23.398  0.9642E+00  0.1482E+02
     23.810  0.7192E+00  0.1513E+02
     24.222  0.5944E+00  0.1538E+02
     24.634  0.4606E+00  0.1559E+02
     25.045  0.4380E+00  0.1578E+02
     25.457  0.4293E+00  0.1596E+02
     25.869  0.4059E+00  0.1613E+02
     26.281  0.3608E+00  0.1629E+02
     26.692  0.4168E+00  0.1648E+02
     27.104  0.3583E+00  0.1664E+02
     27.516  0.4661E+00  0.1684E+02
     27.928  0.3372E+00  0.1699E+02
     28.339  0.3444E+00  0.1713E+02
     28.751  0.5588E+00  0.1738E+02
     29.163  0.5665E+00  0.1762E+02
     29.574  0.5243E+00  0.1784E+02
     29.986  0.8579E+00  0.1821E+02
     30.398  0.8773E+00  0.1860E+02
     30.810  0.6392E+00  0.1888E+02
     31.221  0.5860E+00  0.1914E+02
     31.633  0.7024E+00  0.1945E+02
     32.045  0.5694E+00  0.1970E+02
     32.457  0.3839E+00  0.1986E+02
     32.868  0.4167E+00  0.2004E+02
     33.280  0.5552E+00  0.2028E+02
     33.692  0.5388E+00  0.2053E+02
     34.103  0.5054E+00  0.2075E+02
     34.515  0.5429E+00  0.2098E+02
     34.927  0.6182E+00  0.2125E+02
     35.339  0.7738E+00  0.2159E+02
     35.750  0.6579E+00  0.2187E+02
     36.162  0.9283E+00  0.2228E+02
     36.574  0.8154E+00  0.2263E+02
     36.986  0.6333E+00  0.2290E+02
     37.397  0.8105E+00  0.2326E+02
     37.809  0.6594E+00  0.2354E+02
     38.221  0.6606E+00  0.2383E+02
     38.633  0.6510E+00  0.2412E+02
     39.044  0.7218E+00  0.2443E+02
     39.456  0.8035E+00  0.2477E+02
     39.868  0.7724E+00  0.2510E+02
     40.279  0.7400E+00  0.2543E+02
     40.691  0.5876E+00  0.2569E+02
     41.103  0.6643E+00  0.2598E+02
     41.515  0.5956E+00  0.2624E+02
     41.926  0.6757E+00  0.2653E+02
     42.338  0.7909E+00  0.2687E+02
     42.750  0.6700E+00  0.2717E+02
     43.162  0.1019E+01  0.2760E+02
     43.573  0.8502E+00  0.2797E+02
     43.985  0.9286E+00  0.2837E+02
     44.397  0.9040E+00  0.2876E+02
     44.808  0.9528E+00  0.2916E+02
     45.220  0.9359E+00  0.2957E+02
     45.632  0.9127E+00  0.2996E+02
     46.044  0.7663E+00  0.3030E+02
     46.455  0.7603E+00  0.3062E+02
     46.867  0.6804E+00  0.3092E+02
     47.279  0.6800E+00  0.3121E+02
     47.691  0.7514E+00  0.3153E+02
     48.102  0.7093E+00  0.3184E+02
     48.514  0.7294E+00  0.3215E+02
     48.926  0.7483E+00  0.3247E+02
     49.337  0.7001E+00  0.3278E+02
     49.749  0.7935E+00  0.3312E+02
     50.161  0.8410E+00  0.3348E+02
     50.573  0.8408E+00  0.3384E+02
     50.984  0.7692E+00  0.3418E+02
     51.396  0.7864E+00  0.3452E+02
     51.808  0.7554E+00  0.3485E+02
     52.220  0.8563E+00  0.3522E+02
     52.631  0.9770E+00  0.3564E+02
     53.043  0.7822E+00  0.3599E+02
     53.455  0.8805E+00  0.3638E+02
     53.867  0.1138E+01  0.3687E+02
     54.278  0.1025E+01  0.3731E+02
     54.690  0.1077E+01  0.3778E+02
     55.102  0.1013E+01  0.3822E+02
     55.513  0.8235E+00  0.3858E+02
     55.925  0.7530E+00  0.3891E+02
     56.337  0.7759E+00  0.3924E+02
     56.749  0.8773E+00  0.3961E+02
     57.160  0.1108E+01  0.4010E+02
     57.572  0.1033E+01  0.4055E+02
     57.984  0.7955E+00  0.4089E+02
     58.396  0.8877E+00  0.4127E+02
     58.807  0.9369E+00  0.4168E+02
     59.219  0.8545E+00  0.4206E+02
     59.631  0.8993E+00  0.4245E+02
     60.042  0.7543E+00  0.4278E+02
     60.454  0.8293E+00  0.4314E+02
     60.866  0.8374E+00  0.4350E+02
     61.278  0.6770E+00  0.4379E+02
     61.689  0.6898E+00  0.4409E+02
     62.101  0.9194E+00  0.4449E+02
     62.513  0.8706E+00  0.4486E+02
     62.925  0.8390E+00  0.4523E+02
     63.336  0.7192E+00  0.4554E+02
     63.748  0.8019E+00  0.4588E+02
     64.160  0.7800E+00  0.4622E+02
     64.572  0.9476E+00  0.4663E+02
     64.983  0.8253E+00  0.4699E+02
     65.395  0.9705E+00  0.4741E+02
     65.807  0.1000E+01  0.4785E+02
     66.218  0.9319E+00  0.4825E+02
     66.630  0.8497E+00  0.4863E+02
     67.042  0.8024E+00  0.4898E+02
     67.454  0.1014E+01  0.4941E+02
     67.865  0.1056E+01  0.4987E+02
     68.277  0.1026E+01  0.5031E+02
     68.689  0.9829E+00  0.5074E+02
     69.101  0.8948E+00  0.5113E+02
     69.512  0.9167E+00  0.5152E+02
     69.924  0.9299E+00  0.5193E+02
     70.336  0.9694E+00  0.5234E+02
     70.747  0.6979E+00  0.5265E+02
     71.159  0.8888E+00  0.5304E+02
     71.571  0.8771E+00  0.5342E+02
     71.983  0.9413E+00  0.5383E+02
     72.394  0.8671E+00  0.5420E+02
     72.806  0.8348E+00  0.5457E+02
     73.218  0.9651E+00  0.5498E+02
     73.630  0.8950E+00  0.5537E+02
     74.041  0.9864E+00  0.5580E+02
     74.453  0.8762E+00  0.5618E+02
     74.865  0.7871E+00  0.5652E+02
     75.277  0.8887E+00  0.5690E+02
     75.688  0.9409E+00  0.5731E+02
     76.100  0.1162E+01  0.5782E+02
     76.512  0.9679E+00  0.5824E+02
     76.923  0.9058E+00  0.5863E+02
     77.335  0.9945E+00  0.5906E+02
     77.747  0.8952E+00  0.5946E+02
     78.159  0.1015E+01  0.5989E+02
     78.570  0.1083E+01  0.6036E+02
     78.982  0.9587E+00  0.6077E+02
     79.394  0.1064E+01  0.6123E+02
     79.806  0.9685E+00  0.6165E+02
     80.217  0.9845E+00  0.6208E+02
     80.629  0.1040E+01  0.6253E+02
     81.041  0.9176E+00  0.6292E+02
     81.452  0.8469E+00  0.6330E+02
     81.864  0.9832E+00  0.6372E+02
     82.276  0.9942E+00  0.6415E+02
     82.688  0.1065E+01  0.6461E+02
     83.099  0.1102E+01  0.6509E+02
     83.511  0.1107E+01  0.6556E+02
     83.923  0.1024E+01  0.6600E+02
     84.335  0.1149E+01  0.6650E+02
     84.746  0.1108E+01  0.6698E+02
     85.158  0.8459E+00  0.6736E+02
     85.570  0.9787E+00  0.6778E+02
     85.982  0.9408E+00  0.6819E+02
     86.393  0.9466E+00  0.6860E+02
     86.805  0.9933E+00  0.6903E+02
     87.217  0.1151E+01  0.6953E+02
     87.628  0.9721E+00  0.6995E+02
     88.040  0.9061E+00  0.7035E+02
     88.452  0.1067E+01  0.7082E+02
     88.864  0.9112E+00  0.7122E+02
     89.275  0.9640E+00  0.7164E+02
     89.687  0.1092E+01  0.7211E+02
     90.099  0.1049E+01  0.7257E+02
     90.511  0.9824E+00  0.7300E+02
     90.922  0.1088E+01  0.7347E+02
     91.334  0.1130E+01  0.7396E+02
     91.746  0.1079E+01  0.7443E+02
     92.157  0.1057E+01  0.7489E+02
     92.569  0.1175E+01  0.7539E+02
     92.981  0.1147E+01  0.7588E+02
     93.393  0.9910E+00  0.7631E+02
     93.804  0.1013E+01  0.7675E+02
     94.216  0.1007E+01  0.7719E+02
     94.628  0.1059E+01  0.7765E+02
     95.040  0.9559E+00  0.7806E+02
     95.451  0.1004E+01  0.7849E+02
     95.863  0.9301E+00  0.7889E+02
     96.275  0.9734E+00  0.7931E+02
     96.687  0.9706E+00  0.7974E+02
     97.098  0.8359E+00  0.8011E+02
     97.510  0.7949E+00  0.8046E+02
     97.922  0.7713E+00  0.8079E+02
     98.333  0.7182E+00  0.8111E+02
     98.745  0.8249E+00  0.8147E+02
     99.157  0.6301E+00  0.8175E+02
     99.569  0.6068E+00  0.8201E+02
     99.980  0.6490E+00  0.8229E+02
    100.392  0.5892E+00  0.8254E+02
    100.804  0.5218E+00  0.8277E+02
    101.216  0.4651E+00  0.8297E+02
    101.627  0.3439E+00  0.8313E+02
    102.039  0.3711E+00  0.8329E+02
    102.451  0.3252E+00  0.8343E+02
    102.862  0.2565E+00  0.8355E+02
    103.274  0.2409E+00  0.8365E+02
    103.686  0.1904E+00  0.8374E+02
    104.098  0.1631E+00  0.8381E+02
    104.509  0.1189E+00  0.8386E+02
    104.921  0.1063E+00  0.8391E+02
    105.333  0.9570E-01  0.8395E+02
    105.745  0.2109E-01  0.8396E+02
    106.156  0.3821E-01  0.8397E+02
    106.568  0.2865E-01  0.8398E+02
    106.980  0.1913E-01  0.8399E+02
    107.392  0.6849E-02  0.8400E+02
    107.803  0.6841E-02  0.8400E+02
    108.215  0.3448E-02  0.8400E+02
    108.627  0.0000E+00  0.8400E+02
    109.038  0.0000E+00  0.8400E+02
    109.450  0.0000E+00  0.8400E+02
    109.862  0.0000E+00  0.8400E+02
    110.274  0.0000E+00  0.8400E+02
    110.685  0.0000E+00  0.8400E+02
    111.097  0.0000E+00  0.8400E+02
    111.509  0.0000E+00  0.8400E+02
    111.921  0.0000E+00  0.8400E+02
    112.332  0.0000E+00  0.8400E+02
    112.744  0.0000E+00  0.8400E+02
    113.156  0.0000E+00  0.8400E+02
    113.567  0.0000E+00  0.8400E+02
