       N       E                     dE             d eps       ncg     rms          ort
DAV:   1    -0.660711373738E+01   -0.66071E+01   -0.33204E+03 12012   0.126E+02
DAV:   2    -0.739432383689E+01   -0.78721E+00   -0.77987E+00 12012   0.547E+00
DAV:   3    -0.739438116737E+01   -0.57330E-04   -0.57330E-04 12012   0.539E-02
DAV:   4    -0.739438116859E+01   -0.12132E-08   -0.10473E-08 12012   0.188E-04
DAV:   5    -0.739438116895E+01   -0.36293E-09   -0.78041E-13 12012   0.114E-07
SDA:   6    -0.733281306393E+01    0.61568E-01   -0.78041E-13 12012   0.302E-02 0.000E+00
CGA:   7    -0.733414064968E+01   -0.13276E-02   -0.13464E-02 12012   0.612E-03-0.710E-04
CGA:   8    -0.733466955670E+01   -0.52891E-03   -0.51935E-03 12012   0.145E-04 0.143E-04
CGA:   9    -0.733467630451E+01   -0.67478E-05   -0.65888E-05 12012   0.102E-05 0.807E-06
CGA:  10    -0.733467687425E+01   -0.56975E-06   -0.76478E-06 12012   0.246E-06-0.430E-06
   1 F= -.73346769E+01 E0= -.73345618E+01  d E =-.230217E-03
