   3   3   0   0
  0.8374985E+02  0.2506240E-09  0.2506240E-09  0.4000000E-08  0.5000000E-15
  1.000000000000000E-004
  CAR 
 Convergence                             
     21.13847374    -14.08739247  301     -2.23373246      1.00000000
    -14.087  0.0000E+00  0.0000E+00
    -13.970  0.0000E+00  0.0000E+00
    -13.853  0.0000E+00  0.0000E+00
    -13.735  0.0000E+00  0.0000E+00
    -13.618  0.0000E+00  0.0000E+00
    -13.500  0.0000E+00  0.0000E+00
    -13.383  0.0000E+00  0.0000E+00
    -13.265  0.0000E+00  0.0000E+00
    -13.148  0.0000E+00  0.0000E+00
    -13.031  0.0000E+00  0.0000E+00
    -12.913  0.0000E+00  0.0000E+00
    -12.796  0.0000E+00  0.0000E+00
    -12.678  0.6878E-09  0.8076E-10
    -12.561  0.6726E-03  0.7898E-04
    -12.444  0.1356E+00  0.1600E-01
    -12.326  0.3517E+00  0.5730E-01
    -12.209  0.3757E+00  0.1014E+00
    -12.091  0.3254E+00  0.1396E+00
    -11.974  0.3896E+00  0.1854E+00
    -11.856  0.3678E+00  0.2285E+00
    -11.739  0.3356E+00  0.2680E+00
    -11.622  0.3430E+00  0.3082E+00
    -11.504  0.4245E+00  0.3581E+00
    -11.387  0.2839E+00  0.3914E+00
    -11.269  0.3701E+00  0.4349E+00
    -11.152  0.4320E+00  0.4856E+00
    -11.034  0.2429E+00  0.5141E+00
    -10.917  0.4380E+00  0.5656E+00
    -10.800  0.3523E+00  0.6069E+00
    -10.682  0.4033E+00  0.6543E+00
    -10.565  0.1992E+00  0.6777E+00
    -10.447  0.5044E+00  0.7369E+00
    -10.330  0.4153E+00  0.7857E+00
    -10.213  0.1679E+00  0.8054E+00
    -10.095  0.4075E+00  0.8532E+00
     -9.978  0.4875E+00  0.9105E+00
     -9.860  0.3379E+00  0.9501E+00
     -9.743  0.2512E+00  0.9796E+00
     -9.625  0.3953E+00  0.1026E+01
     -9.508  0.3948E+00  0.1072E+01
     -9.391  0.4383E+00  0.1124E+01
     -9.273  0.2937E+00  0.1158E+01
     -9.156  0.3339E+00  0.1198E+01
     -9.038  0.2986E+00  0.1233E+01
     -8.921  0.6462E+00  0.1309E+01
     -8.804  0.3360E+00  0.1348E+01
     -8.686  0.6133E+00  0.1420E+01
     -8.569  0.8040E+00  0.1514E+01
     -8.451  0.8917E+00  0.1619E+01
     -8.334  0.7689E+00  0.1709E+01
     -8.216  0.4660E+00  0.1764E+01
     -8.099  0.9077E+00  0.1871E+01
     -7.982  0.4833E+00  0.1927E+01
     -7.864  0.6858E+00  0.2008E+01
     -7.747  0.4693E+00  0.2063E+01
     -7.629  0.6733E+00  0.2142E+01
     -7.512  0.9143E+00  0.2249E+01
     -7.394  0.6001E+00  0.2320E+01
     -7.277  0.7757E+00  0.2411E+01
     -7.160  0.8445E+00  0.2510E+01
     -7.042  0.4833E+00  0.2567E+01
     -6.925  0.8492E+00  0.2667E+01
     -6.807  0.9010E+00  0.2772E+01
     -6.690  0.8756E+00  0.2875E+01
     -6.573  0.5648E+00  0.2942E+01
     -6.455  0.7040E+00  0.3024E+01
     -6.338  0.8187E+00  0.3120E+01
     -6.220  0.1026E+01  0.3241E+01
     -6.103  0.7494E+00  0.3329E+01
     -5.985  0.8708E+00  0.3431E+01
     -5.868  0.1007E+01  0.3549E+01
     -5.751  0.5496E+00  0.3614E+01
     -5.633  0.1169E+01  0.3751E+01
     -5.516  0.1253E+01  0.3898E+01
     -5.398  0.9917E+00  0.4015E+01
     -5.281  0.9789E+00  0.4130E+01
     -5.164  0.9801E+00  0.4245E+01
     -5.046  0.1092E+01  0.4373E+01
     -4.929  0.6781E+00  0.4453E+01
     -4.811  0.1548E+01  0.4634E+01
     -4.694  0.1070E+01  0.4760E+01
     -4.576  0.6056E+00  0.4831E+01
     -4.459  0.1049E+01  0.4954E+01
     -4.342  0.1464E+01  0.5126E+01
     -4.224  0.1054E+01  0.5250E+01
     -4.107  0.8680E+00  0.5352E+01
     -3.989  0.6514E+00  0.5428E+01
     -3.872  0.1114E+01  0.5559E+01
     -3.754  0.3512E+00  0.5600E+01
     -3.637  0.5021E+00  0.5659E+01
     -3.520  0.1871E+00  0.5681E+01
     -3.402  0.6867E+00  0.5762E+01
     -3.285  0.2078E+00  0.5786E+01
     -3.167  0.3252E+00  0.5824E+01
     -3.050  0.1912E+00  0.5847E+01
     -2.933  0.2251E+00  0.5873E+01
     -2.815  0.6211E-01  0.5881E+01
     -2.698  0.1102E+00  0.5894E+01
     -2.580  0.2382E+00  0.5922E+01
     -2.463  0.8300E-01  0.5931E+01
     -2.345  0.1490E+00  0.5949E+01
     -2.228  0.4820E+00  0.6005E+01
     -2.111  0.1541E+01  0.6186E+01
     -1.993  0.1272E+01  0.6336E+01
     -1.876  0.1461E+01  0.6507E+01
     -1.758  0.2277E+01  0.6775E+01
     -1.641  0.1195E+01  0.6915E+01
     -1.524  0.1037E+01  0.7037E+01
     -1.406  0.1585E+01  0.7223E+01
     -1.289  0.1431E+01  0.7391E+01
     -1.171  0.1722E+01  0.7593E+01
     -1.054  0.1830E+01  0.7808E+01
     -0.936  0.1967E+01  0.8039E+01
     -0.819  0.1759E+01  0.8245E+01
     -0.702  0.2028E+01  0.8484E+01
     -0.584  0.1654E+01  0.8678E+01
     -0.467  0.1981E+01  0.8910E+01
     -0.349  0.1025E+01  0.9031E+01
     -0.232  0.1513E+01  0.9208E+01
     -0.114  0.1445E+01  0.9378E+01
      0.003  0.7626E+00  0.9468E+01
      0.120  0.6216E+00  0.9541E+01
      0.238  0.6188E+00  0.9613E+01
      0.355  0.4434E+00  0.9665E+01
      0.473  0.3905E+00  0.9711E+01
      0.590  0.3906E+00  0.9757E+01
      0.707  0.5085E+00  0.9817E+01
      0.825  0.3473E+00  0.9857E+01
      0.942  0.5683E+00  0.9924E+01
      1.060  0.5836E+00  0.9993E+01
      1.177  0.6828E+00  0.1007E+02
      1.295  0.7579E+00  0.1016E+02
      1.412  0.1087E+01  0.1029E+02
      1.529  0.1740E+01  0.1049E+02
      1.647  0.2173E+01  0.1075E+02
      1.764  0.3017E+01  0.1110E+02
      1.882  0.3511E+01  0.1152E+02
      1.999  0.3215E+01  0.1189E+02
      2.117  0.2625E+01  0.1220E+02
      2.234  0.2511E+01  0.1250E+02
      2.351  0.3345E+01  0.1289E+02
      2.469  0.4011E+01  0.1336E+02
      2.586  0.3071E+01  0.1372E+02
      2.704  0.2609E+01  0.1403E+02
      2.821  0.4028E+01  0.1450E+02
      2.938  0.3779E+01  0.1494E+02
      3.056  0.4729E+01  0.1550E+02
      3.173  0.3199E+01  0.1587E+02
      3.291  0.3393E+01  0.1627E+02
      3.408  0.3883E+01  0.1673E+02
      3.526  0.3937E+01  0.1719E+02
      3.643  0.3941E+01  0.1765E+02
      3.760  0.3764E+01  0.1810E+02
      3.878  0.4056E+01  0.1857E+02
      3.995  0.3233E+01  0.1895E+02
      4.113  0.3539E+01  0.1937E+02
      4.230  0.4501E+01  0.1990E+02
      4.347  0.4411E+01  0.2041E+02
      4.465  0.3316E+01  0.2080E+02
      4.582  0.3258E+01  0.2119E+02
      4.700  0.4306E+01  0.2169E+02
      4.817  0.4018E+01  0.2216E+02
      4.935  0.4202E+01  0.2266E+02
      5.052  0.3777E+01  0.2310E+02
      5.169  0.5096E+01  0.2370E+02
      5.287  0.3562E+01  0.2412E+02
      5.404  0.4459E+01  0.2464E+02
      5.522  0.5570E+01  0.2529E+02
      5.639  0.4769E+01  0.2585E+02
      5.757  0.3806E+01  0.2630E+02
      5.874  0.3588E+01  0.2672E+02
      5.991  0.5291E+01  0.2734E+02
      6.109  0.4325E+01  0.2785E+02
      6.226  0.4715E+01  0.2841E+02
      6.344  0.4542E+01  0.2894E+02
      6.461  0.4498E+01  0.2947E+02
      6.578  0.3542E+01  0.2988E+02
      6.696  0.5361E+01  0.3051E+02
      6.813  0.4388E+01  0.3103E+02
      6.931  0.5308E+01  0.3165E+02
      7.048  0.5701E+01  0.3232E+02
      7.166  0.5887E+01  0.3301E+02
      7.283  0.4684E+01  0.3356E+02
      7.400  0.4457E+01  0.3408E+02
      7.518  0.5865E+01  0.3477E+02
      7.635  0.5528E+01  0.3542E+02
      7.753  0.5813E+01  0.3610E+02
      7.870  0.5409E+01  0.3674E+02
      7.987  0.6071E+01  0.3745E+02
      8.105  0.4828E+01  0.3802E+02
      8.222  0.5086E+01  0.3862E+02
      8.340  0.6278E+01  0.3935E+02
      8.457  0.4819E+01  0.3992E+02
      8.575  0.6415E+01  0.4067E+02
      8.692  0.6655E+01  0.4145E+02
      8.809  0.5928E+01  0.4215E+02
      8.927  0.5356E+01  0.4278E+02
      9.044  0.4828E+01  0.4335E+02
      9.162  0.6562E+01  0.4412E+02
      9.279  0.5121E+01  0.4472E+02
      9.397  0.5447E+01  0.4536E+02
      9.514  0.6406E+01  0.4611E+02
      9.631  0.5483E+01  0.4675E+02
      9.749  0.6402E+01  0.4751E+02
      9.866  0.5913E+01  0.4820E+02
      9.984  0.5545E+01  0.4885E+02
     10.101  0.5706E+01  0.4952E+02
     10.218  0.5194E+01  0.5013E+02
     10.336  0.6158E+01  0.5085E+02
     10.453  0.4414E+01  0.5137E+02
     10.571  0.6820E+01  0.5217E+02
     10.688  0.6791E+01  0.5297E+02
     10.806  0.5804E+01  0.5365E+02
     10.923  0.5283E+01  0.5427E+02
     11.040  0.5414E+01  0.5491E+02
     11.158  0.7076E+01  0.5574E+02
     11.275  0.5402E+01  0.5637E+02
     11.393  0.5481E+01  0.5702E+02
     11.510  0.7321E+01  0.5788E+02
     11.627  0.5343E+01  0.5850E+02
     11.745  0.6391E+01  0.5925E+02
     11.862  0.5953E+01  0.5995E+02
     11.980  0.5046E+01  0.6055E+02
     12.097  0.5549E+01  0.6120E+02
     12.215  0.6090E+01  0.6191E+02
     12.332  0.5845E+01  0.6260E+02
     12.449  0.7430E+01  0.6347E+02
     12.567  0.7418E+01  0.6434E+02
     12.684  0.6241E+01  0.6507E+02
     12.802  0.6357E+01  0.6582E+02
     12.919  0.6883E+01  0.6663E+02
     13.037  0.5360E+01  0.6726E+02
     13.154  0.5697E+01  0.6793E+02
     13.271  0.7190E+01  0.6877E+02
     13.389  0.7692E+01  0.6968E+02
     13.506  0.5924E+01  0.7037E+02
     13.624  0.7938E+01  0.7130E+02
     13.741  0.5669E+01  0.7197E+02
     13.858  0.6036E+01  0.7268E+02
     13.976  0.5531E+01  0.7333E+02
     14.093  0.5484E+01  0.7397E+02
     14.211  0.6723E+01  0.7476E+02
     14.328  0.5873E+01  0.7545E+02
     14.446  0.5102E+01  0.7605E+02
     14.563  0.4978E+01  0.7663E+02
     14.680  0.5731E+01  0.7731E+02
     14.798  0.4539E+01  0.7784E+02
     14.915  0.3816E+01  0.7829E+02
     15.033  0.3865E+01  0.7874E+02
     15.150  0.3653E+01  0.7917E+02
     15.267  0.2603E+01  0.7948E+02
     15.385  0.2564E+01  0.7978E+02
     15.502  0.3090E+01  0.8014E+02
     15.620  0.2441E+01  0.8043E+02
     15.737  0.2378E+01  0.8071E+02
     15.855  0.2279E+01  0.8097E+02
     15.972  0.2466E+01  0.8126E+02
     16.089  0.2277E+01  0.8153E+02
     16.207  0.1870E+01  0.8175E+02
     16.324  0.1089E+01  0.8188E+02
     16.442  0.1671E+01  0.8207E+02
     16.559  0.1779E+01  0.8228E+02
     16.677  0.2517E+01  0.8258E+02
     16.794  0.6509E+00  0.8265E+02
     16.911  0.4504E+00  0.8271E+02
     17.029  0.9034E+00  0.8281E+02
     17.146  0.8547E+00  0.8291E+02
     17.264  0.1798E+01  0.8312E+02
     17.381  0.8645E+00  0.8323E+02
     17.498  0.4615E+00  0.8328E+02
     17.616  0.6173E+00  0.8335E+02
     17.733  0.7613E+00  0.8344E+02
     17.851  0.7330E+00  0.8353E+02
     17.968  0.5593E+00  0.8359E+02
     18.086  0.1163E+00  0.8361E+02
     18.203  0.1779E+00  0.8363E+02
     18.320  0.6550E+00  0.8371E+02
     18.438  0.6151E+00  0.8378E+02
     18.555  0.5777E+00  0.8385E+02
     18.673  0.2395E+00  0.8387E+02
     18.790  0.6349E-02  0.8387E+02
     18.908  0.1798E-01  0.8388E+02
     19.025  0.1910E-02  0.8388E+02
     19.142  0.1945E+00  0.8390E+02
     19.260  0.2677E+00  0.8393E+02
     19.377  0.3344E-01  0.8393E+02
     19.495  0.2223E+00  0.8396E+02
     19.612  0.3282E+00  0.8400E+02
     19.729  0.3560E-02  0.8400E+02
     19.847  0.5169E-08  0.8400E+02
     19.964  0.0000E+00  0.8400E+02
     20.082  0.0000E+00  0.8400E+02
     20.199  0.0000E+00  0.8400E+02
     20.317  0.0000E+00  0.8400E+02
     20.434  0.0000E+00  0.8400E+02
     20.551  0.0000E+00  0.8400E+02
     20.669  0.0000E+00  0.8400E+02
     20.786  0.0000E+00  0.8400E+02
     20.904  0.0000E+00  0.8400E+02
     21.021  0.0000E+00  0.8400E+02
     21.138  0.0000E+00  0.8400E+02
