 running   42 mpi-ranks, on    1 nodes
 distrk:  each k-point on   42 cores,    1 groups
 distr:  one band on    1 cores,   42 groups
 vasp.6.5.0 16Dec24 (build Jan 08 2025 16:17:04) complex                        
  
 POSCAR found type information on POSCAR Be
 POSCAR found :  1 types and       3 ions
 Reading from existing POTCAR
 scaLAPACK will be used
 -----------------------------------------------------------------------------
|                                                                             |
|           W    W    AA    RRRRR   N    N  II  N    N   GGGG   !!!           |
|           W    W   A  A   R    R  NN   N  II  NN   N  G    G  !!!           |
|           W    W  A    A  R    R  N N  N  II  N N  N  G       !!!           |
|           W WW W  AAAAAA  RRRRR   N  N N  II  N  N N  G  GGG   !            |
|           WW  WW  A    A  R   R   N   NN  II  N   NN  G    G                |
|           W    W  A    A  R    R  N    N  II  N    N   GGGG   !!!           |
|                                                                             |
|     For optimal performance we recommend to set                             |
|       NCORE = 2 up to number-of-cores-per-socket                            |
|     NCORE specifies how many cores store one orbital (NPAR=cpu/NCORE).      |
|     This setting can greatly improve the performance of VASP for DFT.       |
|     The default, NCORE=1 might be grossly inefficient on modern             |
|     multi-core architectures or massively parallel machines. Do your        |
|     own testing! More info at https://www.vasp.at/wiki/index.php/NCORE      |
|     Unfortunately you need to use the default for GW and RPA                |
|     calculations (for HF NCORE is supported but not extensively tested      |
|     yet).                                                                   |
|                                                                             |
 -----------------------------------------------------------------------------

 Reading from existing POTCAR
 LDA part: xc-table for (Slater+PW92), standard interpolation
 POSCAR, INCAR and KPOINTS ok, starting setup
 FFT: planning ... GRIDC
 FFT: planning ... GRID_SOFT
 FFT: planning ... GRID
 WAVECAR not read
 entering main loop
       N       E                     dE             d eps       ncg     rms          rms(c)
DAV:   1     0.200899651139E+01    0.20090E+01   -0.24931E+03  8820   0.105E+02
DAV:   2    -0.109419032798E+02   -0.12951E+02   -0.12472E+02 13146   0.164E+01
DAV:   3    -0.109889004152E+02   -0.46997E-01   -0.46985E-01  9324   0.110E+00
DAV:   4    -0.109890315255E+02   -0.13111E-03   -0.13111E-03 16674   0.637E-02
DAV:   5    -0.109890315511E+02   -0.25607E-07   -0.25181E-07  9450   0.494E-04    0.298E+00
DAV:   6    -0.984509234957E+01    0.11439E+01   -0.33473E+00 11508   0.117E+00    0.125E+00
DAV:   7    -0.963796592970E+01    0.20713E+00   -0.81877E-01 14364   0.529E-01    0.500E-01
DAV:   8    -0.960653793492E+01    0.31428E-01   -0.31465E-02 14700   0.165E-01    0.150E-01
DAV:   9    -0.959838567801E+01    0.81523E-02   -0.13938E-02 14742   0.659E-02    0.103E-01
DAV:  10    -0.959768938156E+01    0.69630E-03   -0.17156E-03 14322   0.355E-02    0.380E-02
DAV:  11    -0.959881059503E+01   -0.11212E-02   -0.30918E-03 13524   0.299E-02    0.249E-02
DAV:  12    -0.959944794132E+01   -0.63735E-03   -0.70920E-04 11844   0.205E-02    0.137E-02
DAV:  13    -0.959990791773E+01   -0.45998E-03   -0.21954E-04 12054   0.937E-03    0.554E-03
DAV:  14    -0.960010404079E+01   -0.19612E-03   -0.53413E-05 12516   0.455E-03    0.328E-03
DAV:  15    -0.960024220456E+01   -0.13816E-03   -0.32484E-05 11508   0.308E-03    0.140E-03
DAV:  16    -0.960029384757E+01   -0.51643E-04   -0.69220E-06 12852   0.125E-03    0.579E-04
DAV:  17    -0.960030179973E+01   -0.79522E-05   -0.73514E-07 11466   0.506E-04    0.373E-04
DAV:  18    -0.960031053414E+01   -0.87344E-05   -0.16217E-06 11550   0.714E-04    0.132E-04
DAV:  19    -0.960031191361E+01   -0.13795E-05   -0.19489E-07 12390   0.271E-04    0.659E-05
DAV:  20    -0.960031266634E+01   -0.75274E-06   -0.16641E-07 11046   0.247E-04
   1 F= -.96003127E+01 E0= -.95997408E+01  d E =-.114367E-02
