 running   42 mpi-ranks, on    1 nodes
 distrk:  each k-point on   42 cores,    1 groups
 distr:  one band on    1 cores,   42 groups
 vasp.6.5.0 16Dec24 (build Jan 08 2025 16:17:04) complex                        
  
 POSCAR found type information on POSCAR Be
 POSCAR found :  1 types and       1 ions
 Reading from existing POTCAR
 scaLAPACK will be used
 -----------------------------------------------------------------------------
|                                                                             |
|           W    W    AA    RRRRR   N    N  II  N    N   GGGG   !!!           |
|           W    W   A  A   R    R  NN   N  II  NN   N  G    G  !!!           |
|           W    W  A    A  R    R  N N  N  II  N N  N  G       !!!           |
|           W WW W  AAAAAA  RRRRR   N  N N  II  N  N N  G  GGG   !            |
|           WW  WW  A    A  R   R   N   NN  II  N   NN  G    G                |
|           W    W  A    A  R    R  N    N  II  N    N   GGGG   !!!           |
|                                                                             |
|     For optimal performance we recommend to set                             |
|       NCORE = 2 up to number-of-cores-per-socket                            |
|     NCORE specifies how many cores store one orbital (NPAR=cpu/NCORE).      |
|     This setting can greatly improve the performance of VASP for DFT.       |
|     The default, NCORE=1 might be grossly inefficient on modern             |
|     multi-core architectures or massively parallel machines. Do your        |
|     own testing! More info at https://www.vasp.at/wiki/index.php/NCORE      |
|     Unfortunately you need to use the default for GW and RPA                |
|     calculations (for HF NCORE is supported but not extensively tested      |
|     yet).                                                                   |
|                                                                             |
 -----------------------------------------------------------------------------

 Reading from existing POTCAR
 LDA part: xc-table for (Slater+PW92), standard interpolation
 POSCAR, INCAR and KPOINTS ok, starting setup
 FFT: planning ... GRIDC
 FFT: planning ... GRID_SOFT
 FFT: planning ... GRID
 WAVECAR not read
 entering main loop
       N       E                     dE             d eps       ncg     rms          rms(c)
DAV:   1    -0.421344012655E+00   -0.42134E+00   -0.97898E+02 10164   0.372E+01
DAV:   2    -0.342368953207E+01   -0.30023E+01   -0.24927E+01 15246   0.491E+00
DAV:   3    -0.342613706960E+01   -0.24475E-02   -0.24438E-02 10542   0.166E-01
DAV:   4    -0.342614052517E+01   -0.34556E-05   -0.34552E-05 19824   0.607E-03
DAV:   5    -0.342614052528E+01   -0.11081E-09    0.18934E-10 10416   0.147E-05    0.238E+00
DAV:   6    -0.312382922918E+01    0.30231E+00   -0.15562E-01 15582   0.219E-01    0.118E+00
DAV:   7    -0.298362976735E+01    0.14020E+00   -0.17899E-01 13902   0.209E-01    0.176E-01
DAV:   8    -0.297522261754E+01    0.84071E-02   -0.12052E-02 15918   0.511E-02    0.115E-01
DAV:   9    -0.297395530418E+01    0.12673E-02   -0.39455E-04 16254   0.207E-02    0.493E-02
DAV:  10    -0.297473308005E+01   -0.77778E-03   -0.89914E-04 16674   0.158E-02    0.247E-02
DAV:  11    -0.297483414583E+01   -0.10107E-03   -0.66867E-04 17010   0.114E-02    0.162E-02
DAV:  12    -0.297519158123E+01   -0.35744E-03   -0.10567E-04 16338   0.525E-03    0.529E-03
DAV:  13    -0.297548078336E+01   -0.28920E-03   -0.44174E-05 14952   0.277E-03    0.624E-03
DAV:  14    -0.297560639782E+01   -0.12561E-03   -0.43163E-05 14448   0.261E-03    0.157E-03
DAV:  15    -0.297566277467E+01   -0.56377E-04   -0.77016E-06 14868   0.722E-04    0.763E-04
DAV:  16    -0.297567182363E+01   -0.90490E-05   -0.10136E-06 14448   0.388E-04    0.346E-04
DAV:  17    -0.297567922009E+01   -0.73965E-05   -0.45522E-07 15036   0.165E-04    0.151E-04
DAV:  18    -0.297568068889E+01   -0.14688E-05   -0.63931E-08 15078   0.972E-05    0.100E-04
DAV:  19    -0.297568119386E+01   -0.50496E-06   -0.79300E-09 14574   0.362E-05
   1 F= -.29756812E+01 E0= -.29753037E+01  d E =-.754964E-03
