   4   4   0   0
  0.4768745E+02  0.2183746E-09  0.2183746E-09  0.4000000E-08  0.5000000E-15
  1.000000000000000E-004
  CAR 
 Geometry                                
     18.51705788    -16.31464526  301     -2.79458710      1.00000000
    -16.315  0.0000E+00  0.0000E+00
    -16.199  0.0000E+00  0.0000E+00
    -16.082  0.0000E+00  0.0000E+00
    -15.966  0.0000E+00  0.0000E+00
    -15.850  0.0000E+00  0.0000E+00
    -15.734  0.0000E+00  0.0000E+00
    -15.618  0.0000E+00  0.0000E+00
    -15.502  0.0000E+00  0.0000E+00
    -15.386  0.0000E+00  0.0000E+00
    -15.270  0.0000E+00  0.0000E+00
    -15.154  0.0000E+00  0.0000E+00
    -15.037  0.0000E+00  0.0000E+00
    -14.921  0.9261E-11  0.1075E-11
    -14.805  0.5621E-05  0.6526E-06
    -14.689  0.1033E-02  0.1206E-03
    -14.573  0.2705E-02  0.4347E-03
    -14.457  0.2315E-02  0.7034E-03
    -14.341  0.2996E-02  0.1051E-02
    -14.225  0.2211E-02  0.1308E-02
    -14.109  0.3473E-02  0.1711E-02
    -13.993  0.1649E-02  0.1903E-02
    -13.876  0.3930E-02  0.2359E-02
    -13.760  0.2372E-02  0.2634E-02
    -13.644  0.1878E-02  0.2853E-02
    -13.528  0.3597E-02  0.3270E-02
    -13.412  0.2837E-02  0.3600E-02
    -13.296  0.2101E-02  0.3843E-02
    -13.180  0.2263E-02  0.4106E-02
    -13.064  0.4007E-02  0.4571E-02
    -12.948  0.2509E-02  0.4863E-02
    -12.831  0.1728E-02  0.5063E-02
    -12.715  0.3375E-02  0.5455E-02
    -12.599  0.4233E-02  0.5947E-02
    -12.483  0.1174E-02  0.6083E-02
    -12.367  0.4425E-02  0.6597E-02
    -12.251  0.5633E-02  0.7251E-02
    -12.135  0.6425E-02  0.7997E-02
    -12.019  0.4365E-02  0.8504E-02
    -11.903  0.5976E-02  0.9197E-02
    -11.787  0.5410E-02  0.9826E-02
    -11.670  0.5231E-02  0.1043E-01
    -11.554  0.7082E-02  0.1126E-01
    -11.438  0.5255E-02  0.1187E-01
    -11.322  0.4957E-02  0.1244E-01
    -11.206  0.6144E-02  0.1315E-01
    -11.090  0.6941E-02  0.1396E-01
    -10.974  0.5259E-02  0.1457E-01
    -10.858  0.5518E-02  0.1521E-01
    -10.742  0.7704E-02  0.1611E-01
    -10.625  0.6276E-02  0.1683E-01
    -10.509  0.7520E-02  0.1771E-01
    -10.393  0.8011E-02  0.1864E-01
    -10.277  0.6604E-02  0.1940E-01
    -10.161  0.5193E-02  0.2001E-01
    -10.045  0.3717E-02  0.2044E-01
     -9.929  0.6872E-02  0.2124E-01
     -9.813  0.8009E-02  0.2217E-01
     -9.697  0.2404E-02  0.2245E-01
     -9.581  0.3749E-02  0.2288E-01
     -9.464  0.6061E-02  0.2358E-01
     -9.348  0.6795E-02  0.2437E-01
     -9.232  0.5506E-02  0.2501E-01
     -9.116  0.7103E-02  0.2584E-01
     -9.000  0.6000E-02  0.2653E-01
     -8.884  0.7402E-02  0.2739E-01
     -8.768  0.7972E-02  0.2832E-01
     -8.652  0.7804E-02  0.2923E-01
     -8.536  0.5978E-02  0.2992E-01
     -8.419  0.5076E-02  0.3051E-01
     -8.303  0.8983E-02  0.3155E-01
     -8.187  0.8938E-02  0.3259E-01
     -8.071  0.6559E-02  0.3335E-01
     -7.955  0.9435E-02  0.3445E-01
     -7.839  0.5683E-02  0.3511E-01
     -7.723  0.6309E-02  0.3584E-01
     -7.607  0.7973E-02  0.3676E-01
     -7.491  0.7169E-02  0.3760E-01
     -7.375  0.6148E-02  0.3831E-01
     -7.258  0.2688E-02  0.3862E-01
     -7.142  0.4545E-02  0.3915E-01
     -7.026  0.1142E-01  0.4048E-01
     -6.910  0.4578E-02  0.4101E-01
     -6.794  0.1611E-02  0.4119E-01
     -6.678  0.5893E-02  0.4188E-01
     -6.562  0.1131E-01  0.4319E-01
     -6.446  0.7322E-02  0.4404E-01
     -6.330  0.7392E-02  0.4490E-01
     -6.213  0.1043E-01  0.4611E-01
     -6.097  0.8583E-02  0.4711E-01
     -5.981  0.7755E-02  0.4801E-01
     -5.865  0.5709E-02  0.4867E-01
     -5.749  0.9216E-02  0.4974E-01
     -5.633  0.4808E-02  0.5030E-01
     -5.517  0.3944E-02  0.5076E-01
     -5.401  0.3572E-02  0.5117E-01
     -5.285  0.9870E-02  0.5232E-01
     -5.169  0.6470E-02  0.5307E-01
     -5.052  0.4386E-02  0.5358E-01
     -4.936  0.5590E-02  0.5423E-01
     -4.820  0.7610E-02  0.5511E-01
     -4.704  0.8698E-02  0.5612E-01
     -4.588  0.3904E-02  0.5657E-01
     -4.472  0.2271E-02  0.5684E-01
     -4.356  0.7628E-02  0.5772E-01
     -4.240  0.8355E-02  0.5869E-01
     -4.124  0.3942E-02  0.5915E-01
     -4.007  0.4722E-02  0.5970E-01
     -3.891  0.3327E-02  0.6009E-01
     -3.775  0.9142E-02  0.6115E-01
     -3.659  0.4092E-02  0.6162E-01
     -3.543  0.5664E-02  0.6228E-01
     -3.427  0.6457E-02  0.6303E-01
     -3.311  0.8483E-02  0.6401E-01
     -3.195  0.1187E-01  0.6539E-01
     -3.079  0.1253E-01  0.6685E-01
     -2.962  0.1331E-01  0.6839E-01
     -2.846  0.1088E-01  0.6966E-01
     -2.730  0.6527E-02  0.7041E-01
     -2.614  0.8239E-02  0.7137E-01
     -2.498  0.9475E-02  0.7247E-01
     -2.382  0.9880E-02  0.7362E-01
     -2.266  0.1090E-01  0.7488E-01
     -2.150  0.1395E-01  0.7650E-01
     -2.034  0.9509E-02  0.7761E-01
     -1.918  0.7597E-02  0.7849E-01
     -1.801  0.7757E-02  0.7939E-01
     -1.685  0.1105E-01  0.8067E-01
     -1.569  0.1009E-01  0.8184E-01
     -1.453  0.6748E-02  0.8263E-01
     -1.337  0.6040E-02  0.8333E-01
     -1.221  0.9827E-02  0.8447E-01
     -1.105  0.1518E-01  0.8623E-01
     -0.989  0.1242E-01  0.8767E-01
     -0.873  0.4518E-02  0.8820E-01
     -0.756  0.8995E-02  0.8924E-01
     -0.640  0.1228E-01  0.9067E-01
     -0.524  0.8823E-02  0.9169E-01
     -0.408  0.9276E-02  0.9277E-01
     -0.292  0.1043E-01  0.9398E-01
     -0.176  0.6382E-02  0.9472E-01
     -0.060  0.1089E-01  0.9599E-01
      0.056  0.1286E-01  0.9748E-01
      0.172  0.1250E-01  0.9893E-01
      0.288  0.8958E-02  0.9997E-01
      0.405  0.1369E-01  0.1016E+00
      0.521  0.1304E-01  0.1031E+00
      0.637  0.1300E-01  0.1046E+00
      0.753  0.9950E-02  0.1057E+00
      0.869  0.1343E-01  0.1073E+00
      0.985  0.7223E-02  0.1081E+00
      1.101  0.6839E-02  0.1089E+00
      1.217  0.1003E-01  0.1101E+00
      1.333  0.1330E-01  0.1116E+00
      1.450  0.1948E-01  0.1139E+00
      1.566  0.1676E-01  0.1158E+00
      1.682  0.1779E-01  0.1179E+00
      1.798  0.1471E-01  0.1196E+00
      1.914  0.7991E-02  0.1206E+00
      2.030  0.1220E-01  0.1220E+00
      2.146  0.1304E-01  0.1235E+00
      2.262  0.1488E-01  0.1252E+00
      2.378  0.1898E-01  0.1274E+00
      2.494  0.1840E-01  0.1295E+00
      2.611  0.1481E-01  0.1313E+00
      2.727  0.2912E-01  0.1347E+00
      2.843  0.2412E-01  0.1375E+00
      2.959  0.1700E-01  0.1394E+00
      3.075  0.2221E-01  0.1420E+00
      3.191  0.2328E-01  0.1447E+00
      3.307  0.3031E-01  0.1482E+00
      3.423  0.2811E-01  0.1515E+00
      3.539  0.2353E-01  0.1542E+00
      3.656  0.2998E-01  0.1577E+00
      3.772  0.2311E-01  0.1604E+00
      3.888  0.2211E-01  0.1630E+00
      4.004  0.3570E-01  0.1671E+00
      4.120  0.2606E-01  0.1701E+00
      4.236  0.3283E-01  0.1739E+00
      4.352  0.3335E-01  0.1778E+00
      4.468  0.2190E-01  0.1804E+00
      4.584  0.2768E-01  0.1836E+00
      4.700  0.3635E-01  0.1878E+00
      4.817  0.3806E-01  0.1922E+00
      4.933  0.2929E-01  0.1956E+00
      5.049  0.2778E-01  0.1988E+00
      5.165  0.2852E-01  0.2021E+00
      5.281  0.2753E-01  0.2053E+00
      5.397  0.3411E-01  0.2093E+00
      5.513  0.4275E-01  0.2143E+00
      5.629  0.2968E-01  0.2177E+00
      5.745  0.2974E-01  0.2212E+00
      5.862  0.3422E-01  0.2251E+00
      5.978  0.2893E-01  0.2285E+00
      6.094  0.3774E-01  0.2329E+00
      6.210  0.3614E-01  0.2371E+00
      6.326  0.4137E-01  0.2419E+00
      6.442  0.3305E-01  0.2457E+00
      6.558  0.2565E-01  0.2487E+00
      6.674  0.4137E-01  0.2535E+00
      6.790  0.3544E-01  0.2576E+00
      6.906  0.3122E-01  0.2612E+00
      7.023  0.3935E-01  0.2658E+00
      7.139  0.4751E-01  0.2713E+00
      7.255  0.3588E-01  0.2755E+00
      7.371  0.3507E-01  0.2796E+00
      7.487  0.3583E-01  0.2837E+00
      7.603  0.4470E-01  0.2889E+00
      7.719  0.4614E-01  0.2943E+00
      7.835  0.4135E-01  0.2991E+00
      7.951  0.3786E-01  0.3035E+00
      8.068  0.4267E-01  0.3084E+00
      8.184  0.2892E-01  0.3118E+00
      8.300  0.3442E-01  0.3158E+00
      8.416  0.3777E-01  0.3202E+00
      8.532  0.4383E-01  0.3252E+00
      8.648  0.4884E-01  0.3309E+00
      8.764  0.3836E-01  0.3354E+00
      8.880  0.4290E-01  0.3403E+00
      8.996  0.5126E-01  0.3463E+00
      9.112  0.5213E-01  0.3524E+00
      9.229  0.3395E-01  0.3563E+00
      9.345  0.3742E-01  0.3606E+00
      9.461  0.5579E-01  0.3671E+00
      9.577  0.4630E-01  0.3725E+00
      9.693  0.4378E-01  0.3776E+00
      9.809  0.5004E-01  0.3834E+00
      9.925  0.4464E-01  0.3886E+00
     10.041  0.3590E-01  0.3927E+00
     10.157  0.3693E-01  0.3970E+00
     10.274  0.3439E-01  0.4010E+00
     10.390  0.3795E-01  0.4054E+00
     10.506  0.3895E-01  0.4099E+00
     10.622  0.3159E-01  0.4136E+00
     10.738  0.3875E-01  0.4181E+00
     10.854  0.4325E-01  0.4231E+00
     10.970  0.2912E-01  0.4265E+00
     11.086  0.3810E-01  0.4309E+00
     11.202  0.2877E-01  0.4343E+00
     11.319  0.3920E-01  0.4388E+00
     11.435  0.2684E-01  0.4419E+00
     11.551  0.2779E-01  0.4452E+00
     11.667  0.2902E-01  0.4485E+00
     11.783  0.2320E-01  0.4512E+00
     11.899  0.1870E-01  0.4534E+00
     12.015  0.2260E-01  0.4560E+00
     12.131  0.2187E-01  0.4586E+00
     12.247  0.1752E-01  0.4606E+00
     12.363  0.1244E-01  0.4620E+00
     12.480  0.1089E-01  0.4633E+00
     12.596  0.1122E-01  0.4646E+00
     12.712  0.8969E-02  0.4657E+00
     12.828  0.6887E-02  0.4665E+00
     12.944  0.4630E-02  0.4670E+00
     13.060  0.9179E-02  0.4681E+00
     13.176  0.9383E-02  0.4692E+00
     13.292  0.5739E-02  0.4698E+00
     13.408  0.2013E-02  0.4701E+00
     13.525  0.3618E-02  0.4705E+00
     13.641  0.6267E-02  0.4712E+00
     13.757  0.5765E-02  0.4719E+00
     13.873  0.7484E-02  0.4727E+00
     13.989  0.3890E-02  0.4732E+00
     14.105  0.3184E-02  0.4736E+00
     14.221  0.2809E-02  0.4739E+00
     14.337  0.8754E-02  0.4749E+00
     14.453  0.6291E-02  0.4756E+00
     14.569  0.1234E-02  0.4758E+00
     14.686  0.2155E-02  0.4760E+00
     14.802  0.4927E-02  0.4766E+00
     14.918  0.3955E-02  0.4771E+00
     15.034  0.4350E-02  0.4776E+00
     15.150  0.3361E-02  0.4780E+00
     15.266  0.2114E-02  0.4782E+00
     15.382  0.2395E-02  0.4785E+00
     15.498  0.2433E-02  0.4788E+00
     15.614  0.4278E-03  0.4788E+00
     15.731  0.1697E-02  0.4790E+00
     15.847  0.3816E-03  0.4790E+00
     15.963  0.2406E-02  0.4793E+00
     16.079  0.7033E-03  0.4794E+00
     16.195  0.2227E-02  0.4797E+00
     16.311  0.3017E-04  0.4797E+00
     16.427  0.1109E-03  0.4797E+00
     16.543  0.8172E-03  0.4798E+00
     16.659  0.1707E-04  0.4798E+00
     16.775  0.1379E-07  0.4798E+00
     16.892  0.2681E-03  0.4798E+00
     17.008  0.1595E-02  0.4800E+00
     17.124  0.2693E-04  0.4800E+00
     17.240  0.4635E-10  0.4800E+00
     17.356  0.0000E+00  0.4800E+00
     17.472  0.0000E+00  0.4800E+00
     17.588  0.0000E+00  0.4800E+00
     17.704  0.0000E+00  0.4800E+00
     17.820  0.0000E+00  0.4800E+00
     17.937  0.0000E+00  0.4800E+00
     18.053  0.0000E+00  0.4800E+00
     18.169  0.0000E+00  0.4800E+00
     18.285  0.0000E+00  0.4800E+00
     18.401  0.0000E+00  0.4800E+00
     18.517  0.0000E+00  0.4800E+00
