   1   1   0   0
  0.1572813E+03  0.2130000E-09  0.2131204E-09  0.4000000E-08  0.5000000E-15
  1.000000000000000E-004
  CAR 
 Convergence                             
     35.58497279    -12.87217745  301     -4.26278880      1.00000000
    -12.872  0.0000E+00  0.0000E+00
    -12.711  0.0000E+00  0.0000E+00
    -12.549  0.0000E+00  0.0000E+00
    -12.388  0.0000E+00  0.0000E+00
    -12.226  0.0000E+00  0.0000E+00
    -12.065  0.0000E+00  0.0000E+00
    -11.903  0.0000E+00  0.0000E+00
    -11.742  0.0000E+00  0.0000E+00
    -11.580  0.0000E+00  0.0000E+00
    -11.418  0.0000E+00  0.0000E+00
    -11.257  0.0000E+00  0.0000E+00
    -11.095  0.0000E+00  0.0000E+00
    -10.934  0.4678E-15  0.7557E-16
    -10.772  0.2846E-04  0.4598E-05
    -10.611  0.8628E-01  0.1394E-01
    -10.449  0.2417E+00  0.5297E-01
    -10.288  0.2401E+00  0.9176E-01
    -10.126  0.2100E+00  0.1257E+00
     -9.965  0.2598E+00  0.1676E+00
     -9.803  0.2674E+00  0.2108E+00
     -9.642  0.1736E+00  0.2389E+00
     -9.480  0.3273E+00  0.2917E+00
     -9.319  0.1667E+00  0.3187E+00
     -9.157  0.3266E+00  0.3714E+00
     -8.996  0.1807E+00  0.4006E+00
     -8.834  0.2570E+00  0.4421E+00
     -8.673  0.2983E+00  0.4903E+00
     -8.511  0.1506E+00  0.5146E+00
     -8.350  0.3384E+00  0.5693E+00
     -8.188  0.2394E+00  0.6080E+00
     -8.026  0.1582E+00  0.6335E+00
     -7.865  0.3548E+00  0.6908E+00
     -7.703  0.2276E+00  0.7276E+00
     -7.542  0.1289E+00  0.7484E+00
     -7.380  0.4466E+00  0.8206E+00
     -7.219  0.2063E+00  0.8539E+00
     -7.057  0.1692E+00  0.8812E+00
     -6.896  0.4128E+00  0.9479E+00
     -6.734  0.2359E+00  0.9860E+00
     -6.573  0.2033E+00  0.1019E+01
     -6.411  0.2192E+00  0.1054E+01
     -6.250  0.4798E+00  0.1132E+01
     -6.088  0.2293E+00  0.1169E+01
     -5.927  0.1730E+00  0.1197E+01
     -5.765  0.4435E+00  0.1268E+01
     -5.604  0.3780E+00  0.1329E+01
     -5.442  0.3793E+00  0.1391E+01
     -5.281  0.3259E+00  0.1443E+01
     -5.119  0.1065E+01  0.1615E+01
     -4.958  0.5538E+00  0.1705E+01
     -4.796  0.2777E+00  0.1750E+01
     -4.634  0.5437E+00  0.1838E+01
     -4.473  0.5710E+00  0.1930E+01
     -4.311  0.3683E+00  0.1989E+01
     -4.150  0.2286E+00  0.2026E+01
     -3.988  0.3381E+00  0.2081E+01
     -3.827  0.5052E+00  0.2162E+01
     -3.665  0.1819E+00  0.2192E+01
     -3.504  0.2918E+00  0.2239E+01
     -3.342  0.3135E+00  0.2290E+01
     -3.181  0.2204E+00  0.2325E+01
     -3.019  0.2862E+00  0.2371E+01
     -2.858  0.2919E+00  0.2418E+01
     -2.696  0.1846E+00  0.2448E+01
     -2.535  0.1600E+00  0.2474E+01
     -2.373  0.3271E+00  0.2527E+01
     -2.212  0.2143E+00  0.2562E+01
     -2.050  0.1451E+00  0.2585E+01
     -1.889  0.1624E+00  0.2611E+01
     -1.727  0.2135E+00  0.2646E+01
     -1.566  0.2262E+00  0.2682E+01
     -1.404  0.1561E+00  0.2707E+01
     -1.242  0.1443E+00  0.2731E+01
     -1.081  0.1293E+00  0.2752E+01
     -0.919  0.3128E+00  0.2802E+01
     -0.758  0.1981E+00  0.2834E+01
     -0.596  0.1864E+00  0.2864E+01
     -0.435  0.1570E+00  0.2890E+01
     -0.273  0.2904E+00  0.2937E+01
     -0.112  0.3557E+00  0.2994E+01
      0.050  0.5171E+00  0.3078E+01
      0.211  0.3448E+00  0.3133E+01
      0.373  0.4943E+00  0.3213E+01
      0.534  0.5472E+00  0.3301E+01
      0.696  0.8441E+00  0.3438E+01
      0.857  0.6568E+00  0.3544E+01
      1.019  0.1710E+01  0.3820E+01
      1.180  0.1078E+01  0.3994E+01
      1.342  0.1569E+01  0.4248E+01
      1.503  0.1723E+01  0.4526E+01
      1.665  0.1730E+01  0.4805E+01
      1.826  0.1660E+01  0.5073E+01
      1.988  0.1875E+01  0.5376E+01
      2.150  0.1388E+01  0.5600E+01
      2.311  0.1940E+01  0.5914E+01
      2.473  0.1974E+01  0.6233E+01
      2.634  0.1910E+01  0.6541E+01
      2.796  0.1876E+01  0.6844E+01
      2.957  0.2071E+01  0.7179E+01
      3.119  0.2122E+01  0.7522E+01
      3.280  0.1989E+01  0.7843E+01
      3.442  0.2178E+01  0.8195E+01
      3.603  0.2742E+01  0.8638E+01
      3.765  0.2294E+01  0.9008E+01
      3.926  0.2218E+01  0.9366E+01
      4.088  0.2406E+01  0.9755E+01
      4.249  0.2789E+01  0.1021E+02
      4.411  0.2389E+01  0.1059E+02
      4.572  0.1975E+01  0.1091E+02
      4.734  0.2444E+01  0.1131E+02
      4.895  0.2450E+01  0.1170E+02
      5.057  0.1834E+01  0.1200E+02
      5.218  0.2328E+01  0.1237E+02
      5.380  0.2180E+01  0.1273E+02
      5.542  0.2439E+01  0.1312E+02
      5.703  0.2663E+01  0.1355E+02
      5.865  0.2467E+01  0.1395E+02
      6.026  0.2933E+01  0.1442E+02
      6.188  0.3120E+01  0.1493E+02
      6.349  0.2724E+01  0.1537E+02
      6.511  0.2566E+01  0.1578E+02
      6.672  0.2785E+01  0.1623E+02
      6.834  0.3258E+01  0.1676E+02
      6.995  0.3137E+01  0.1726E+02
      7.157  0.3261E+01  0.1779E+02
      7.318  0.2801E+01  0.1824E+02
      7.480  0.2932E+01  0.1872E+02
      7.641  0.3686E+01  0.1931E+02
      7.803  0.3366E+01  0.1985E+02
      7.964  0.2614E+01  0.2028E+02
      8.126  0.3259E+01  0.2080E+02
      8.287  0.3187E+01  0.2132E+02
      8.449  0.3398E+01  0.2187E+02
      8.610  0.2989E+01  0.2235E+02
      8.772  0.3887E+01  0.2298E+02
      8.934  0.2743E+01  0.2342E+02
      9.095  0.3130E+01  0.2393E+02
      9.257  0.3217E+01  0.2445E+02
      9.418  0.4195E+01  0.2512E+02
      9.580  0.4048E+01  0.2578E+02
      9.741  0.3334E+01  0.2632E+02
      9.903  0.2711E+01  0.2675E+02
     10.064  0.3835E+01  0.2737E+02
     10.226  0.3190E+01  0.2789E+02
     10.387  0.3604E+01  0.2847E+02
     10.549  0.4533E+01  0.2920E+02
     10.710  0.3301E+01  0.2974E+02
     10.872  0.3613E+01  0.3032E+02
     11.033  0.3560E+01  0.3089E+02
     11.195  0.3975E+01  0.3154E+02
     11.356  0.3568E+01  0.3211E+02
     11.518  0.3575E+01  0.3269E+02
     11.679  0.4851E+01  0.3347E+02
     11.841  0.3825E+01  0.3409E+02
     12.002  0.4717E+01  0.3485E+02
     12.164  0.3465E+01  0.3541E+02
     12.326  0.3578E+01  0.3599E+02
     12.487  0.3936E+01  0.3663E+02
     12.649  0.4269E+01  0.3732E+02
     12.810  0.4205E+01  0.3800E+02
     12.972  0.3477E+01  0.3856E+02
     13.133  0.4323E+01  0.3926E+02
     13.295  0.4323E+01  0.3995E+02
     13.456  0.4477E+01  0.4068E+02
     13.618  0.3458E+01  0.4124E+02
     13.779  0.4661E+01  0.4199E+02
     13.941  0.4870E+01  0.4277E+02
     14.102  0.4021E+01  0.4342E+02
     14.264  0.3401E+01  0.4397E+02
     14.425  0.3913E+01  0.4461E+02
     14.587  0.4271E+01  0.4530E+02
     14.748  0.4797E+01  0.4607E+02
     14.910  0.3303E+01  0.4660E+02
     15.071  0.4430E+01  0.4732E+02
     15.233  0.4261E+01  0.4801E+02
     15.394  0.5004E+01  0.4882E+02
     15.556  0.4991E+01  0.4962E+02
     15.718  0.3934E+01  0.5026E+02
     15.879  0.3562E+01  0.5083E+02
     16.041  0.4908E+01  0.5163E+02
     16.202  0.4278E+01  0.5232E+02
     16.364  0.4149E+01  0.5299E+02
     16.525  0.5244E+01  0.5383E+02
     16.687  0.4184E+01  0.5451E+02
     16.848  0.4026E+01  0.5516E+02
     17.010  0.4169E+01  0.5583E+02
     17.171  0.4253E+01  0.5652E+02
     17.333  0.5474E+01  0.5740E+02
     17.494  0.3891E+01  0.5803E+02
     17.656  0.4584E+01  0.5877E+02
     17.817  0.5158E+01  0.5961E+02
     17.979  0.4271E+01  0.6030E+02
     18.140  0.5140E+01  0.6113E+02
     18.302  0.4273E+01  0.6182E+02
     18.463  0.3839E+01  0.6244E+02
     18.625  0.4832E+01  0.6322E+02
     18.786  0.5536E+01  0.6411E+02
     18.948  0.3998E+01  0.6476E+02
     19.110  0.4075E+01  0.6542E+02
     19.271  0.4380E+01  0.6612E+02
     19.433  0.5026E+01  0.6693E+02
     19.594  0.4686E+01  0.6769E+02
     19.756  0.4674E+01  0.6845E+02
     19.917  0.4057E+01  0.6910E+02
     20.079  0.2751E+01  0.6955E+02
     20.240  0.3684E+01  0.7014E+02
     20.402  0.3563E+01  0.7072E+02
     20.563  0.4104E+01  0.7138E+02
     20.725  0.3714E+01  0.7198E+02
     20.886  0.2941E+01  0.7245E+02
     21.048  0.3337E+01  0.7299E+02
     21.209  0.3288E+01  0.7352E+02
     21.371  0.3264E+01  0.7405E+02
     21.532  0.2752E+01  0.7450E+02
     21.694  0.2251E+01  0.7486E+02
     21.855  0.2276E+01  0.7523E+02
     22.017  0.1802E+01  0.7552E+02
     22.178  0.1743E+01  0.7580E+02
     22.340  0.2176E+01  0.7615E+02
     22.502  0.1410E+01  0.7638E+02
     22.663  0.1594E+01  0.7664E+02
     22.825  0.1861E+01  0.7694E+02
     22.986  0.1519E+01  0.7718E+02
     23.148  0.1977E+01  0.7750E+02
     23.309  0.1801E+01  0.7779E+02
     23.471  0.1737E+01  0.7807E+02
     23.632  0.1164E+01  0.7826E+02
     23.794  0.1679E+01  0.7853E+02
     23.955  0.2117E+01  0.7888E+02
     24.117  0.8357E+00  0.7901E+02
     24.278  0.1392E+01  0.7923E+02
     24.440  0.1398E+01  0.7946E+02
     24.601  0.1251E+01  0.7966E+02
     24.763  0.1346E+01  0.7988E+02
     24.924  0.8716E+00  0.8002E+02
     25.086  0.1272E+01  0.8023E+02
     25.247  0.2125E+01  0.8057E+02
     25.409  0.1079E+01  0.8074E+02
     25.570  0.1116E+01  0.8092E+02
     25.732  0.9539E+00  0.8108E+02
     25.894  0.9022E+00  0.8122E+02
     26.055  0.6484E+00  0.8133E+02
     26.217  0.9260E+00  0.8148E+02
     26.378  0.1084E+01  0.8165E+02
     26.540  0.1026E+01  0.8182E+02
     26.701  0.3935E+00  0.8188E+02
     26.863  0.7391E+00  0.8200E+02
     27.024  0.5768E+00  0.8210E+02
     27.186  0.4495E+00  0.8217E+02
     27.347  0.5638E+00  0.8226E+02
     27.509  0.4056E+00  0.8232E+02
     27.670  0.1077E+01  0.8250E+02
     27.832  0.6103E+00  0.8260E+02
     27.993  0.5835E+00  0.8269E+02
     28.155  0.5978E+00  0.8279E+02
     28.316  0.3661E+00  0.8285E+02
     28.478  0.5528E+00  0.8294E+02
     28.639  0.5630E+00  0.8303E+02
     28.801  0.2744E+00  0.8307E+02
     28.962  0.1056E+00  0.8309E+02
     29.124  0.7436E-01  0.8310E+02
     29.286  0.4606E+00  0.8317E+02
     29.447  0.3336E+00  0.8323E+02
     29.609  0.2821E+00  0.8327E+02
     29.770  0.4248E+00  0.8334E+02
     29.932  0.2496E+00  0.8338E+02
     30.093  0.3183E+00  0.8343E+02
     30.255  0.5069E+00  0.8352E+02
     30.416  0.4008E+00  0.8358E+02
     30.578  0.3101E+00  0.8363E+02
     30.739  0.4152E+00  0.8370E+02
     30.901  0.1382E+00  0.8372E+02
     31.062  0.8898E-01  0.8374E+02
     31.224  0.2044E+00  0.8377E+02
     31.385  0.1418E+00  0.8379E+02
     31.547  0.5675E-01  0.8380E+02
     31.708  0.1229E+00  0.8382E+02
     31.870  0.2367E+00  0.8386E+02
     32.031  0.8829E-01  0.8387E+02
     32.193  0.3152E+00  0.8392E+02
     32.354  0.1095E+00  0.8394E+02
     32.516  0.7431E-01  0.8395E+02
     32.678  0.1292E-02  0.8395E+02
     32.839  0.1415E+00  0.8398E+02
     33.001  0.1379E-01  0.8398E+02
     33.162  0.6112E-01  0.8399E+02
     33.324  0.7567E-02  0.8399E+02
     33.485  0.6494E-01  0.8400E+02
     33.647  0.5757E-04  0.8400E+02
     33.808  0.0000E+00  0.8400E+02
     33.970  0.0000E+00  0.8400E+02
     34.131  0.0000E+00  0.8400E+02
     34.293  0.0000E+00  0.8400E+02
     34.454  0.0000E+00  0.8400E+02
     34.616  0.0000E+00  0.8400E+02
     34.777  0.0000E+00  0.8400E+02
     34.939  0.0000E+00  0.8400E+02
     35.100  0.0000E+00  0.8400E+02
     35.262  0.0000E+00  0.8400E+02
     35.423  0.0000E+00  0.8400E+02
     35.585  0.0000E+00  0.8400E+02
