       N       E                     dE             d eps       ncg     rms          rms(c)
DAV:   1     0.406669194882E+01    0.40667E+01   -0.10844E+03  5460   0.575E+01
DAV:   2    -0.323855942716E+01   -0.73053E+01   -0.69184E+01  7770   0.657E+00
DAV:   3    -0.330928784571E+01   -0.70728E-01   -0.70632E-01  6594   0.882E-01
DAV:   4    -0.330955431888E+01   -0.26647E-03   -0.26647E-03  9828   0.585E-02
DAV:   5    -0.330955439256E+01   -0.73682E-07   -0.73683E-07  6594   0.735E-04    0.181E+00
DAV:   6    -0.320196135727E+01    0.10759E+00   -0.39199E-02  8526   0.132E-01    0.105E+00
DAV:   7    -0.313309255703E+01    0.68869E-01   -0.82087E-02  8904   0.181E-01    0.140E-01
DAV:   8    -0.313369859590E+01   -0.60604E-03   -0.11686E-03  8022   0.442E-02    0.770E-02
DAV:   9    -0.313202818026E+01    0.16704E-02   -0.12334E-03  9030   0.219E-02    0.301E-02
DAV:  10    -0.313319451328E+01   -0.11663E-02   -0.10484E-03  7938   0.228E-02    0.171E-02
DAV:  11    -0.313355180841E+01   -0.35730E-03   -0.10834E-04  8064   0.947E-03    0.846E-03
DAV:  12    -0.313410616146E+01   -0.55435E-03   -0.46228E-05  7686   0.486E-03    0.366E-03
DAV:  13    -0.313434929374E+01   -0.24313E-03   -0.23643E-05  7770   0.216E-03    0.154E-03
DAV:  14    -0.313439714742E+01   -0.47854E-04   -0.29241E-06  8190   0.822E-04    0.106E-03
DAV:  15    -0.313446772038E+01   -0.70573E-04   -0.12676E-05  8148   0.985E-04    0.513E-04
DAV:  16    -0.313448260454E+01   -0.14884E-04   -0.18432E-06  8400   0.451E-04    0.448E-04
DAV:  17    -0.313448528813E+01   -0.26836E-05   -0.88110E-08  7266   0.177E-04    0.125E-04
DAV:  18    -0.313448747540E+01   -0.21873E-05   -0.47366E-08  7980   0.913E-05    0.716E-05
DAV:  19    -0.313448779064E+01   -0.31524E-06    0.39489E-09  8568   0.302E-05
   1 F= -.31344878E+01 E0= -.31333077E+01  d E =-.236010E-02
