    2    2    1    1
  0.4065720E+02  0.2166723E-09  0.2166723E-09  0.2000000E-08  0.5000000E-15
  1.000000000000000E-004
  CAR 
 HSE06 check                             
      4     19     16
 
  0.1276756E-14  0.1276756E-14  0.1276756E-14  0.6944444E-02
      1        -13.302294   1.000000
      2         -8.578899   1.000000
      3         -5.108181   1.000000
      4          1.254895   0.000000
      5          1.909489   0.000000
      6          2.776157   0.000000
      7          3.039288   0.000000
      8          4.922146   0.000000
      9          5.020750   0.000000
     10          7.829300   0.000000
     11          8.037407   0.000000
     12         11.397237   0.000000
     13         12.061828   0.000000
     14         15.805424   0.000000
     15         16.921272   0.000000
     16         19.228858   0.000000
 
  0.8333333E-01  0.1276756E-14  0.1276756E-14  0.4166667E-01
      1        -13.055137   1.000000
      2         -8.333891   1.000000
      3         -4.754892   1.000000
      4          1.520642   0.000000
      5          2.204663   0.000000
      6          3.070813   0.000000
      7          3.317209   0.000000
      8          5.212590   0.000000
      9          5.288247   0.000000
     10          8.097301   0.000000
     11          8.319278   0.000000
     12         11.670727   0.000000
     13         12.322512   0.000000
     14         16.076105   0.000000
     15         17.182337   0.000000
     16         18.165983   0.000000
 
  0.1666667E+00  0.1276756E-14  0.1276756E-14  0.4166667E-01
      1        -12.314618   1.000000
      2         -7.613632   1.000000
      3         -3.716815   1.000000
      4          2.304799   0.000000
      5          3.089032   0.000000
      6          3.953466   0.000000
      7          4.146293   0.000000
      8          6.075665   0.000000
      9          6.087343   0.000000
     10          8.887935   0.000000
     11          9.149203   0.000000
     12         12.464081   0.000000
     13         12.923438   0.000000
     14         14.177625   0.000000
     15         16.325339   0.000000
     16         16.798102   0.000000
 
  0.2500000E+00  0.1249001E-14  0.1276756E-14  0.4166667E-01
      1        -11.086196   1.000000
      2         -6.472850   1.000000
      3         -2.067538   0.000000
      4          3.518745   0.000000
      5          4.555488   0.000000
      6          5.410664   0.000000
      7          5.489577   0.000000
      8          7.294564   0.000000
      9          7.496906   0.000000
     10          9.543068   0.000000
     11         10.262756   0.000000
     12         10.990592   0.000000
     13         13.087776   0.000000
     14         13.987863   0.000000
     15         14.624946   0.000000
     16         14.946048   0.000000
 
  0.3333333E+00  0.1304512E-14  0.1276756E-14  0.4166667E-01
      1         -9.393779   1.000000
      2         -5.070898   1.000000
      3          0.093554   0.000000
      4          4.178193   0.000000
      5          6.280431   0.000000
      6          6.746904   0.000000
      7          7.389490   0.000000
      8          7.743357   0.000000
      9          8.819971   0.000000
     10          9.723389   0.000000
     11         10.265330   0.000000
     12         12.216577   0.000000
     13         12.760323   0.000000
     14         13.328659   0.000000
     15         14.543913   0.000000
     16         16.305969   0.000000
 
  0.4166667E+00  0.1304512E-14  0.1276756E-14  0.4166667E-01
      1         -7.346593   1.000000
      2         -4.034651   1.000000
      3          2.055294   0.000000
      4          3.193624   0.000000
      5          5.323431   0.000000
      6          8.639822   0.000000
      7          9.288952   0.000000
      8          9.754271   0.000000
      9         10.180829   0.000000
     10         10.723515   0.000000
     11         12.234398   0.000000
     12         12.528578   0.000000
     13         12.569382   0.000000
     14         14.915454   0.000000
     15         15.186920   0.000000
     16         15.560803   0.000000
 
  0.5000000E+00  0.1276756E-14  0.1276756E-14  0.2083333E-01
      1         -5.769032   1.000000
      2         -4.369445   1.000000
      3          2.079119   0.000000
      4          3.689451   0.000000
      5          5.324065   0.000000
      6          7.085572   0.000000
      7         11.400473   0.000000
      8         11.817192   0.000000
      9         12.258958   0.000000
     10         12.560230   0.000000
     11         12.577480   0.000000
     12         13.302737   0.000000
     13         13.323513   0.000000
     14         13.659064   0.000000
     15         13.764445   0.000000
     16         15.307209   0.000000
 
  0.8333333E-01  0.8333333E-01  0.1276756E-14  0.4166667E-01
      1        -12.561039   1.000000
      2         -7.850481   1.000000
      3         -4.058671   1.000000
      4          2.046954   0.000000
      5          2.794513   0.000000
      6          3.659587   0.000000
      7          3.871563   0.000000
      8          5.791849   0.000000
      9          5.821293   0.000000
     10          8.629965   0.000000
     11          8.877493   0.000000
     12         12.211408   0.000000
     13         12.809058   0.000000
     14         15.639447   0.000000
     15         15.918469   0.000000
     16         16.626850   0.000000
 
  0.1666667E+00  0.8333333E-01  0.1276756E-14  0.8333333E-01
      1        -11.574233   1.000000
      2         -6.912559   1.000000
      3         -2.714860   0.069926
      4          3.067390   0.000000
      5          3.971282   0.000000
      6          4.833643   0.000000
      7          4.969141   0.000000
      8          6.866041   0.000000
      9          6.939868   0.000000
     10          9.648429   0.000000
     11          9.924389   0.000000
     12         11.853572   0.000000
     13         13.251341   0.000000
     14         13.726993   0.000000
     15         13.918456   0.000000
     16         15.801392   0.000000
 
  0.2500000E+00  0.8333333E-01  0.1276756E-14  0.8333333E-01
      1        -10.103521   1.000000
      2         -5.601487   1.000000
      3         -0.810131   0.000000
      4          4.334965   0.000000
      5          5.708188   0.000000
      6          6.412223   0.000000
      7          6.594940   0.000000
      8          7.679575   0.000000
      9          8.523401   0.000000
     10          9.041880   0.000000
     11         10.595047   0.000000
     12         11.424247   0.000000
     13         11.811164   0.000000
     14         13.417855   0.000000
     15         14.717996   0.000000
     16         15.451662   0.000000
 
  0.3333333E+00  0.8333333E-01  0.1276756E-14  0.8333333E-01
      1         -8.194145   1.000000
      2         -4.208752   1.000000
      3          1.510862   0.000000
      4          3.522609   0.000000
      5          6.381195   0.000000
      6          7.824708   0.000000
      7          8.145758   0.000000
      8          8.986796   0.000000
      9          9.131409   0.000000
     10         10.631718   0.000000
     11         11.071255   0.000000
     12         11.843914   0.000000
     13         12.581303   0.000000
     14         13.907454   0.000000
     15         14.609961   0.000000
     16         15.036293   0.000000
 
  0.4166667E+00  0.8333333E-01  0.1276756E-14  0.8333333E-01
      1         -6.097733   1.000000
      2         -3.851283   1.000000
      3          2.008539   0.000000
      4          4.149395   0.000000
      5          4.598720   0.000000
      6          8.226353   0.000000
      7          9.894949   0.000000
      8         11.035512   0.000000
      9         11.165475   0.000000
     10         11.890443   0.000000
     11         12.250957   0.000000
     12         13.538882   0.000000
     13         13.751248   0.000000
     14         14.157987   0.000000
     15         14.536349   0.000000
     16         14.838265   0.000000
 
  0.1666667E+00  0.1666667E+00  0.1276756E-14  0.4166667E-01
      1        -10.338283   1.000000
      2         -5.779894   1.000000
      3         -1.117206   0.000000
      4          4.276918   0.000000
      5          5.432523   0.000000
      6          6.289129   0.000000
      7          6.325100   0.000000
      8          8.148775   0.000000
      9          8.249835   0.000000
     10          9.182240   0.000000
     11         10.356242   0.000000
     12         11.018560   0.000000
     13         11.382936   0.000000
     14         13.826029   0.000000
     15         14.182123   0.000000
     16         14.944409   0.000000
 
  0.2500000E+00  0.1666667E+00  0.1276756E-14  0.8333333E-01
      1         -8.615895   1.000000
      2         -4.321665   1.000000
      3          0.990654   0.000000
      4          4.915369   0.000000
      5          6.384012   0.000000
      6          7.514472   0.000000
      7          7.621746   0.000000
      8          8.242537   0.000000
      9          8.408949   0.000000
     10          9.908241   0.000000
     11         10.367639   0.000000
     12         11.865751   0.000000
     13         12.547268   0.000000
     14         13.345084   0.000000
     15         14.006637   0.000000
     16         15.422598   0.000000
 
  0.3333333E+00  0.1666667E+00  0.1276756E-14  0.8333333E-01
      1         -6.486949   1.000000
      2         -3.081162   1.000000
      3          2.225682   0.000000
      4          3.887668   0.000000
      5          4.865648   0.000000
      6          7.689240   0.000000
      7         10.058666   0.000000
      8         10.298461   0.000000
      9         10.525707   0.000000
     10         10.952116   0.000000
     11         11.598172   0.000000
     12         12.163908   0.000000
     13         13.203073   0.000000
     14         13.842523   0.000000
     15         15.618782   0.000000
     16         16.061305   0.000000
 
  0.4166667E+00  0.1666667E+00  0.1276756E-14  0.4166667E-01
      1         -4.751287   1.000000
      2         -3.408116   1.000000
      3          2.180757   0.000000
      4          2.872665   0.000000
      5          6.137537   0.000000
      6          7.797618   0.000000
      7          8.472118   0.000000
      8         11.167931   0.000000
      9         12.661632   0.000000
     10         12.923268   0.000000
     11         13.511189   0.000000
     12         13.523498   0.000000
     13         14.126908   0.000000
     14         14.204793   0.000000
     15         14.659461   0.000000
     16         14.855986   0.000000
 
  0.2500000E+00  0.2500000E+00  0.1276756E-14  0.4166667E-01
      1         -6.628268   1.000000
      2         -2.756210   0.360148
      3          2.577674   0.000000
      4          3.844015   0.000000
      5          4.634191   0.000000
      6          7.241909   0.000000
      7          9.649485   0.000000
      8         10.186030   0.000000
      9         10.313087   0.000000
     10         10.961454   0.000000
     11         11.574262   0.000000
     12         12.119281   0.000000
     13         12.895068   0.000000
     14         13.974380   0.000000
     15         15.312169   0.000000
     16         16.418427   0.000000
 
  0.3333333E+00  0.2500000E+00  0.1276756E-14  0.8333333E-01
      1         -4.286755   1.000000
      2         -1.907110   0.000000
      3          0.952623   0.000000
      4          2.643010   0.000000
      5          6.215102   0.000000
      6          7.703686   0.000000
      7          9.416941   0.000000
      8          9.783503   0.000000
      9         12.510956   0.000000
     10         12.681170   0.000000
     11         13.448531   0.000000
     12         13.966216   0.000000
     13         14.330647   0.000000
     14         15.442651   0.000000
     15         16.036842   0.000000
     16         16.191167   0.000000
 
  0.3333333E+00  0.3333333E+00  0.1276756E-14  0.1388889E-01
      1         -2.103845   0.000000
      2         -1.227721   0.000000
      3         -1.227721   0.000000
      4          1.901243   0.000000
      5          8.116737   0.000000
      6          8.116737   0.000000
      7          8.697859   0.000000
      8          8.697859   0.000000
      9         12.021050   0.000000
     10         14.861657   0.000000
     11         15.266874   0.000000
     12         15.266876   0.000000
     13         16.151592   0.000000
     14         16.151592   0.000000
     15         16.260885   0.000000
     16         16.792255   0.000000
