   3   3   0   0
  0.8374985E+02  0.2506240E-09  0.2506240E-09  0.4000000E-08  0.5000000E-15
  1.000000000000000E-004
  CAR 
 Convergence                             
     21.17537571    -14.08778473  301     -2.21449321      1.00000000
    -14.088  0.0000E+00  0.0000E+00
    -13.970  0.0000E+00  0.0000E+00
    -13.853  0.0000E+00  0.0000E+00
    -13.735  0.0000E+00  0.0000E+00
    -13.618  0.0000E+00  0.0000E+00
    -13.500  0.0000E+00  0.0000E+00
    -13.383  0.0000E+00  0.0000E+00
    -13.265  0.0000E+00  0.0000E+00
    -13.147  0.0000E+00  0.0000E+00
    -13.030  0.0000E+00  0.0000E+00
    -12.912  0.0000E+00  0.0000E+00
    -12.795  0.0000E+00  0.0000E+00
    -12.677  0.1767E-08  0.2078E-09
    -12.560  0.1149E-02  0.1351E-03
    -12.442  0.1212E+00  0.1438E-01
    -12.325  0.4077E+00  0.6230E-01
    -12.207  0.2330E+00  0.8968E-01
    -12.090  0.5981E+00  0.1600E+00
    -11.972  0.7925E-01  0.1693E+00
    -11.854  0.4311E+00  0.2200E+00
    -11.737  0.5693E+00  0.2869E+00
    -11.619  0.1510E+00  0.3046E+00
    -11.502  0.3973E+00  0.3513E+00
    -11.384  0.1779E+00  0.3722E+00
    -11.267  0.6838E+00  0.4526E+00
    -11.149  0.2986E+00  0.4877E+00
    -11.032  0.4325E+00  0.5386E+00
    -10.914  0.4314E-02  0.5391E+00
    -10.797  0.2217E+00  0.5651E+00
    -10.679  0.9989E+00  0.6825E+00
    -10.561  0.1343E+00  0.6983E+00
    -10.444  0.4804E+00  0.7548E+00
    -10.326  0.7700E-01  0.7639E+00
    -10.209  0.2581E+00  0.7942E+00
    -10.091  0.4875E+00  0.8515E+00
     -9.974  0.4589E+00  0.9054E+00
     -9.856  0.3400E+00  0.9454E+00
     -9.739  0.4048E+00  0.9930E+00
     -9.621  0.6379E+00  0.1068E+01
     -9.504  0.2350E-01  0.1071E+01
     -9.386  0.4230E+00  0.1120E+01
     -9.268  0.1063E+00  0.1133E+01
     -9.151  0.2565E+00  0.1163E+01
     -9.033  0.7693E+00  0.1254E+01
     -8.916  0.6182E+00  0.1326E+01
     -8.798  0.5342E+00  0.1389E+01
     -8.681  0.3664E+00  0.1432E+01
     -8.563  0.4611E+00  0.1486E+01
     -8.446  0.1033E+01  0.1608E+01
     -8.328  0.7882E+00  0.1700E+01
     -8.211  0.5580E+00  0.1766E+01
     -8.093  0.1043E+01  0.1889E+01
     -7.976  0.4273E+00  0.1939E+01
     -7.858  0.5613E+00  0.2005E+01
     -7.740  0.3055E+00  0.2041E+01
     -7.623  0.9546E+00  0.2153E+01
     -7.505  0.9685E+00  0.2267E+01
     -7.388  0.9970E+00  0.2384E+01
     -7.270  0.3216E+00  0.2422E+01
     -7.153  0.1595E+00  0.2440E+01
     -7.035  0.1245E+01  0.2587E+01
     -6.918  0.2192E+00  0.2613E+01
     -6.800  0.1439E+01  0.2782E+01
     -6.683  0.9011E+00  0.2888E+01
     -6.565  0.6246E+00  0.2961E+01
     -6.447  0.9328E+00  0.3071E+01
     -6.330  0.6698E+00  0.3150E+01
     -6.212  0.8076E+00  0.3244E+01
     -6.095  0.9147E+00  0.3352E+01
     -5.977  0.2214E+00  0.3378E+01
     -5.860  0.1104E+01  0.3508E+01
     -5.742  0.1332E+01  0.3664E+01
     -5.625  0.5411E+00  0.3728E+01
     -5.507  0.1445E+01  0.3898E+01
     -5.390  0.1225E+01  0.4042E+01
     -5.272  0.7518E+00  0.4130E+01
     -5.154  0.1107E+01  0.4260E+01
     -5.037  0.1672E+01  0.4457E+01
     -4.919  0.3101E+00  0.4493E+01
     -4.802  0.5764E+00  0.4561E+01
     -4.684  0.9825E+00  0.4676E+01
     -4.567  0.1250E+01  0.4823E+01
     -4.449  0.2200E+01  0.5082E+01
     -4.332  0.3706E+00  0.5126E+01
     -4.214  0.1212E+01  0.5268E+01
     -4.097  0.8397E+00  0.5367E+01
     -3.979  0.6765E-01  0.5375E+01
     -3.861  0.1195E+01  0.5515E+01
     -3.744  0.8823E+00  0.5619E+01
     -3.626  0.2739E+00  0.5651E+01
     -3.509  0.6363E+00  0.5726E+01
     -3.391  0.6077E+00  0.5797E+01
     -3.274  0.6350E-01  0.5805E+01
     -3.156  0.7902E-05  0.5805E+01
     -3.039  0.5543E-01  0.5811E+01
     -2.921  0.6036E+00  0.5882E+01
     -2.804  0.1385E+00  0.5898E+01
     -2.686  0.1003E-03  0.5898E+01
     -2.568  0.6829E-02  0.5899E+01
     -2.451  0.4200E+00  0.5949E+01
     -2.333  0.1065E+00  0.5961E+01
     -2.216  0.3201E+00  0.5999E+01
     -2.098  0.1679E+01  0.6196E+01
     -1.981  0.1368E+01  0.6357E+01
     -1.863  0.1270E+01  0.6506E+01
     -1.746  0.1406E+01  0.6671E+01
     -1.628  0.2494E+01  0.6965E+01
     -1.511  0.1755E+01  0.7171E+01
     -1.393  0.9117E+00  0.7278E+01
     -1.276  0.9561E+00  0.7390E+01
     -1.158  0.2058E+01  0.7632E+01
     -1.040  0.1141E+01  0.7766E+01
     -0.923  0.2810E+01  0.8097E+01
     -0.805  0.1497E+01  0.8273E+01
     -0.688  0.1631E+01  0.8464E+01
     -0.570  0.1452E+01  0.8635E+01
     -0.453  0.1673E+01  0.8832E+01
     -0.335  0.1432E+01  0.9000E+01
     -0.218  0.2801E+01  0.9329E+01
     -0.100  0.1004E+01  0.9447E+01
      0.017  0.8217E+00  0.9544E+01
      0.135  0.1152E+00  0.9557E+01
      0.253  0.7493E+00  0.9645E+01
      0.370  0.2902E+00  0.9679E+01
      0.488  0.8318E-02  0.9680E+01
      0.605  0.2928E+00  0.9715E+01
      0.723  0.7406E+00  0.9802E+01
      0.840  0.2910E+00  0.9836E+01
      0.958  0.7202E+00  0.9921E+01
      1.075  0.7844E+00  0.1001E+02
      1.193  0.7011E+00  0.1010E+02
      1.310  0.7179E+00  0.1018E+02
      1.428  0.9177E+00  0.1029E+02
      1.546  0.1969E+01  0.1052E+02
      1.663  0.2344E+01  0.1079E+02
      1.781  0.3633E+01  0.1122E+02
      1.898  0.3290E+01  0.1161E+02
      2.016  0.3080E+01  0.1197E+02
      2.133  0.2040E+01  0.1221E+02
      2.251  0.2386E+01  0.1249E+02
      2.368  0.2877E+01  0.1283E+02
      2.486  0.4732E+01  0.1339E+02
      2.603  0.3898E+01  0.1384E+02
      2.721  0.3276E+01  0.1423E+02
      2.839  0.2933E+01  0.1457E+02
      2.956  0.3485E+01  0.1498E+02
      3.074  0.4080E+01  0.1546E+02
      3.191  0.4186E+01  0.1595E+02
      3.309  0.3587E+01  0.1638E+02
      3.426  0.3610E+01  0.1680E+02
      3.544  0.4136E+01  0.1729E+02
      3.661  0.3773E+01  0.1773E+02
      3.779  0.3811E+01  0.1818E+02
      3.896  0.4289E+01  0.1868E+02
      4.014  0.2979E+01  0.1903E+02
      4.132  0.2867E+01  0.1937E+02
      4.249  0.4202E+01  0.1986E+02
      4.367  0.4532E+01  0.2040E+02
      4.484  0.3818E+01  0.2084E+02
      4.602  0.4794E+01  0.2141E+02
      4.719  0.3763E+01  0.2185E+02
      4.837  0.4411E+01  0.2237E+02
      4.954  0.2615E+01  0.2268E+02
      5.072  0.4367E+01  0.2319E+02
      5.189  0.4943E+01  0.2377E+02
      5.307  0.3246E+01  0.2415E+02
      5.424  0.6012E+01  0.2486E+02
      5.542  0.3959E+01  0.2532E+02
      5.660  0.2943E+01  0.2567E+02
      5.777  0.6295E+01  0.2641E+02
      5.895  0.3751E+01  0.2685E+02
      6.012  0.4795E+01  0.2741E+02
      6.130  0.6098E+01  0.2813E+02
      6.247  0.4776E+01  0.2869E+02
      6.365  0.2487E+01  0.2899E+02
      6.482  0.4284E+01  0.2949E+02
      6.600  0.4594E+01  0.3003E+02
      6.717  0.4134E+01  0.3051E+02
      6.835  0.5077E+01  0.3111E+02
      6.953  0.6404E+01  0.3186E+02
      7.070  0.5320E+01  0.3249E+02
      7.188  0.4432E+01  0.3301E+02
      7.305  0.4803E+01  0.3358E+02
      7.423  0.5868E+01  0.3426E+02
      7.540  0.5086E+01  0.3486E+02
      7.658  0.6459E+01  0.3562E+02
      7.775  0.4768E+01  0.3618E+02
      7.893  0.5340E+01  0.3681E+02
      8.010  0.6392E+01  0.3756E+02
      8.128  0.5222E+01  0.3818E+02
      8.246  0.6204E+01  0.3890E+02
      8.363  0.5885E+01  0.3960E+02
      8.481  0.4902E+01  0.4017E+02
      8.598  0.4477E+01  0.4070E+02
      8.716  0.6295E+01  0.4144E+02
      8.833  0.6652E+01  0.4222E+02
      8.951  0.4746E+01  0.4278E+02
      9.068  0.7416E+01  0.4365E+02
      9.186  0.5596E+01  0.4431E+02
      9.303  0.3710E+01  0.4474E+02
      9.421  0.5997E+01  0.4545E+02
      9.539  0.6810E+01  0.4625E+02
      9.656  0.5953E+01  0.4695E+02
      9.774  0.7001E+01  0.4777E+02
      9.891  0.5429E+01  0.4841E+02
     10.009  0.4526E+01  0.4894E+02
     10.126  0.6066E+01  0.4966E+02
     10.244  0.5715E+01  0.5033E+02
     10.361  0.4534E+01  0.5086E+02
     10.479  0.7618E+01  0.5176E+02
     10.596  0.5252E+01  0.5237E+02
     10.714  0.5508E+01  0.5302E+02
     10.832  0.5649E+01  0.5368E+02
     10.949  0.5839E+01  0.5437E+02
     11.067  0.6395E+01  0.5512E+02
     11.184  0.5539E+01  0.5577E+02
     11.302  0.6435E+01  0.5653E+02
     11.419  0.7052E+01  0.5736E+02
     11.537  0.6146E+01  0.5808E+02
     11.654  0.5132E+01  0.5868E+02
     11.772  0.5554E+01  0.5934E+02
     11.889  0.6632E+01  0.6012E+02
     12.007  0.6127E+01  0.6084E+02
     12.124  0.5869E+01  0.6153E+02
     12.242  0.5204E+01  0.6214E+02
     12.360  0.5150E+01  0.6274E+02
     12.477  0.6854E+01  0.6355E+02
     12.595  0.7090E+01  0.6438E+02
     12.712  0.6626E+01  0.6516E+02
     12.830  0.6495E+01  0.6592E+02
     12.947  0.5282E+01  0.6655E+02
     13.065  0.7509E+01  0.6743E+02
     13.182  0.7916E+01  0.6836E+02
     13.300  0.7423E+01  0.6923E+02
     13.417  0.5860E+01  0.6992E+02
     13.535  0.6384E+01  0.7067E+02
     13.653  0.5327E+01  0.7130E+02
     13.770  0.5366E+01  0.7193E+02
     13.888  0.8022E+01  0.7287E+02
     14.005  0.7335E+01  0.7373E+02
     14.123  0.4084E+01  0.7421E+02
     14.240  0.6029E+01  0.7492E+02
     14.358  0.4745E+01  0.7548E+02
     14.475  0.4577E+01  0.7602E+02
     14.593  0.6299E+01  0.7676E+02
     14.710  0.5438E+01  0.7740E+02
     14.828  0.3436E+01  0.7780E+02
     14.946  0.4928E+01  0.7838E+02
     15.063  0.3467E+01  0.7879E+02
     15.181  0.2960E+01  0.7914E+02
     15.298  0.3423E+01  0.7954E+02
     15.416  0.4048E+01  0.8001E+02
     15.533  0.2500E+01  0.8031E+02
     15.651  0.2249E+01  0.8057E+02
     15.768  0.2181E+01  0.8083E+02
     15.886  0.1871E+01  0.8105E+02
     16.003  0.3078E+01  0.8141E+02
     16.121  0.1939E+01  0.8164E+02
     16.239  0.6669E+00  0.8172E+02
     16.356  0.2093E+01  0.8196E+02
     16.474  0.1472E+01  0.8214E+02
     16.591  0.1421E+01  0.8230E+02
     16.709  0.1311E+01  0.8246E+02
     16.826  0.2225E+00  0.8248E+02
     16.944  0.1197E+01  0.8262E+02
     17.061  0.1678E+01  0.8282E+02
     17.179  0.1439E+01  0.8299E+02
     17.296  0.1827E+01  0.8320E+02
     17.414  0.9790E+00  0.8332E+02
     17.532  0.1227E+00  0.8333E+02
     17.649  0.9453E+00  0.8344E+02
     17.767  0.5336E+00  0.8351E+02
     17.884  0.2923E-01  0.8351E+02
     18.002  0.4871E+00  0.8357E+02
     18.119  0.5118E+00  0.8363E+02
     18.237  0.5752E+00  0.8370E+02
     18.354  0.5792E+00  0.8376E+02
     18.472  0.4373E+00  0.8382E+02
     18.589  0.1076E+00  0.8383E+02
     18.707  0.8852E-04  0.8383E+02
     18.824  0.3782E-01  0.8383E+02
     18.942  0.4562E+00  0.8389E+02
     19.060  0.3646E+00  0.8393E+02
     19.177  0.5452E-02  0.8393E+02
     19.295  0.6731E-02  0.8393E+02
     19.412  0.5910E-01  0.8394E+02
     19.530  0.2182E+00  0.8396E+02
     19.647  0.3096E+00  0.8400E+02
     19.765  0.4584E-02  0.8400E+02
     19.882  0.7070E-08  0.8400E+02
     20.000  0.0000E+00  0.8400E+02
     20.117  0.0000E+00  0.8400E+02
     20.235  0.0000E+00  0.8400E+02
     20.353  0.0000E+00  0.8400E+02
     20.470  0.0000E+00  0.8400E+02
     20.588  0.0000E+00  0.8400E+02
     20.705  0.0000E+00  0.8400E+02
     20.823  0.0000E+00  0.8400E+02
     20.940  0.0000E+00  0.8400E+02
     21.058  0.0000E+00  0.8400E+02
     21.175  0.0000E+00  0.8400E+02
