       N       E                     dE             d eps       ncg     rms          rms(c)
DAV:   1    -0.860895683914E+01   -0.86090E+01   -0.18973E+03 88074   0.832E+01
DAV:   2    -0.925920487356E+01   -0.65025E+00   -0.64357E+00109326   0.489E+00
DAV:   3    -0.925924998733E+01   -0.45114E-04   -0.45113E-04 83286   0.457E-02
DAV:   4    -0.925924998735E+01   -0.22823E-10   -0.59621E-09131418   0.148E-04
DAV:   5    -0.925924998815E+01   -0.80254E-09   -0.63757E-14 83034   0.311E-08
DAV:   6    -0.925924998777E+01    0.38143E-09    0.34510E-14129234   0.139E-10
   1 F= -.99681107E+01 E0= -.99677219E+01  d E =-.777746E-03
