 running   42 mpi-ranks, on    1 nodes
 distrk:  each k-point on   42 cores,    1 groups
 distr:  one band on    7 cores,    6 groups
 vasp.6.5.0 16Dec24 (build Jan 08 2025 16:17:04) complex                        
  
 POSCAR found type information on POSCAR BeH 
 POSCAR found :  2 types and      75 ions
 Reading from existing POTCAR
 scaLAPACK will be used
 Reading from existing POTCAR
 -----------------------------------------------------------------------------
|                                                                             |
|               ----> ADVICE to this user running VASP <----                  |
|                                                                             |
|     You have a (more or less) 'large supercell' and for larger cells it     |
|     might be more efficient to use real-space projection operators.         |
|     Therefore, try LREAL= Auto in the INCAR file.                           |
|     Mind: For very accurate calculation, you might also keep the            |
|     reciprocal projection scheme (i.e. LREAL=.FALSE.).                      |
|                                                                             |
 -----------------------------------------------------------------------------

 LDA part: xc-table for (Slater+PW92), standard interpolation
 POSCAR, INCAR and KPOINTS ok, starting setup
 FFT: planning ... GRIDC
 FFT: planning ... GRID_SOFT
 FFT: planning ... GRID
 WAVECAR not read
 entering main loop
       N       E                     dE             d eps       ncg     rms          rms(c)
DAV:   1     0.842792239719E+03    0.84279E+03   -0.34011E+04  5136   0.858E+02
DAV:   2    -0.154620385224E+03   -0.99741E+03   -0.96216E+03  7956   0.180E+02
DAV:   3    -0.265095252733E+03   -0.11047E+03   -0.10863E+03  6360   0.663E+01
DAV:   4    -0.268498533884E+03   -0.34033E+01   -0.33847E+01  6732   0.131E+01
DAV:   5    -0.268587826017E+03   -0.89292E-01   -0.89150E-01  7206   0.184E+00    0.150E+01
DAV:   6    -0.258652445302E+03    0.99354E+01   -0.73854E+00  5598   0.552E+00    0.883E+00
DAV:   7    -0.253492064620E+03    0.51604E+01   -0.85079E+00  5604   0.595E+00    0.170E+00
DAV:   8    -0.253215380484E+03    0.27668E+00   -0.88462E-01  6708   0.197E+00    0.115E+00
DAV:   9    -0.253006087104E+03    0.20929E+00   -0.82382E-02  6132   0.783E-01    0.392E-01
DAV:  10    -0.252949201431E+03    0.56886E-01   -0.50778E-02  6090   0.491E-01    0.322E-01
DAV:  11    -0.252915038615E+03    0.34163E-01   -0.74780E-02  6030   0.493E-01    0.208E-01
DAV:  12    -0.252942723272E+03   -0.27685E-01   -0.31939E-02  5946   0.382E-01    0.205E-01
DAV:  13    -0.252943587684E+03   -0.86441E-03   -0.81535E-03  5892   0.238E-01    0.105E-01
DAV:  14    -0.252952398917E+03   -0.88112E-02   -0.20008E-03  6402   0.953E-02    0.374E-02
DAV:  15    -0.252960377790E+03   -0.79789E-02   -0.10699E-03  5526   0.587E-02    0.453E-02
DAV:  16    -0.252962263550E+03   -0.18858E-02   -0.15260E-04  6270   0.244E-02    0.236E-02
DAV:  17    -0.252963483785E+03   -0.12202E-02   -0.13037E-04  5904   0.272E-02    0.977E-03
DAV:  18    -0.252964243032E+03   -0.75925E-03   -0.73367E-05  5886   0.153E-02    0.802E-03
DAV:  19    -0.252964366289E+03   -0.12326E-03   -0.81913E-06  5994   0.708E-03    0.177E-03
DAV:  20    -0.252964489617E+03   -0.12333E-03   -0.29135E-06  5364   0.362E-03    0.775E-04
DAV:  21    -0.252964531403E+03   -0.41786E-04   -0.51196E-07  5358   0.981E-04    0.955E-04
DAV:  22    -0.252964557706E+03   -0.26303E-04   -0.15024E-07  5418   0.538E-04    0.208E-04
DAV:  23    -0.252964562260E+03   -0.45548E-05   -0.64300E-09  4626   0.203E-04    0.292E-04
DAV:  24    -0.252964566067E+03   -0.38068E-05   -0.15292E-08  4488   0.197E-04    0.154E-04
DAV:  25    -0.252964566708E+03   -0.64058E-06    0.20571E-09  3906   0.106E-04    0.402E-05
DAV:  26    -0.252964567133E+03   -0.42559E-06    0.25581E-09  3606   0.101E-04    0.386E-05
DAV:  27    -0.252964567211E+03   -0.77776E-07    0.42124E-09  4062   0.327E-05    0.111E-05
DAV:  28    -0.252964567266E+03   -0.55003E-07    0.42132E-09  3528   0.281E-05    0.122E-05
DAV:  29    -0.252964567278E+03   -0.11769E-07    0.42901E-09  3930   0.178E-05    0.691E-06
DAV:  30    -0.252964567288E+03   -0.98435E-08    0.43183E-09  3696   0.941E-06
   1 F= -.26431398E+03 E0= -.26429170E+03  d E =-.445596E-01
