 running   84 mpi-ranks, on    1 nodes
 distrk:  each k-point on   84 cores,    1 groups
 distr:  one band on    7 cores,   12 groups
 vasp.6.5.1 10Mar25 (build Mar 14 2025 17:12:02) complex                        
  
 POSCAR found type information on POSCAR BeH 
 POSCAR found :  2 types and     100 ions
 Reading from existing POTCAR
 scaLAPACK will be used
 Reading from existing POTCAR
 -----------------------------------------------------------------------------
|                                                                             |
|               ----> ADVICE to this user running VASP <----                  |
|                                                                             |
|     You have a (more or less) 'large supercell' and for larger cells it     |
|     might be more efficient to use real-space projection operators.         |
|     Therefore, try LREAL= Auto in the INCAR file.                           |
|     Mind: For very accurate calculation, you might also keep the            |
|     reciprocal projection scheme (i.e. LREAL=.FALSE.).                      |
|                                                                             |
 -----------------------------------------------------------------------------

 LDA part: xc-table for (Slater+PW92), standard interpolation
 POSCAR, INCAR and KPOINTS ok, starting setup
 FFT: planning ... GRIDC
 FFT: planning ... GRID_SOFT
 FFT: planning ... GRID
 WAVECAR not read
 entering main loop
       N       E                     dE             d eps       ncg     rms          rms(c)
DAV:   1     0.963397275497E+03    0.96340E+03   -0.41415E+04  3432   0.807E+02
DAV:   2    -0.213939490026E+03   -0.11773E+04   -0.11332E+04  5424   0.172E+02
DAV:   3    -0.359414382846E+03   -0.14547E+03   -0.14331E+03  4392   0.655E+01
DAV:   4    -0.363314255028E+03   -0.38999E+01   -0.38878E+01  4452   0.124E+01
DAV:   5    -0.363401078092E+03   -0.86823E-01   -0.86717E-01  4992   0.163E+00    0.210E+01
DAV:   6    -0.352167645140E+03    0.11233E+02   -0.41979E+00  3732   0.389E+00    0.121E+01
DAV:   7    -0.344986497996E+03    0.71811E+01   -0.96379E+00  3780   0.561E+00    0.143E+00
DAV:   8    -0.344561548647E+03    0.42495E+00   -0.10198E+00  4308   0.198E+00    0.870E-01
DAV:   9    -0.344486861946E+03    0.74687E-01   -0.14194E-01  4476   0.722E-01    0.632E-01
DAV:  10    -0.344449188304E+03    0.37674E-01   -0.53165E-02  4080   0.519E-01    0.230E-01
DAV:  11    -0.344444985468E+03    0.42028E-02   -0.23601E-02  4116   0.295E-01    0.240E-01
DAV:  12    -0.344456019665E+03   -0.11034E-01   -0.23357E-02  3864   0.250E-01    0.835E-02
DAV:  13    -0.344472974044E+03   -0.16954E-01   -0.85696E-03  3948   0.175E-01    0.132E-01
DAV:  14    -0.344486528415E+03   -0.13554E-01   -0.62258E-03  3732   0.162E-01    0.572E-02
DAV:  15    -0.344488815565E+03   -0.22871E-02   -0.64773E-04  4368   0.491E-02    0.517E-02
DAV:  16    -0.344492120354E+03   -0.33048E-02   -0.50596E-04  3744   0.478E-02    0.242E-02
DAV:  17    -0.344493006775E+03   -0.88642E-03   -0.13154E-04  4164   0.241E-02    0.583E-03
DAV:  18    -0.344493585821E+03   -0.57905E-03   -0.25573E-05  3900   0.829E-03    0.660E-03
DAV:  19    -0.344493705333E+03   -0.11951E-03   -0.25314E-06  4428   0.301E-03    0.179E-03
DAV:  20    -0.344493810222E+03   -0.10489E-03   -0.10705E-06  3792   0.176E-03    0.207E-03
DAV:  21    -0.344493838537E+03   -0.28315E-04   -0.84294E-08  3744   0.505E-04    0.172E-03
DAV:  22    -0.344493867335E+03   -0.28798E-04   -0.40383E-07  3528   0.127E-03    0.655E-04
DAV:  23    -0.344493874001E+03   -0.66655E-05   -0.57859E-08  3900   0.554E-04    0.235E-04
DAV:  24    -0.344493876780E+03   -0.27793E-05   -0.51041E-09  3264   0.177E-04    0.557E-05
DAV:  25    -0.344493877837E+03   -0.10569E-05    0.43255E-09  2796   0.917E-05    0.271E-05
DAV:  26    -0.344493878086E+03   -0.24927E-06    0.63980E-09  2712   0.527E-05    0.392E-05
DAV:  27    -0.344493878197E+03   -0.11097E-06    0.68582E-09  2640   0.343E-05    0.302E-06
DAV:  28    -0.344493878214E+03   -0.17212E-07    0.70476E-09  2664   0.174E-05    0.205E-06
DAV:  29    -0.344493878228E+03   -0.13885E-07    0.70656E-09  2520   0.125E-05    0.441E-06
DAV:  30    -0.344493878231E+03   -0.23119E-08    0.71086E-09  2700   0.844E-06
   1 F= -.35683587E+03 E0= -.35680071E+03  d E =-.703077E-01
