    3    3  100    1
  0.5233607E+02  0.2128983E-09  0.2128983E-09  0.4000000E-08  0.5000000E-15
  1.000000000000000E-004
  CAR 
 Geometry                                
      4    196      8
 
  0.1276756E-14  0.1276756E-14  0.1276756E-14  0.1371742E-02
      1        -14.509667   1.000000
      2         -9.368456   1.000000
      3         -2.085634   0.000000
      4         -1.150664   0.000000
      5         -0.815385   0.000000
      6         -0.272714   0.000000
      7          0.356880   0.000000
      8          1.047913   0.000000
 
  0.3703704E-01  0.1276756E-14  0.1276756E-14  0.5486968E-02
      1        -14.475481   1.000000
      2         -9.331009   1.000000
      3         -2.045923   0.000000
      4         -1.106291   0.000000
      5         -0.771391   0.000000
      6         -0.229683   0.000000
      7          0.399084   0.000000
      8          1.090976   0.000000
 
  0.7407407E-01  0.1269818E-14  0.1276756E-14  0.5486968E-02
      1        -14.373151   1.000000
      2         -9.219099   1.000000
      3         -1.927418   0.000000
      4         -0.973212   0.000000
      5         -0.639499   0.000000
      6         -0.100810   0.000000
      7          0.525447   0.000000
      8          1.220023   0.000000
 
  0.1111111E+00  0.1283695E-14  0.1276756E-14  0.5486968E-02
      1        -14.203345   1.000000
      2         -9.033626   1.000000
      3         -1.732255   0.000000
      4         -0.751573   0.000000
      5         -0.420025   0.000000
      6          0.113120   0.000000
      7          0.735057   0.000000
      8          1.434498   0.000000
 
  0.1481481E+00  0.1262879E-14  0.1276756E-14  0.5486968E-02
      1        -13.967287   1.000000
      2         -8.776756   1.000000
      3         -1.465387   0.000000
      4         -0.441732   0.000000
      5         -0.113755   0.000000
      6          0.410143   0.000000
      7          1.025550   0.000000
      8          1.732751   0.000000
 
  0.1851852E+00  0.1262879E-14  0.1276756E-14  0.5486968E-02
      1        -13.666633   1.000000
      2         -8.451362   1.000000
      3         -1.138089   0.000000
      4         -0.044625   0.000000
      5          0.277222   0.000000
      6          0.784849   0.000000
      7          1.390034   0.000000
      8          2.108810   0.000000
 
  0.2222222E+00  0.1276756E-14  0.1276756E-14  0.5486968E-02
      1        -13.304126   1.000000
      2         -8.062170   1.000000
      3         -0.781211   0.000000
      4          0.436312   0.000000
      5          0.744947   0.000000
      6          1.215804   0.000000
      7          1.799110   0.000000
      8          2.523108   0.000000
 
  0.2592593E+00  0.1276756E-14  0.1276756E-14  0.5486968E-02
      1        -12.884070   1.000000
      2         -7.616739   1.000000
      3         -0.504141   0.000000
      4          0.970049   0.000000
      5          1.226358   0.000000
      6          1.583382   0.000000
      7          2.123760   0.000000
      8          2.729024   0.000000
 
  0.2962963E+00  0.1304512E-14  0.1276756E-14  0.5486968E-02
      1        -12.413723   1.000000
      2         -7.127929   1.000000
      3         -0.662519   0.000000
      4          1.191590   0.000000
      5          1.729146   0.000000
      6          2.065767   0.000000
      7          2.594788   0.000000
      8          3.192175   0.000000
 
  0.3333333E+00  0.1304512E-14  0.1276756E-14  0.5486968E-02
      1        -11.904569   1.000000
      2         -6.616839   1.000000
      3         -1.393125   0.000000
      4          1.486104   0.000000
      5          2.456969   0.000000
      6          2.769471   0.000000
      7          3.246968   0.000000
      8          3.837295   0.000000
 
  0.3703704E+00  0.1276756E-14  0.1276756E-14  0.5486968E-02
      1        -11.376660   1.000000
      2         -6.122361   1.000000
      3         -2.259361   0.000000
      4          1.858272   0.000000
      5          3.259088   0.000000
      6          3.528397   0.000000
      7          3.920616   0.000000
      8          4.501125   0.000000
 
  0.4074074E+00  0.1304512E-14  0.1276756E-14  0.5486968E-02
      1        -10.865557   1.000000
      2         -5.717176   1.000000
      3         -2.998666   0.000000
      4          1.941499   0.000000
      5          3.976660   0.000000
      6          4.322891   0.000000
      7          4.680548   0.000000
      8          5.237811   0.000000
 
  0.4444444E+00  0.1304512E-14  0.1276756E-14  0.5486968E-02
      1        -10.433375   1.000000
      2         -5.506167   1.000000
      3         -3.453171   0.000000
      4          1.704190   0.000000
      5          4.686872   0.000000
      6          5.196072   0.000000
      7          5.305749   0.000000
      8          5.641529   0.000000
 
  0.4814815E+00  0.1332268E-14  0.1276756E-14  0.5486968E-02
      1        -10.173702   1.000000
      2         -5.487587   1.000000
      3         -3.601646   0.000000
      4          1.479150   0.000000
      5          5.120111   0.000000
      6          5.501602   0.000000
      7          6.379690   0.000000
      8          6.613804   0.000000
 
  0.3703704E-01  0.3703704E-01  0.1276756E-14  0.2743484E-02
      1        -14.407238   1.000000
      2         -9.256354   1.000000
      3         -1.966808   0.000000
      4         -1.017563   0.000000
      5         -0.683446   0.000000
      6         -0.143726   0.000000
      7          0.483374   0.000000
      8          1.177036   0.000000
 
  0.7407407E-01  0.3703704E-01  0.1276756E-14  0.5486968E-02
      1        -14.271142   1.000000
      2         -9.107618   1.000000
      3         -1.809880   0.000000
      4         -0.840196   0.000000
      5         -0.507744   0.000000
      6          0.027723   0.000000
      7          0.651433   0.000000
      8          1.348853   0.000000
 
  0.1111111E+00  0.3703704E-01  0.1276756E-14  0.5486968E-02
      1        -14.068215   1.000000
      2         -8.886480   1.000000
      3         -1.578487   0.000000
      4         -0.574419   0.000000
      5         -0.244791   0.000000
      6          0.283420   0.000000
      7          0.901816   0.000000
      8          1.605486   0.000000
 
  0.1481481E+00  0.3703704E-01  0.1276756E-14  0.5486968E-02
      1        -13.799728   1.000000
      2         -8.595177   1.000000
      3         -1.279933   0.000000
      4         -0.220793   0.000000
      5          0.104186   0.000000
      6          0.620257   0.000000
      7          1.230742   0.000000
      8          1.943994   0.000000
 
  0.1851852E+00  0.3703704E-01  0.1276756E-14  0.5486968E-02
      1        -13.467954   1.000000
      2         -8.237647   1.000000
      3         -0.932276   0.000000
      4          0.219017   0.000000
      5          0.535410   0.000000
      6          1.028310   0.000000
      7          1.625156   0.000000
      8          2.350614   0.000000
 
  0.2222222E+00  0.3703704E-01  0.1276756E-14  0.5486968E-02
      1        -13.076292   1.000000
      2         -7.819873   1.000000
      3         -0.591077   0.000000
      4          0.736487   0.000000
      5          1.028994   0.000000
      6          1.455331   0.000000
      7          2.011933   0.000000
      8          2.675734   0.000000
 
  0.2592593E+00  0.3703704E-01  0.1276756E-14  0.5486968E-02
      1        -12.630305   1.000000
      2         -7.351737   1.000000
      3         -0.469361   0.000000
      4          1.164377   0.000000
      5          1.459580   0.000000
      6          1.801317   0.000000
      7          2.339736   0.000000
      8          2.929566   0.000000
 
  0.2962963E+00  0.3703704E-01  0.1276756E-14  0.5486968E-02
      1        -12.138970   1.000000
      2         -6.849431   1.000000
      3         -0.957230   0.000000
      4          1.308648   0.000000
      5          2.109784   0.000000
      6          2.431250   0.000000
      7          2.927248   0.000000
      8          3.516205   0.000000
 
  0.3333333E+00  0.3703704E-01  0.1276756E-14  0.5486968E-02
      1        -11.617484   1.000000
      2         -6.341579   1.000000
      3         -1.807108   0.000000
      4          1.674079   0.000000
      5          2.882156   0.000000
      6          3.172144   0.000000
      7          3.600678   0.000000
      8          4.185487   0.000000
 
  0.3703704E+00  0.3703704E-01  0.1276756E-14  0.5486968E-02
      1        -11.092504   1.000000
      2         -5.881506   1.000000
      3         -2.635213   0.000000
      4          1.930184   0.000000
      5          3.666606   0.000000
      6          3.930605   0.000000
      7          4.294454   0.000000
      8          4.834882   0.000000
 
  0.4074074E+00  0.3703704E-01  0.1276756E-14  0.5486968E-02
      1        -10.611299   1.000000
      2         -5.562638   1.000000
      3         -3.249949   0.000000
      4          1.836223   0.000000
      5          4.289831   0.000000
      6          4.783884   0.000000
      7          4.943556   0.000000
      8          5.225766   0.000000
 
  0.4444444E+00  0.3703704E-01  0.1276756E-14  0.5486968E-02
      1        -10.252552   1.000000
      2         -5.463896   1.000000
      3         -3.540524   0.000000
      4          1.583640   0.000000
      5          4.591676   0.000000
      6          5.319556   0.000000
      7          5.887554   0.000000
      8          6.220813   0.000000
 
  0.4814815E+00  0.3703704E-01  0.1276756E-14  0.5486968E-02
      1        -10.115657   1.000000
      2         -5.473831   1.000000
      3         -3.598024   0.000000
      4          1.464126   0.000000
      5          4.604350   0.000000
      6          6.009472   0.000000
      7          6.478308   0.000000
      8          7.015591   0.000000
 
 -0.4814815E+00  0.3703704E-01  0.1276756E-14  0.5486968E-02
      1        -10.252555   1.000000
      2         -5.463901   1.000000
      3         -3.540521   0.000000
      4          1.583644   0.000000
      5          4.591671   0.000000
      6          5.319525   0.000000
      7          5.887535   0.000000
      8          6.220795   0.000000
 
 -0.4444444E+00  0.3703704E-01  0.1276756E-14  0.5486968E-02
      1        -10.611304   1.000000
      2         -5.562648   1.000000
      3         -3.249940   0.000000
      4          1.836226   0.000000
      5          4.289830   0.000000
      6          4.783866   0.000000
      7          4.943522   0.000000
      8          5.225741   0.000000
 
 -0.4074074E+00  0.3703704E-01  0.1276756E-14  0.5486968E-02
      1        -11.092510   1.000000
      2         -5.881519   1.000000
      3         -2.635201   0.000000
      4          1.930178   0.000000
      5          3.666594   0.000000
      6          3.930592   0.000000
      7          4.294444   0.000000
      8          4.834880   0.000000
 
 -0.3703704E+00  0.3703704E-01  0.1276756E-14  0.5486968E-02
      1        -11.617490   1.000000
      2         -6.341592   1.000000
      3         -1.807095   0.000000
      4          1.674066   0.000000
      5          2.882141   0.000000
      6          3.172129   0.000000
      7          3.600662   0.000000
      8          4.185471   0.000000
 
 -0.3333333E+00  0.3703704E-01  0.1276756E-14  0.5486968E-02
      1        -12.138965   1.000000
      2         -6.849433   1.000000
      3         -0.957216   0.000000
      4          1.308638   0.000000
      5          2.109771   0.000000
      6          2.431237   0.000000
      7          2.927233   0.000000
      8          3.516188   0.000000
 
 -0.2962963E+00  0.3703704E-01  0.1276756E-14  0.5486968E-02
      1        -12.630311   1.000000
      2         -7.351748   1.000000
      3         -0.469357   0.000000
      4          1.164371   0.000000
      5          1.459570   0.000000
      6          1.801306   0.000000
      7          2.339723   0.000000
      8          2.929549   0.000000
 
 -0.2592593E+00  0.3703704E-01  0.1276756E-14  0.5486968E-02
      1        -13.076296   1.000000
      2         -7.819880   1.000000
      3         -0.591080   0.000000
      4          0.736478   0.000000
      5          1.028986   0.000000
      6          1.455324   0.000000
      7          2.011926   0.000000
      8          2.675725   0.000000
 
 -0.2222222E+00  0.3703704E-01  0.1276756E-14  0.5486968E-02
      1        -13.467959   1.000000
      2         -8.237656   1.000000
      3         -0.932282   0.000000
      4          0.219009   0.000000
      5          0.535402   0.000000
      6          1.028302   0.000000
      7          1.625149   0.000000
      8          2.350606   0.000000
 
 -0.1851852E+00  0.3703704E-01  0.1276756E-14  0.5486968E-02
      1        -13.799731   1.000000
      2         -8.595184   1.000000
      3         -1.279938   0.000000
      4         -0.220799   0.000000
      5          0.104180   0.000000
      6          0.620251   0.000000
      7          1.230736   0.000000
      8          1.943987   0.000000
 
 -0.1481481E+00  0.3703704E-01  0.1276756E-14  0.5486968E-02
      1        -14.068218   1.000000
      2         -8.886486   1.000000
      3         -1.578491   0.000000
      4         -0.574425   0.000000
      5         -0.244796   0.000000
      6          0.283414   0.000000
      7          0.901811   0.000000
      8          1.605480   0.000000
 
 -0.1111111E+00  0.3703704E-01  0.1276756E-14  0.5486968E-02
      1        -14.271145   1.000000
      2         -9.107622   1.000000
      3         -1.809884   0.000000
      4         -0.840199   0.000000
      5         -0.507748   0.000000
      6          0.027719   0.000000
      7          0.651429   0.000000
      8          1.348848   0.000000
 
 -0.7407407E-01  0.3703704E-01  0.1276756E-14  0.5486968E-02
      1        -14.407240   1.000000
      2         -9.256356   1.000000
      3         -1.966810   0.000000
      4         -1.017565   0.000000
      5         -0.683448   0.000000
      6         -0.143729   0.000000
      7          0.483372   0.000000
      8          1.177034   0.000000
 
 -0.3703704E-01  0.3703704E-01  0.1276756E-14  0.2743484E-02
      1        -14.475482   1.000000
      2         -9.331010   1.000000
      3         -2.045924   0.000000
      4         -1.106292   0.000000
      5         -0.771391   0.000000
      6         -0.229684   0.000000
      7          0.399083   0.000000
      8          1.090975   0.000000
 
  0.7407407E-01  0.7407407E-01  0.1276756E-14  0.2743484E-02
      1        -14.101907   1.000000
      2         -8.923129   1.000000
      3         -1.616454   0.000000
      4         -0.618667   0.000000
      5         -0.288509   0.000000
      6          0.241081   0.000000
      7          0.860478   0.000000
      8          1.562994   0.000000
 
  0.1111111E+00  0.7407407E-01  0.1276756E-14  0.5486968E-02
      1        -13.866527   1.000000
      2         -8.667557   1.000000
      3         -1.352099   0.000000
      4         -0.308979   0.000000
      5          0.017441   0.000000
      6          0.537385   0.000000
      7          1.150476   0.000000
      8          1.860911   0.000000
 
  0.1481481E+00  0.7407407E-01  0.1276756E-14  0.5486968E-02
      1        -13.566676   1.000000
      2         -8.343874   1.000000
      3         -1.027961   0.000000
      4          0.087966   0.000000
      5          0.408118   0.000000
      6          0.911635   0.000000
      7          1.515378   0.000000
      8          2.236877   0.000000
 
  0.1851852E+00  0.7407407E-01  0.1276756E-14  0.5486968E-02
      1        -13.205171   1.000000
      2         -7.957127   1.000000
      3         -0.673684   0.000000
      4          0.568906   0.000000
      5          0.876086   0.000000
      6          1.344107   0.000000
      7          1.927228   0.000000
      8          2.644047   0.000000
 
  0.2222222E+00  0.7407407E-01  0.1276756E-14  0.5486968E-02
      1        -12.786404   1.000000
      2         -7.515117   1.000000
      3         -0.393426   0.000000
      4          1.101351   0.000000
      5          1.353247   0.000000
      6          1.696391   0.000000
      7          2.205867   0.000000
      8          2.749457   0.000000
 
  0.2592593E+00  0.7407407E-01  0.1276756E-14  0.5486968E-02
      1        -12.317270   1.000000
      2         -7.030428   1.000000
      3         -0.547503   0.000000
      4          1.222493   0.000000
      5          1.847940   0.000000
      6          2.169363   0.000000
      7          2.658306   0.000000
      8          3.233281   0.000000
 
  0.2962963E+00  0.7407407E-01  0.1276756E-14  0.5486968E-02
      1        -11.809490   1.000000
      2         -6.524743   1.000000
      3         -1.294990   0.000000
      4          1.445036   0.000000
      5          2.572047   0.000000
      6          2.863327   0.000000
      7          3.291603   0.000000
      8          3.869915   0.000000
 
  0.3333333E+00  0.7407407E-01  0.1276756E-14  0.5486968E-02
      1        -11.283004   1.000000
      2         -6.036778   1.000000
      3         -2.174127   0.000000
      4          1.750393   0.000000
      5          3.352424   0.000000
      6          3.609349   0.000000
      7          3.978599   0.000000
      8          4.512977   0.000000
 
  0.3703704E+00  0.7407407E-01  0.1276756E-14  0.5486968E-02
      1        -10.773251   1.000000
      2         -5.638055   1.000000
      3         -2.921822   0.000000
      4          1.845284   0.000000
      5          3.960196   0.000000
      6          4.328629   0.000000
      7          4.521026   0.000000
      8          4.863909   0.000000
 
  0.4074074E+00  0.7407407E-01  0.1276756E-14  0.5486968E-02
      1        -10.342208   1.000000
      2         -5.430422   1.000000
      3         -3.385486   0.000000
      4          1.700979   0.000000
      5          3.879283   0.000000
      6          5.009511   0.000000
      7          5.463284   0.000000
      8          5.816761   0.000000
 
  0.4444444E+00  0.7407407E-01  0.1276756E-14  0.5486968E-02
      1        -10.083219   1.000000
      2         -5.411582   1.000000
      3         -3.542512   0.000000
      4          1.535280   0.000000
      5          3.780370   0.000000
      6          5.909895   0.000000
      7          6.554892   0.000000
      8          6.867718   0.000000
 
  0.4814815E+00  0.7407407E-01  0.1276756E-14  0.5486968E-02
      1        -10.083222   1.000000
      2         -5.411587   1.000000
      3         -3.542509   0.000000
      4          1.535285   0.000000
      5          3.780363   0.000000
      6          5.909852   0.000000
      7          6.554854   0.000000
      8          6.867696   0.000000
 
 -0.4814815E+00  0.7407407E-01  0.1276756E-14  0.5486968E-02
      1        -10.342215   1.000000
      2         -5.430438   1.000000
      3         -3.385473   0.000000
      4          1.700985   0.000000
      5          3.879270   0.000000
      6          5.009466   0.000000
      7          5.463247   0.000000
      8          5.816724   0.000000
 
 -0.4444444E+00  0.7407407E-01  0.1276756E-14  0.5486968E-02
      1        -10.773262   1.000000
      2         -5.638079   1.000000
      3         -2.921801   0.000000
      4          1.845277   0.000000
      5          3.960193   0.000000
      6          4.328594   0.000000
      7          4.520985   0.000000
      8          4.863870   0.000000
 
 -0.4074074E+00  0.7407407E-01  0.1276756E-14  0.5486968E-02
      1        -11.283016   1.000000
      2         -6.036805   1.000000
      3         -2.174102   0.000000
      4          1.750368   0.000000
      5          3.352394   0.000000
      6          3.609319   0.000000
      7          3.978570   0.000000
      8          4.512961   0.000000
 
 -0.3703704E+00  0.7407407E-01  0.1276756E-14  0.5486968E-02
      1        -11.809502   1.000000
      2         -6.524770   1.000000
      3         -1.294965   0.000000
      4          1.445005   0.000000
      5          2.572019   0.000000
      6          2.863297   0.000000
      7          3.291568   0.000000
      8          3.869879   0.000000
 
 -0.3333333E+00  0.7407407E-01  0.1276756E-14  0.5486968E-02
      1        -12.317282   1.000000
      2         -7.030453   1.000000
      3         -0.547484   0.000000
      4          1.222471   0.000000
      5          1.847915   0.000000
      6          2.169336   0.000000
      7          2.658274   0.000000
      8          3.233245   0.000000
 
 -0.2962963E+00  0.7407407E-01  0.1276756E-14  0.5486968E-02
      1        -12.786415   1.000000
      2         -7.515140   1.000000
      3         -0.393427   0.000000
      4          1.101334   0.000000
      5          1.353233   0.000000
      6          1.696377   0.000000
      7          2.205844   0.000000
      8          2.749421   0.000000
 
 -0.2592593E+00  0.7407407E-01  0.1276756E-14  0.5486968E-02
      1        -13.205181   1.000000
      2         -7.957146   1.000000
      3         -0.673694   0.000000
      4          0.568888   0.000000
      5          0.876069   0.000000
      6          1.344093   0.000000
      7          1.927214   0.000000
      8          2.644028   0.000000
 
 -0.2222222E+00  0.7407407E-01  0.1276756E-14  0.5486968E-02
      1        -13.566684   1.000000
      2         -8.343890   1.000000
      3         -1.027972   0.000000
      4          0.087951   0.000000
      5          0.408103   0.000000
      6          0.911621   0.000000
      7          1.515364   0.000000
      8          2.236860   0.000000
 
 -0.1851852E+00  0.7407407E-01  0.1276756E-14  0.5486968E-02
      1        -13.866535   1.000000
      2         -8.667574   1.000000
      3         -1.352110   0.000000
      4         -0.308991   0.000000
      5          0.017430   0.000000
      6          0.537373   0.000000
      7          1.150464   0.000000
      8          1.860898   0.000000
 
 -0.1481481E+00  0.7407407E-01  0.1276756E-14  0.5486968E-02
      1        -14.101912   1.000000
      2         -8.923139   1.000000
      3         -1.616462   0.000000
      4         -0.618676   0.000000
      5         -0.288518   0.000000
      6          0.241072   0.000000
      7          0.860469   0.000000
      8          1.562984   0.000000
 
 -0.1111111E+00  0.7407407E-01  0.1276756E-14  0.5486968E-02
      1        -14.271141   1.000000
      2         -9.107617   1.000000
      3         -1.809885   0.000000
      4         -0.840201   0.000000
      5         -0.507750   0.000000
      6          0.027717   0.000000
      7          0.651427   0.000000
      8          1.348846   0.000000
 
 -0.7407407E-01  0.7407407E-01  0.1276756E-14  0.2743484E-02
      1        -14.373153   1.000000
      2         -9.219103   1.000000
      3         -1.927421   0.000000
      4         -0.973215   0.000000
      5         -0.639502   0.000000
      6         -0.100813   0.000000
      7          0.525444   0.000000
      8          1.220020   0.000000
 
  0.1111111E+00  0.1111111E+00  0.1276756E-14  0.2743484E-02
      1        -13.599676   1.000000
      2         -8.379483   1.000000
      3         -1.060615   0.000000
      4          0.044196   0.000000
      5          0.365486   0.000000
      6          0.872199   0.000000
      7          1.478096   0.000000
      8          2.197973   0.000000
 
  0.1481481E+00  0.1111111E+00  0.1276756E-14  0.5486968E-02
      1        -13.269806   1.000000
      2         -8.026272   1.000000
      3         -0.721169   0.000000
      4          0.483588   0.000000
      5          0.796066   0.000000
      6          1.279913   0.000000
      7          1.874900   0.000000
      8          2.601074   0.000000
 
  0.1851852E+00  0.1111111E+00  0.1276756E-14  0.5486968E-02
      1        -12.880533   1.000000
      2         -7.614465   1.000000
      3         -0.382956   0.000000
      4          1.001618   0.000000
      5          1.291677   0.000000
      6          1.710854   0.000000
      7          2.231604   0.000000
      8          2.676572   0.000000
 
  0.2222222E+00  0.1111111E+00  0.1276756E-14  0.5486968E-02
      1        -12.437249   1.000000
      2         -7.154041   1.000000
      3         -0.241866   0.000000
      4          1.289506   0.000000
      5          1.675412   0.000000
      6          1.981961   0.000000
      7          2.433464   0.000000
      8          2.994945   0.000000
 
  0.2592593E+00  0.1111111E+00  0.1276756E-14  0.5486968E-02
      1        -11.948858   1.000000
      2         -6.661676   1.000000
      3         -0.746765   0.000000
      4          1.196932   0.000000
      5          2.333090   0.000000
      6          2.608906   0.000000
      7          3.009373   0.000000
      8          3.589437   0.000000
 
  0.2962963E+00  0.1111111E+00  0.1276756E-14  0.5486968E-02
      1        -11.430620   1.000000
      2         -6.166375   1.000000
      3         -1.633270   0.000000
      4          1.409455   0.000000
      5          3.054089   0.000000
      6          3.312732   0.000000
      7          3.674825   0.000000
      8          4.227737   0.000000
 
  0.3333333E+00  0.1111111E+00  0.1276756E-14  0.5486968E-02
      1        -10.908930   1.000000
      2         -5.720168   1.000000
      3         -2.481606   0.000000
      4          1.577311   0.000000
      5          3.629544   0.000000
      6          4.054250   0.000000
      7          4.277088   0.000000
      8          4.610707   0.000000
 
  0.3703704E+00  0.1111111E+00  0.1276756E-14  0.5486968E-02
      1        -10.430846   1.000000
      2         -5.411793   1.000000
      3         -3.113314   0.000000
      4          1.616706   0.000000
      5          3.395794   0.000000
      6          4.724176   0.000000
      7          5.120415   0.000000
      8          5.483662   0.000000
 
  0.4074074E+00  0.1111111E+00  0.1276756E-14  0.5486968E-02
      1        -10.074526   1.000000
      2         -5.314455   1.000000
      3         -3.424431   0.000000
      4          1.569641   0.000000
      5          3.057795   0.000000
      6          5.610250   0.000000
      7          6.167782   0.000000
      8          6.517188   0.000000
 
  0.4444444E+00  0.1111111E+00  0.1276756E-14  0.5486968E-02
      1         -9.938555   1.000000
      2         -5.322838   1.000000
      3         -3.492561   0.000000
      4          1.533790   0.000000
      5          2.938864   0.000000
      6          6.515187   0.000000
      7          6.728303   0.000000
      8          7.305846   0.000000
 
  0.4814815E+00  0.1111111E+00  0.1276756E-14  0.5486968E-02
      1        -10.074534   1.000000
      2         -5.314471   1.000000
      3         -3.424419   0.000000
      4          1.569643   0.000000
      5          3.057790   0.000000
      6          5.610192   0.000000
      7          6.167726   0.000000
      8          6.517133   0.000000
 
 -0.4814815E+00  0.1111111E+00  0.1276756E-14  0.5486968E-02
      1        -10.430860   1.000000
      2         -5.411825   1.000000
      3         -3.113288   0.000000
      4          1.616693   0.000000
      5          3.395795   0.000000
      6          4.724122   0.000000
      7          5.120363   0.000000
      8          5.483610   0.000000
 
 -0.4444444E+00  0.1111111E+00  0.1276756E-14  0.5486968E-02
      1        -10.908943   1.000000
      2         -5.720207   1.000000
      3         -2.481568   0.000000
      4          1.577279   0.000000
      5          3.629520   0.000000
      6          4.054217   0.000000
      7          4.277056   0.000000
      8          4.610666   0.000000
 
 -0.4074074E+00  0.1111111E+00  0.1276756E-14  0.5486968E-02
      1        -11.430638   1.000000
      2         -6.166417   1.000000
      3         -1.633233   0.000000
      4          1.409403   0.000000
      5          3.054042   0.000000
      6          3.312686   0.000000
      7          3.674780   0.000000
      8          4.227702   0.000000
 
 -0.3703704E+00  0.1111111E+00  0.1276756E-14  0.5486968E-02
      1        -11.948876   1.000000
      2         -6.661715   1.000000
      3         -0.746729   0.000000
      4          1.196876   0.000000
      5          2.333048   0.000000
      6          2.608861   0.000000
      7          3.009323   0.000000
      8          3.589390   0.000000
 
 -0.3333333E+00  0.1111111E+00  0.1276756E-14  0.5486968E-02
      1        -12.437266   1.000000
      2         -7.154076   1.000000
      3         -0.241853   0.000000
      4          1.289481   0.000000
      5          1.675375   0.000000
      6          1.981918   0.000000
      7          2.433412   0.000000
      8          2.994896   0.000000
 
 -0.2962963E+00  0.1111111E+00  0.1276756E-14  0.5486968E-02
      1        -12.880549   1.000000
      2         -7.614497   1.000000
      3         -0.382967   0.000000
      4          1.001591   0.000000
      5          1.291652   0.000000
      6          1.710834   0.000000
      7          2.231576   0.000000
      8          2.676507   0.000000
 
 -0.2592593E+00  0.1111111E+00  0.1276756E-14  0.5486968E-02
      1        -13.269816   1.000000
      2         -8.026291   1.000000
      3         -0.721184   0.000000
      4          0.483564   0.000000
      5          0.796043   0.000000
      6          1.279890   0.000000
      7          1.874876   0.000000
      8          2.601045   0.000000
 
 -0.2222222E+00  0.1111111E+00  0.1276756E-14  0.5486968E-02
      1        -13.599687   1.000000
      2         -8.379505   1.000000
      3         -1.060631   0.000000
      4          0.044176   0.000000
      5          0.365466   0.000000
      6          0.872180   0.000000
      7          1.478075   0.000000
      8          2.197949   0.000000
 
 -0.1851852E+00  0.1111111E+00  0.1276756E-14  0.5486968E-02
      1        -13.866536   1.000000
      2         -8.667574   1.000000
      3         -1.352113   0.000000
      4         -0.308994   0.000000
      5          0.017426   0.000000
      6          0.537370   0.000000
      7          1.150460   0.000000
      8          1.860893   0.000000
 
 -0.1481481E+00  0.1111111E+00  0.1276756E-14  0.5486968E-02
      1        -14.068221   1.000000
      2         -8.886492   1.000000
      3         -1.578496   0.000000
      4         -0.574431   0.000000
      5         -0.244802   0.000000
      6          0.283408   0.000000
      7          0.901804   0.000000
      8          1.605473   0.000000
 
 -0.1111111E+00  0.1111111E+00  0.1276756E-14  0.2743484E-02
      1        -14.203349   1.000000
      2         -9.033633   1.000000
      3         -1.732261   0.000000
      4         -0.751580   0.000000
      5         -0.420032   0.000000
      6          0.113113   0.000000
      7          0.735050   0.000000
      8          1.434490   0.000000
 
  0.1481481E+00  0.1481481E+00  0.1276756E-14  0.2743484E-02
      1        -12.911961   1.000000
      2         -7.647801   1.000000
      3         -0.385438   0.000000
      4          0.963393   0.000000
      5          1.262662   0.000000
      6          1.712720   0.000000
      7          2.277416   0.000000
      8          2.688129   0.000000
 
  0.1851852E+00  0.1481481E+00  0.1276756E-14  0.5486968E-02
      1        -12.497486   1.000000
      2         -7.216674   1.000000
      3         -0.096522   0.000000
      4          1.466529   0.000000
      5          1.612118   0.000000
      6          1.846324   0.000000
      7          2.255531   0.000000
      8          2.841865   0.000000
 
  0.2222222E+00  0.1481481E+00  0.1276756E-14  0.5486968E-02
      1        -12.033336   1.000000
      2         -6.746217   1.000000
      3         -0.210087   0.000000
      4          0.911941   0.000000
      5          2.161111   0.000000
      6          2.422698   0.000000
      7          2.807754   0.000000
      8          3.405644   0.000000
 
  0.2592593E+00  0.1481481E+00  0.1276756E-14  0.5486968E-02
      1        -11.531093   1.000000
      2         -6.258623   1.000000
      3         -1.034755   0.000000
      4          0.925023   0.000000
      5          2.804138   0.000000
      6          3.097236   0.000000
      7          3.461699   0.000000
      8          4.036623   0.000000
 
  0.2962963E+00  0.1481481E+00  0.1276756E-14  0.5486968E-02
      1        -11.010720   1.000000
      2         -5.792116   1.000000
      3         -1.956852   0.000000
      4          1.047963   0.000000
      5          3.359493   0.000000
      6          3.865882   0.000000
      7          4.161479   0.000000
      8          4.535713   0.000000
 
  0.3333333E+00  0.1481481E+00  0.1276756E-14  0.5486968E-02
      1        -10.507311   1.000000
      2         -5.413373   1.000000
      3         -2.728357   0.000000
      4          1.143114   0.000000
      5          3.320103   0.000000
      6          4.545781   0.000000
      7          4.871990   0.000000
      8          5.240494   0.000000
 
  0.3703704E+00  0.1481481E+00  0.1276756E-14  0.5486968E-02
      1        -10.082123   1.000000
      2         -5.213189   1.000000
      3         -3.221571   0.000000
      4          1.231681   0.000000
      5          2.827517   0.000000
      6          5.363211   0.000000
      7          5.863651   0.000000
      8          6.220328   0.000000
 
  0.4074074E+00  0.1481481E+00  0.1276756E-14  0.5486968E-02
      1         -9.827012   1.000000
      2         -5.189831   1.000000
      3         -3.407898   0.000000
      4          1.314547   0.000000
      5          2.462637   0.000000
      6          6.318120   0.000000
      7          6.962245   0.000000
      8          7.288088   0.000000
 
  0.4444444E+00  0.1481481E+00  0.1276756E-14  0.5486968E-02
      1         -9.827017   1.000000
      2         -5.189843   1.000000
      3         -3.407890   0.000000
      4          1.314540   0.000000
      5          2.462646   0.000000
      6          6.318045   0.000000
      7          6.962168   0.000000
      8          7.288037   0.000000
 
  0.4814815E+00  0.1481481E+00  0.1276756E-14  0.5486968E-02
      1        -10.082138   1.000000
      2         -5.213225   1.000000
      3         -3.221544   0.000000
      4          1.231658   0.000000
      5          2.827540   0.000000
      6          5.363141   0.000000
      7          5.863580   0.000000
      8          6.220257   0.000000
 
 -0.4814815E+00  0.1481481E+00  0.1276756E-14  0.5486968E-02
      1        -10.507331   1.000000
      2         -5.413425   1.000000
      3         -2.728317   0.000000
      4          1.143073   0.000000
      5          3.320124   0.000000
      6          4.545725   0.000000
      7          4.871926   0.000000
      8          5.240430   0.000000
 
 -0.4444444E+00  0.1481481E+00  0.1276756E-14  0.5486968E-02
      1        -11.010743   1.000000
      2         -5.792173   1.000000
      3         -1.956808   0.000000
      4          1.047902   0.000000
      5          3.359454   0.000000
      6          3.865830   0.000000
      7          4.161438   0.000000
      8          4.535686   0.000000
 
 -0.4074074E+00  0.1481481E+00  0.1276756E-14  0.5486968E-02
      1        -11.531126   1.000000
      2         -6.258684   1.000000
      3         -1.034714   0.000000
      4          0.924942   0.000000
      5          2.804081   0.000000
      6          3.097181   0.000000
      7          3.461646   0.000000
      8          4.036577   0.000000
 
 -0.3703704E+00  0.1481481E+00  0.1276756E-14  0.5486968E-02
      1        -12.033360   1.000000
      2         -6.746267   1.000000
      3         -0.210048   0.000000
      4          0.911848   0.000000
      5          2.161058   0.000000
      6          2.422646   0.000000
      7          2.807701   0.000000
      8          3.405594   0.000000
 
 -0.3333333E+00  0.1481481E+00  0.1276756E-14  0.5486968E-02
      1        -12.497507   1.000000
      2         -7.216719   1.000000
      3         -0.096529   0.000000
      4          1.466495   0.000000
      5          1.612053   0.000000
      6          1.846262   0.000000
      7          2.255477   0.000000
      8          2.841818   0.000000
 
 -0.2962963E+00  0.1481481E+00  0.1276756E-14  0.5486968E-02
      1        -12.911980   1.000000
      2         -7.647840   1.000000
      3         -0.385461   0.000000
      4          0.963358   0.000000
      5          1.262628   0.000000
      6          1.712683   0.000000
      7          2.277363   0.000000
      8          2.688020   0.000000
 
 -0.2592593E+00  0.1481481E+00  0.1276756E-14  0.5486968E-02
      1        -13.269816   1.000000
      2         -8.026292   1.000000
      3         -0.721189   0.000000
      4          0.483559   0.000000
      5          0.796037   0.000000
      6          1.279882   0.000000
      7          1.874865   0.000000
      8          2.601031   0.000000
 
 -0.2222222E+00  0.1481481E+00  0.1276756E-14  0.5486968E-02
      1        -13.566689   1.000000
      2         -8.343900   1.000000
      3         -1.027982   0.000000
      4          0.087942   0.000000
      5          0.408094   0.000000
      6          0.911610   0.000000
      7          1.515351   0.000000
      8          2.236846   0.000000
 
 -0.1851852E+00  0.1481481E+00  0.1276756E-14  0.5486968E-02
      1        -13.799738   1.000000
      2         -8.595197   1.000000
      3         -1.279949   0.000000
      4         -0.220811   0.000000
      5          0.104169   0.000000
      6          0.620238   0.000000
      7          1.230722   0.000000
      8          1.943972   0.000000
 
 -0.1481481E+00  0.1481481E+00  0.1276756E-14  0.2743484E-02
      1        -13.967294   1.000000
      2         -8.776769   1.000000
      3         -1.465398   0.000000
      4         -0.441744   0.000000
      5         -0.113767   0.000000
      6          0.410131   0.000000
      7          1.025537   0.000000
      8          1.732737   0.000000
 
  0.1851852E+00  0.1851852E+00  0.1276756E-14  0.2743484E-02
      1        -12.061577   1.000000
      2         -6.774729   1.000000
      3          0.114746   0.000000
      4          0.687585   0.000000
      5          2.089280   0.000000
      6          2.353605   0.000000
      7          2.738228   0.000000
      8          3.344199   0.000000
 
  0.2222222E+00  0.1851852E+00  0.1276756E-14  0.5486968E-02
      1        -11.581906   1.000000
      2         -6.306347   1.000000
      3         -0.430480   0.000000
      4          0.363473   0.000000
      5          2.663461   0.000000
      6          2.992701   0.000000
      7          3.358942   0.000000
      8          3.942856   0.000000
 
  0.2592593E+00  0.1851852E+00  0.1276756E-14  0.5486968E-02
      1        -11.073579   1.000000
      2         -5.840437   1.000000
      3         -1.406220   0.000000
      4          0.437585   0.000000
      5          3.203613   0.000000
      6          3.741465   0.000000
      7          4.066581   0.000000
      8          4.524824   0.000000
 
  0.2962963E+00  0.1851852E+00  0.1276756E-14  0.5486968E-02
      1        -10.562999   1.000000
      2         -5.425261   1.000000
      3         -2.275249   0.000000
      4          0.501632   0.000000
      5          3.405413   0.000000
      6          4.473199   0.000000
      7          4.732573   0.000000
      8          5.100130   0.000000
 
  0.3333333E+00  0.1851852E+00  0.1276756E-14  0.5486968E-02
      1        -10.096438   1.000000
      2         -5.135787   1.000000
      3         -2.931876   0.000000
      4          0.586723   0.000000
      5          3.020814   0.000000
      6          5.204993   0.000000
      7          5.649335   0.000000
      8          6.011376   0.000000
 
  0.3703704E+00  0.1851852E+00  0.1276756E-14  0.5486968E-02
      1         -9.749959   1.000000
      2         -5.032510   1.000000
      3         -3.287488   0.000000
      4          0.697217   0.000000
      5          2.568736   0.000000
      6          6.096122   0.000000
      7          6.699566   0.000000
      8          7.044666   0.000000
 
  0.4074074E+00  0.1851852E+00  0.1276756E-14  0.5486968E-02
      1         -9.618202   1.000000
      2         -5.032546   1.000000
      3         -3.380580   0.000000
      4          0.759749   0.000000
      5          2.372254   0.000000
      6          6.920688   0.000000
      7          7.212988   0.000000
      8          7.821855   0.000000
 
  0.4444444E+00  0.1851852E+00  0.1276756E-14  0.5486968E-02
      1         -9.749972   1.000000
      2         -5.032544   1.000000
      3         -3.287463   0.000000
      4          0.697195   0.000000
      5          2.568767   0.000000
      6          6.096033   0.000000
      7          6.699474   0.000000
      8          7.044575   0.000000
 
  0.4814815E+00  0.1851852E+00  0.1276756E-14  0.5486968E-02
      1        -10.096460   1.000000
      2         -5.135849   1.000000
      3         -2.931833   0.000000
      4          0.586686   0.000000
      5          3.020856   0.000000
      6          5.204914   0.000000
      7          5.649250   0.000000
      8          6.011292   0.000000
 
 -0.4814815E+00  0.1851852E+00  0.1276756E-14  0.5486968E-02
      1        -10.563026   1.000000
      2         -5.425333   1.000000
      3         -2.275204   0.000000
      4          0.501583   0.000000
      5          3.405427   0.000000
      6          4.473140   0.000000
      7          4.732504   0.000000
      8          5.100059   0.000000
 
 -0.4444444E+00  0.1851852E+00  0.1276756E-14  0.5486968E-02
      1        -11.073608   1.000000
      2         -5.840509   1.000000
      3         -1.406184   0.000000
      4          0.437523   0.000000
      5          3.203567   0.000000
      6          3.741400   0.000000
      7          4.066523   0.000000
      8          4.524786   0.000000
 
 -0.4074074E+00  0.1851852E+00  0.1276756E-14  0.5486968E-02
      1        -11.581935   1.000000
      2         -6.306414   1.000000
      3         -0.430456   0.000000
      4          0.363391   0.000000
      5          2.663406   0.000000
      6          2.992640   0.000000
      7          3.358883   0.000000
      8          3.942803   0.000000
 
 -0.3703704E+00  0.1851852E+00  0.1276756E-14  0.5486968E-02
      1        -12.061605   1.000000
      2         -6.774789   1.000000
      3          0.114733   0.000000
      4          0.687492   0.000000
      5          2.089230   0.000000
      6          2.353555   0.000000
      7          2.738179   0.000000
      8          3.344150   0.000000
 
 -0.3333333E+00  0.1851852E+00  0.1276756E-14  0.5486968E-02
      1        -12.497511   1.000000
      2         -7.216727   1.000000
      3         -0.096560   0.000000
      4          1.466425   0.000000
      5          1.612022   0.000000
      6          1.846283   0.000000
      7          2.255502   0.000000
      8          2.841831   0.000000
 
 -0.2962963E+00  0.1851852E+00  0.1276756E-14  0.5486968E-02
      1        -12.880555   1.000000
      2         -7.614511   1.000000
      3         -0.382993   0.000000
      4          1.001575   0.000000
      5          1.291630   0.000000
      6          1.710787   0.000000
      7          2.231501   0.000000
      8          2.676478   0.000000
 
 -0.2592593E+00  0.1851852E+00  0.1276756E-14  0.5486968E-02
      1        -13.205190   1.000000
      2         -7.957164   1.000000
      3         -0.673716   0.000000
      4          0.568871   0.000000
      5          0.876050   0.000000
      6          1.344065   0.000000
      7          1.927177   0.000000
      8          2.643977   0.000000
 
 -0.2222222E+00  0.1851852E+00  0.1276756E-14  0.5486968E-02
      1        -13.467969   1.000000
      2         -8.237676   1.000000
      3         -0.932301   0.000000
      4          0.218990   0.000000
      5          0.535383   0.000000
      6          1.028280   0.000000
      7          1.625121   0.000000
      8          2.350575   0.000000
 
 -0.1851852E+00  0.1851852E+00  0.1276756E-14  0.2743484E-02
      1        -13.666644   1.000000
      2         -8.451383   1.000000
      3         -1.138106   0.000000
      4         -0.044643   0.000000
      5          0.277203   0.000000
      6          0.784828   0.000000
      7          1.390011   0.000000
      8          2.108784   0.000000
 
  0.2222222E+00  0.2222222E+00  0.1276756E-14  0.2743484E-02
      1        -11.094885   1.000000
      2         -5.857441   1.000000
      3         -1.080538   0.000000
      4          0.083523   0.000000
      5          3.153257   0.000000
      6          3.698951   0.000000
      7          4.030410   0.000000
      8          4.514241   0.000000
 
  0.2592593E+00  0.2222222E+00  0.1276756E-14  0.5486968E-02
      1        -10.592240   1.000000
      2         -5.434834   1.000000
      3         -1.890046   0.000000
      4         -0.002529   0.000000
      5          3.455229   0.000000
      6          4.444426   0.000000
      7          4.690333   0.000000
      8          5.054623   0.000000
 
  0.2962963E+00  0.2222222E+00  0.1276756E-14  0.5486968E-02
      1        -10.108822   1.000000
      2         -5.091902   1.000000
      3         -2.618976   0.000000
      4          0.003931   0.000000
      5          3.261278   0.000000
      6          5.138196   0.000000
      7          5.526614   0.000000
      8          5.893455   0.000000
 
  0.3333333E+00  0.2222222E+00  0.1276756E-14  0.5486968E-02
      1         -9.703621   1.000000
      2         -4.892917   1.000000
      3         -3.135784   0.000000
      4          0.076408   0.000000
      5          2.860901   0.000000
      6          5.955069   0.000000
      7          6.523961   0.000000
      8          6.869812   0.000000
 
  0.3703704E+00  0.2222222E+00  0.1276756E-14  0.5486968E-02
      1         -9.462447   1.000000
      2         -4.843968   1.000000
      3         -3.372663   0.000000
      4          0.156184   0.000000
      5          2.571518   0.000000
      6          6.703308   0.000000
      7          7.408514   0.000000
      8          7.662494   0.000000
 
  0.4074074E+00  0.2222222E+00  0.1276756E-14  0.5486968E-02
      1         -9.462454   1.000000
      2         -4.843994   1.000000
      3         -3.372644   0.000000
      4          0.156173   0.000000
      5          2.571536   0.000000
      6          6.703242   0.000000
      7          7.408472   0.000000
      8          7.662392   0.000000
 
  0.4444444E+00  0.2222222E+00  0.1276756E-14  0.5486968E-02
      1         -9.703641   1.000000
      2         -4.892986   1.000000
      3         -3.135738   0.000000
      4          0.076384   0.000000
      5          2.860945   0.000000
      6          5.954970   0.000000
      7          6.523856   0.000000
      8          6.869709   0.000000
 
  0.4814815E+00  0.2222222E+00  0.1276756E-14  0.5486968E-02
      1        -10.108857   1.000000
      2         -5.092001   1.000000
      3         -2.618932   0.000000
      4          0.003904   0.000000
      5          3.261319   0.000000
      6          5.138109   0.000000
      7          5.526517   0.000000
      8          5.893359   0.000000
 
 -0.4814815E+00  0.2222222E+00  0.1276756E-14  0.5486968E-02
      1        -10.592273   1.000000
      2         -5.434925   1.000000
      3         -1.890030   0.000000
      4         -0.002544   0.000000
      5          3.455225   0.000000
      6          4.444354   0.000000
      7          4.690261   0.000000
      8          5.054547   0.000000
 
 -0.4444444E+00  0.2222222E+00  0.1276756E-14  0.5486968E-02
      1        -11.094915   1.000000
      2         -5.857523   1.000000
      3         -1.080587   0.000000
      4          0.083544   0.000000
      5          3.153210   0.000000
      6          3.698876   0.000000
      7          4.030341   0.000000
      8          4.514189   0.000000
 
 -0.4074074E+00  0.2222222E+00  0.1276756E-14  0.5486968E-02
      1        -11.581935   1.000000
      2         -6.306423   1.000000
      3         -0.430622   0.000000
      4          0.363540   0.000000
      5          2.663414   0.000000
      6          2.992637   0.000000
      7          3.358880   0.000000
      8          3.942800   0.000000
 
 -0.3703704E+00  0.2222222E+00  0.1276756E-14  0.5486968E-02
      1        -12.033367   1.000000
      2         -6.746287   1.000000
      3         -0.210211   0.000000
      4          0.911898   0.000000
      5          2.161063   0.000000
      6          2.422653   0.000000
      7          2.807712   0.000000
      8          3.405600   0.000000
 
 -0.3333333E+00  0.2222222E+00  0.1276756E-14  0.5486968E-02
      1        -12.437277   1.000000
      2         -7.154101   1.000000
      3         -0.241951   0.000000
      4          1.289362   0.000000
      5          1.675352   0.000000
      6          1.981908   0.000000
      7          2.433428   0.000000
      8          2.994916   0.000000
 
 -0.2962963E+00  0.2222222E+00  0.1276756E-14  0.5486968E-02
      1        -12.786428   1.000000
      2         -7.515168   1.000000
      3         -0.393485   0.000000
      4          1.101290   0.000000
      5          1.353172   0.000000
      6          1.696297   0.000000
      7          2.205779   0.000000
      8          2.749398   0.000000
 
 -0.2592593E+00  0.2222222E+00  0.1276756E-14  0.5486968E-02
      1        -13.076311   1.000000
      2         -7.819910   1.000000
      3         -0.591119   0.000000
      4          0.736448   0.000000
      5          1.028950   0.000000
      6          1.455269   0.000000
      7          2.011855   0.000000
      8          2.675629   0.000000
 
 -0.2222222E+00  0.2222222E+00  0.1276756E-14  0.2743484E-02
      1        -13.304141   1.000000
      2         -8.062201   1.000000
      3         -0.781241   0.000000
      4          0.436284   0.000000
      5          0.744917   0.000000
      6          1.215766   0.000000
      7          1.799062   0.000000
      8          2.523049   0.000000
 
  0.2592593E+00  0.2592593E+00  0.1276756E-14  0.2743484E-02
      1        -10.113618   1.000000
      2         -5.078317   1.000000
      3         -2.463391   0.000000
      4         -0.246507   0.000000
      5          3.361133   0.000000
      6          5.126589   0.000000
      7          5.488828   0.000000
      8          5.858119   0.000000
 
  0.2962963E+00  0.2592593E+00  0.1276756E-14  0.5486968E-02
      1         -9.682435   1.000000
      2         -4.812635   1.000000
      3         -3.009027   0.000000
      4         -0.310300   0.000000
      5          3.085892   0.000000
      6          5.896902   0.000000
      7          6.437111   0.000000
      8          6.780117   0.000000
 
  0.3333333E+00  0.2592593E+00  0.1276756E-14  0.5486968E-02
      1         -9.367674   1.000000
      2         -4.669034   1.000000
      3         -3.389247   0.000000
      4         -0.278313   0.000000
      5          2.825533   0.000000
      6          6.387095   0.000000
      7          7.169891   0.000000
      8          7.525503   0.000000
 
  0.3703704E+00  0.2592593E+00  0.1276756E-14  0.5486968E-02
      1         -9.249556   1.000000
      2         -4.632238   1.000000
      3         -3.520064   0.000000
      4         -0.250590   0.000000
      5          2.718143   0.000000
      6          6.384190   0.000000
      7          7.972715   0.000000
      8          8.263823   0.000000
 
  0.4074074E+00  0.2592593E+00  0.1276756E-14  0.5486968E-02
      1         -9.367689   1.000000
      2         -4.669110   1.000000
      3         -3.389196   0.000000
      4         -0.278323   0.000000
      5          2.825563   0.000000
      6          6.387051   0.000000
      7          7.169803   0.000000
      8          7.525376   0.000000
 
  0.4444444E+00  0.2592593E+00  0.1276756E-14  0.5486968E-02
      1         -9.682460   1.000000
      2         -4.812745   1.000000
      3         -3.008974   0.000000
      4         -0.310302   0.000000
      5          3.085933   0.000000
      6          5.896795   0.000000
      7          6.436994   0.000000
      8          6.780009   0.000000
 
  0.4814815E+00  0.2592593E+00  0.1276756E-14  0.5486968E-02
      1        -10.113651   1.000000
      2         -5.078432   1.000000
      3         -2.463382   0.000000
      4         -0.246480   0.000000
      5          3.361158   0.000000
      6          5.126492   0.000000
      7          5.488721   0.000000
      8          5.858012   0.000000
 
 -0.4814815E+00  0.2592593E+00  0.1276756E-14  0.5486968E-02
      1        -10.592277   1.000000
      2         -5.434944   1.000000
      3         -1.890110   0.000000
      4         -0.002456   0.000000
      5          3.455217   0.000000
      6          4.444341   0.000000
      7          4.690247   0.000000
      8          5.054533   0.000000
 
 -0.4444444E+00  0.2592593E+00  0.1276756E-14  0.5486968E-02
      1        -11.073616   1.000000
      2         -5.840538   1.000000
      3         -1.406351   0.000000
      4          0.437680   0.000000
      5          3.203575   0.000000
      6          3.741384   0.000000
      7          4.066506   0.000000
      8          4.524762   0.000000
 
 -0.4074074E+00  0.2592593E+00  0.1276756E-14  0.5486968E-02
      1        -11.531130   1.000000
      2         -6.258714   1.000000
      3         -1.034917   0.000000
      4          0.925070   0.000000
      5          2.804099   0.000000
      6          3.097173   0.000000
      7          3.461640   0.000000
      8          4.036570   0.000000
 
 -0.3703704E+00  0.2592593E+00  0.1276756E-14  0.5486968E-02
      1        -11.948892   1.000000
      2         -6.661755   1.000000
      3         -0.746926   0.000000
      4          1.196878   0.000000
      5          2.333032   0.000000
      6          2.608857   0.000000
      7          3.009337   0.000000
      8          3.589400   0.000000
 
 -0.3333333E+00  0.2592593E+00  0.1276756E-14  0.5486968E-02
      1        -12.317297   1.000000
      2         -7.030487   1.000000
      3         -0.547638   0.000000
      4          1.222374   0.000000
      5          1.847881   0.000000
      6          2.169307   0.000000
      7          2.658261   0.000000
      8          3.233245   0.000000
 
 -0.2962963E+00  0.2592593E+00  0.1276756E-14  0.5486968E-02
      1        -12.630331   1.000000
      2         -7.351791   1.000000
      3         -0.469460   0.000000
      4          1.164260   0.000000
      5          1.459511   0.000000
      6          1.801250   0.000000
      7          2.339675   0.000000
      8          2.929520   0.000000
 
 -0.2592593E+00  0.2592593E+00  0.1276756E-14  0.2743484E-02
      1        -12.884090   1.000000
      2         -7.616781   1.000000
      3         -0.504204   0.000000
      4          0.969997   0.000000
      5          1.226291   0.000000
      6          1.583297   0.000000
      7          2.123679   0.000000
      8          2.728952   0.000000
 
  0.2962963E+00  0.2962963E+00  0.1276756E-14  0.2743484E-02
      1         -9.336040   1.000000
      2         -4.592959   1.000000
      3         -3.403163   0.000000
      4         -0.436334   0.000000
      5          2.945145   0.000000
      6          6.228382   0.000000
      7          7.080288   0.000000
      8          7.477899   0.000000
 
  0.3333333E+00  0.2962963E+00  0.1276756E-14  0.5486968E-02
      1         -9.136138   1.000000
      2         -4.442149   1.000000
      3         -3.686007   0.000000
      4         -0.459773   0.000000
      5          2.866995   0.000000
      6          6.004542   0.000000
      7          8.012581   0.000000
      8          8.578621   0.000000
 
  0.3703704E+00  0.2962963E+00  0.1276756E-14  0.5486968E-02
      1         -9.136145   1.000000
      2         -4.442224   1.000000
      3         -3.685950   0.000000
      4         -0.459771   0.000000
      5          2.867005   0.000000
      6          6.004543   0.000000
      7          8.012444   0.000000
      8          8.578468   0.000000
 
  0.4074074E+00  0.2962963E+00  0.1276756E-14  0.5486968E-02
      1         -9.336060   1.000000
      2         -4.593100   1.000000
      3         -3.403084   0.000000
      4         -0.436319   0.000000
      5          2.945166   0.000000
      6          6.228366   0.000000
      7          7.080187   0.000000
      8          7.477760   0.000000
 
  0.4444444E+00  0.2962963E+00  0.1276756E-14  0.5486968E-02
      1         -9.682464   1.000000
      2         -4.812784   1.000000
      3         -3.008998   0.000000
      4         -0.310247   0.000000
      5          3.085908   0.000000
      6          5.896784   0.000000
      7          6.436984   0.000000
      8          6.780001   0.000000
 
  0.4814815E+00  0.2962963E+00  0.1276756E-14  0.5486968E-02
      1        -10.108865   1.000000
      2         -5.092053   1.000000
      3         -2.619023   0.000000
      4          0.004031   0.000000
      5          3.261280   0.000000
      6          5.138083   0.000000
      7          5.526495   0.000000
      8          5.893337   0.000000
 
 -0.4814815E+00  0.2962963E+00  0.1276756E-14  0.5486968E-02
      1        -10.563038   1.000000
      2         -5.425390   1.000000
      3         -2.275357   0.000000
      4          0.501756   0.000000
      5          3.405406   0.000000
      6          4.473101   0.000000
      7          4.732469   0.000000
      8          5.100025   0.000000
 
 -0.4444444E+00  0.2962963E+00  0.1276756E-14  0.5486968E-02
      1        -11.010760   1.000000
      2         -5.792232   1.000000
      3         -1.957000   0.000000
      4          1.048059   0.000000
      5          3.359483   0.000000
      6          3.865799   0.000000
      7          4.161403   0.000000
      8          4.535636   0.000000
 
 -0.4074074E+00  0.2962963E+00  0.1276756E-14  0.5486968E-02
      1        -11.430658   1.000000
      2         -6.166476   1.000000
      3         -1.633440   0.000000
      4          1.409468   0.000000
      5          3.054043   0.000000
      6          3.312678   0.000000
      7          3.674778   0.000000
      8          4.227703   0.000000
 
 -0.3703704E+00  0.2962963E+00  0.1276756E-14  0.5486968E-02
      1        -11.809525   1.000000
      2         -6.524830   1.000000
      3         -1.295169   0.000000
      4          1.444976   0.000000
      5          2.571981   0.000000
      6          2.863268   0.000000
      7          3.291560   0.000000
      8          3.869876   0.000000
 
 -0.3333333E+00  0.2962963E+00  0.1276756E-14  0.5486968E-02
      1        -12.138993   1.000000
      2         -6.849495   1.000000
      3         -0.957402   0.000000
      4          1.308554   0.000000
      5          2.109725   0.000000
      6          2.431192   0.000000
      7          2.927199   0.000000
      8          3.516163   0.000000
 
 -0.2962963E+00  0.2962963E+00  0.1276756E-14  0.2743484E-02
      1        -12.413749   1.000000
      2         -7.127986   1.000000
      3         -0.662667   0.000000
      4          1.191473   0.000000
      5          1.729094   0.000000
      6          2.065714   0.000000
      7          2.594740   0.000000
      8          3.192138   0.000000
 
  0.3333333E+00  0.3333333E+00  0.1276756E-14  0.2743484E-02
      1         -9.052806   1.000000
      2         -4.287650   1.000000
      3         -3.876795   0.000000
      4         -0.511348   0.000000
      5          2.899182   0.000000
      6          5.813488   0.000000
      7          8.942616   0.000000
      8          9.018427   0.000000
 
  0.3703704E+00  0.3333333E+00  0.1276756E-14  0.5486968E-02
      1         -9.136150   1.000000
      2         -4.442312   1.000000
      3         -3.685899   0.000000
      4         -0.459747   0.000000
      5          2.866992   0.000000
      6          6.004570   0.000000
      7          8.012436   0.000000
      8          8.578455   0.000000
 
  0.4074074E+00  0.3333333E+00  0.1276756E-14  0.5486968E-02
      1         -9.367697   1.000000
      2         -4.669216   1.000000
      3         -3.389185   0.000000
      4         -0.278245   0.000000
      5          2.825524   0.000000
      6          6.387087   0.000000
      7          7.169811   0.000000
      8          7.525355   0.000000
 
  0.4444444E+00  0.3333333E+00  0.1276756E-14  0.5486968E-02
      1         -9.703653   1.000000
      2         -4.893095   1.000000
      3         -3.135794   0.000000
      4          0.076527   0.000000
      5          2.860885   0.000000
      6          5.954941   0.000000
      7          6.523823   0.000000
      8          6.869680   0.000000
 
  0.4814815E+00  0.3333333E+00  0.1276756E-14  0.5486968E-02
      1        -10.096476   1.000000
      2         -5.135952   1.000000
      3         -2.931951   0.000000
      4          0.586873   0.000000
      5          3.020797   0.000000
      6          5.204871   0.000000
      7          5.649208   0.000000
      8          6.011250   0.000000
 
 -0.4814815E+00  0.3333333E+00  0.1276756E-14  0.5486968E-02
      1        -10.507351   1.000000
      2         -5.413521   1.000000
      3         -2.728479   0.000000
      4          1.143249   0.000000
      5          3.320113   0.000000
      6          4.545670   0.000000
      7          4.871876   0.000000
      8          5.240381   0.000000
 
 -0.4444444E+00  0.3333333E+00  0.1276756E-14  0.5486968E-02
      1        -10.908971   1.000000
      2         -5.720298   1.000000
      3         -2.481759   0.000000
      4          1.577377   0.000000
      5          3.629585   0.000000
      6          4.054177   0.000000
      7          4.277003   0.000000
      8          4.610608   0.000000
 
 -0.4074074E+00  0.3333333E+00  0.1276756E-14  0.5486968E-02
      1        -11.283043   1.000000
      2         -6.036890   1.000000
      3         -2.174302   0.000000
      4          1.750378   0.000000
      5          3.352361   0.000000
      6          3.609289   0.000000
      7          3.978552   0.000000
      8          4.512974   0.000000
 
 -0.3703704E+00  0.3333333E+00  0.1276756E-14  0.5486968E-02
      1        -11.617519   1.000000
      2         -6.341673   1.000000
      3         -1.807296   0.000000
      4          1.674019   0.000000
      5          2.882087   0.000000
      6          3.172080   0.000000
      7          3.600626   0.000000
      8          4.185436   0.000000
 
 -0.3333333E+00  0.3333333E+00  0.1276756E-14  0.2743484E-02
      1        -11.904599   1.000000
      2         -6.616915   1.000000
      3         -1.393318   0.000000
      4          1.486029   0.000000
      5          2.456910   0.000000
      6          2.769415   0.000000
      7          3.246920   0.000000
      8          3.837252   0.000000
 
  0.3703704E+00  0.3703704E+00  0.1276756E-14  0.2743484E-02
      1         -9.249571   1.000000
      2         -4.632413   1.000000
      3         -3.520003   0.000000
      4         -0.250511   0.000000
      5          2.718111   0.000000
      6          6.384248   0.000000
      7          7.972644   0.000000
      8          8.263690   0.000000
 
  0.4074074E+00  0.3703704E+00  0.1276756E-14  0.5486968E-02
      1         -9.462471   1.000000
      2         -4.844164   1.000000
      3         -3.372652   0.000000
      4          0.156320   0.000000
      5          2.571476   0.000000
      6          6.703257   0.000000
      7          7.408481   0.000000
      8          7.662345   0.000000
 
  0.4444444E+00  0.3703704E+00  0.1276756E-14  0.5486968E-02
      1         -9.749991   1.000000
      2         -5.032707   1.000000
      3         -3.287532   0.000000
      4          0.697394   0.000000
      5          2.568692   0.000000
      6          6.095987   0.000000
      7          6.699420   0.000000
      8          7.044524   0.000000
 
  0.4814815E+00  0.3703704E+00  0.1276756E-14  0.5486968E-02
      1        -10.082161   1.000000
      2         -5.213374   1.000000
      3         -3.221661   0.000000
      4          1.231848   0.000000
      5          2.827503   0.000000
      6          5.363086   0.000000
      7          5.863519   0.000000
      8          6.220196   0.000000
 
 -0.4814815E+00  0.3703704E+00  0.1276756E-14  0.5486968E-02
      1        -10.430887   1.000000
      2         -5.411960   1.000000
      3         -3.113440   0.000000
      4          1.616803   0.000000
      5          3.395854   0.000000
      6          4.724066   0.000000
      7          5.120298   0.000000
      8          5.483546   0.000000
 
 -0.4444444E+00  0.3703704E+00  0.1276756E-14  0.5486968E-02
      1        -10.773285   1.000000
      2         -5.638192   1.000000
      3         -2.921974   0.000000
      4          1.845313   0.000000
      5          3.960227   0.000000
      6          4.328596   0.000000
      7          4.520955   0.000000
      8          4.863817   0.000000
 
 -0.4074074E+00  0.3703704E+00  0.1276756E-14  0.5486968E-02
      1        -11.092543   1.000000
      2         -5.881629   1.000000
      3         -2.635388   0.000000
      4          1.930158   0.000000
      5          3.666538   0.000000
      6          3.930529   0.000000
      7          4.294380   0.000000
      8          4.834840   0.000000
 
 -0.3703704E+00  0.3703704E+00  0.1276756E-14  0.2743484E-02
      1        -11.376694   1.000000
      2         -6.122463   1.000000
      3         -2.259551   0.000000
      4          1.858224   0.000000
      5          3.259021   0.000000
      6          3.528334   0.000000
      7          3.920558   0.000000
      8          4.501060   0.000000
 
  0.4074074E+00  0.4074074E+00  0.1276756E-14  0.2743484E-02
      1         -9.618227   1.000000
      2         -5.032745   1.000000
      3         -3.380621   0.000000
      4          0.759949   0.000000
      5          2.372182   0.000000
      6          6.920635   0.000000
      7          7.212878   0.000000
      8          7.821738   0.000000
 
  0.4444444E+00  0.4074074E+00  0.1276756E-14  0.5486968E-02
      1         -9.827044   1.000000
      2         -5.190037   1.000000
      3         -3.407971   0.000000
      4          1.314744   0.000000
      5          2.462598   0.000000
      6          6.317986   0.000000
      7          6.962093   0.000000
      8          7.287959   0.000000
 
  0.4814815E+00  0.4074074E+00  0.1276756E-14  0.5486968E-02
      1        -10.074563   1.000000
      2         -5.314656   1.000000
      3         -3.424532   0.000000
      4          1.569741   0.000000
      5          3.057867   0.000000
      6          5.610129   0.000000
      7          6.167645   0.000000
      8          6.517054   0.000000
 
 -0.4814815E+00  0.4074074E+00  0.1276756E-14  0.5486968E-02
      1        -10.342247   1.000000
      2         -5.430608   1.000000
      3         -3.385611   0.000000
      4          1.701017   0.000000
      5          3.879408   0.000000
      6          5.009423   0.000000
      7          5.463165   0.000000
      8          5.816644   0.000000
 
 -0.4444444E+00  0.4074074E+00  0.1276756E-14  0.5486968E-02
      1        -10.611339   1.000000
      2         -5.562801   1.000000
      3         -3.250097   0.000000
      4          1.836224   0.000000
      5          4.289779   0.000000
      6          4.783852   0.000000
      7          4.943609   0.000000
      8          5.225700   0.000000
 
 -0.4074074E+00  0.4074074E+00  0.1276756E-14  0.2743484E-02
      1        -10.865594   1.000000
      2         -5.717313   1.000000
      3         -2.998835   0.000000
      4          1.941480   0.000000
      5          3.976586   0.000000
      6          4.322804   0.000000
      7          4.680460   0.000000
      8          5.237719   0.000000
 
  0.4444444E+00  0.4444444E+00  0.1276756E-14  0.2743484E-02
      1         -9.938587   1.000000
      2         -5.323047   1.000000
      3         -3.492656   0.000000
      4          1.533883   0.000000
      5          2.938951   0.000000
      6          6.515121   0.000000
      7          6.728151   0.000000
      8          7.305801   0.000000
 
  0.4814815E+00  0.4444444E+00  0.1276756E-14  0.5486968E-02
      1        -10.083256   1.000000
      2         -5.411792   1.000000
      3         -3.542621   0.000000
      4          1.535316   0.000000
      5          3.780528   0.000000
      6          5.909791   0.000000
      7          6.554754   0.000000
      8          6.867596   0.000000
 
 -0.4814815E+00  0.4444444E+00  0.1276756E-14  0.5486968E-02
      1        -10.252590   1.000000
      2         -5.464098   1.000000
      3         -3.540647   0.000000
      4          1.583651   0.000000
      5          4.591837   0.000000
      6          5.319518   0.000000
      7          5.887434   0.000000
      8          6.220697   0.000000
 
 -0.4444444E+00  0.4444444E+00  0.1276756E-14  0.2743484E-02
      1        -10.433412   1.000000
      2         -5.506348   1.000000
      3         -3.453310   0.000000
      4          1.704187   0.000000
      5          4.686777   0.000000
      6          5.196367   0.000000
      7          5.305643   0.000000
      8          5.641424   0.000000
 
  0.4814815E+00  0.4814815E+00  0.1276756E-14  0.2743484E-02
      1        -10.115693   1.000000
      2         -5.474044   1.000000
      3         -3.598140   0.000000
      4          1.464138   0.000000
      5          4.604564   0.000000
      6          6.009440   0.000000
      7          6.478146   0.000000
      8          7.015519   0.000000
 
 -0.4814815E+00  0.4814815E+00  0.1276756E-14  0.2743484E-02
      1        -10.173725   1.000000
      2         -5.487786   1.000000
      3         -3.601757   0.000000
      4          1.479158   0.000000
      5          5.120411   0.000000
      6          5.501511   0.000000
      7          6.379566   0.000000
      8          6.613677   0.000000
