 running   42 mpi-ranks, on    1 nodes
 distrk:  each k-point on   42 cores,    1 groups
 distr:  one band on    1 cores,   42 groups
 vasp.6.5.0 16Dec24 (build Jan 08 2025 16:17:04) complex                        
  
 POSCAR found type information on POSCAR Be
 POSCAR found :  1 types and       1 ions
 Reading from existing POTCAR
 scaLAPACK will be used
 -----------------------------------------------------------------------------
|                                                                             |
|           W    W    AA    RRRRR   N    N  II  N    N   GGGG   !!!           |
|           W    W   A  A   R    R  NN   N  II  NN   N  G    G  !!!           |
|           W    W  A    A  R    R  N N  N  II  N N  N  G       !!!           |
|           W WW W  AAAAAA  RRRRR   N  N N  II  N  N N  G  GGG   !            |
|           WW  WW  A    A  R   R   N   NN  II  N   NN  G    G                |
|           W    W  A    A  R    R  N    N  II  N    N   GGGG   !!!           |
|                                                                             |
|     For optimal performance we recommend to set                             |
|       NCORE = 2 up to number-of-cores-per-socket                            |
|     NCORE specifies how many cores store one orbital (NPAR=cpu/NCORE).      |
|     This setting can greatly improve the performance of VASP for DFT.       |
|     The default, NCORE=1 might be grossly inefficient on modern             |
|     multi-core architectures or massively parallel machines. Do your        |
|     own testing! More info at https://www.vasp.at/wiki/index.php/NCORE      |
|     Unfortunately you need to use the default for GW and RPA                |
|     calculations (for HF NCORE is supported but not extensively tested      |
|     yet).                                                                   |
|                                                                             |
 -----------------------------------------------------------------------------

 Reading from existing POTCAR
 LDA part: xc-table for (Slater+PW92), standard interpolation
 POSCAR, INCAR and KPOINTS ok, starting setup
 FFT: planning ... GRIDC
 FFT: planning ... GRID_SOFT
 FFT: planning ... GRID
 WAVECAR not read
 entering main loop
       N       E                     dE             d eps       ncg     rms          rms(c)
DAV:   1    -0.292821392637E+00   -0.29282E+00   -0.95504E+02  6804   0.367E+01
DAV:   2    -0.342232083056E+01   -0.31295E+01   -0.27156E+01 10164   0.514E+00
DAV:   3    -0.342494059234E+01   -0.26198E-02   -0.26197E-02  7140   0.171E-01
DAV:   4    -0.342494409176E+01   -0.34994E-05   -0.34986E-05 13062   0.598E-03
DAV:   5    -0.342494409129E+01    0.46903E-09   -0.10264E-10  7014   0.180E-05    0.226E+00
DAV:   6    -0.313717209276E+01    0.28777E+00   -0.14430E-01 10374   0.210E-01    0.123E+00
DAV:   7    -0.298189596124E+01    0.15528E+00   -0.23475E-01  9114   0.238E-01    0.168E-01
DAV:   8    -0.297596294244E+01    0.59330E-02   -0.47592E-03 10584   0.361E-02    0.693E-02
DAV:   9    -0.297319906823E+01    0.27639E-02   -0.26924E-03 11172   0.236E-02    0.437E-02
DAV:  10    -0.297404050168E+01   -0.84143E-03   -0.13032E-03 11256   0.174E-02    0.177E-02
DAV:  11    -0.297427497662E+01   -0.23447E-03   -0.30368E-04 11130   0.760E-03    0.946E-03
DAV:  12    -0.297463670408E+01   -0.36173E-03   -0.40614E-05 10248   0.280E-03    0.506E-03
DAV:  13    -0.297501620523E+01   -0.37950E-03   -0.92657E-05  9828   0.286E-03    0.322E-03
DAV:  14    -0.297505462522E+01   -0.38420E-04   -0.19486E-06  9198   0.867E-04    0.181E-03
DAV:  15    -0.297512013188E+01   -0.65507E-04   -0.14352E-05  9660   0.810E-04    0.440E-04
DAV:  16    -0.297512971665E+01   -0.95848E-05   -0.45717E-07  9702   0.177E-04    0.323E-04
DAV:  17    -0.297513428466E+01   -0.45680E-05   -0.21475E-07  9828   0.137E-04    0.136E-04
DAV:  18    -0.297513617179E+01   -0.18871E-05   -0.27353E-08  8904   0.622E-05    0.961E-05
DAV:  19    -0.297513638785E+01   -0.21606E-06   -0.23924E-09 10374   0.233E-05
   1 F= -.29751364E+01 E0= -.29748954E+01  d E =-.481911E-03
