Geometry                                
           1
     2.183746    0.000000    0.000000
     0.000000    2.183746    0.000000
     0.000000    0.000000   40.000000
   Be
     5
Direct configuration=     1
   0.50000000  0.50000000  0.17516224
   0.00000000  0.00000000  0.13758112
   0.50000000  0.50000000  0.10000000
   0.00000000  0.00000000  0.06241888
   0.50000000  0.50000000  0.02483776
Geometry                                
           1
     2.207737    0.000000    0.000000
     0.000000    2.207737    0.000000
     0.000000    0.000000   40.000000
   Be
     5
Direct configuration=     2
   0.50000000  0.50000000  0.17534219
   0.00000000  1.00000000  0.13771289
   0.50000000  0.50000000  0.10000000
   0.00000000  1.00000000  0.06228711
   0.50000000  0.50000000  0.02465781
Geometry                                
           1
     2.217848    0.000000    0.000000
     0.000000    2.217848    0.000000
     0.000000    0.000000   40.000000
   Be
     5
Direct configuration=     3
   0.50000000  0.50000000  0.17541803
   0.00000000  0.00000000  0.13776843
   0.50000000  0.50000000  0.10000000
   0.00000000  0.00000000  0.06223157
   0.50000000  0.50000000  0.02458197
Geometry                                
           1
     2.217308    0.000000    0.000000
     0.000000    2.217308    0.000000
     0.000000    0.000000   40.000000
   Be
     5
Direct configuration=     4
   0.50000000  0.50000000  0.17545411
   0.00000000  0.00000000  0.13788492
   0.50000000  0.50000000  0.10000000
   0.00000000  1.00000000  0.06211508
   0.50000000  0.50000000  0.02454589
Geometry                                
           1
     2.215842    0.000000    0.000000
     0.000000    2.215842    0.000000
     0.000000    0.000000   40.000000
   Be
     5
Direct configuration=     5
   0.50000000  0.50000000  0.17555220
   0.00000000  0.00000000  0.13820162
   0.50000000  0.50000000  0.10000000
   0.00000000  0.00000000  0.06179838
   0.50000000  0.50000000  0.02444780
Geometry                                
           1
     2.214580    0.000000    0.000000
     0.000000    2.214580    0.000000
     0.000000    0.000000   40.000000
   Be
     5
Direct configuration=     6
   0.50000000  0.50000000  0.17567608
   0.00000000  0.00000000  0.13826450
   0.50000000  0.50000000  0.10000000
   0.00000000  1.00000000  0.06173550
   0.50000000  0.50000000  0.02432392
Geometry                                
           1
     2.210792    0.000000    0.000000
     0.000000    2.210792    0.000000
     0.000000    0.000000   40.000000
   Be
     5
Direct configuration=     7
   0.50000000  0.50000000  0.17604772
   0.00000000  0.00000000  0.13845316
   0.50000000  0.50000000  0.10000000
   0.00000000  0.00000000  0.06154684
   0.50000000  0.50000000  0.02395228
Geometry                                
           1
     2.203217    0.000000    0.000000
     0.000000    2.203217    0.000000
     0.000000    0.000000   40.000000
   Be
     5
Direct configuration=     8
   0.50000000  0.50000000  0.17679101
   0.00000000  0.00000000  0.13883047
   0.50000000  0.50000000  0.10000000
   0.00000000  1.00000000  0.06116953
   0.50000000  0.50000000  0.02320899
Geometry                                
           1
     2.188066    0.000000    0.000000
     0.000000    2.188066    0.000000
     0.000000    0.000000   40.000000
   Be
     5
Direct configuration=     9
   0.50000000  0.50000000  0.17827759
   0.00000000  0.00000000  0.13958510
   0.50000000  0.50000000  0.10000000
   0.00000000  0.00000000  0.06041490
   0.50000000  0.50000000  0.02172241
Geometry                                
           1
     2.196663    0.000000    0.000000
     0.000000    2.196663    0.000000
     0.000000    0.000000   40.000000
   Be
     5
Direct configuration=    10
   0.50000000  0.50000000  0.17743405
   0.00000000  0.00000000  0.13915689
   0.50000000  0.50000000  0.10000000
   0.00000000  0.00000000  0.06084311
   0.50000000  0.50000000  0.02256595
Geometry                                
           1
     2.192365    0.000000    0.000000
     0.000000    2.192365    0.000000
     0.000000    0.000000   40.000000
   Be
     5
Direct configuration=    11
   0.50000000  0.50000000  0.17785582
   0.00000000  0.00000000  0.13937100
   0.50000000  0.50000000  0.10000000
   0.00000000  0.00000000  0.06062900
   0.50000000  0.50000000  0.02214418
Geometry                                
           1
     2.194134    0.000000    0.000000
     0.000000    2.194134    0.000000
     0.000000    0.000000   40.000000
   Be
     5
Direct configuration=    12
   0.50000000  0.50000000  0.17768223
   0.00000000  0.00000000  0.13928288
   0.50000000  0.50000000  0.10000000
   0.00000000  0.00000000  0.06071712
   0.50000000  0.50000000  0.02231777
Geometry                                
           1
     2.193731    0.000000    0.000000
     0.000000    2.193731    0.000000
     0.000000    0.000000   40.000000
   Be
     5
Direct configuration=    13
   0.50000000  0.50000000  0.17793200
   0.00000000  0.00000000  0.13898881
   0.50000000  0.50000000  0.10000000
   0.00000000  0.00000000  0.06101119
   0.50000000  0.50000000  0.02206800
Geometry                                
           1
     2.193917    0.000000    0.000000
     0.000000    2.193917    0.000000
     0.000000    0.000000   40.000000
   Be
     5
Direct configuration=    14
   0.50000000  0.50000000  0.17781703
   0.00000000  0.00000000  0.13912417
   0.50000000  0.50000000  0.10000000
   0.00000000  0.00000000  0.06087583
   0.50000000  0.50000000  0.02218297
Geometry                                
           1
     2.191514    0.000000    0.000000
     0.000000    2.191514    0.000000
     0.000000    0.000000   40.000000
   Be
     5
Direct configuration=    15
   0.50000000  0.50000000  0.17780047
   0.00000000  0.00000000  0.13909847
   0.50000000  0.50000000  0.10000000
   0.00000000  0.00000000  0.06090153
   0.50000000  0.50000000  0.02219953
Geometry                                
           1
     2.192942    0.000000    0.000000
     0.000000    2.192942    0.000000
     0.000000    0.000000   40.000000
   Be
     5
Direct configuration=    16
   0.50000000  0.50000000  0.17781031
   0.00000000  0.00000000  0.13911374
   0.50000000  0.50000000  0.10000000
   0.00000000  0.00000000  0.06088626
   0.50000000  0.50000000  0.02218969
Geometry                                
           1
     2.193058    0.000000    0.000000
     0.000000    2.193058    0.000000
     0.000000    0.000000   40.000000
   Be
     5
Direct configuration=    17
   0.50000000  0.50000000  0.17779807
   0.00000000  0.00000000  0.13910137
   0.50000000  0.50000000  0.10000000
   0.00000000  0.00000000  0.06089863
   0.50000000  0.50000000  0.02220193
Geometry                                
           1
     2.193301    0.000000    0.000000
     0.000000    2.193301    0.000000
     0.000000    0.000000   40.000000
   Be
     5
Direct configuration=    18
   0.50000000  0.50000000  0.17777260
   0.00000000  0.00000000  0.13907564
   0.50000000  0.50000000  0.10000000
   0.00000000  0.00000000  0.06092436
   0.50000000  0.50000000  0.02222740
Geometry                                
           1
     2.193309    0.000000    0.000000
     0.000000    2.193309    0.000000
     0.000000    0.000000   40.000000
   Be
     5
Direct configuration=    19
   0.50000000  0.50000000  0.17775646
   0.00000000  0.00000000  0.13907432
   0.50000000  0.50000000  0.10000000
   0.00000000  1.00000000  0.06092568
   0.50000000  0.50000000  0.02224354
Geometry                                
           1
     2.193316    0.000000    0.000000
     0.000000    2.193316    0.000000
     0.000000    0.000000   40.000000
   Be
     5
Direct configuration=    20
   0.50000000  0.50000000  0.17774315
   0.00000000  0.00000000  0.13907324
   0.50000000  0.50000000  0.10000000
   0.00000000  0.00000000  0.06092676
   0.50000000  0.50000000  0.02225685
