   1   1   0   0
  0.1572813E+03  0.2130000E-09  0.2131204E-09  0.4000000E-08  0.5000000E-15
  1.000000000000000E-004
  CAR 
 Convergence                             
     34.19059643    -12.93474508  301     -4.29441155      1.00000000
    -12.935  0.0000E+00  0.0000E+00
    -12.778  0.0000E+00  0.0000E+00
    -12.621  0.0000E+00  0.0000E+00
    -12.463  0.0000E+00  0.0000E+00
    -12.306  0.0000E+00  0.0000E+00
    -12.149  0.0000E+00  0.0000E+00
    -11.992  0.0000E+00  0.0000E+00
    -11.835  0.0000E+00  0.0000E+00
    -11.678  0.0000E+00  0.0000E+00
    -11.521  0.0000E+00  0.0000E+00
    -11.364  0.0000E+00  0.0000E+00
    -11.207  0.0000E+00  0.0000E+00
    -11.050  0.8912E-14  0.1400E-14
    -10.893  0.1167E-03  0.1833E-04
    -10.736  0.5902E-01  0.9289E-02
    -10.578  0.2880E+00  0.5452E-01
    -10.421  0.2005E+00  0.8602E-01
    -10.264  0.3786E+00  0.1455E+00
    -10.107  0.1879E-01  0.1484E+00
     -9.950  0.3938E+00  0.2103E+00
     -9.793  0.2149E+00  0.2441E+00
     -9.636  0.2854E+00  0.2889E+00
     -9.479  0.1750E-02  0.2892E+00
     -9.322  0.3134E+00  0.3384E+00
     -9.165  0.5797E+00  0.4295E+00
     -9.008  0.3867E-02  0.4301E+00
     -8.851  0.2898E+00  0.4756E+00
     -8.693  0.6218E-02  0.4766E+00
     -8.536  0.4884E+00  0.5533E+00
     -8.379  0.2440E+00  0.5916E+00
     -8.222  0.4610E+00  0.6641E+00
     -8.065  0.7265E-04  0.6641E+00
     -7.908  0.1900E+00  0.6939E+00
     -7.751  0.1091E+00  0.7110E+00
     -7.594  0.3659E+00  0.7685E+00
     -7.437  0.5284E+00  0.8515E+00
     -7.280  0.2315E+00  0.8879E+00
     -7.123  0.3655E+00  0.9453E+00
     -6.966  0.1001E-04  0.9453E+00
     -6.808  0.9798E-01  0.9607E+00
     -6.651  0.2008E+00  0.9922E+00
     -6.494  0.5334E+00  0.1076E+01
     -6.337  0.6362E+00  0.1176E+01
     -6.180  0.6443E-01  0.1186E+01
     -6.023  0.5551E+00  0.1273E+01
     -5.866  0.1003E-02  0.1273E+01
     -5.709  0.2328E+00  0.1310E+01
     -5.552  0.1227E+00  0.1329E+01
     -5.395  0.3020E+00  0.1377E+01
     -5.238  0.1882E+01  0.1672E+01
     -5.081  0.6336E+00  0.1772E+01
     -4.923  0.2883E+00  0.1817E+01
     -4.766  0.8135E-01  0.1830E+01
     -4.609  0.2366E+00  0.1867E+01
     -4.452  0.4234E+00  0.1934E+01
     -4.295  0.4176E+00  0.1999E+01
     -4.138  0.4936E+00  0.2077E+01
     -3.981  0.6737E+00  0.2183E+01
     -3.824  0.8055E-01  0.2195E+01
     -3.667  0.4830E-01  0.2203E+01
     -3.510  0.3098E+00  0.2252E+01
     -3.353  0.5368E+00  0.2336E+01
     -3.196  0.2566E+00  0.2376E+01
     -3.038  0.4692E-01  0.2384E+01
     -2.881  0.2904E+00  0.2429E+01
     -2.724  0.3250E-02  0.2430E+01
     -2.567  0.2245E+00  0.2465E+01
     -2.410  0.6269E+00  0.2563E+01
     -2.253  0.4385E-01  0.2570E+01
     -2.096  0.4932E+00  0.2648E+01
     -1.939  0.1034E+00  0.2664E+01
     -1.782  0.2249E-07  0.2664E+01
     -1.625  0.1292E-05  0.2664E+01
     -1.468  0.1474E+00  0.2687E+01
     -1.310  0.1510E+00  0.2711E+01
     -1.153  0.8660E-01  0.2725E+01
     -0.996  0.3485E+00  0.2779E+01
     -0.839  0.4608E+00  0.2852E+01
     -0.682  0.2831E+00  0.2896E+01
     -0.525  0.7735E-01  0.2908E+01
     -0.368  0.5336E+00  0.2992E+01
     -0.211  0.4582E-01  0.2999E+01
     -0.054  0.5389E+00  0.3084E+01
      0.103  0.6223E-01  0.3094E+01
      0.260  0.2140E+00  0.3127E+01
      0.417  0.6153E+00  0.3224E+01
      0.575  0.9784E+00  0.3378E+01
      0.732  0.3077E+00  0.3426E+01
      0.889  0.2255E+01  0.3780E+01
      1.046  0.1675E+01  0.4043E+01
      1.203  0.7517E+00  0.4161E+01
      1.360  0.1646E+01  0.4420E+01
      1.517  0.1603E+01  0.4672E+01
      1.674  0.9105E+00  0.4815E+01
      1.831  0.1994E+01  0.5128E+01
      1.988  0.2238E+01  0.5480E+01
      2.145  0.1387E+01  0.5698E+01
      2.302  0.1006E+01  0.5856E+01
      2.460  0.2745E+01  0.6287E+01
      2.617  0.2381E+01  0.6661E+01
      2.774  0.1794E+01  0.6943E+01
      2.931  0.2680E+01  0.7364E+01
      3.088  0.1641E+01  0.7622E+01
      3.245  0.1686E+01  0.7886E+01
      3.402  0.2298E+01  0.8247E+01
      3.559  0.2831E+01  0.8692E+01
      3.716  0.2219E+01  0.9041E+01
      3.873  0.7952E+00  0.9165E+01
      4.030  0.2258E+01  0.9520E+01
      4.187  0.4704E+01  0.1026E+02
      4.345  0.2718E+01  0.1069E+02
      4.502  0.2117E+01  0.1102E+02
      4.659  0.1986E+01  0.1133E+02
      4.816  0.1305E+01  0.1154E+02
      4.973  0.2040E+01  0.1186E+02
      5.130  0.1639E+01  0.1211E+02
      5.287  0.2993E+01  0.1258E+02
      5.444  0.2475E+01  0.1297E+02
      5.601  0.3186E+01  0.1347E+02
      5.758  0.3705E+01  0.1406E+02
      5.915  0.1207E+01  0.1424E+02
      6.072  0.2334E+01  0.1461E+02
      6.230  0.3391E+01  0.1514E+02
      6.387  0.2645E+01  0.1556E+02
      6.544  0.2784E+01  0.1600E+02
      6.701  0.2818E+01  0.1644E+02
      6.858  0.3371E+01  0.1697E+02
      7.015  0.2401E+01  0.1735E+02
      7.172  0.3529E+01  0.1790E+02
      7.329  0.2908E+01  0.1836E+02
      7.486  0.3822E+01  0.1896E+02
      7.643  0.5349E+01  0.1980E+02
      7.800  0.2312E+01  0.2016E+02
      7.957  0.1239E+01  0.2036E+02
      8.115  0.2893E+01  0.2081E+02
      8.272  0.3915E+01  0.2143E+02
      8.429  0.2875E+01  0.2188E+02
      8.586  0.1904E+01  0.2218E+02
      8.743  0.4795E+01  0.2293E+02
      8.900  0.3061E+01  0.2341E+02
      9.057  0.3880E+01  0.2402E+02
      9.214  0.3082E+01  0.2450E+02
      9.371  0.5008E+01  0.2529E+02
      9.528  0.3636E+01  0.2586E+02
      9.685  0.2936E+01  0.2632E+02
      9.843  0.2822E+01  0.2677E+02
     10.000  0.3778E+01  0.2736E+02
     10.157  0.2582E+01  0.2776E+02
     10.314  0.3840E+01  0.2837E+02
     10.471  0.4091E+01  0.2901E+02
     10.628  0.4018E+01  0.2964E+02
     10.785  0.3376E+01  0.3017E+02
     10.942  0.3862E+01  0.3078E+02
     11.099  0.2925E+01  0.3124E+02
     11.256  0.4196E+01  0.3190E+02
     11.413  0.3242E+01  0.3241E+02
     11.570  0.4048E+01  0.3304E+02
     11.728  0.4945E+01  0.3382E+02
     11.885  0.6092E+01  0.3478E+02
     12.042  0.3199E+01  0.3528E+02
     12.199  0.3974E+01  0.3590E+02
     12.356  0.3456E+01  0.3645E+02
     12.513  0.3240E+01  0.3695E+02
     12.670  0.3277E+01  0.3747E+02
     12.827  0.4632E+01  0.3820E+02
     12.984  0.3863E+01  0.3880E+02
     13.141  0.4749E+01  0.3955E+02
     13.298  0.3043E+01  0.4003E+02
     13.455  0.4174E+01  0.4068E+02
     13.613  0.2650E+01  0.4110E+02
     13.770  0.5526E+01  0.4197E+02
     13.927  0.5847E+01  0.4289E+02
     14.084  0.5396E+01  0.4373E+02
     14.241  0.3245E+01  0.4424E+02
     14.398  0.4485E+01  0.4495E+02
     14.555  0.4089E+01  0.4559E+02
     14.712  0.3741E+01  0.4618E+02
     14.869  0.2533E+01  0.4658E+02
     15.026  0.3890E+01  0.4719E+02
     15.183  0.4020E+01  0.4782E+02
     15.340  0.6683E+01  0.4887E+02
     15.498  0.4026E+01  0.4950E+02
     15.655  0.4699E+01  0.5024E+02
     15.812  0.3557E+01  0.5080E+02
     15.969  0.3597E+01  0.5136E+02
     16.126  0.4740E+01  0.5211E+02
     16.283  0.4037E+01  0.5274E+02
     16.440  0.3939E+01  0.5336E+02
     16.597  0.6080E+01  0.5432E+02
     16.754  0.3976E+01  0.5494E+02
     16.911  0.3844E+01  0.5554E+02
     17.068  0.5144E+01  0.5635E+02
     17.225  0.4487E+01  0.5706E+02
     17.383  0.5416E+01  0.5791E+02
     17.540  0.3270E+01  0.5842E+02
     17.697  0.5603E+01  0.5930E+02
     17.854  0.4126E+01  0.5995E+02
     18.011  0.5815E+01  0.6086E+02
     18.168  0.5984E+01  0.6180E+02
     18.325  0.1802E+01  0.6209E+02
     18.482  0.2974E+01  0.6255E+02
     18.639  0.6360E+01  0.6355E+02
     18.796  0.4387E+01  0.6424E+02
     18.953  0.2999E+01  0.6471E+02
     19.110  0.4500E+01  0.6542E+02
     19.268  0.4095E+01  0.6606E+02
     19.425  0.5212E+01  0.6688E+02
     19.582  0.4244E+01  0.6755E+02
     19.739  0.6449E+01  0.6856E+02
     19.896  0.5264E+01  0.6939E+02
     20.053  0.3548E+01  0.6995E+02
     20.210  0.3122E+01  0.7044E+02
     20.367  0.2685E+01  0.7086E+02
     20.524  0.3718E+01  0.7144E+02
     20.681  0.3172E+01  0.7194E+02
     20.838  0.3128E+01  0.7243E+02
     20.996  0.3404E+01  0.7297E+02
     21.153  0.3791E+01  0.7356E+02
     21.310  0.3940E+01  0.7418E+02
     21.467  0.2152E+01  0.7452E+02
     21.624  0.1270E+01  0.7472E+02
     21.781  0.2000E+01  0.7503E+02
     21.938  0.2364E+01  0.7540E+02
     22.095  0.1708E+01  0.7567E+02
     22.252  0.3418E+01  0.7621E+02
     22.409  0.1202E+01  0.7640E+02
     22.566  0.1374E+01  0.7661E+02
     22.723  0.2937E+01  0.7707E+02
     22.881  0.1519E+01  0.7731E+02
     23.038  0.1095E+01  0.7749E+02
     23.195  0.1069E+01  0.7765E+02
     23.352  0.1153E+01  0.7783E+02
     23.509  0.2395E+01  0.7821E+02
     23.666  0.2305E+01  0.7857E+02
     23.823  0.1913E+01  0.7887E+02
     23.980  0.1158E+01  0.7906E+02
     24.137  0.5214E+00  0.7914E+02
     24.294  0.1646E+01  0.7940E+02
     24.451  0.9601E+00  0.7955E+02
     24.608  0.2050E+01  0.7987E+02
     24.766  0.7945E+00  0.7999E+02
     24.923  0.9873E+00  0.8015E+02
     25.080  0.4573E+00  0.8022E+02
     25.237  0.1240E+01  0.8041E+02
     25.394  0.1690E+01  0.8068E+02
     25.551  0.1027E+01  0.8084E+02
     25.708  0.1079E+01  0.8101E+02
     25.865  0.1575E+01  0.8126E+02
     26.022  0.7636E+00  0.8138E+02
     26.179  0.1608E+01  0.8163E+02
     26.336  0.1047E+01  0.8180E+02
     26.493  0.1017E+01  0.8196E+02
     26.651  0.2347E+00  0.8199E+02
     26.808  0.2666E-02  0.8199E+02
     26.965  0.5462E+00  0.8208E+02
     27.122  0.5661E+00  0.8217E+02
     27.279  0.3771E+00  0.8223E+02
     27.436  0.1332E+00  0.8225E+02
     27.593  0.9663E+00  0.8240E+02
     27.750  0.1587E+01  0.8265E+02
     27.907  0.5265E+00  0.8273E+02
     28.064  0.4519E+00  0.8280E+02
     28.221  0.4830E+00  0.8288E+02
     28.378  0.3324E+00  0.8293E+02
     28.536  0.3364E+00  0.8298E+02
     28.693  0.2566E+00  0.8302E+02
     28.850  0.2825E-02  0.8302E+02
     29.007  0.2900E+00  0.8307E+02
     29.164  0.2338E+00  0.8311E+02
     29.321  0.9595E+00  0.8326E+02
     29.478  0.4020E+00  0.8332E+02
     29.635  0.1133E+00  0.8334E+02
     29.792  0.5373E+00  0.8342E+02
     29.949  0.4772E-01  0.8343E+02
     30.106  0.5327E+00  0.8351E+02
     30.263  0.3847E+00  0.8357E+02
     30.421  0.3093E+00  0.8362E+02
     30.578  0.8692E+00  0.8376E+02
     30.735  0.5849E+00  0.8385E+02
     30.892  0.4764E-02  0.8385E+02
     31.049  0.1756E-11  0.8385E+02
     31.206  0.4922E-07  0.8385E+02
     31.363  0.5842E-01  0.8386E+02
     31.520  0.2399E+00  0.8390E+02
     31.677  0.7799E-03  0.8390E+02
     31.834  0.1948E+00  0.8393E+02
     31.991  0.1898E+00  0.8396E+02
     32.148  0.2610E+00  0.8400E+02
     32.306  0.2894E-03  0.8400E+02
     32.463  0.0000E+00  0.8400E+02
     32.620  0.0000E+00  0.8400E+02
     32.777  0.0000E+00  0.8400E+02
     32.934  0.0000E+00  0.8400E+02
     33.091  0.0000E+00  0.8400E+02
     33.248  0.0000E+00  0.8400E+02
     33.405  0.0000E+00  0.8400E+02
     33.562  0.0000E+00  0.8400E+02
     33.719  0.0000E+00  0.8400E+02
     33.876  0.0000E+00  0.8400E+02
     34.034  0.0000E+00  0.8400E+02
     34.191  0.0000E+00  0.8400E+02
