 running   42 mpi-ranks, on    1 nodes
 distrk:  each k-point on   42 cores,    1 groups
 distr:  one band on    1 cores,   42 groups
 vasp.6.5.0 16Dec24 (build Jan 08 2025 16:17:04) complex                        
  
 POSCAR found type information on POSCAR Be
 POSCAR found :  1 types and       2 ions
 Reading from existing POTCAR
 scaLAPACK will be used
 -----------------------------------------------------------------------------
|                                                                             |
|           W    W    AA    RRRRR   N    N  II  N    N   GGGG   !!!           |
|           W    W   A  A   R    R  NN   N  II  NN   N  G    G  !!!           |
|           W    W  A    A  R    R  N N  N  II  N N  N  G       !!!           |
|           W WW W  AAAAAA  RRRRR   N  N N  II  N  N N  G  GGG   !            |
|           WW  WW  A    A  R   R   N   NN  II  N   NN  G    G                |
|           W    W  A    A  R    R  N    N  II  N    N   GGGG   !!!           |
|                                                                             |
|     For optimal performance we recommend to set                             |
|       NCORE = 2 up to number-of-cores-per-socket                            |
|     NCORE specifies how many cores store one orbital (NPAR=cpu/NCORE).      |
|     This setting can greatly improve the performance of VASP for DFT.       |
|     The default, NCORE=1 might be grossly inefficient on modern             |
|     multi-core architectures or massively parallel machines. Do your        |
|     own testing! More info at https://www.vasp.at/wiki/index.php/NCORE      |
|     Unfortunately you need to use the default for GW and RPA                |
|     calculations (for HF NCORE is supported but not extensively tested      |
|     yet).                                                                   |
|                                                                             |
 -----------------------------------------------------------------------------

 Reading from existing POTCAR
 LDA part: xc-table for (Slater+PW92), standard interpolation
 POSCAR, INCAR and KPOINTS ok, starting setup
 FFT: planning ... GRIDC
 FFT: planning ... GRID_SOFT
 FFT: planning ... GRID
 WAVECAR not read
 entering main loop
       N       E                     dE             d eps       ncg     rms          rms(c)
DAV:   1     0.405312717174E+01    0.40531E+01   -0.11014E+03  5460   0.581E+01
DAV:   2    -0.324956126012E+01   -0.73027E+01   -0.69463E+01  7854   0.659E+00
DAV:   3    -0.331871856548E+01   -0.69157E-01   -0.68578E-01  6384   0.871E-01
DAV:   4    -0.331899564497E+01   -0.27708E-03   -0.27707E-03 10080   0.590E-02
DAV:   5    -0.331899568530E+01   -0.40335E-07   -0.39843E-07  6384   0.580E-04    0.182E+00
DAV:   6    -0.320993519912E+01    0.10906E+00   -0.39947E-02  8568   0.134E-01    0.105E+00
DAV:   7    -0.314109016818E+01    0.68845E-01   -0.81470E-02  8862   0.180E-01    0.137E-01
DAV:   8    -0.314116985389E+01   -0.79686E-04   -0.12383E-03  8064   0.445E-02    0.665E-02
DAV:   9    -0.313978160301E+01    0.13883E-02   -0.10217E-03  9114   0.200E-02    0.300E-02
DAV:  10    -0.314095094725E+01   -0.11693E-02   -0.10190E-03  7896   0.225E-02    0.160E-02
DAV:  11    -0.314136393762E+01   -0.41299E-03   -0.11481E-04  8022   0.958E-03    0.886E-03
DAV:  12    -0.314185996875E+01   -0.49603E-03   -0.37641E-05  7518   0.440E-03    0.357E-03
DAV:  13    -0.314210255339E+01   -0.24258E-03   -0.25114E-05  7812   0.216E-03    0.144E-03
DAV:  14    -0.314215201244E+01   -0.49459E-04   -0.25232E-06  8442   0.756E-04    0.103E-03
DAV:  15    -0.314222025720E+01   -0.68245E-04   -0.12387E-05  8190   0.969E-04    0.484E-04
DAV:  16    -0.314223510591E+01   -0.14849E-04   -0.17808E-06  8358   0.448E-04    0.472E-04
DAV:  17    -0.314223743372E+01   -0.23278E-05   -0.79413E-08  7518   0.175E-04    0.113E-04
DAV:  18    -0.314223964957E+01   -0.22159E-05   -0.55897E-08  7980   0.844E-05    0.684E-05
DAV:  19    -0.314223995815E+01   -0.30858E-06   -0.31245E-10  8568   0.280E-05
   1 F= -.31422400E+01 E0= -.31411211E+01  d E =-.223772E-02
