   1   1   0   0
  0.1572813E+03  0.2130000E-09  0.2131204E-09  0.4000000E-08  0.5000000E-15
  1.000000000000000E-004
  CAR 
 Convergence                             
     34.28645085    -12.77399933  301     -4.18530563      1.00000000
    -12.774  0.0000E+00  0.0000E+00
    -12.617  0.0000E+00  0.0000E+00
    -12.460  0.0000E+00  0.0000E+00
    -12.303  0.0000E+00  0.0000E+00
    -12.147  0.0000E+00  0.0000E+00
    -11.990  0.0000E+00  0.0000E+00
    -11.833  0.0000E+00  0.0000E+00
    -11.676  0.0000E+00  0.0000E+00
    -11.519  0.0000E+00  0.0000E+00
    -11.362  0.0000E+00  0.0000E+00
    -11.205  0.0000E+00  0.0000E+00
    -11.048  0.0000E+00  0.0000E+00
    -10.892  0.6152E-14  0.9651E-15
    -10.735  0.7577E-04  0.1189E-04
    -10.578  0.8619E-01  0.1353E-01
    -10.421  0.2027E+00  0.4533E-01
    -10.264  0.3108E+00  0.9408E-01
    -10.107  0.1775E+00  0.1219E+00
     -9.950  0.3092E+00  0.1704E+00
     -9.794  0.9787E-01  0.1858E+00
     -9.637  0.4331E+00  0.2537E+00
     -9.480  0.1481E+00  0.2769E+00
     -9.323  0.1786E+00  0.3050E+00
     -9.166  0.3174E+00  0.3548E+00
     -9.009  0.4075E+00  0.4187E+00
     -8.852  0.4124E-01  0.4251E+00
     -8.695  0.1851E+00  0.4542E+00
     -8.539  0.3574E+00  0.5102E+00
     -8.382  0.2394E+00  0.5478E+00
     -8.225  0.3635E+00  0.6048E+00
     -8.068  0.1684E-02  0.6051E+00
     -7.911  0.2242E+00  0.6403E+00
     -7.754  0.4711E+00  0.7142E+00
     -7.597  0.2604E+00  0.7550E+00
     -7.440  0.3244E+00  0.8059E+00
     -7.284  0.5796E-01  0.8150E+00
     -7.127  0.3089E-01  0.8198E+00
     -6.970  0.6820E+00  0.9268E+00
     -6.813  0.3525E+00  0.9821E+00
     -6.656  0.8355E-01  0.9952E+00
     -6.499  0.3662E+00  0.1053E+01
     -6.342  0.1475E-01  0.1055E+01
     -6.186  0.1137E+00  0.1073E+01
     -6.029  0.7796E+00  0.1195E+01
     -5.872  0.3862E+00  0.1256E+01
     -5.715  0.1274E+00  0.1276E+01
     -5.558  0.3231E+00  0.1326E+01
     -5.401  0.2624E+00  0.1368E+01
     -5.244  0.1813E+00  0.1396E+01
     -5.087  0.1572E+01  0.1643E+01
     -4.931  0.5893E+00  0.1735E+01
     -4.774  0.2637E+00  0.1776E+01
     -4.617  0.3240E+00  0.1827E+01
     -4.460  0.3152E+00  0.1877E+01
     -4.303  0.2573E+00  0.1917E+01
     -4.146  0.7406E+00  0.2033E+01
     -3.989  0.5851E+00  0.2125E+01
     -3.833  0.6868E-01  0.2136E+01
     -3.676  0.3138E+00  0.2185E+01
     -3.519  0.7851E-01  0.2197E+01
     -3.362  0.3069E+00  0.2245E+01
     -3.205  0.6203E+00  0.2343E+01
     -3.048  0.1466E+00  0.2366E+01
     -2.891  0.2053E+00  0.2398E+01
     -2.734  0.1729E+00  0.2425E+01
     -2.578  0.2067E+00  0.2457E+01
     -2.421  0.3662E+00  0.2515E+01
     -2.264  0.2202E-01  0.2518E+01
     -2.107  0.5479E+00  0.2604E+01
     -1.950  0.4419E-02  0.2605E+01
     -1.793  0.7743E-04  0.2605E+01
     -1.636  0.1737E+00  0.2632E+01
     -1.479  0.3974E+00  0.2695E+01
     -1.323  0.3171E+00  0.2744E+01
     -1.166  0.6795E-01  0.2755E+01
     -1.009  0.6629E-02  0.2756E+01
     -0.852  0.4162E+00  0.2821E+01
     -0.695  0.1509E+00  0.2845E+01
     -0.538  0.3453E-04  0.2845E+01
     -0.381  0.1478E+00  0.2868E+01
     -0.225  0.6260E+00  0.2966E+01
     -0.068  0.2079E+00  0.2999E+01
      0.089  0.6503E+00  0.3101E+01
      0.246  0.5374E+00  0.3185E+01
      0.403  0.1862E+00  0.3215E+01
      0.560  0.8931E+00  0.3355E+01
      0.717  0.6990E+00  0.3464E+01
      0.874  0.7227E+00  0.3578E+01
      1.030  0.9729E+00  0.3730E+01
      1.187  0.2018E+01  0.4047E+01
      1.344  0.1835E+01  0.4335E+01
      1.501  0.1634E+01  0.4591E+01
      1.658  0.1447E+01  0.4818E+01
      1.815  0.2033E+01  0.5137E+01
      1.972  0.9467E+00  0.5285E+01
      2.128  0.1942E+01  0.5590E+01
      2.285  0.2277E+01  0.5947E+01
      2.442  0.1426E+01  0.6171E+01
      2.599  0.1561E+01  0.6416E+01
      2.756  0.2910E+01  0.6872E+01
      2.913  0.2502E+01  0.7265E+01
      3.070  0.1858E+01  0.7556E+01
      3.227  0.1574E+01  0.7803E+01
      3.383  0.1661E+01  0.8064E+01
      3.540  0.2467E+01  0.8451E+01
      3.697  0.3083E+01  0.8934E+01
      3.854  0.2323E+01  0.9299E+01
      4.011  0.2322E+01  0.9663E+01
      4.168  0.2212E+01  0.1001E+02
      4.325  0.2816E+01  0.1045E+02
      4.481  0.2698E+01  0.1087E+02
      4.638  0.1625E+01  0.1113E+02
      4.795  0.2631E+01  0.1154E+02
      4.952  0.1840E+01  0.1183E+02
      5.109  0.2595E+01  0.1224E+02
      5.266  0.2129E+01  0.1257E+02
      5.423  0.2609E+01  0.1298E+02
      5.580  0.2264E+01  0.1334E+02
      5.736  0.1604E+01  0.1359E+02
      5.893  0.2843E+01  0.1403E+02
      6.050  0.3520E+01  0.1459E+02
      6.207  0.2799E+01  0.1503E+02
      6.364  0.4039E+01  0.1566E+02
      6.521  0.2179E+01  0.1600E+02
      6.678  0.2168E+01  0.1634E+02
      6.835  0.2735E+01  0.1677E+02
      6.991  0.3239E+01  0.1728E+02
      7.148  0.3484E+01  0.1782E+02
      7.305  0.2943E+01  0.1829E+02
      7.462  0.3588E+01  0.1885E+02
      7.619  0.2903E+01  0.1930E+02
      7.776  0.3774E+01  0.1990E+02
      7.933  0.3087E+01  0.2038E+02
      8.089  0.2007E+01  0.2070E+02
      8.246  0.3655E+01  0.2127E+02
      8.403  0.3717E+01  0.2185E+02
      8.560  0.2681E+01  0.2227E+02
      8.717  0.3971E+01  0.2290E+02
      8.874  0.3148E+01  0.2339E+02
      9.031  0.2302E+01  0.2375E+02
      9.188  0.3427E+01  0.2429E+02
      9.344  0.4515E+01  0.2500E+02
      9.501  0.3741E+01  0.2558E+02
      9.658  0.3551E+01  0.2614E+02
      9.815  0.3791E+01  0.2674E+02
      9.972  0.2092E+01  0.2706E+02
     10.129  0.4136E+01  0.2771E+02
     10.286  0.4331E+01  0.2839E+02
     10.442  0.2606E+01  0.2880E+02
     10.599  0.2610E+01  0.2921E+02
     10.756  0.4779E+01  0.2996E+02
     10.913  0.4641E+01  0.3069E+02
     11.070  0.4054E+01  0.3132E+02
     11.227  0.2944E+01  0.3179E+02
     11.384  0.3363E+01  0.3231E+02
     11.541  0.4072E+01  0.3295E+02
     11.697  0.4579E+01  0.3367E+02
     11.854  0.3609E+01  0.3424E+02
     12.011  0.5171E+01  0.3505E+02
     12.168  0.3511E+01  0.3560E+02
     12.325  0.3843E+01  0.3620E+02
     12.482  0.2472E+01  0.3659E+02
     12.639  0.4302E+01  0.3726E+02
     12.796  0.4878E+01  0.3803E+02
     12.952  0.4284E+01  0.3870E+02
     13.109  0.3920E+01  0.3932E+02
     13.266  0.4787E+01  0.4007E+02
     13.423  0.4512E+01  0.4077E+02
     13.580  0.4084E+01  0.4141E+02
     13.737  0.3221E+01  0.4192E+02
     13.894  0.3471E+01  0.4246E+02
     14.050  0.3850E+01  0.4307E+02
     14.207  0.4676E+01  0.4380E+02
     14.364  0.6391E+01  0.4480E+02
     14.521  0.3604E+01  0.4537E+02
     14.678  0.3442E+01  0.4591E+02
     14.835  0.3227E+01  0.4642E+02
     14.992  0.3706E+01  0.4700E+02
     15.149  0.4686E+01  0.4773E+02
     15.305  0.4528E+01  0.4844E+02
     15.462  0.5111E+01  0.4924E+02
     15.619  0.5980E+01  0.5018E+02
     15.776  0.3126E+01  0.5067E+02
     15.933  0.4640E+01  0.5140E+02
     16.090  0.3741E+01  0.5199E+02
     16.247  0.4479E+01  0.5269E+02
     16.403  0.5163E+01  0.5350E+02
     16.560  0.2777E+01  0.5394E+02
     16.717  0.4188E+01  0.5459E+02
     16.874  0.4858E+01  0.5536E+02
     17.031  0.3924E+01  0.5597E+02
     17.188  0.6126E+01  0.5693E+02
     17.345  0.3202E+01  0.5743E+02
     17.502  0.4851E+01  0.5819E+02
     17.658  0.6455E+01  0.5921E+02
     17.815  0.4577E+01  0.5993E+02
     17.972  0.4128E+01  0.6057E+02
     18.129  0.4220E+01  0.6124E+02
     18.286  0.4067E+01  0.6187E+02
     18.443  0.4847E+01  0.6263E+02
     18.600  0.3618E+01  0.6320E+02
     18.757  0.4644E+01  0.6393E+02
     18.913  0.4974E+01  0.6471E+02
     19.070  0.2859E+01  0.6516E+02
     19.227  0.5165E+01  0.6597E+02
     19.384  0.5699E+01  0.6686E+02
     19.541  0.5590E+01  0.6774E+02
     19.698  0.4615E+01  0.6846E+02
     19.855  0.3092E+01  0.6895E+02
     20.011  0.3986E+01  0.6957E+02
     20.168  0.4550E+01  0.7029E+02
     20.325  0.3481E+01  0.7083E+02
     20.482  0.2328E+01  0.7120E+02
     20.639  0.3303E+01  0.7172E+02
     20.796  0.3671E+01  0.7229E+02
     20.953  0.4116E+01  0.7294E+02
     21.110  0.3513E+01  0.7349E+02
     21.266  0.2066E+01  0.7381E+02
     21.423  0.3624E+01  0.7438E+02
     21.580  0.2404E+01  0.7476E+02
     21.737  0.1627E+01  0.7501E+02
     21.894  0.1826E+01  0.7530E+02
     22.051  0.2435E+01  0.7568E+02
     22.208  0.2433E+01  0.7606E+02
     22.364  0.1349E+01  0.7628E+02
     22.521  0.1303E+01  0.7648E+02
     22.678  0.2173E+01  0.7682E+02
     22.835  0.1463E+01  0.7705E+02
     22.992  0.1511E+01  0.7729E+02
     23.149  0.1796E+01  0.7757E+02
     23.306  0.1887E+01  0.7786E+02
     23.463  0.2025E+01  0.7818E+02
     23.619  0.1431E+01  0.7841E+02
     23.776  0.1637E+01  0.7866E+02
     23.933  0.1168E+01  0.7885E+02
     24.090  0.1710E+01  0.7912E+02
     24.247  0.1142E+01  0.7929E+02
     24.404  0.4112E+00  0.7936E+02
     24.561  0.2817E+01  0.7980E+02
     24.717  0.1091E+01  0.7997E+02
     24.874  0.8946E+00  0.8011E+02
     25.031  0.7932E+00  0.8024E+02
     25.188  0.1224E+01  0.8043E+02
     25.345  0.1917E+01  0.8073E+02
     25.502  0.6090E+00  0.8083E+02
     25.659  0.1230E+01  0.8102E+02
     25.816  0.8328E+00  0.8115E+02
     25.972  0.1517E+01  0.8139E+02
     26.129  0.1280E+01  0.8159E+02
     26.286  0.7089E+00  0.8170E+02
     26.443  0.6676E+00  0.8180E+02
     26.600  0.6486E+00  0.8191E+02
     26.757  0.1785E+00  0.8193E+02
     26.914  0.4573E+00  0.8200E+02
     27.071  0.1424E+00  0.8203E+02
     27.227  0.7263E+00  0.8214E+02
     27.384  0.9309E+00  0.8229E+02
     27.541  0.9417E+00  0.8243E+02
     27.698  0.5658E+00  0.8252E+02
     27.855  0.9452E+00  0.8267E+02
     28.012  0.5399E+00  0.8276E+02
     28.169  0.5159E+00  0.8284E+02
     28.325  0.5032E+00  0.8292E+02
     28.482  0.1101E+00  0.8293E+02
     28.639  0.4053E+00  0.8300E+02
     28.796  0.2063E+00  0.8303E+02
     28.953  0.1172E+00  0.8305E+02
     29.110  0.5446E+00  0.8313E+02
     29.267  0.7238E+00  0.8325E+02
     29.424  0.4670E+00  0.8332E+02
     29.580  0.7974E-01  0.8333E+02
     29.737  0.1854E+00  0.8336E+02
     29.894  0.1074E+00  0.8338E+02
     30.051  0.3709E+00  0.8344E+02
     30.208  0.3620E+00  0.8349E+02
     30.365  0.5562E+00  0.8358E+02
     30.522  0.3433E+00  0.8363E+02
     30.678  0.6481E+00  0.8374E+02
     30.835  0.3183E+00  0.8379E+02
     30.992  0.2692E+00  0.8383E+02
     31.149  0.1629E+00  0.8385E+02
     31.306  0.5783E+00  0.8394E+02
     31.463  0.1285E+00  0.8396E+02
     31.620  0.1140E-04  0.8397E+02
     31.777  0.7760E-06  0.8397E+02
     31.933  0.2060E-01  0.8397E+02
     32.090  0.2232E-01  0.8397E+02
     32.247  0.1798E+00  0.8400E+02
     32.404  0.4089E-03  0.8400E+02
     32.561  0.0000E+00  0.8400E+02
     32.718  0.0000E+00  0.8400E+02
     32.875  0.0000E+00  0.8400E+02
     33.032  0.0000E+00  0.8400E+02
     33.188  0.0000E+00  0.8400E+02
     33.345  0.0000E+00  0.8400E+02
     33.502  0.0000E+00  0.8400E+02
     33.659  0.0000E+00  0.8400E+02
     33.816  0.0000E+00  0.8400E+02
     33.973  0.0000E+00  0.8400E+02
     34.130  0.0000E+00  0.8400E+02
     34.286  0.0000E+00  0.8400E+02
