Dielectric                              
   1.00000000000000     
     1.133212   -1.962781    0.000000
     1.133212    1.962781    0.000000
     0.000000    0.000000    3.560896
   Be
     2
Direct
   0.333333  0.666667  0.750000
   0.666667  0.333333  0.250000
 
   36   36   56
  3.2578      3.2658      3.2898      3.3290      3.3825      3.4490      3.5266      3.6136      3.7075      3.8058    
  3.9057      4.0041      4.0979      4.1838      4.2588      4.3203      4.3659      4.3940      4.4034      4.3940    
  4.3659      4.3203      4.2588      4.1838      4.0979      4.0041      3.9057      3.8058      3.7075      3.6136    
  3.5266      3.4490      3.3825      3.3290      3.2898      3.2658      3.2658      3.2658      3.2818      3.3134    
  3.3598      3.4197      3.4917      3.5739      3.6643      3.7603      3.8593      3.9584      4.0545      4.1444    
  4.2249      4.2932      4.3469      4.3838      4.4026      4.4026      4.3838      4.3469      4.2932      4.2249    
  4.1444      4.0545      3.9584      3.8593      3.7603      3.6643      3.5739      3.4917      3.4197      3.3598    
  3.3134      3.2818      3.2898      3.2818      3.2898      3.3134      3.3521      3.4048      3.4702      3.5466    
  3.6321      3.7243      3.8209      3.9190      4.0157      4.1080      4.1925      4.2665      4.3271      4.3722    
  4.3999      4.4093      4.3999      4.3722      4.3271      4.2665      4.1925      4.1080      4.0157      3.9190    
  3.8209      3.7243      3.6321      3.5466      3.4702      3.4048      3.3521      3.3134      3.3290      3.3134    
  3.3134      3.3290      3.3598      3.4048      3.4630      3.5327      3.6122      3.6995      3.7921      3.8876    
  3.9832      4.0761      4.1630      4.2411      4.3075      4.3596      4.3956      4.4139      4.4139      4.3956    
  4.3596      4.3075      4.2411      4.1630      4.0761      3.9832      3.8876      3.7921      3.6995      3.6122    
  3.5327      3.4630      3.4048      3.3598      3.3825      3.3598      3.3521      3.3598      3.3825      3.4197    
  3.4702      3.5327      3.6055      3.6867      3.7742      3.8657      3.9586      4.0503      4.1378      4.2183    
  4.2888      4.3467      4.3898      4.4164      4.4254      4.4164      4.3898      4.3467      4.2888      4.2183    
  4.1378      4.0503      3.9586      3.8657      3.7742      3.6867      3.6055      3.5327      3.4702      3.4197    
  3.4490      3.4197      3.4048      3.4048      3.4197      3.4490      3.4917      3.5466      3.6122      3.6867    
  3.7681      3.8544      3.9432      4.0321      4.1184      4.1994      4.2723      4.3343      4.3832      4.4169    
  4.4341      4.4341      4.4169      4.3832      4.3343      4.2723      4.1994      4.1184      4.0321      3.9432    
  3.8544      3.7681      3.6867      3.6122      3.5466      3.4917      3.5266      3.4917      3.4702      3.4630    
  3.4702      3.4917      3.5266      3.5739      3.6321      3.6995      3.7742      3.8544      3.9379      4.0227    
  4.1061      4.1859      4.2592      4.3235      4.3764      4.4157      4.4400      4.4482      4.4400      4.4157    
  4.3764      4.3235      4.2592      4.1859      4.1061      4.0227      3.9379      3.8544      3.7742      3.6995    
  3.6321      3.5739      3.6136      3.5739      3.5466      3.5327      3.5327      3.5466      3.5739      3.6136    
  3.6643      3.7243      3.7921      3.8657      3.9432      4.0227      4.1020      4.1788      4.2508      4.3155    
  4.3705      4.4137      4.4435      4.4587      4.4587      4.4435      4.4137      4.3705      4.3155      4.2508    
  4.1788      4.1020      4.0227      3.9432      3.8657      3.7921      3.7243      3.6643      3.7075      3.6643    
  3.6321      3.6122      3.6055      3.6122      3.6321      3.6643      3.7075      3.7603      3.8209      3.8876    
  3.9586      4.0321      4.1061      4.1788      4.2479      4.3112      4.3664      4.4116      4.4452      4.4658    
  4.4727      4.4658      4.4452      4.4116      4.3664      4.3112      4.2479      4.1788      4.1061      4.0321    
  3.9586      3.8876      3.8209      3.7603      3.8058      3.7603      3.7243      3.6995      3.6867      3.6867    
  3.6995      3.7243      3.7603      3.8058      3.8593      3.9190      3.9832      4.0503      4.1184      4.1859    
  4.2508      4.3112      4.3650      4.4104      4.4458      4.4700      4.4824      4.4824      4.4700      4.4458    
  4.4104      4.3650      4.3112      4.2508      4.1859      4.1184      4.0503      3.9832      3.9190      3.8593    
  3.9057      3.8593      3.8209      3.7921      3.7742      3.7681      3.7742      3.7921      3.8209      3.8593    
  3.9057      3.9584      4.0157      4.0761      4.1378      4.1994      4.2592      4.3155      4.3664      4.4104    
  4.4459      4.4720      4.4879      4.4933      4.4879      4.4720      4.4459      4.4104      4.3664      4.3155    
  4.2592      4.1994      4.1378      4.0761      4.0157      3.9584      4.0041      3.9584      3.9190      3.8876    
  3.8657      3.8544      3.8544      3.8657      3.8876      3.9190      3.9584      4.0041      4.0545      4.1080    
  4.1630      4.2183      4.2723      4.3235      4.3705      4.4116      4.4458      4.4720      4.4898      4.4987    
  4.4987      4.4898      4.4720      4.4458      4.4116      4.3705      4.3235      4.2723      4.2183      4.1630    
  4.1080      4.0545      4.0979      4.0545      4.0157      3.9832      3.9586      3.9432      3.9379      3.9432    
  3.9586      3.9832      4.0157      4.0545      4.0979      4.1444      4.1925      4.2411      4.2888      4.3343    
  4.3764      4.4137      4.4452      4.4700      4.4879      4.4987      4.5023      4.4987      4.4879      4.4700    
  4.4452      4.4137      4.3764      4.3343      4.2888      4.2411      4.1925      4.1444      4.1838      4.1444    
  4.1080      4.0761      4.0503      4.0321      4.0227      4.0227      4.0321      4.0503      4.0761      4.1080    
  4.1444      4.1838      4.2249      4.2665      4.3075      4.3467      4.3832      4.4157      4.4435      4.4658    
  4.4824      4.4933      4.4987      4.4987      4.4933      4.4824      4.4658      4.4435      4.4157      4.3832    
  4.3467      4.3075      4.2665      4.2249      4.2588      4.2249      4.1925      4.1630      4.1378      4.1184    
  4.1061      4.1020      4.1061      4.1184      4.1378      4.1630      4.1925      4.2249      4.2588      4.2932    
  4.3271      4.3596      4.3898      4.4169      4.4400      4.4587      4.4727      4.4824      4.4879      4.4898    
  4.4879      4.4824      4.4727      4.4587      4.4400      4.4169      4.3898      4.3596      4.3271      4.2932    
  4.3203      4.2932      4.2665      4.2411      4.2183      4.1994      4.1859      4.1788      4.1788      4.1859    
  4.1994      4.2183      4.2411      4.2665      4.2932      4.3203      4.3469      4.3722      4.3956      4.4164    
  4.4341      4.4482      4.4587      4.4658      4.4700      4.4720      4.4720      4.4700      4.4658      4.4587    
  4.4482      4.4341      4.4164      4.3956      4.3722      4.3469      4.3659      4.3469      4.3271      4.3075    
  4.2888      4.2723      4.2592      4.2508      4.2479      4.2508      4.2592      4.2723      4.2888      4.3075    
  4.3271      4.3469      4.3659      4.3838      4.3999      4.4139      4.4254      4.4341      4.4400      4.4435    
  4.4452      4.4458      4.4459      4.4458      4.4452      4.4435      4.4400      4.4341      4.4254      4.4139    
  4.3999      4.3838      4.3940      4.3838      4.3722      4.3596      4.3467      4.3343      4.3235      4.3155    
  4.3112      4.3112      4.3155      4.3235      4.3343      4.3467      4.3596      4.3722      4.3838      4.3940    
  4.4026      4.4093      4.4139      4.4164      4.4169      4.4157      4.4137      4.4116      4.4104      4.4104    
  4.4116      4.4137      4.4157      4.4169      4.4164      4.4139      4.4093      4.4026      4.4034      4.4026    
  4.3999      4.3956      4.3898      4.3832      4.3764      4.3705      4.3664      4.3650      4.3664      4.3705    
  4.3764      4.3832      4.3898      4.3956      4.3999      4.4026      4.4034      4.4026      4.3999      4.3956    
  4.3898      4.3832      4.3764      4.3705      4.3664      4.3650      4.3664      4.3705      4.3764      4.3832    
  4.3898      4.3956      4.3999      4.4026      4.3940      4.4026      4.4093      4.4139      4.4164      4.4169    
  4.4157      4.4137      4.4116      4.4104      4.4104      4.4116      4.4137      4.4157      4.4169      4.4164    
  4.4139      4.4093      4.4026      4.3940      4.3838      4.3722      4.3596      4.3467      4.3343      4.3235    
  4.3155      4.3112      4.3112      4.3155      4.3235      4.3343      4.3467      4.3596      4.3722      4.3838    
  4.3659      4.3838      4.3999      4.4139      4.4254      4.4341      4.4400      4.4435      4.4452      4.4458    
  4.4459      4.4458      4.4452      4.4435      4.4400      4.4341      4.4254      4.4139      4.3999      4.3838    
  4.3659      4.3469      4.3271      4.3075      4.2888      4.2723      4.2592      4.2508      4.2479      4.2508    
  4.2592      4.2723      4.2888      4.3075      4.3271      4.3469      4.3203      4.3469      4.3722      4.3956    
  4.4164      4.4341      4.4482      4.4587      4.4658      4.4700      4.4720      4.4720      4.4700      4.4658    
  4.4587      4.4482      4.4341      4.4164      4.3956      4.3722      4.3469      4.3203      4.2932      4.2665    
  4.2411      4.2183      4.1994      4.1859      4.1788      4.1788      4.1859      4.1994      4.2183      4.2411    
  4.2665      4.2932      4.2588      4.2932      4.3271      4.3596      4.3898      4.4169      4.4400      4.4587    
  4.4727      4.4824      4.4879      4.4898      4.4879      4.4824      4.4727      4.4587      4.4400      4.4169    
  4.3898      4.3596      4.3271      4.2932      4.2588      4.2249      4.1925      4.1630      4.1378      4.1184    
  4.1061      4.1020      4.1061      4.1184      4.1378      4.1630      4.1925      4.2249      4.1838      4.2249    
  4.2665      4.3075      4.3467      4.3832      4.4157      4.4435      4.4658      4.4824      4.4933      4.4987    
  4.4987      4.4933      4.4824      4.4658      4.4435      4.4157      4.3832      4.3467      4.3075      4.2665    
  4.2249      4.1838      4.1444      4.1080      4.0761      4.0503      4.0321      4.0227      4.0227      4.0321    
  4.0503      4.0761      4.1080      4.1444      4.0979      4.1444      4.1925      4.2411      4.2888      4.3343    
  4.3764      4.4137      4.4452      4.4700      4.4879      4.4987      4.5023      4.4987      4.4879      4.4700    
  4.4452      4.4137      4.3764      4.3343      4.2888      4.2411      4.1925      4.1444      4.0979      4.0545    
  4.0157      3.9832      3.9586      3.9432      3.9379      3.9432      3.9586      3.9832      4.0157      4.0545    
  4.0041      4.0545      4.1080      4.1630      4.2183      4.2723      4.3235      4.3705      4.4116      4.4458    
  4.4720      4.4898      4.4987      4.4987      4.4898      4.4720      4.4458      4.4116      4.3705      4.3235    
  4.2723      4.2183      4.1630      4.1080      4.0545      4.0041      3.9584      3.9190      3.8876      3.8657    
  3.8544      3.8544      3.8657      3.8876      3.9190      3.9584      3.9057      3.9584      4.0157      4.0761    
  4.1378      4.1994      4.2592      4.3155      4.3664      4.4104      4.4459      4.4720      4.4879      4.4933    
  4.4879      4.4720      4.4459      4.4104      4.3664      4.3155      4.2592      4.1994      4.1378      4.0761    
  4.0157      3.9584      3.9057      3.8593      3.8209      3.7921      3.7742      3.7681      3.7742      3.7921    
  3.8209      3.8593      3.8058      3.8593      3.9190      3.9832      4.0503      4.1184      4.1859      4.2508    
  4.3112      4.3650      4.4104      4.4458      4.4700      4.4824      4.4824      4.4700      4.4458      4.4104    
  4.3650      4.3112      4.2508      4.1859      4.1184      4.0503      3.9832      3.9190      3.8593      3.8058    
  3.7603      3.7243      3.6995      3.6867      3.6867      3.6995      3.7243      3.7603      3.7075      3.7603    
  3.8209      3.8876      3.9586      4.0321      4.1061      4.1788      4.2479      4.3112      4.3664      4.4116    
  4.4452      4.4658      4.4727      4.4658      4.4452      4.4116      4.3664      4.3112      4.2479      4.1788    
  4.1061      4.0321      3.9586      3.8876      3.8209      3.7603      3.7075      3.6643      3.6321      3.6122    
  3.6055      3.6122      3.6321      3.6643      3.6136      3.6643      3.7243      3.7921      3.8657      3.9432    
  4.0227      4.1020      4.1788      4.2508      4.3155      4.3705      4.4137      4.4435      4.4587      4.4587    
  4.4435      4.4137      4.3705      4.3155      4.2508      4.1788      4.1020      4.0227      3.9432      3.8657    
  3.7921      3.7243      3.6643      3.6136      3.5739      3.5466      3.5327      3.5327      3.5466      3.5739    
  3.5266      3.5739      3.6321      3.6995      3.7742      3.8544      3.9379      4.0227      4.1061      4.1859    
  4.2592      4.3235      4.3764      4.4157      4.4400      4.4482      4.4400      4.4157      4.3764      4.3235    
  4.2592      4.1859      4.1061      4.0227      3.9379      3.8544      3.7742      3.6995      3.6321      3.5739    
  3.5266      3.4917      3.4702      3.4630      3.4702      3.4917      3.4490      3.4917      3.5466      3.6122    
  3.6867      3.7681      3.8544      3.9432      4.0321      4.1184      4.1994      4.2723      4.3343      4.3832    
  4.4169      4.4341      4.4341      4.4169      4.3832      4.3343      4.2723      4.1994      4.1184      4.0321    
  3.9432      3.8544      3.7681      3.6867      3.6122      3.5466      3.4917      3.4490      3.4197      3.4048    
  3.4048      3.4197      3.3825      3.4197      3.4702      3.5327      3.6055      3.6867      3.7742      3.8657    
  3.9586      4.0503      4.1378      4.2183      4.2888      4.3467      4.3898      4.4164      4.4254      4.4164    
  4.3898      4.3467      4.2888      4.2183      4.1378      4.0503      3.9586      3.8657      3.7742      3.6867    
  3.6055      3.5327      3.4702      3.4197      3.3825      3.3598      3.3521      3.3598      3.3290      3.3598    
  3.4048      3.4630      3.5327      3.6122      3.6995      3.7921      3.8876      3.9832      4.0761      4.1630    
  4.2411      4.3075      4.3596      4.3956      4.4139      4.4139      4.3956      4.3596      4.3075      4.2411    
  4.1630      4.0761      3.9832      3.8876      3.7921      3.6995      3.6122      3.5327      3.4630      3.4048    
  3.3598      3.3290      3.3134      3.3134      3.2898      3.3134      3.3521      3.4048      3.4702      3.5466    
  3.6321      3.7243      3.8209      3.9190      4.0157      4.1080      4.1925      4.2665      4.3271      4.3722    
  4.3999      4.4093      4.3999      4.3722      4.3271      4.2665      4.1925      4.1080      4.0157      3.9190    
  3.8209      3.7243      3.6321      3.5466      3.4702      3.4048      3.3521      3.3134      3.2898      3.2818    
  3.2658      3.2818      3.3134      3.3598      3.4197      3.4917      3.5739      3.6643      3.7603      3.8593    
  3.9584      4.0545      4.1444      4.2249      4.2932      4.3469      4.3838      4.4026      4.4026      4.3838    
  4.3469      4.2932      4.2249      4.1444      4.0545      3.9584      3.8593      3.7603      3.6643      3.5739    
  3.4917      3.4197      3.3598      3.3134      3.2818      3.2658      3.2605      3.2686      3.2925      3.3317    
  3.3851      3.4514      3.5289      3.6156      3.7093      3.8074      3.9071      4.0054      4.0991      4.1850    
  4.2601      4.3216      4.3673      4.3954      4.4049      4.3954      4.3673      4.3216      4.2601      4.1850    
  4.0991      4.0054      3.9071      3.8074      3.7093      3.6156      3.5289      3.4514      3.3851      3.3317    
  3.2925      3.2686      3.2686      3.2686      3.2846      3.3161      3.3623      3.4221      3.4938      3.5758    
  3.6658      3.7615      3.8603      3.9593      4.0554      4.1453      4.2260      4.2945      4.3483      4.3853    
  4.4042      4.4042      4.3853      4.3483      4.2945      4.2260      4.1453      4.0554      3.9593      3.8603    
  3.7615      3.6658      3.5758      3.4938      3.4221      3.3623      3.3161      3.2846      3.2925      3.2846    
  3.2925      3.3161      3.3547      3.4072      3.4723      3.5484      3.6334      3.7253      3.8216      3.9195    
  4.0162      4.1086      4.1934      4.2676      4.3285      4.3738      4.4017      4.4111      4.4017      4.3738    
  4.3285      4.2676      4.1934      4.1086      4.0162      3.9195      3.8216      3.7253      3.6334      3.5484    
  3.4723      3.4072      3.3547      3.3161      3.3317      3.3161      3.3161      3.3317      3.3623      3.4072    
  3.4651      3.5344      3.6135      3.7003      3.7925      3.8878      3.9834      4.0763      4.1636      4.2420    
  4.3087      4.3611      4.3973      4.4157      4.4157      4.3973      4.3611      4.3087      4.2420      4.1636    
  4.0763      3.9834      3.8878      3.7925      3.7003      3.6135      3.5344      3.4651      3.4072      3.3623    
  3.3851      3.3624      3.3548      3.3624      3.3851      3.4221      3.4723      3.5344      3.6068      3.6874    
  3.7745      3.8657      3.9585      4.0503      4.1381      4.2189      4.2898      4.3480      4.3913      4.4179    
  4.4269      4.4179      4.3913      4.3480      4.2898      4.2189      4.1381      4.0503      3.9585      3.8657    
  3.7745      3.6874      3.6068      3.5344      3.4723      3.4221      3.4514      3.4223      3.4075      3.4075    
  3.4223      3.4514      3.4938      3.5484      3.6135      3.6874      3.7684      3.8543      3.9429      4.0319    
  4.1184      4.1998      4.2730      4.3352      4.3841      4.4178      4.4350      4.4350      4.4178      4.3841    
  4.3352      4.2730      4.1998      4.1184      4.0319      3.9429      3.8543      3.7684      3.6874      3.6135    
  3.5484      3.4938      3.5289      3.4942      3.4729      3.4658      3.4729      3.4942      3.5289      3.5758    
  3.6334      3.7003      3.7745      3.8543      3.9376      4.0223      4.1060      4.1861      4.2596      4.3240    
  4.3767      4.4159      4.4400      4.4481      4.4400      4.4159      4.3767      4.3240      4.2596      4.1861    
  4.1060      4.0223      3.9376      3.8543      3.7745      3.7003      3.6334      3.5758      3.6156      3.5764    
  3.5494      3.5356      3.5356      3.5494      3.5764      3.6156      3.6658      3.7253      3.7925      3.8657    
  3.9429      4.0223      4.1018      4.1789      4.2510      4.3155      4.3702      4.4130      4.4424      4.4574    
  4.4574      4.4424      4.4130      4.3702      4.3155      4.2510      4.1789      4.1018      4.0223      3.9429    
  3.8657      3.7925      3.7253      3.6658      3.7093      3.6666      3.6348      3.6152      3.6086      3.6152    
  3.6348      3.6666      3.7093      3.7615      3.8216      3.8878      3.9585      4.0319      4.1060      4.1789    
  4.2480      4.3110      4.3657      4.4103      4.4432      4.4633      4.4701      4.4633      4.4432      4.4103    
  4.3657      4.3110      4.2480      4.1789      4.1060      4.0319      3.9585      3.8878      3.8216      3.7615    
  3.8074      3.7625      3.7271      3.7026      3.6900      3.6900      3.7026      3.7271      3.7625      3.8074    
  3.8603      3.9195      3.9834      4.0503      4.1184      4.1861      4.2510      4.3110      4.3641      4.4086    
  4.4432      4.4667      4.4786      4.4786      4.4667      4.4432      4.4086      4.3641      4.3110      4.2510    
  4.1861      4.1184      4.0503      3.9834      3.9195      3.8603      3.9071      3.8614      3.8236      3.7953    
  3.7777      3.7718      3.7777      3.7953      3.8236      3.8614      3.9071      3.9593      4.0162      4.0763    
  4.1381      4.1998      4.2596      4.3155      4.3657      4.4086      4.4431      4.4681      4.4834      4.4885    
  4.4834      4.4681      4.4431      4.4086      4.3657      4.3155      4.2596      4.1998      4.1381      4.0763    
  4.0162      3.9593      4.0054      3.9603      3.9215      3.8907      3.8692      3.8582      3.8582      3.8692    
  3.8907      3.9215      3.9603      4.0054      4.0554      4.1086      4.1636      4.2189      4.2730      4.3240    
  4.3702      4.4103      4.4432      4.4681      4.4849      4.4933      4.4933      4.4849      4.4681      4.4432    
  4.4103      4.3702      4.3240      4.2730      4.2189      4.1636      4.1086      4.0554      4.0991      4.0562    
  4.0180      3.9861      3.9620      3.9470      3.9419      3.9470      3.9620      3.9861      4.0180      4.0562    
  4.0991      4.1453      4.1934      4.2420      4.2898      4.3352      4.3767      4.4130      4.4432      4.4667    
  4.4834      4.4933      4.4966      4.4933      4.4834      4.4667      4.4432      4.4130      4.3767      4.3352    
  4.2898      4.2420      4.1934      4.1453      4.1850      4.1459      4.1100      4.0786      4.0534      4.0356    
  4.0265      4.0265      4.0356      4.0534      4.0786      4.1100      4.1459      4.1850      4.2260      4.2676    
  4.3087      4.3480      4.3841      4.4159      4.4424      4.4633      4.4786      4.4885      4.4933      4.4933    
  4.4885      4.4786      4.4633      4.4424      4.4159      4.3841      4.3480      4.3087      4.2676      4.2260    
  4.2601      4.2263      4.1943      4.1652      4.1404      4.1215      4.1095      4.1054      4.1095      4.1215    
  4.1404      4.1652      4.1943      4.2263      4.2601      4.2945      4.3285      4.3611      4.3913      4.4178    
  4.4400      4.4574      4.4701      4.4786      4.4834      4.4849      4.4834      4.4786      4.4701      4.4574    
  4.4400      4.4178      4.3913      4.3611      4.3285      4.2945      4.3216      4.2946      4.2680      4.2428    
  4.2203      4.2018      4.1885      4.1816      4.1816      4.1885      4.2018      4.2203      4.2428      4.2680    
  4.2946      4.3216      4.3483      4.3738      4.3973      4.4179      4.4350      4.4481      4.4574      4.4633    
  4.4667      4.4681      4.4681      4.4667      4.4633      4.4574      4.4481      4.4350      4.4179      4.3973    
  4.3738      4.3483      4.3673      4.3481      4.3284      4.3087      4.2902      4.2738      4.2610      4.2527    
  4.2499      4.2527      4.2610      4.2738      4.2902      4.3087      4.3284      4.3481      4.3673      4.3853    
  4.4017      4.4157      4.4269      4.4350      4.4400      4.4424      4.4432      4.4432      4.4431      4.4432    
  4.4432      4.4424      4.4400      4.4350      4.4269      4.4157      4.4017      4.3853      4.3954      4.3850    
  4.3732      4.3605      4.3475      4.3351      4.3243      4.3164      4.3121      4.3121      4.3164      4.3243    
  4.3351      4.3475      4.3605      4.3732      4.3850      4.3954      4.4042      4.4111      4.4157      4.4179    
  4.4178      4.4159      4.4130      4.4103      4.4086      4.4086      4.4103      4.4130      4.4159      4.4178    
  4.4179      4.4157      4.4111      4.4042      4.4049      4.4038      4.4008      4.3962      4.3902      4.3833    
  4.3763      4.3704      4.3663      4.3649      4.3663      4.3704      4.3763      4.3833      4.3902      4.3962    
  4.4008      4.4038      4.4049      4.4042      4.4017      4.3973      4.3913      4.3841      4.3767      4.3702    
  4.3657      4.3641      4.3657      4.3702      4.3767      4.3841      4.3913      4.3973      4.4017      4.4042    
  4.3954      4.4038      4.4102      4.4144      4.4165      4.4165      4.4150      4.4128      4.4106      4.4093    
  4.4093      4.4106      4.4128      4.4150      4.4165      4.4165      4.4144      4.4102      4.4038      4.3954    
  4.3853      4.3738      4.3611      4.3480      4.3352      4.3240      4.3155      4.3110      4.3110      4.3155    
  4.3240      4.3352      4.3480      4.3611      4.3738      4.3853      4.3673      4.3850      4.4008      4.4144    
  4.4253      4.4335      4.4389      4.4420      4.4435      4.4440      4.4441      4.4440      4.4435      4.4420    
  4.4389      4.4335      4.4253      4.4144      4.4008      4.3850      4.3673      4.3483      4.3285      4.3087    
  4.2898      4.2730      4.2596      4.2510      4.2480      4.2510      4.2596      4.2730      4.2898      4.3087    
  4.3285      4.3483      4.3216      4.3481      4.3732      4.3962      4.4165      4.4335      4.4469      4.4569    
  4.4637      4.4677      4.4696      4.4696      4.4677      4.4637      4.4569      4.4469      4.4335      4.4165    
  4.3962      4.3732      4.3481      4.3216      4.2945      4.2676      4.2420      4.2189      4.1998      4.1861    
  4.1789      4.1789      4.1861      4.1998      4.2189      4.2420      4.2676      4.2945      4.2601      4.2946    
  4.3284      4.3605      4.3902      4.4165      4.4389      4.4569      4.4705      4.4798      4.4852      4.4869    
  4.4852      4.4798      4.4705      4.4569      4.4389      4.4165      4.3902      4.3605      4.3284      4.2946    
  4.2601      4.2260      4.1934      4.1636      4.1381      4.1184      4.1060      4.1018      4.1060      4.1184    
  4.1381      4.1636      4.1934      4.2260      4.1850      4.2263      4.2680      4.3087      4.3475      4.3833    
  4.4150      4.4420      4.4637      4.4798      4.4904      4.4957      4.4957      4.4904      4.4798      4.4637    
  4.4420      4.4150      4.3833      4.3475      4.3087      4.2680      4.2263      4.1850      4.1453      4.1086    
  4.0763      4.0503      4.0319      4.0223      4.0223      4.0319      4.0503      4.0763      4.1086      4.1453    
  4.0991      4.1459      4.1943      4.2428      4.2902      4.3351      4.3763      4.4128      4.4435      4.4677    
  4.4852      4.4957      4.4992      4.4957      4.4852      4.4677      4.4435      4.4128      4.3763      4.3351    
  4.2902      4.2428      4.1943      4.1459      4.0991      4.0554      4.0162      3.9834      3.9585      3.9429    
  3.9376      3.9429      3.9585      3.9834      4.0162      4.0554      4.0054      4.0562      4.1100      4.1652    
  4.2203      4.2738      4.3243      4.3704      4.4106      4.4440      4.4696      4.4869      4.4957      4.4957    
  4.4869      4.4696      4.4440      4.4106      4.3704      4.3243      4.2738      4.2203      4.1652      4.1100    
  4.0562      4.0054      3.9593      3.9195      3.8878      3.8657      3.8543      3.8543      3.8657      3.8878    
  3.9195      3.9593      3.9071      3.9603      4.0180      4.0786      4.1404      4.2018      4.2610      4.3164    
  4.3663      4.4093      4.4441      4.4696      4.4852      4.4904      4.4852      4.4696      4.4441      4.4093    
  4.3663      4.3164      4.2610      4.2018      4.1404      4.0786      4.0180      3.9603      3.9071      3.8603    
  3.8216      3.7925      3.7745      3.7684      3.7745      3.7925      3.8216      3.8603      3.8074      3.8614    
  3.9215      3.9861      4.0534      4.1215      4.1885      4.2527      4.3121      4.3649      4.4093      4.4440    
  4.4677      4.4798      4.4798      4.4677      4.4440      4.4093      4.3649      4.3121      4.2527      4.1885    
  4.1215      4.0534      3.9861      3.9215      3.8614      3.8074      3.7615      3.7253      3.7003      3.6874    
  3.6874      3.7003      3.7253      3.7615      3.7093      3.7625      3.8236      3.8907      3.9620      4.0356    
  4.1095      4.1816      4.2499      4.3121      4.3663      4.4106      4.4435      4.4637      4.4705      4.4637    
  4.4435      4.4106      4.3663      4.3121      4.2499      4.1816      4.1095      4.0356      3.9620      3.8907    
  3.8236      3.7625      3.7093      3.6658      3.6334      3.6135      3.6068      3.6135      3.6334      3.6658    
  3.6156      3.6666      3.7271      3.7953      3.8692      3.9470      4.0265      4.1054      4.1816      4.2527    
  4.3164      4.3704      4.4128      4.4420      4.4569      4.4569      4.4420      4.4128      4.3704      4.3164    
  4.2527      4.1816      4.1054      4.0265      3.9470      3.8692      3.7953      3.7271      3.6666      3.6156    
  3.5758      3.5484      3.5344      3.5344      3.5484      3.5758      3.5289      3.5764      3.6348      3.7026    
  3.7777      3.8582      3.9419      4.0265      4.1095      4.1885      4.2610      4.3243      4.3763      4.4150    
  4.4389      4.4469      4.4389      4.4150      4.3763      4.3243      4.2610      4.1885      4.1095      4.0265    
  3.9419      3.8582      3.7777      3.7026      3.6348      3.5764      3.5289      3.4938      3.4723      3.4651    
  3.4723      3.4938      3.4514      3.4942      3.5494      3.6152      3.6900      3.7718      3.8582      3.9470    
  4.0356      4.1215      4.2018      4.2738      4.3351      4.3833      4.4165      4.4335      4.4335      4.4165    
  4.3833      4.3351      4.2738      4.2018      4.1215      4.0356      3.9470      3.8582      3.7718      3.6900    
  3.6152      3.5494      3.4942      3.4514      3.4221      3.4072      3.4072      3.4221      3.3851      3.4223    
  3.4729      3.5356      3.6086      3.6900      3.7777      3.8692      3.9620      4.0534      4.1404      4.2203    
  4.2902      4.3475      4.3902      4.4165      4.4253      4.4165      4.3902      4.3475      4.2902      4.2203    
  4.1404      4.0534      3.9620      3.8692      3.7777      3.6900      3.6086      3.5356      3.4729      3.4223    
  3.3851      3.3623      3.3547      3.3623      3.3317      3.3624      3.4075      3.4658      3.5356      3.6152    
  3.7026      3.7953      3.8907      3.9861      4.0786      4.1652      4.2428      4.3087      4.3605      4.3962    
  4.4144      4.4144      4.3962      4.3605      4.3087      4.2428      4.1652      4.0786      3.9861      3.8907    
  3.7953      3.7026      3.6152      3.5356      3.4658      3.4075      3.3624      3.3317      3.3161      3.3161    
  3.2925      3.3161      3.3548      3.4075      3.4729      3.5494      3.6348      3.7271      3.8236      3.9215    
  4.0180      4.1100      4.1943      4.2680      4.3284      4.3732      4.4008      4.4102      4.4008      4.3732    
  4.3284      4.2680      4.1943      4.1100      4.0180      3.9215      3.8236      3.7271      3.6348      3.5494    
  3.4729      3.4075      3.3548      3.3161      3.2925      3.2846      3.2686      3.2846      3.3161      3.3624    
  3.4223      3.4942      3.5764      3.6666      3.7625      3.8614      3.9603      4.0562      4.1459      4.2263    
  4.2946      4.3481      4.3850      4.4038      4.4038      4.3850      4.3481      4.2946      4.2263      4.1459    
  4.0562      3.9603      3.8614      3.7625      3.6666      3.5764      3.4942      3.4223      3.3624      3.3161    
  3.2846      3.2686      3.2687      3.2767      3.3005      3.3395      3.3927      3.4586      3.5355      3.6217    
  3.7147      3.8122      3.9115      4.0094      4.1029      4.1888      4.2640      4.3256      4.3715      4.3997    
  4.4093      4.3997      4.3715      4.3256      4.2640      4.1888      4.1029      4.0094      3.9115      3.8122    
  3.7147      3.6217      3.5355      3.4586      3.3927      3.3395      3.3005      3.2767      3.2767      3.2767    
  3.2926      3.3240      3.3699      3.4293      3.5005      3.5818      3.6711      3.7662      3.8644      3.9630    
  4.0588      4.1488      4.2296      4.2983      4.3523      4.3895      4.4085      4.4085      4.3895      4.3523    
  4.2983      4.2296      4.1488      4.0588      3.9630      3.8644      3.7662      3.6711      3.5818      3.5005    
  3.4293      3.3699      3.3240      3.2926      3.3005      3.2926      3.3005      3.3240      3.3623      3.4144    
  3.4790      3.5544      3.6387      3.7299      3.8256      3.9231      4.0195      4.1117      4.1966      4.2710    
  4.3320      4.3773      4.4052      4.4147      4.4052      4.3773      4.3320      4.2710      4.1966      4.1117    
  4.0195      3.9231      3.8256      3.7299      3.6387      3.5544      3.4790      3.4144      3.3623      3.3240    
  3.3395      3.3241      3.3241      3.3395      3.3699      3.4144      3.4718      3.5405      3.6188      3.7049    
  3.7965      3.8913      3.9865      4.0793      4.1664      4.2448      4.3113      4.3635      4.3995      4.4178    
  4.4178      4.3995      4.3635      4.3113      4.2448      4.1664      4.0793      3.9865      3.8913      3.7965    
  3.7049      3.6188      3.5405      3.4718      3.4144      3.3699      3.3927      3.3702      3.3627      3.3702    
  3.3927      3.4293      3.4790      3.5405      3.6121      3.6921      3.7785      3.8691      3.9616      4.0531    
  4.1406      4.2210      4.2913      4.3488      4.3914      4.4176      4.4265      4.4176      4.3914      4.3488    
  4.2913      4.2210      4.1406      4.0531      3.9616      3.8691      3.7785      3.6921      3.6121      3.5405    
  3.4790      3.4293      3.4586      3.4298      3.4152      3.4152      3.4298      3.4586      3.5005      3.5544    
  3.6188      3.6921      3.7724      3.8577      3.9460      4.0346      4.1207      4.2012      4.2733      4.3342    
  4.3819      4.4146      4.4312      4.4312      4.4146      4.3819      4.3342      4.2733      4.2012      4.1207    
  4.0346      3.9460      3.8577      3.7724      3.6921      3.6188      3.5544      3.5005      3.5355      3.5014    
  3.4804      3.4734      3.4804      3.5014      3.5355      3.5818      3.6387      3.7049      3.7785      3.8577    
  3.9407      4.0250      4.1080      4.1869      4.2589      4.3213      4.3721      4.4096      4.4325      4.4402    
  4.4325      4.4096      4.3721      4.3213      4.2589      4.1869      4.1080      4.0250      3.9407      3.8577    
  3.7785      3.7049      3.6387      3.5818      3.6217      3.5831      3.5566      3.5431      3.5431      3.5566    
  3.5831      3.6217      3.6711      3.7299      3.7965      3.8691      3.9460      4.0250      4.1037      4.1794    
  4.2495      4.3116      4.3636      4.4038      4.4313      4.4452      4.4452      4.4313      4.4038      4.3636    
  4.3116      4.2495      4.1794      4.1037      4.0250      3.9460      3.8691      3.7965      3.7299      3.6711    
  3.7147      3.6728      3.6417      3.6226      3.6161      3.6226      3.6417      3.6728      3.7147      3.7662    
  3.8256      3.8913      3.9616      4.0346      4.1080      4.1794      4.2463      4.3063      4.3577      4.3989    
  4.4290      4.4472      4.4533      4.4472      4.4290      4.3989      4.3577      4.3063      4.2463      4.1794    
  4.1080      4.0346      3.9616      3.8913      3.8256      3.7662      3.8122      3.7681      3.7335      3.7097    
  3.6975      3.6975      3.7097      3.7335      3.7681      3.8122      3.8644      3.9231      3.9865      4.0531    
  4.1207      4.1869      4.2495      4.3063      4.3556      4.3961      4.4269      4.4476      4.4579      4.4579    
  4.4476      4.4269      4.3961      4.3556      4.3063      4.2495      4.1869      4.1207      4.0531      3.9865    
  3.9231      3.8644      3.9115      3.8665      3.8296      3.8020      3.7851      3.7793      3.7851      3.8020    
  3.8296      3.8665      3.9115      3.9630      4.0195      4.0793      4.1406      4.2012      4.2589      4.3116    
  4.3577      4.3961      4.4261      4.4474      4.4601      4.4643      4.4601      4.4474      4.4261      4.3961    
  4.3577      4.3116      4.2589      4.2012      4.1406      4.0793      4.0195      3.9630      4.0094      3.9650    
  3.9271      3.8971      3.8764      3.8657      3.8657      3.8764      3.8971      3.9271      3.9650      4.0094    
  4.0588      4.1117      4.1664      4.2210      4.2733      4.3213      4.3636      4.3989      4.4269      4.4474    
  4.4607      4.4673      4.4673      4.4607      4.4474      4.4269      4.3989      4.3636      4.3213      4.2733    
  4.2210      4.1664      4.1117      4.0588      4.1029      4.0605      4.0231      3.9921      3.9688      3.9543    
  3.9494      3.9543      3.9688      3.9921      4.0231      4.0605      4.1029      4.1488      4.1966      4.2448    
  4.2913      4.3342      4.3721      4.4038      4.4290      4.4476      4.4601      4.4673      4.4696      4.4673    
  4.4601      4.4476      4.4290      4.4038      4.3721      4.3342      4.2913      4.2448      4.1966      4.1488    
  4.1888      4.1500      4.1146      4.0840      4.0596      4.0425      4.0338      4.0338      4.0425      4.0596    
  4.0840      4.1146      4.1500      4.1888      4.2296      4.2710      4.3113      4.3488      4.3819      4.4096    
  4.4313      4.4472      4.4579      4.4643      4.4673      4.4673      4.4643      4.4579      4.4472      4.4313    
  4.4096      4.3819      4.3488      4.3113      4.2710      4.2296      4.2640      4.2303      4.1986      4.1701    
  4.1460      4.1277      4.1163      4.1124      4.1163      4.1277      4.1460      4.1701      4.1986      4.2303    
  4.2640      4.2983      4.3320      4.3635      4.3914      4.4146      4.4325      4.4452      4.4533      4.4579    
  4.4601      4.4607      4.4601      4.4579      4.4533      4.4452      4.4325      4.4146      4.3914      4.3635    
  4.3320      4.2983      4.3256      4.2986      4.2720      4.2472      4.2252      4.2072      4.1945      4.1878    
  4.1878      4.1945      4.2072      4.2252      4.2472      4.2720      4.2986      4.3256      4.3523      4.3773    
  4.3995      4.4176      4.4312      4.4402      4.4452      4.4472      4.4476      4.4474      4.4474      4.4476    
  4.4472      4.4452      4.4402      4.4312      4.4176      4.3995      4.3773      4.3523      4.3715      4.3522    
  4.3323      4.3127      4.2943      4.2783      4.2658      4.2579      4.2551      4.2579      4.2658      4.2783    
  4.2943      4.3127      4.3323      4.3522      4.3715      4.3895      4.4052      4.4178      4.4265      4.4312    
  4.4325      4.4313      4.4290      4.4269      4.4261      4.4269      4.4290      4.4313      4.4325      4.4312    
  4.4265      4.4178      4.4052      4.3895      4.3997      4.3891      4.3771      4.3641      4.3510      4.3387    
  4.3281      4.3202      4.3161      4.3161      4.3202      4.3281      4.3387      4.3510      4.3641      4.3771    
  4.3891      4.3997      4.4085      4.4147      4.4178      4.4176      4.4146      4.4096      4.4038      4.3989    
  4.3961      4.3961      4.3989      4.4038      4.4096      4.4146      4.4176      4.4178      4.4147      4.4085    
  4.4093      4.4079      4.4046      4.3996      4.3932      4.3860      4.3790      4.3729      4.3689      4.3674    
  4.3689      4.3729      4.3790      4.3860      4.3932      4.3996      4.4046      4.4079      4.4093      4.4085    
  4.4052      4.3995      4.3914      4.3819      4.3721      4.3636      4.3577      4.3556      4.3577      4.3636    
  4.3721      4.3819      4.3914      4.3995      4.4052      4.4085      4.3997      4.4079      4.4140      4.4177    
  4.4192      4.4187      4.4167      4.4141      4.4117      4.4103      4.4103      4.4117      4.4141      4.4167    
  4.4187      4.4192      4.4177      4.4140      4.4079      4.3997      4.3895      4.3773      4.3635      4.3488    
  4.3342      4.3213      4.3116      4.3063      4.3063      4.3116      4.3213      4.3342      4.3488      4.3635    
  4.3773      4.3895      4.3715      4.3891      4.4046      4.4177      4.4279      4.4353      4.4399      4.4424    
  4.4434      4.4436      4.4436      4.4436      4.4434      4.4424      4.4399      4.4353      4.4279      4.4177    
  4.4046      4.3891      4.3715      4.3523      4.3320      4.3113      4.2913      4.2733      4.2589      4.2495    
  4.2463      4.2495      4.2589      4.2733      4.2913      4.3113      4.3320      4.3523      4.3256      4.3522    
  4.3771      4.3996      4.4192      4.4353      4.4478      4.4568      4.4628      4.4662      4.4678      4.4678    
  4.4662      4.4628      4.4568      4.4478      4.4353      4.4192      4.3996      4.3771      4.3522      4.3256    
  4.2983      4.2710      4.2448      4.2210      4.2012      4.1869      4.1794      4.1794      4.1869      4.2012    
  4.2210      4.2448      4.2710      4.2983      4.2640      4.2986      4.3323      4.3641      4.3932      4.4187    
  4.4399      4.4568      4.4693      4.4777      4.4826      4.4841      4.4826      4.4777      4.4693      4.4568    
  4.4399      4.4187      4.3932      4.3641      4.3323      4.2986      4.2640      4.2296      4.1966      4.1664    
  4.1406      4.1207      4.1080      4.1037      4.1080      4.1207      4.1406      4.1664      4.1966      4.2296    
  4.1888      4.2303      4.2720      4.3127      4.3510      4.3860      4.4167      4.4424      4.4628      4.4777    
  4.4875      4.4923      4.4923      4.4875      4.4777      4.4628      4.4424      4.4167      4.3860      4.3510    
  4.3127      4.2720      4.2303      4.1888      4.1488      4.1117      4.0793      4.0531      4.0346      4.0250    
  4.0250      4.0346      4.0531      4.0793      4.1117      4.1488      4.1029      4.1500      4.1986      4.2472    
  4.2943      4.3387      4.3790      4.4141      4.4434      4.4662      4.4826      4.4923      4.4955      4.4923    
  4.4826      4.4662      4.4434      4.4141      4.3790      4.3387      4.2943      4.2472      4.1986      4.1500    
  4.1029      4.0588      4.0195      3.9865      3.9616      3.9460      3.9407      3.9460      3.9616      3.9865    
  4.0195      4.0588      4.0094      4.0605      4.1146      4.1701      4.2252      4.2783      4.3281      4.3729    
  4.4117      4.4436      4.4678      4.4841      4.4923      4.4923      4.4841      4.4678      4.4436      4.4117    
  4.3729      4.3281      4.2783      4.2252      4.1701      4.1146      4.0605      4.0094      3.9630      3.9231    
  3.8913      3.8691      3.8577      3.8577      3.8691      3.8913      3.9231      3.9630      3.9115      3.9650    
  4.0231      4.0840      4.1460      4.2072      4.2658      4.3202      4.3689      4.4103      4.4436      4.4678    
  4.4826      4.4875      4.4826      4.4678      4.4436      4.4103      4.3689      4.3202      4.2658      4.2072    
  4.1460      4.0840      4.0231      3.9650      3.9115      3.8644      3.8256      3.7965      3.7785      3.7724    
  3.7785      3.7965      3.8256      3.8644      3.8122      3.8665      3.9271      3.9921      4.0596      4.1277    
  4.1945      4.2579      4.3161      4.3674      4.4103      4.4436      4.4662      4.4777      4.4777      4.4662    
  4.4436      4.4103      4.3674      4.3161      4.2579      4.1945      4.1277      4.0596      3.9921      3.9271    
  3.8665      3.8122      3.7662      3.7299      3.7049      3.6921      3.6921      3.7049      3.7299      3.7662    
  3.7147      3.7681      3.8296      3.8971      3.9688      4.0425      4.1163      4.1878      4.2551      4.3161    
  4.3689      4.4117      4.4434      4.4628      4.4693      4.4628      4.4434      4.4117      4.3689      4.3161    
  4.2551      4.1878      4.1163      4.0425      3.9688      3.8971      3.8296      3.7681      3.7147      3.6711    
  3.6387      3.6188      3.6121      3.6188      3.6387      3.6711      3.6217      3.6728      3.7335      3.8020    
  3.8764      3.9543      4.0338      4.1124      4.1878      4.2579      4.3202      4.3729      4.4141      4.4424    
  4.4568      4.4568      4.4424      4.4141      4.3729      4.3202      4.2579      4.1878      4.1124      4.0338    
  3.9543      3.8764      3.8020      3.7335      3.6728      3.6217      3.5818      3.5544      3.5405      3.5405    
  3.5544      3.5818      3.5355      3.5831      3.6417      3.7097      3.7851      3.8657      3.9494      4.0338    
  4.1163      4.1945      4.2658      4.3281      4.3790      4.4167      4.4399      4.4478      4.4399      4.4167    
  4.3790      4.3281      4.2658      4.1945      4.1163      4.0338      3.9494      3.8657      3.7851      3.7097    
  3.6417      3.5831      3.5355      3.5005      3.4790      3.4718      3.4790      3.5005      3.4586      3.5014    
  3.5566      3.6226      3.6975      3.7793      3.8657      3.9543      4.0425      4.1277      4.2072      4.2783    
  4.3387      4.3860      4.4187      4.4353      4.4353      4.4187      4.3860      4.3387      4.2783      4.2072    
  4.1277      4.0425      3.9543      3.8657      3.7793      3.6975      3.6226      3.5566      3.5014      3.4586    
  3.4293      3.4144      3.4144      3.4293      3.3927      3.4298      3.4804      3.5431      3.6161      3.6975    
  3.7851      3.8764      3.9688      4.0596      4.1460      4.2252      4.2943      4.3510      4.3932      4.4192    
  4.4279      4.4192      4.3932      4.3510      4.2943      4.2252      4.1460      4.0596      3.9688      3.8764    
  3.7851      3.6975      3.6161      3.5431      3.4804      3.4298      3.3927      3.3699      3.3623      3.3699    
  3.3395      3.3702      3.4152      3.4734      3.5431      3.6226      3.7097      3.8020      3.8971      3.9921    
  4.0840      4.1701      4.2472      4.3127      4.3641      4.3996      4.4177      4.4177      4.3996      4.3641    
  4.3127      4.2472      4.1701      4.0840      3.9921      3.8971      3.8020      3.7097      3.6226      3.5431    
  3.4734      3.4152      3.3702      3.3395      3.3240      3.3240      3.3005      3.3241      3.3627      3.4152    
  3.4804      3.5566      3.6417      3.7335      3.8296      3.9271      4.0231      4.1146      4.1986      4.2720    
  4.3323      4.3771      4.4046      4.4140      4.4046      4.3771      4.3323      4.2720      4.1986      4.1146    
  4.0231      3.9271      3.8296      3.7335      3.6417      3.5566      3.4804      3.4152      3.3627      3.3241    
  3.3005      3.2926      3.2767      3.2926      3.3241      3.3702      3.4298      3.5014      3.5831      3.6728    
  3.7681      3.8665      3.9650      4.0605      4.1500      4.2303      4.2986      4.3522      4.3891      4.4079    
  4.4079      4.3891      4.3522      4.2986      4.2303      4.1500      4.0605      3.9650      3.8665      3.7681    
  3.6728      3.5831      3.5014      3.4298      3.3702      3.3241      3.2926      3.2767      3.2817      3.2896    
  3.3133      3.3520      3.4048      3.4701      3.5463      3.6316      3.7237      3.8203      3.9188      4.0161    
  4.1093      4.1951      4.2703      4.3321      4.3781      4.4065      4.4161      4.4065      4.3781      4.3321    
  4.2703      4.1951      4.1093      4.0161      3.9188      3.8203      3.7237      3.6316      3.5463      3.4701    
  3.4048      3.3520      3.3133      3.2896      3.2896      3.2896      3.3054      3.3365      3.3821      3.4408    
  3.5113      3.5917      3.6800      3.7742      3.8716      3.9695      4.0649      4.1546      4.2353      4.3040    
  4.3579      4.3950      4.4140      4.4140      4.3950      4.3579      4.3040      4.2353      4.1546      4.0649    
  3.9695      3.8716      3.7742      3.6800      3.5917      3.5113      3.4408      3.3821      3.3365      3.3054    
  3.3133      3.3055      3.3133      3.3365      3.3744      3.4260      3.4898      3.5643      3.6477      3.7379    
  3.8327      3.9295      4.0253      4.1171      4.2015      4.2753      4.3357      4.3805      4.4081      4.4174    
  4.4081      4.3805      4.3357      4.2753      4.2015      4.1171      4.0253      3.9295      3.8327      3.7379    
  3.6477      3.5643      3.4898      3.4260      3.3744      3.3365      3.3520      3.3368      3.3368      3.3520    
  3.3821      3.4260      3.4826      3.5504      3.6278      3.7130      3.8037      3.8977      3.9922      4.0842    
  4.1703      4.2473      4.3125      4.3634      4.3983      4.4161      4.4161      4.3983      4.3634      4.3125    
  4.2473      4.1703      4.0842      3.9922      3.8977      3.8037      3.7130      3.6278      3.5504      3.4826    
  3.4260      3.3821      3.4048      3.3827      3.3753      3.3827      3.4048      3.4408      3.4898      3.5504    
  3.6211      3.7002      3.7858      3.8756      3.9671      4.0574      4.1433      4.2215      4.2895      4.3446    
  4.3853      4.4102      4.4185      4.4102      4.3853      4.3446      4.2895      4.2215      4.1433      4.0574    
  3.9671      3.8756      3.7858      3.7002      3.6211      3.5504      3.4898      3.4408      3.4701      3.4419    
  3.4276      3.4276      3.4419      3.4701      3.5113      3.5643      3.6278      3.7002      3.7797      3.8642    
  3.9515      4.0385      4.1223      4.1999      4.2685      4.3259      4.3703      4.4005      4.4158      4.4158    
  4.4005      4.3703      4.3259      4.2685      4.1999      4.1223      4.0385      3.9515      3.8642      3.7797    
  3.7002      3.6278      3.5643      3.5113      3.5463      3.5129      3.4924      3.4855      3.4924      3.5129    
  3.5463      3.5917      3.6477      3.7130      3.7858      3.8642      3.9462      4.0287      4.1090      4.1842    
  4.2516      4.3092      4.3552      4.3886      4.4089      4.4157      4.4089      4.3886      4.3552      4.3092    
  4.2516      4.1842      4.1090      4.0287      3.9462      3.8642      3.7858      3.7130      3.6477      3.5917    
  3.6316      3.5939      3.5681      3.5550      3.5550      3.5681      3.5939      3.6316      3.6800      3.7379    
  3.8037      3.8756      3.9515      4.0287      4.1045      4.1759      4.2406      4.2965      4.3422      4.3768    
  4.3999      4.4114      4.4114      4.3999      4.3768      4.3422      4.2965      4.2406      4.1759      4.1045    
  4.0287      3.9515      3.8756      3.8037      3.7379      3.6800      3.7237      3.6828      3.6526      3.6341    
  3.6278      3.6341      3.6526      3.6828      3.7237      3.7742      3.8327      3.8977      3.9671      4.0385    
  4.1090      4.1759      4.2368      4.2897      4.3334      4.3672      4.3911      4.4052      4.4098      4.4052    
  4.3911      4.3672      4.3334      4.2897      4.2368      4.1759      4.1090      4.0385      3.9671      3.8977    
  3.8327      3.7742      3.8203      3.7772      3.7437      3.7207      3.7090      3.7090      3.7207      3.7437    
  3.7772      3.8203      3.8716      3.9295      3.9922      4.0574      4.1223      4.1842      4.2406      4.2897    
  4.3303      4.3619      4.3847      4.3993      4.4064      4.4064      4.3993      4.3847      4.3619      4.3303    
  4.2897      4.2406      4.1842      4.1223      4.0574      3.9922      3.9295      3.8716      3.9188      3.8748    
  3.8389      3.8124      3.7962      3.7907      3.7962      3.8124      3.8389      3.8748      3.9188      3.9695    
  4.0253      4.0842      4.1433      4.1999      4.2516      4.2965      4.3334      4.3619      4.3823      4.3957    
  4.4032      4.4056      4.4032      4.3957      4.3823      4.3619      4.3334      4.2965      4.2516      4.1999    
  4.1433      4.0842      4.0253      3.9695      4.0161      3.9725      3.9357      3.9068      3.8870      3.8769    
  3.8769      3.8870      3.9068      3.9357      3.9725      4.0161      4.0649      4.1171      4.1703      4.2215    
  4.2685      4.3092      4.3422      4.3672      4.3847      4.3957      4.4019      4.4046      4.4046      4.4019    
  4.3957      4.3847      4.3672      4.3422      4.3092      4.2685      4.2215      4.1703      4.1171      4.0649    
  4.1093      4.0676      4.0310      4.0011      3.9788      3.9651      3.9604      3.9651      3.9788      4.0011    
  4.0310      4.0676      4.1093      4.1546      4.2015      4.2473      4.2895      4.3259      4.3552      4.3768    
  4.3911      4.3993      4.4032      4.4046      4.4049      4.4046      4.4032      4.3993      4.3911      4.3768    
  4.3552      4.3259      4.2895      4.2473      4.2015      4.1546      4.1951      4.1567      4.1220      4.0923    
  4.0689      4.0527      4.0444      4.0444      4.0527      4.0689      4.0923      4.1220      4.1567      4.1951    
  4.2353      4.2753      4.3125      4.3446      4.3703      4.3886      4.3999      4.4052      4.4064      4.4056    
  4.4046      4.4046      4.4056      4.4064      4.4052      4.3999      4.3886      4.3703      4.3446      4.3125    
  4.2753      4.2353      4.2703      4.2369      4.2056      4.1777      4.1545      4.1371      4.1263      4.1226    
  4.1263      4.1371      4.1545      4.1777      4.2056      4.2369      4.2703      4.3040      4.3357      4.3634    
  4.3853      4.4005      4.4089      4.4114      4.4098      4.4064      4.4032      4.4019      4.4032      4.4064    
  4.4098      4.4114      4.4089      4.4005      4.3853      4.3634      4.3357      4.3040      4.3321      4.3052    
  4.2788      4.2543      4.2328      4.2156      4.2035      4.1973      4.1973      4.2035      4.2156      4.2328    
  4.2543      4.2788      4.3052      4.3321      4.3579      4.3805      4.3983      4.4102      4.4158      4.4157    
  4.4114      4.4052      4.3993      4.3957      4.3957      4.3993      4.4052      4.4114      4.4157      4.4158    
  4.4102      4.3983      4.3805      4.3579      4.3781      4.3589      4.3389      4.3194      4.3013      4.2857    
  4.2738      4.2663      4.2637      4.2663      4.2738      4.2857      4.3013      4.3194      4.3389      4.3589    
  4.3781      4.3950      4.4081      4.4161      4.4185      4.4158      4.4089      4.3999      4.3911      4.3847    
  4.3823      4.3847      4.3911      4.3999      4.4089      4.4158      4.4185      4.4161      4.4081      4.3950    
  4.4065      4.3960      4.3837      4.3705      4.3573      4.3451      4.3348      4.3273      4.3234      4.3234    
  4.3273      4.3348      4.3451      4.3573      4.3705      4.3837      4.3960      4.4065      4.4140      4.4174    
  4.4161      4.4102      4.4005      4.3886      4.3768      4.3672      4.3619      4.3619      4.3672      4.3768    
  4.3886      4.4005      4.4102      4.4161      4.4174      4.4140      4.4161      4.4149      4.4113      4.4058    
  4.3990      4.3916      4.3845      4.3786      4.3747      4.3733      4.3747      4.3786      4.3845      4.3916    
  4.3990      4.4058      4.4113      4.4149      4.4161      4.4140      4.4081      4.3983      4.3853      4.3703    
  4.3552      4.3422      4.3334      4.3303      4.3334      4.3422      4.3552      4.3703      4.3853      4.3983    
  4.4081      4.4140      4.4065      4.4149      4.4206      4.4238      4.4246      4.4236      4.4213      4.4186    
  4.4161      4.4147      4.4147      4.4161      4.4186      4.4213      4.4236      4.4246      4.4238      4.4206    
  4.4149      4.4065      4.3950      4.3805      4.3634      4.3446      4.3259      4.3092      4.2965      4.2897    
  4.2897      4.2965      4.3092      4.3259      4.3446      4.3634      4.3805      4.3950      4.3781      4.3960    
  4.4113      4.4238      4.4333      4.4399      4.4439      4.4459      4.4465      4.4465      4.4465      4.4465    
  4.4465      4.4459      4.4439      4.4399      4.4333      4.4238      4.4113      4.3960      4.3781      4.3579    
  4.3357      4.3125      4.2895      4.2685      4.2516      4.2406      4.2368      4.2406      4.2516      4.2685    
  4.2895      4.3125      4.3357      4.3579      4.3321      4.3589      4.3837      4.4058      4.4246      4.4399    
  4.4516      4.4598      4.4651      4.4681      4.4694      4.4694      4.4681      4.4651      4.4598      4.4516    
  4.4399      4.4246      4.4058      4.3837      4.3589      4.3321      4.3040      4.2753      4.2473      4.2215    
  4.1999      4.1842      4.1759      4.1759      4.1842      4.1999      4.2215      4.2473      4.2753      4.3040    
  4.2703      4.3052      4.3389      4.3705      4.3990      4.4236      4.4439      4.4598      4.4713      4.4790    
  4.4833      4.4847      4.4833      4.4790      4.4713      4.4598      4.4439      4.4236      4.3990      4.3705    
  4.3389      4.3052      4.2703      4.2353      4.2015      4.1703      4.1433      4.1223      4.1090      4.1045    
  4.1090      4.1223      4.1433      4.1703      4.2015      4.2353      4.1951      4.2369      4.2788      4.3194    
  4.3573      4.3916      4.4213      4.4459      4.4651      4.4790      4.4879      4.4923      4.4923      4.4879    
  4.4790      4.4651      4.4459      4.4213      4.3916      4.3573      4.3194      4.2788      4.2369      4.1951    
  4.1546      4.1171      4.0842      4.0574      4.0385      4.0287      4.0287      4.0385      4.0574      4.0842    
  4.1171      4.1546      4.1093      4.1567      4.2056      4.2543      4.3013      4.3451      4.3845      4.4186    
  4.4465      4.4681      4.4833      4.4923      4.4953      4.4923      4.4833      4.4681      4.4465      4.4186    
  4.3845      4.3451      4.3013      4.2543      4.2056      4.1567      4.1093      4.0649      4.0253      3.9922    
  3.9671      3.9515      3.9462      3.9515      3.9671      3.9922      4.0253      4.0649      4.0161      4.0676    
  4.1220      4.1777      4.2328      4.2857      4.3348      4.3786      4.4161      4.4465      4.4694      4.4847    
  4.4923      4.4923      4.4847      4.4694      4.4465      4.4161      4.3786      4.3348      4.2857      4.2328    
  4.1777      4.1220      4.0676      4.0161      3.9695      3.9295      3.8977      3.8756      3.8642      3.8642    
  3.8756      3.8977      3.9295      3.9695      3.9188      3.9725      4.0310      4.0923      4.1545      4.2156    
  4.2738      4.3273      4.3747      4.4147      4.4465      4.4694      4.4833      4.4879      4.4833      4.4694    
  4.4465      4.4147      4.3747      4.3273      4.2738      4.2156      4.1545      4.0923      4.0310      3.9725    
  3.9188      3.8716      3.8327      3.8037      3.7858      3.7797      3.7858      3.8037      3.8327      3.8716    
  3.8203      3.8748      3.9357      4.0011      4.0689      4.1371      4.2035      4.2663      4.3234      4.3733    
  4.4147      4.4465      4.4681      4.4790      4.4790      4.4681      4.4465      4.4147      4.3733      4.3234    
  4.2663      4.2035      4.1371      4.0689      4.0011      3.9357      3.8748      3.8203      3.7742      3.7379    
  3.7130      3.7002      3.7002      3.7130      3.7379      3.7742      3.7237      3.7772      3.8389      3.9068    
  3.9788      4.0527      4.1263      4.1973      4.2637      4.3234      4.3747      4.4161      4.4465      4.4651    
  4.4713      4.4651      4.4465      4.4161      4.3747      4.3234      4.2637      4.1973      4.1263      4.0527    
  3.9788      3.9068      3.8389      3.7772      3.7237      3.6800      3.6477      3.6278      3.6211      3.6278    
  3.6477      3.6800      3.6316      3.6828      3.7437      3.8124      3.8870      3.9651      4.0444      4.1226    
  4.1973      4.2663      4.3273      4.3786      4.4186      4.4459      4.4598      4.4598      4.4459      4.4186    
  4.3786      4.3273      4.2663      4.1973      4.1226      4.0444      3.9651      3.8870      3.8124      3.7437    
  3.6828      3.6316      3.5917      3.5643      3.5504      3.5504      3.5643      3.5917      3.5463      3.5939    
  3.6526      3.7207      3.7962      3.8769      3.9604      4.0444      4.1263      4.2035      4.2738      4.3348    
  4.3845      4.4213      4.4439      4.4516      4.4439      4.4213      4.3845      4.3348      4.2738      4.2035    
  4.1263      4.0444      3.9604      3.8769      3.7962      3.7207      3.6526      3.5939      3.5463      3.5113    
  3.4898      3.4826      3.4898      3.5113      3.4701      3.5129      3.5681      3.6341      3.7090      3.7907    
  3.8769      3.9651      4.0527      4.1371      4.2156      4.2857      4.3451      4.3916      4.4236      4.4399    
  4.4399      4.4236      4.3916      4.3451      4.2857      4.2156      4.1371      4.0527      3.9651      3.8769    
  3.7907      3.7090      3.6341      3.5681      3.5129      3.4701      3.4408      3.4260      3.4260      3.4408    
  3.4048      3.4419      3.4924      3.5550      3.6278      3.7090      3.7962      3.8870      3.9788      4.0689    
  4.1545      4.2328      4.3013      4.3573      4.3990      4.4246      4.4333      4.4246      4.3990      4.3573    
  4.3013      4.2328      4.1545      4.0689      3.9788      3.8870      3.7962      3.7090      3.6278      3.5550    
  3.4924      3.4419      3.4048      3.3821      3.3744      3.3821      3.3520      3.3827      3.4276      3.4855    
  3.5550      3.6341      3.7207      3.8124      3.9068      4.0011      4.0923      4.1777      4.2543      4.3194    
  4.3705      4.4058      4.4238      4.4238      4.4058      4.3705      4.3194      4.2543      4.1777      4.0923    
  4.0011      3.9068      3.8124      3.7207      3.6341      3.5550      3.4855      3.4276      3.3827      3.3520    
  3.3365      3.3365      3.3133      3.3368      3.3753      3.4276      3.4924      3.5681      3.6526      3.7437    
  3.8389      3.9357      4.0310      4.1220      4.2056      4.2788      4.3389      4.3837      4.4113      4.4206    
  4.4113      4.3837      4.3389      4.2788      4.2056      4.1220      4.0310      3.9357      3.8389      3.7437    
  3.6526      3.5681      3.4924      3.4276      3.3753      3.3368      3.3133      3.3054      3.2896      3.3055    
  3.3368      3.3827      3.4419      3.5129      3.5939      3.6828      3.7772      3.8748      3.9725      4.0676    
  4.1567      4.2369      4.3052      4.3589      4.3960      4.4149      4.4149      4.3960      4.3589      4.3052    
  4.2369      4.1567      4.0676      3.9725      3.8748      3.7772      3.6828      3.5939      3.5129      3.4419    
  3.3827      3.3368      3.3055      3.2896      3.2986      3.3065      3.3301      3.3685      3.4207      3.4853    
  3.5607      3.6449      3.7360      3.8316      3.9291      4.0257      4.1183      4.2037      4.2787      4.3403    
  4.3861      4.4143      4.4239      4.4143      4.3861      4.3403      4.2787      4.2037      4.1183      4.0257    
  3.9291      3.8316      3.7360      3.6449      3.5607      3.4853      3.4207      3.3685      3.3301      3.3065    
  3.3065      3.3065      3.3222      3.3529      3.3979      3.4560      3.5256      3.6049      3.6922      3.7853    
  3.8817      3.9787      4.0734      4.1623      4.2421      4.3099      4.3631      4.3997      4.4183      4.4183    
  4.3997      4.3631      4.3099      4.2421      4.1623      4.0734      3.9787      3.8817      3.7853      3.6922    
  3.6049      3.5256      3.4560      3.3979      3.3529      3.3222      3.3301      3.3224      3.3301      3.3529    
  3.3903      3.4411      3.5041      3.5776      3.6599      3.7490      3.8427      3.9384      4.0331      4.1234    
  4.2061      4.2780      4.3367      4.3801      4.4067      4.4156      4.4067      4.3801      4.3367      4.2780    
  4.2061      4.1234      4.0331      3.9384      3.8427      3.7490      3.6599      3.5776      3.5041      3.4411    
  3.3903      3.3529      3.3685      3.3535      3.3535      3.3685      3.3979      3.4411      3.4968      3.5636    
  3.6400      3.7240      3.8136      3.9063      3.9992      4.0889      4.1722      4.2462      4.3082      4.3563    
  4.3892      4.4058      4.4058      4.3892      4.3563      4.3082      4.2462      4.1722      4.0889      3.9992    
  3.9063      3.8136      3.7240      3.6400      3.5636      3.4968      3.4411      3.3979      3.4207      3.3991    
  3.3919      3.3991      3.4207      3.4560      3.5041      3.5636      3.6333      3.7113      3.7956      3.8841    
  3.9735      4.0607      4.1426      4.2163      4.2794      4.3300      4.3668      4.3891      4.3966      4.3891    
  4.3668      4.3300      4.2794      4.2163      4.1426      4.0607      3.9735      3.8841      3.7956      3.7113    
  3.6333      3.5636      3.5041      3.4560      3.4853      3.4579      3.4440      3.4440      3.4579      3.4853    
  3.5256      3.5776      3.6400      3.7113      3.7896      3.8726      3.9574      4.0407      4.1195      4.1910    
  4.2528      4.3034      4.3417      4.3673      4.3801      4.3801      4.3673      4.3417      4.3034      4.2528    
  4.1910      4.1195      4.0407      3.9574      3.8726      3.7896      3.7113      3.6400      3.5776      3.5256    
  3.5607      3.5282      3.5084      3.5018      3.5084      3.5282      3.5607      3.6049      3.6599      3.7240    
  3.7956      3.8726      3.9519      4.0303      4.1048      4.1725      4.2312      4.2797      4.3170      4.3433    
  4.3588      4.3639      4.3588      4.3433      4.3170      4.2797      4.2312      4.1725      4.1048      4.0303    
  3.9519      3.8726      3.7956      3.7240      3.6599      3.6049      3.6449      3.6084      3.5835      3.5709    
  3.5709      3.5835      3.6084      3.6449      3.6922      3.7490      3.8136      3.8841      3.9574      4.0303    
  4.0997      4.1627      4.2171      4.2617      4.2960      4.3205      4.3360      4.3435      4.3435      4.3360    
  4.3205      4.2960      4.2617      4.2171      4.1627      4.0997      4.0303      3.9574      3.8841      3.8136    
  3.7490      3.6922      3.7360      3.6963      3.6672      3.6494      3.6435      3.6494      3.6672      3.6963    
  3.7360      3.7853      3.8427      3.9063      3.9735      4.0407      4.1048      4.1627      4.2122      4.2520    
  4.2819      4.3027      4.3158      4.3228      4.3250      4.3228      4.3158      4.3027      4.2819      4.2520    
  4.2122      4.1627      4.1048      4.0407      3.9735      3.9063      3.8427      3.7853      3.8316      3.7897    
  3.7574      3.7354      3.7242      3.7242      3.7354      3.7574      3.7897      3.8316      3.8817      3.9384    
  3.9992      4.0607      4.1195      4.1725      4.2171      4.2520      4.2770      4.2929      4.3019      4.3061    
  4.3076      4.3076      4.3061      4.3019      4.2929      4.2770      4.2520      4.2171      4.1725      4.1195    
  4.0607      3.9992      3.9384      3.8817      3.9291      3.8862      3.8516      3.8263      3.8109      3.8057    
  3.8109      3.8263      3.8516      3.8862      3.9291      3.9787      4.0331      4.0889      4.1426      4.1910    
  4.2312      4.2617      4.2819      4.2929      4.2969      4.2967      4.2952      4.2944      4.2952      4.2967    
  4.2969      4.2929      4.2819      4.2617      4.2312      4.1910      4.1426      4.0889      4.0331      3.9787    
  4.0257      3.9831      3.9474      3.9198      3.9010      3.8914      3.8914      3.9010      3.9198      3.9474    
  3.9831      4.0257      4.0734      4.1234      4.1722      4.2163      4.2528      4.2797      4.2960      4.3027    
  4.3019      4.2967      4.2907      4.2869      4.2869      4.2907      4.2967      4.3019      4.3027      4.2960    
  4.2797      4.2528      4.2163      4.1722      4.1234      4.0734      4.1183      4.0775      4.0420      4.0131    
  3.9920      3.9790      3.9747      3.9790      3.9920      4.0131      4.0420      4.0775      4.1183      4.1623    
  4.2061      4.2462      4.2794      4.3034      4.3170      4.3205      4.3158      4.3061      4.2952      4.2869    
  4.2838      4.2869      4.2952      4.3061      4.3158      4.3205      4.3170      4.3034      4.2794      4.2462    
  4.2061      4.1623      4.2037      4.1662      4.1323      4.1036      4.0812      4.0659      4.0581      4.0581    
  4.0659      4.0812      4.1036      4.1323      4.1662      4.2037      4.2421      4.2780      4.3082      4.3300    
  4.3417      4.3433      4.3360      4.3228      4.3076      4.2944      4.2869      4.2869      4.2944      4.3076    
  4.3228      4.3360      4.3433      4.3417      4.3300      4.3082      4.2780      4.2421      4.2787      4.2462    
  4.2154      4.1882      4.1659      4.1494      4.1392      4.1358      4.1392      4.1494      4.1659      4.1882    
  4.2154      4.2462      4.2787      4.3099      4.3367      4.3563      4.3668      4.3673      4.3588      4.3435    
  4.3250      4.3076      4.2952      4.2907      4.2952      4.3076      4.3250      4.3435      4.3588      4.3673    
  4.3668      4.3563      4.3367      4.3099      4.3403      4.3144      4.2883      4.2642      4.2433      4.2269    
  4.2155      4.2097      4.2097      4.2155      4.2269      4.2433      4.2642      4.2883      4.3144      4.3403    
  4.3631      4.3801      4.3892      4.3891      4.3801      4.3639      4.3435      4.3228      4.3061      4.2967    
  4.2967      4.3061      4.3228      4.3435      4.3639      4.3801      4.3891      4.3892      4.3801      4.3631    
  4.3861      4.3682      4.3483      4.3288      4.3110      4.2959      4.2846      4.2776      4.2752      4.2776    
  4.2846      4.2959      4.3110      4.3288      4.3483      4.3682      4.3861      4.3997      4.4067      4.4058    
  4.3966      4.3801      4.3588      4.3360      4.3158      4.3019      4.2969      4.3019      4.3158      4.3360    
  4.3588      4.3801      4.3966      4.4058      4.4067      4.3997      4.4143      4.4053      4.3930      4.3796    
  4.3664      4.3543      4.3444      4.3373      4.3337      4.3337      4.3373      4.3444      4.3543      4.3664    
  4.3796      4.3930      4.4053      4.4143      4.4183      4.4156      4.4058      4.3891      4.3673      4.3433    
  4.3205      4.3027      4.2929      4.2929      4.3027      4.3205      4.3433      4.3673      4.3891      4.4058    
  4.4156      4.4183      4.4239      4.4242      4.4206      4.4147      4.4075      4.4000      4.3930      4.3873    
  4.3836      4.3823      4.3836      4.3873      4.3930      4.4000      4.4075      4.4147      4.4206      4.4242    
  4.4239      4.4183      4.4067      4.3892      4.3668      4.3417      4.3170      4.2960      4.2819      4.2770    
  4.2819      4.2960      4.3170      4.3417      4.3668      4.3892      4.4067      4.4183      4.4143      4.4242    
  4.4300      4.4326      4.4329      4.4313      4.4288      4.4260      4.4237      4.4223      4.4223      4.4237    
  4.4260      4.4288      4.4313      4.4329      4.4326      4.4300      4.4242      4.4143      4.3997      4.3801    
  4.3563      4.3300      4.3034      4.2797      4.2617      4.2520      4.2520      4.2617      4.2797      4.3034    
  4.3300      4.3563      4.3801      4.3997      4.3861      4.4053      4.4206      4.4326      4.4414      4.4473    
  4.4508      4.4524      4.4529      4.4528      4.4528      4.4528      4.4529      4.4524      4.4508      4.4473    
  4.4414      4.4326      4.4206      4.4053      4.3861      4.3631      4.3367      4.3082      4.2794      4.2528    
  4.2312      4.2171      4.2122      4.2171      4.2312      4.2528      4.2794      4.3082      4.3367      4.3631    
  4.3403      4.3682      4.3930      4.4147      4.4329      4.4473      4.4582      4.4658      4.4706      4.4734    
  4.4746      4.4746      4.4734      4.4706      4.4658      4.4582      4.4473      4.4329      4.4147      4.3930    
  4.3682      4.3403      4.3099      4.2780      4.2462      4.2163      4.1910      4.1725      4.1627      4.1627    
  4.1725      4.1910      4.2163      4.2462      4.2780      4.3099      4.2787      4.3144      4.3483      4.3796    
  4.4075      4.4313      4.4508      4.4658      4.4766      4.4837      4.4877      4.4890      4.4877      4.4837    
  4.4766      4.4658      4.4508      4.4313      4.4075      4.3796      4.3483      4.3144      4.2787      4.2421    
  4.2061      4.1722      4.1426      4.1195      4.1048      4.0997      4.1048      4.1195      4.1426      4.1722    
  4.2061      4.2421      4.2037      4.2462      4.2883      4.3288      4.3664      4.4000      4.4288      4.4524    
  4.4706      4.4837      4.4921      4.4962      4.4962      4.4921      4.4837      4.4706      4.4524      4.4288    
  4.4000      4.3664      4.3288      4.2883      4.2462      4.2037      4.1623      4.1234      4.0889      4.0607    
  4.0407      4.0303      4.0303      4.0407      4.0607      4.0889      4.1234      4.1623      4.1183      4.1662    
  4.2154      4.2642      4.3110      4.3543      4.3930      4.4260      4.4529      4.4734      4.4877      4.4962    
  4.4989      4.4962      4.4877      4.4734      4.4529      4.4260      4.3930      4.3543      4.3110      4.2642    
  4.2154      4.1662      4.1183      4.0734      4.0331      3.9992      3.9735      3.9574      3.9519      3.9574    
  3.9735      3.9992      4.0331      4.0734      4.0257      4.0775      4.1323      4.1882      4.2433      4.2959    
  4.3444      4.3873      4.4237      4.4528      4.4746      4.4890      4.4962      4.4962      4.4890      4.4746    
  4.4528      4.4237      4.3873      4.3444      4.2959      4.2433      4.1882      4.1323      4.0775      4.0257    
  3.9787      3.9384      3.9063      3.8841      3.8726      3.8726      3.8841      3.9063      3.9384      3.9787    
  3.9291      3.9831      4.0420      4.1036      4.1659      4.2269      4.2846      4.3373      4.3836      4.4223    
  4.4528      4.4746      4.4877      4.4921      4.4877      4.4746      4.4528      4.4223      4.3836      4.3373    
  4.2846      4.2269      4.1659      4.1036      4.0420      3.9831      3.9291      3.8817      3.8427      3.8136    
  3.7956      3.7896      3.7956      3.8136      3.8427      3.8817      3.8316      3.8862      3.9474      4.0131    
  4.0812      4.1494      4.2155      4.2776      4.3337      4.3823      4.4223      4.4528      4.4734      4.4837    
  4.4837      4.4734      4.4528      4.4223      4.3823      4.3337      4.2776      4.2155      4.1494      4.0812    
  4.0131      3.9474      3.8862      3.8316      3.7853      3.7490      3.7240      3.7113      3.7113      3.7240    
  3.7490      3.7853      3.7360      3.7897      3.8516      3.9198      3.9920      4.0659      4.1392      4.2097    
  4.2752      4.3337      4.3836      4.4237      4.4529      4.4706      4.4766      4.4706      4.4529      4.4237    
  4.3836      4.3337      4.2752      4.2097      4.1392      4.0659      3.9920      3.9198      3.8516      3.7897    
  3.7360      3.6922      3.6599      3.6400      3.6333      3.6400      3.6599      3.6922      3.6449      3.6963    
  3.7574      3.8263      3.9010      3.9790      4.0581      4.1358      4.2097      4.2776      4.3373      4.3873    
  4.4260      4.4524      4.4658      4.4658      4.4524      4.4260      4.3873      4.3373      4.2776      4.2097    
  4.1358      4.0581      3.9790      3.9010      3.8263      3.7574      3.6963      3.6449      3.6049      3.5776    
  3.5636      3.5636      3.5776      3.6049      3.5607      3.6084      3.6672      3.7354      3.8109      3.8914    
  3.9747      4.0581      4.1392      4.2155      4.2846      4.3444      4.3930      4.4288      4.4508      4.4582    
  4.4508      4.4288      4.3930      4.3444      4.2846      4.2155      4.1392      4.0581      3.9747      3.8914    
  3.8109      3.7354      3.6672      3.6084      3.5607      3.5256      3.5041      3.4968      3.5041      3.5256    
  3.4853      3.5282      3.5835      3.6494      3.7242      3.8057      3.8914      3.9790      4.0659      4.1494    
  4.2269      4.2959      4.3543      4.4000      4.4313      4.4473      4.4473      4.4313      4.4000      4.3543    
  4.2959      4.2269      4.1494      4.0659      3.9790      3.8914      3.8057      3.7242      3.6494      3.5835    
  3.5282      3.4853      3.4560      3.4411      3.4411      3.4560      3.4207      3.4579      3.5084      3.5709    
  3.6435      3.7242      3.8109      3.9010      3.9920      4.0812      4.1659      4.2433      4.3110      4.3664    
  4.4075      4.4329      4.4414      4.4329      4.4075      4.3664      4.3110      4.2433      4.1659      4.0812    
  3.9920      3.9010      3.8109      3.7242      3.6435      3.5709      3.5084      3.4579      3.4207      3.3979    
  3.3903      3.3979      3.3685      3.3991      3.4440      3.5018      3.5709      3.6494      3.7354      3.8263    
  3.9198      4.0131      4.1036      4.1882      4.2642      4.3288      4.3796      4.4147      4.4326      4.4326    
  4.4147      4.3796      4.3288      4.2642      4.1882      4.1036      4.0131      3.9198      3.8263      3.7354    
  3.6494      3.5709      3.5018      3.4440      3.3991      3.3685      3.3529      3.3529      3.3301      3.3535    
  3.3919      3.4440      3.5084      3.5835      3.6672      3.7574      3.8516      3.9474      4.0420      4.1323    
  4.2154      4.2883      4.3483      4.3930      4.4206      4.4300      4.4206      4.3930      4.3483      4.2883    
  4.2154      4.1323      4.0420      3.9474      3.8516      3.7574      3.6672      3.5835      3.5084      3.4440    
  3.3919      3.3535      3.3301      3.3222      3.3065      3.3224      3.3535      3.3991      3.4579      3.5282    
  3.6084      3.6963      3.7897      3.8862      3.9831      4.0775      4.1662      4.2462      4.3144      4.3682    
  4.4053      4.4242      4.4242      4.4053      4.3682      4.3144      4.2462      4.1662      4.0775      3.9831    
  3.8862      3.7897      3.6963      3.6084      3.5282      3.4579      3.3991      3.3535      3.3224      3.3065    
  3.3186      3.3264      3.3498      3.3879      3.4396      3.5035      3.5780      3.6612      3.7512      3.8457    
  3.9421      4.0378      4.1295      4.2139      4.2878      4.3485      4.3936      4.4213      4.4307      4.4213    
  4.3936      4.3485      4.2878      4.2139      4.1295      4.0378      3.9421      3.8457      3.7512      3.6612    
  3.5780      3.5035      3.4396      3.3879      3.3498      3.3264      3.3264      3.3264      3.3419      3.3722    
  3.4167      3.4740      3.5426      3.6210      3.7071      3.7990      3.8942      3.9900      4.0831      4.1701    
  4.2480      4.3138      4.3653      4.4006      4.4185      4.4185      4.4006      4.3653      4.3138      4.2480    
  4.1701      4.0831      3.9900      3.8942      3.7990      3.7071      3.6210      3.5426      3.4740      3.4167    
  3.3722      3.3419      3.3498      3.3422      3.3498      3.3722      3.4090      3.4590      3.5209      3.5933    
  3.6745      3.7624      3.8547      3.9487      4.0410      4.1284      4.2077      4.2762      4.3316      4.3723    
  4.3971      4.4054      4.3971      4.3723      4.3316      4.2762      4.2077      4.1284      4.0410      3.9487    
  3.8547      3.7624      3.6745      3.5933      3.5209      3.4590      3.4090      3.3722      3.3879      3.3733    
  3.3733      3.3879      3.4167      3.4590      3.5136      3.5793      3.6545      3.7372      3.8253      3.9157    
  4.0053      4.0908      4.1691      4.2376      4.2942      4.3375      4.3667      4.3814      4.3814      4.3667    
  4.3375      4.2942      4.2376      4.1691      4.0908      4.0053      3.9157      3.8253      3.7372      3.6545    
  3.5793      3.5136      3.4590      3.4167      3.4396      3.4186      3.4116      3.4186      3.4396      3.4740    
  3.5209      3.5793      3.6477      3.7243      3.8070      3.8927      3.9781      4.0598      4.1349      4.2008    
  4.2558      4.2987      4.3293      4.3475      4.3535      4.3475      4.3293      4.2987      4.2558      4.2008    
  4.1349      4.0598      3.9781      3.8927      3.8070      3.7243      3.6477      3.5793      3.5209      3.4740    
  3.5035      3.4770      3.4635      3.4635      3.4770      3.5035      3.5426      3.5933      3.6545      3.7243    
  3.8008      3.8809      3.9609      4.0376      4.1079      4.1692      4.2200      4.2596      4.2882      4.3066    
  4.3155      4.3155      4.3066      4.2882      4.2596      4.2200      4.1692      4.1079      4.0376      3.9609    
  3.8809      3.8008      3.7243      3.6545      3.5933      3.5426      3.5780      3.5467      3.5276      3.5212    
  3.5276      3.5467      3.5780      3.6210      3.6745      3.7372      3.8070      3.8809      3.9551      4.0261    
  4.0905      4.1459      4.1907      4.2246      4.2483      4.2634      4.2715      4.2741      4.2715      4.2634    
  4.2483      4.2246      4.1907      4.1459      4.0905      4.0261      3.9551      3.8809      3.8070      3.7372    
  3.6745      3.6210      3.6612      3.6260      3.6021      3.5901      3.5901      3.6021      3.6260      3.6612    
  3.7071      3.7624      3.8253      3.8927      3.9609      4.0261      4.0845      4.1335      4.1714      4.1981    
  4.2147      4.2236      4.2274      4.2286      4.2286      4.2274      4.2236      4.2147      4.1981      4.1714    
  4.1335      4.0845      4.0261      3.9609      3.8927      3.8253      3.7624      3.7071      3.7512      3.7129    
  3.6850      3.6682      3.6625      3.6682      3.6850      3.7129      3.7512      3.7990      3.8547      3.9157    
  3.9781      4.0376      4.0905      4.1335      4.1647      4.1839      4.1923      4.1931      4.1897      4.1859    
  4.1843      4.1859      4.1897      4.1931      4.1923      4.1839      4.1647      4.1335      4.0905      4.0376    
  3.9781      3.9157      3.8547      3.7990      3.8457      3.8053      3.7743      3.7534      3.7428      3.7428    
  3.7534      3.7743      3.8053      3.8457      3.8942      3.9487      4.0053      4.0598      4.1079      4.1459    
  4.1714      4.1839      4.1845      4.1765      4.1643      4.1527      4.1457      4.1457      4.1527      4.1643    
  4.1765      4.1845      4.1839      4.1714      4.1459      4.1079      4.0598      4.0053      3.9487      3.8942    
  3.9421      3.9007      3.8675      3.8434      3.8288      3.8240      3.8288      3.8434      3.8675      3.9007    
  3.9421      3.9900      4.0410      4.0908      4.1349      4.1692      4.1907      4.1981      4.1923      4.1765    
  4.1553      4.1345      4.1195      4.1140      4.1195      4.1345      4.1553      4.1765      4.1923      4.1981    
  4.1907      4.1692      4.1349      4.0908      4.0410      3.9900      4.0378      3.9967      3.9623      3.9359    
  3.9181      3.9092      3.9092      3.9181      3.9359      3.9623      3.9967      4.0378      4.0831      4.1284    
  4.1691      4.2008      4.2200      4.2246      4.2147      4.1931      4.1643      4.1345      4.1102      4.0965    
  4.0965      4.1102      4.1345      4.1643      4.1931      4.2147      4.2246      4.2200      4.2008      4.1691    
  4.1284      4.0831      4.1295      4.0903      4.0559      4.0282      4.0082      3.9961      3.9920      3.9961    
  4.0082      4.0282      4.0559      4.0903      4.1295      4.1701      4.2077      4.2376      4.2558      4.2596    
  4.2483      4.2236      4.1897      4.1527      4.1195      4.0965      4.0883      4.0965      4.1195      4.1527    
  4.1897      4.2236      4.2483      4.2596      4.2558      4.2376      4.2077      4.1701      4.2139      4.1784    
  4.1455      4.1177      4.0964      4.0820      4.0748      4.0748      4.0820      4.0964      4.1177      4.1455    
  4.1784      4.2139      4.2480      4.2762      4.2942      4.2987      4.2882      4.2634      4.2274      4.1859    
  4.1457      4.1140      4.0965      4.0965      4.1140      4.1457      4.1859      4.2274      4.2634      4.2882    
  4.2987      4.2942      4.2762      4.2480      4.2878      4.2579      4.2280      4.2016      4.1801      4.1644    
  4.1550      4.1518      4.1550      4.1644      4.1801      4.2016      4.2280      4.2579      4.2878      4.3138    
  4.3316      4.3375      4.3293      4.3066      4.2715      4.2286      4.1843      4.1457      4.1195      4.1102    
  4.1195      4.1457      4.1843      4.2286      4.2715      4.3066      4.3293      4.3375      4.3316      4.3138    
  4.3485      4.3256      4.3006      4.2769      4.2566      4.2408      4.2302      4.2248      4.2248      4.2302    
  4.2408      4.2566      4.2769      4.3006      4.3256      4.3485      4.3653      4.3723      4.3667      4.3475    
  4.3155      4.2741      4.2286      4.1859      4.1527      4.1345      4.1345      4.1527      4.1859      4.2286    
  4.2741      4.3155      4.3475      4.3667      4.3723      4.3653      4.3936      4.3790      4.3603      4.3410    
  4.3234      4.3088      4.2981      4.2915      4.2893      4.2915      4.2981      4.3088      4.3234      4.3410    
  4.3603      4.3790      4.3936      4.4006      4.3971      4.3814      4.3535      4.3155      4.2715      4.2274    
  4.1897      4.1643      4.1553      4.1643      4.1897      4.2274      4.2715      4.3155      4.3535      4.3814    
  4.3971      4.4006      4.4213      4.4158      4.4049      4.3915      4.3781      4.3662      4.3566      4.3500    
  4.3466      4.3466      4.3500      4.3566      4.3662      4.3781      4.3915      4.4049      4.4158      4.4213    
  4.4185      4.4054      4.3814      4.3475      4.3066      4.2634      4.2236      4.1931      4.1765      4.1765    
  4.1931      4.2236      4.2634      4.3066      4.3475      4.3814      4.4054      4.4185      4.4307      4.4346    
  4.4324      4.4263      4.4187      4.4110      4.4040      4.3986      4.3952      4.3941      4.3952      4.3986    
  4.4040      4.4110      4.4187      4.4263      4.4324      4.4346      4.4307      4.4185      4.3971      4.3667    
  4.3293      4.2882      4.2483      4.2147      4.1923      4.1845      4.1923      4.2147      4.2483      4.2882    
  4.3293      4.3667      4.3971      4.4185      4.4213      4.4346      4.4417      4.4441      4.4438      4.4417    
  4.4389      4.4362      4.4340      4.4328      4.4328      4.4340      4.4362      4.4389      4.4417      4.4438    
  4.4441      4.4417      4.4346      4.4213      4.4006      4.3723      4.3375      4.2987      4.2596      4.2246    
  4.1981      4.1839      4.1839      4.1981      4.2246      4.2596      4.2987      4.3375      4.3723      4.4006    
  4.3936      4.4158      4.4324      4.4441      4.4522      4.4574      4.4603      4.4617      4.4621      4.4622    
  4.4621      4.4622      4.4621      4.4617      4.4603      4.4574      4.4522      4.4441      4.4324      4.4158    
  4.3936      4.3653      4.3316      4.2942      4.2558      4.2200      4.1907      4.1714      4.1647      4.1714    
  4.1907      4.2200      4.2558      4.2942      4.3316      4.3653      4.3485      4.3790      4.4049      4.4263    
  4.4438      4.4574      4.4675      4.4746      4.4792      4.4818      4.4830      4.4830      4.4818      4.4792    
  4.4746      4.4675      4.4574      4.4438      4.4263      4.4049      4.3790      4.3485      4.3138      4.2762    
  4.2376      4.2008      4.1692      4.1459      4.1335      4.1335      4.1459      4.1692      4.2008      4.2376    
  4.2762      4.3138      4.2878      4.3256      4.3603      4.3915      4.4187      4.4417      4.4603      4.4746    
  4.4849      4.4917      4.4955      4.4967      4.4955      4.4917      4.4849      4.4746      4.4603      4.4417    
  4.4187      4.3915      4.3603      4.3256      4.2878      4.2480      4.2077      4.1691      4.1349      4.1079    
  4.0905      4.0845      4.0905      4.1079      4.1349      4.1691      4.2077      4.2480      4.2139      4.2579    
  4.3006      4.3410      4.3781      4.4110      4.4389      4.4617      4.4792      4.4917      4.4996      4.5035    
  4.5035      4.4996      4.4917      4.4792      4.4617      4.4389      4.4110      4.3781      4.3410      4.3006    
  4.2579      4.2139      4.1701      4.1284      4.0908      4.0598      4.0376      4.0261      4.0261      4.0376    
  4.0598      4.0908      4.1284      4.1701      4.1295      4.1784      4.2280      4.2769      4.3234      4.3662    
  4.4040      4.4362      4.4621      4.4818      4.4955      4.5035      4.5061      4.5035      4.4955      4.4818    
  4.4621      4.4362      4.4040      4.3662      4.3234      4.2769      4.2280      4.1784      4.1295      4.0831    
  4.0410      4.0053      3.9781      3.9609      3.9551      3.9609      3.9781      4.0053      4.0410      4.0831    
  4.0378      4.0903      4.1455      4.2016      4.2566      4.3088      4.3566      4.3986      4.4340      4.4622    
  4.4830      4.4967      4.5035      4.5035      4.4967      4.4830      4.4622      4.4340      4.3986      4.3566    
  4.3088      4.2566      4.2016      4.1455      4.0903      4.0378      3.9900      3.9487      3.9157      3.8927    
  3.8809      3.8809      3.8927      3.9157      3.9487      3.9900      3.9421      3.9967      4.0559      4.1177    
  4.1801      4.2408      4.2981      4.3500      4.3952      4.4328      4.4621      4.4830      4.4955      4.4996    
  4.4955      4.4830      4.4621      4.4328      4.3952      4.3500      4.2981      4.2408      4.1801      4.1177    
  4.0559      3.9967      3.9421      3.8942      3.8547      3.8253      3.8070      3.8008      3.8070      3.8253    
  3.8547      3.8942      3.8457      3.9007      3.9623      4.0282      4.0964      4.1644      4.2302      4.2915    
  4.3466      4.3941      4.4328      4.4622      4.4818      4.4917      4.4917      4.4818      4.4622      4.4328    
  4.3941      4.3466      4.2915      4.2302      4.1644      4.0964      4.0282      3.9623      3.9007      3.8457    
  3.7990      3.7624      3.7372      3.7243      3.7243      3.7372      3.7624      3.7990      3.7512      3.8053    
  3.8675      3.9359      4.0082      4.0820      4.1550      4.2248      4.2893      4.3466      4.3952      4.4340    
  4.4621      4.4792      4.4849      4.4792      4.4621      4.4340      4.3952      4.3466      4.2893      4.2248    
  4.1550      4.0820      4.0082      3.9359      3.8675      3.8053      3.7512      3.7071      3.6745      3.6545    
  3.6477      3.6545      3.6745      3.7071      3.6612      3.7129      3.7743      3.8434      3.9181      3.9961    
  4.0748      4.1518      4.2248      4.2915      4.3500      4.3986      4.4362      4.4617      4.4746      4.4746    
  4.4617      4.4362      4.3986      4.3500      4.2915      4.2248      4.1518      4.0748      3.9961      3.9181    
  3.8434      3.7743      3.7129      3.6612      3.6210      3.5933      3.5793      3.5793      3.5933      3.6210    
  3.5780      3.6260      3.6850      3.7534      3.8288      3.9092      3.9920      4.0748      4.1550      4.2302    
  4.2981      4.3566      4.4040      4.4389      4.4603      4.4675      4.4603      4.4389      4.4040      4.3566    
  4.2981      4.2302      4.1550      4.0748      3.9920      3.9092      3.8288      3.7534      3.6850      3.6260    
  3.5780      3.5426      3.5209      3.5136      3.5209      3.5426      3.5035      3.5467      3.6021      3.6682    
  3.7428      3.8240      3.9092      3.9961      4.0820      4.1644      4.2408      4.3088      4.3662      4.4110    
  4.4417      4.4574      4.4574      4.4417      4.4110      4.3662      4.3088      4.2408      4.1644      4.0820    
  3.9961      3.9092      3.8240      3.7428      3.6682      3.6021      3.5467      3.5035      3.4740      3.4590    
  3.4590      3.4740      3.4396      3.4770      3.5276      3.5901      3.6625      3.7428      3.8288      3.9181    
  4.0082      4.0964      4.1801      4.2566      4.3234      4.3781      4.4187      4.4438      4.4522      4.4438    
  4.4187      4.3781      4.3234      4.2566      4.1801      4.0964      4.0082      3.9181      3.8288      3.7428    
  3.6625      3.5901      3.5276      3.4770      3.4396      3.4167      3.4090      3.4167      3.3879      3.4186    
  3.4635      3.5212      3.5901      3.6682      3.7534      3.8434      3.9359      4.0282      4.1177      4.2016    
  4.2769      4.3410      4.3915      4.4263      4.4441      4.4441      4.4263      4.3915      4.3410      4.2769    
  4.2016      4.1177      4.0282      3.9359      3.8434      3.7534      3.6682      3.5901      3.5212      3.4635    
  3.4186      3.3879      3.3722      3.3722      3.3498      3.3733      3.4116      3.4635      3.5276      3.6021    
  3.6850      3.7743      3.8675      3.9623      4.0559      4.1455      4.2280      4.3006      4.3603      4.4049    
  4.4324      4.4417      4.4324      4.4049      4.3603      4.3006      4.2280      4.1455      4.0559      3.9623    
  3.8675      3.7743      3.6850      3.6021      3.5276      3.4635      3.4116      3.3733      3.3498      3.3419    
  3.3264      3.3422      3.3733      3.4186      3.4770      3.5467      3.6260      3.7129      3.8053      3.9007    
  3.9967      4.0903      4.1784      4.2579      4.3256      4.3790      4.4158      4.4346      4.4346      4.4158    
  4.3790      4.3256      4.2579      4.1784      4.0903      3.9967      3.9007      3.8053      3.7129      3.6260    
  3.5467      3.4770      3.4186      3.3733      3.3422      3.3264      3.3405      3.3483      3.3715      3.4092    
  3.4604      3.5237      3.5974      3.6797      3.7686      3.8620      3.9573      4.0516      4.1416      4.2241    
  4.2961      4.3550      4.3986      4.4254      4.4344      4.4254      4.3986      4.3550      4.2961      4.2241    
  4.1416      4.0516      3.9573      3.8620      3.7686      3.6797      3.5974      3.5237      3.4604      3.4092    
  3.3715      3.3483      3.3483      3.3483      3.3635      3.3934      3.4373      3.4938      3.5615      3.6389    
  3.7239      3.8146      3.9083      4.0020      4.0924      4.1763      4.2508      4.3133      4.3619      4.3950    
  4.4118      4.4118      4.3950      4.3619      4.3133      4.2508      4.1763      4.0924      4.0020      3.9083    
  3.8146      3.7239      3.6389      3.5615      3.4938      3.4373      3.3934      3.3635      3.3715      3.3641    
  3.3715      3.3934      3.4294      3.4785      3.5395      3.6108      3.6907      3.7772      3.8676      3.9587    
  4.0471      4.1298      4.2037      4.2667      4.3170      4.3535      4.3755      4.3829      4.3755      4.3535    
  4.3170      4.2667      4.2037      4.1298      4.0471      3.9587      3.8676      3.7772      3.6907      3.6108    
  3.5395      3.4785      3.4294      3.3934      3.4092      3.3950      3.3950      3.4092      3.4373      3.4785    
  3.5320      3.5965      3.6703      3.7515      3.8371      3.9239      4.0083      4.0872      4.1577      4.2179    
  4.2663      4.3024      4.3262      4.3380      4.3380      4.3262      4.3024      4.2663      4.2179      4.1577    
  4.0872      4.0083      3.9239      3.8371      3.7515      3.6703      3.5965      3.5320      3.4785      3.4373    
  3.4604      3.4401      3.4333      3.4401      3.4604      3.4938      3.5395      3.5965      3.6634      3.7383    
  3.8181      3.8994      3.9783      4.0516      4.1163      4.1707      4.2137      4.2455      4.2670      4.2792    
  4.2831      4.2792      4.2670      4.2455      4.2137      4.1707      4.1163      4.0516      3.9783      3.8994    
  3.8181      3.7383      3.6634      3.5965      3.5395      3.4938      3.5237      3.4981      3.4852      3.4852    
  3.4981      3.5237      3.5615      3.6108      3.6703      3.7383      3.8117      3.8867      3.9593      4.0259    
  4.0833      4.1297      4.1644      4.1882      4.2030      4.2110      4.2144      4.2144      4.2110      4.2030    
  4.1882      4.1644      4.1297      4.0833      4.0259      3.9593      3.8867      3.8117      3.7383      3.6703    
  3.6108      3.5615      3.5974      3.5673      3.5491      3.5430      3.5491      3.5673      3.5974      3.6389    
  3.6907      3.7515      3.8181      3.8867      3.9528      4.0124      4.0619      4.0992      4.1239      4.1370    
  4.1414      4.1408      4.1386      4.1376      4.1386      4.1408      4.1414      4.1370      4.1239      4.0992    
  4.0619      4.0124      3.9528      3.8867      3.8181      3.7515      3.6907      3.6389      3.6797      3.6459    
  3.6231      3.6117      3.6117      3.6231      3.6459      3.6797      3.7239      3.7772      3.8371      3.8994    
  3.9593      4.0124      4.0545      4.0830      4.0972      4.0984      4.0901      4.0771      4.0647      4.0573    
  4.0573      4.0647      4.0771      4.0901      4.0984      4.0972      4.0830      4.0545      4.0124      3.9593    
  3.8994      3.8371      3.7772      3.7239      3.7686      3.7319      3.7054      3.6894      3.6841      3.6894    
  3.7054      3.7319      3.7686      3.8146      3.8676      3.9239      3.9783      4.0259      4.0619      4.0830    
  4.0879      4.0776      4.0560      4.0287      4.0026      3.9840      3.9772      3.9840      4.0026      4.0287    
  4.0560      4.0776      4.0879      4.0830      4.0619      4.0259      3.9783      3.9239      3.8676      3.8146    
  3.8620      3.8233      3.7938      3.7740      3.7641      3.7641      3.7740      3.7938      3.8233      3.8620    
  3.9083      3.9587      4.0083      4.0516      4.0833      4.0992      4.0972      4.0776      4.0440      4.0026    
  3.9612      3.9279      3.9095      3.9095      3.9279      3.9612      4.0026      4.0440      4.0776      4.0972    
  4.0992      4.0833      4.0516      4.0083      3.9587      3.9083      3.9573      3.9178      3.8861      3.8632    
  3.8495      3.8449      3.8495      3.8632      3.8861      3.9178      3.9573      4.0020      4.0471      4.0872    
  4.1163      4.1297      4.1239      4.0984      4.0560      4.0026      3.9466      3.8976      3.8641      3.8523    
  3.8641      3.8976      3.9466      4.0026      4.0560      4.0984      4.1239      4.1297      4.1163      4.0872    
  4.0471      4.0020      4.0516      4.0128      3.9799      3.9547      3.9380      3.9296      3.9296      3.9380    
  3.9547      3.9799      4.0128      4.0516      4.0924      4.1298      4.1577      4.1707      4.1644      4.1370    
  4.0901      4.0287      3.9612      3.8976      3.8482      3.8212      3.8212      3.8482      3.8976      3.9612    
  4.0287      4.0901      4.1370      4.1644      4.1707      4.1577      4.1298      4.0924      4.1416      4.1054    
  4.0726      4.0461      4.0271      4.0157      4.0120      4.0157      4.0271      4.0461      4.0726      4.1054    
  4.1416      4.1763      4.2037      4.2179      4.2137      4.1882      4.1414      4.0771      4.0026      3.9279    
  3.8641      3.8212      3.8060      3.8212      3.8641      3.9279      4.0026      4.0771      4.1414      4.1882    
  4.2137      4.2179      4.2037      4.1763      4.2241      4.1925      4.1613      4.1347      4.1143      4.1007    
  4.0940      4.0940      4.1007      4.1143      4.1347      4.1613      4.1925      4.2241      4.2508      4.2667    
  4.2663      4.2455      4.2030      4.1408      4.0647      3.9840      3.9095      3.8523      3.8212      3.8212    
  3.8523      3.9095      3.9840      4.0647      4.1408      4.2030      4.2455      4.2663      4.2667      4.2508    
  4.2961      4.2709      4.2432      4.2177      4.1970      4.1821      4.1732      4.1703      4.1732      4.1821    
  4.1970      4.2177      4.2432      4.2709      4.2961      4.3133      4.3170      4.3024      4.2670      4.2110    
  4.1386      4.0573      3.9772      3.9095      3.8641      3.8482      3.8641      3.9095      3.9772      4.0573    
  4.1386      4.2110      4.2670      4.3024      4.3170      4.3133      4.3550      4.3376      4.3151      4.2923    
  4.2726      4.2574      4.2473      4.2423      4.2423      4.2473      4.2574      4.2726      4.2923      4.3151    
  4.3376      4.3550      4.3619      4.3535      4.3262      4.2792      4.2144      4.1376      4.0573      3.9840    
  3.9279      3.8976      3.8976      3.9279      3.9840      4.0573      4.1376      4.2144      4.2792      4.3262    
  4.3535      4.3619      4.3986      4.3901      4.3743      4.3558      4.3385      4.3243      4.3140      4.3078    
  4.3058      4.3078      4.3140      4.3243      4.3385      4.3558      4.3743      4.3901      4.3986      4.3950    
  4.3755      4.3380      4.2831      4.2144      4.1386      4.0647      4.0026      3.9612      3.9466      3.9612    
  4.0026      4.0647      4.1386      4.2144      4.2831      4.3380      4.3755      4.3950      4.4254      4.4263    
  4.4184      4.4059      4.3925      4.3806      4.3713      4.3650      4.3619      4.3619      4.3650      4.3713    
  4.3806      4.3925      4.4059      4.4184      4.4263      4.4254      4.4118      4.3829      4.3380      4.2792    
  4.2110      4.1408      4.0771      4.0287      4.0026      4.0026      4.0287      4.0771      4.1408      4.2110    
  4.2792      4.3380      4.3829      4.4118      4.4344      4.4448      4.4456      4.4404      4.4326      4.4246    
  4.4176      4.4124      4.4093      4.4082      4.4093      4.4124      4.4176      4.4246      4.4326      4.4404    
  4.4456      4.4448      4.4344      4.4118      4.3755      4.3262      4.2670      4.2030      4.1414      4.0901    
  4.0560      4.0440      4.0560      4.0901      4.1414      4.2030      4.2670      4.3262      4.3755      4.4118    
  4.4254      4.4448      4.4548      4.4581      4.4573      4.4547      4.4516      4.4488      4.4468      4.4458    
  4.4458      4.4468      4.4488      4.4516      4.4547      4.4573      4.4581      4.4548      4.4448      4.4254    
  4.3950      4.3535      4.3024      4.2455      4.1882      4.1370      4.0984      4.0776      4.0776      4.0984    
  4.1370      4.1882      4.2455      4.3024      4.3535      4.3950      4.3986      4.4263      4.4456      4.4581    
  4.4656      4.4700      4.4724      4.4735      4.4740      4.4741      4.4741      4.4741      4.4740      4.4735    
  4.4724      4.4700      4.4656      4.4581      4.4456      4.4263      4.3986      4.3619      4.3170      4.2663    
  4.2137      4.1644      4.1239      4.0972      4.0879      4.0972      4.1239      4.1644      4.2137      4.2663    
  4.3170      4.3619      4.3550      4.3901      4.4184      4.4404      4.4573      4.4700      4.4794      4.4860    
  4.4903      4.4930      4.4942      4.4942      4.4930      4.4903      4.4860      4.4794      4.4700      4.4573    
  4.4404      4.4184      4.3901      4.3550      4.3133      4.2667      4.2179      4.1707      4.1297      4.0992    
  4.0830      4.0830      4.0992      4.1297      4.1707      4.2179      4.2667      4.3133      4.2961      4.3376    
  4.3743      4.4059      4.4326      4.4547      4.4724      4.4860      4.4958      4.5024      4.5061      4.5073    
  4.5061      4.5024      4.4958      4.4860      4.4724      4.4547      4.4326      4.4059      4.3743      4.3376    
  4.2961      4.2508      4.2037      4.1577      4.1163      4.0833      4.0619      4.0545      4.0619      4.0833    
  4.1163      4.1577      4.2037      4.2508      4.2241      4.2709      4.3151      4.3558      4.3925      4.4246    
  4.4516      4.4735      4.4903      4.5024      4.5101      4.5138      4.5138      4.5101      4.5024      4.4903    
  4.4735      4.4516      4.4246      4.3925      4.3558      4.3151      4.2709      4.2241      4.1763      4.1298    
  4.0872      4.0516      4.0259      4.0124      4.0124      4.0259      4.0516      4.0872      4.1298      4.1763    
  4.1416      4.1925      4.2432      4.2923      4.3385      4.3806      4.4176      4.4488      4.4740      4.4930    
  4.5061      4.5138      4.5164      4.5138      4.5061      4.4930      4.4740      4.4488      4.4176      4.3806    
  4.3385      4.2923      4.2432      4.1925      4.1416      4.0924      4.0471      4.0083      3.9783      3.9593    
  3.9528      3.9593      3.9783      4.0083      4.0471      4.0924      4.0516      4.1054      4.1613      4.2177    
  4.2726      4.3243      4.3713      4.4124      4.4468      4.4741      4.4942      4.5073      4.5138      4.5138    
  4.5073      4.4942      4.4741      4.4468      4.4124      4.3713      4.3243      4.2726      4.2177      4.1613    
  4.1054      4.0516      4.0020      3.9587      3.9239      3.8994      3.8867      3.8867      3.8994      3.9239    
  3.9587      4.0020      3.9573      4.0128      4.0726      4.1347      4.1970      4.2574      4.3140      4.3650    
  4.4093      4.4458      4.4741      4.4942      4.5061      4.5101      4.5061      4.4942      4.4741      4.4458    
  4.4093      4.3650      4.3140      4.2574      4.1970      4.1347      4.0726      4.0128      3.9573      3.9083    
  3.8676      3.8371      3.8181      3.8117      3.8181      3.8371      3.8676      3.9083      3.8620      3.9178    
  3.9799      4.0461      4.1143      4.1821      4.2473      4.3078      4.3619      4.4082      4.4458      4.4741    
  4.4930      4.5024      4.5024      4.4930      4.4741      4.4458      4.4082      4.3619      4.3078      4.2473    
  4.1821      4.1143      4.0461      3.9799      3.9178      3.8620      3.8146      3.7772      3.7515      3.7383    
  3.7383      3.7515      3.7772      3.8146      3.7686      3.8233      3.8861      3.9547      4.0271      4.1007    
  4.1732      4.2423      4.3058      4.3619      4.4093      4.4468      4.4740      4.4903      4.4958      4.4903    
  4.4740      4.4468      4.4093      4.3619      4.3058      4.2423      4.1732      4.1007      4.0271      3.9547    
  3.8861      3.8233      3.7686      3.7239      3.6907      3.6703      3.6634      3.6703      3.6907      3.7239    
  3.6797      3.7319      3.7938      3.8632      3.9380      4.0157      4.0940      4.1703      4.2423      4.3078    
  4.3650      4.4124      4.4488      4.4735      4.4860      4.4860      4.4735      4.4488      4.4124      4.3650    
  4.3078      4.2423      4.1703      4.0940      4.0157      3.9380      3.8632      3.7938      3.7319      3.6797    
  3.6389      3.6108      3.5965      3.5965      3.6108      3.6389      3.5974      3.6459      3.7054      3.7740    
  3.8495      3.9296      4.0120      4.0940      4.1732      4.2473      4.3140      4.3713      4.4176      4.4516    
  4.4724      4.4794      4.4724      4.4516      4.4176      4.3713      4.3140      4.2473      4.1732      4.0940    
  4.0120      3.9296      3.8495      3.7740      3.7054      3.6459      3.5974      3.5615      3.5395      3.5320    
  3.5395      3.5615      3.5237      3.5673      3.6231      3.6894      3.7641      3.8449      3.9296      4.0157    
  4.1007      4.1821      4.2574      4.3243      4.3806      4.4246      4.4547      4.4700      4.4700      4.4547    
  4.4246      4.3806      4.3243      4.2574      4.1821      4.1007      4.0157      3.9296      3.8449      3.7641    
  3.6894      3.6231      3.5673      3.5237      3.4938      3.4785      3.4785      3.4938      3.4604      3.4981    
  3.5491      3.6117      3.6841      3.7641      3.8495      3.9380      4.0271      4.1143      4.1970      4.2726    
  4.3385      4.3925      4.4326      4.4573      4.4656      4.4573      4.4326      4.3925      4.3385      4.2726    
  4.1970      4.1143      4.0271      3.9380      3.8495      3.7641      3.6841      3.6117      3.5491      3.4981    
  3.4604      3.4373      3.4294      3.4373      3.4092      3.4401      3.4852      3.5430      3.6117      3.6894    
  3.7740      3.8632      3.9547      4.0461      4.1347      4.2177      4.2923      4.3558      4.4059      4.4404    
  4.4581      4.4581      4.4404      4.4059      4.3558      4.2923      4.2177      4.1347      4.0461      3.9547    
  3.8632      3.7740      3.6894      3.6117      3.5430      3.4852      3.4401      3.4092      3.3934      3.3934    
  3.3715      3.3950      3.4333      3.4852      3.5491      3.6231      3.7054      3.7938      3.8861      3.9799    
  4.0726      4.1613      4.2432      4.3151      4.3743      4.4184      4.4456      4.4548      4.4456      4.4184    
  4.3743      4.3151      4.2432      4.1613      4.0726      3.9799      3.8861      3.7938      3.7054      3.6231    
  3.5491      3.4852      3.4333      3.3950      3.3715      3.3635      3.3483      3.3641      3.3950      3.4401    
  3.4981      3.5673      3.6459      3.7319      3.8233      3.9178      4.0128      4.1054      4.1925      4.2709    
  4.3376      4.3901      4.4263      4.4448      4.4448      4.4263      4.3901      4.3376      4.2709      4.1925    
  4.1054      4.0128      3.9178      3.8233      3.7319      3.6459      3.5673      3.4981      3.4401      3.3950    
  3.3641      3.3483      3.3634      3.3711      3.3940      3.4314      3.4821      3.5448      3.6178      3.6993    
  3.7873      3.8796      3.9735      4.0657      4.1532      4.2328      4.3019      4.3580      4.3994      4.4247    
  4.4332      4.4247      4.3994      4.3580      4.3019      4.2328      4.1532      4.0657      3.9735      3.8796    
  3.7873      3.6993      3.6178      3.5448      3.4821      3.4314      3.3940      3.3711      3.3711      3.3711    
  3.3860      3.4155      3.4586      3.5144      3.5813      3.6576      3.7416      3.8309      3.9225      4.0132    
  4.0997      4.1791      4.2487      4.3064      4.3508      4.3807      4.3958      4.3958      4.3807      4.3508    
  4.3064      4.2487      4.1791      4.0997      4.0132      3.9225      3.8309      3.7416      3.6576      3.5813    
  3.5144      3.4586      3.4155      3.3860      3.3940      3.3868      3.3940      3.4155      3.4507      3.4988    
  3.5587      3.6289      3.7076      3.7923      3.8798      3.9667      4.0497      4.1256      4.1921      4.2474    
  4.2905      4.3211      4.3393      4.3454      4.3393      4.3211      4.2905      4.2474      4.1921      4.1256    
  4.0497      3.9667      3.8798      3.7923      3.7076      3.6289      3.5587      3.4988      3.4507      3.4155    
  3.4314      3.4176      3.4176      3.4314      3.4586      3.4988      3.5511      3.6143      3.6866      3.7655    
  3.8475      3.9289      4.0061      4.0759      4.1358      4.1846      4.2219      4.2482      4.2648      4.2727    
  4.2727      4.2648      4.2482      4.2219      4.1846      4.1358      4.0759      4.0061      3.9289      3.8475    
  3.7655      3.6866      3.6143      3.5511      3.4988      3.4586      3.4821      3.4626      3.4561      3.4626    
  3.4821      3.5144      3.5587      3.6143      3.6794      3.7517      3.8273      3.9021      3.9721      4.0337    
  4.0845      4.1233      4.1503      4.1673      4.1767      4.1810      4.1822      4.1810      4.1767      4.1673    
  4.1503      4.1233      4.0845      4.0337      3.9721      3.9021      3.8273      3.7517      3.6794      3.6143    
  3.5587      3.5144      3.5448      3.5203      3.5080      3.5080      3.5203      3.5448      3.5813      3.6289    
  3.6866      3.7517      3.8205      3.8882      3.9504      4.0031      4.0432      4.0696      4.0830      4.0861    
  4.0827      4.0773      4.0735      4.0735      4.0773      4.0827      4.0861      4.0830      4.0696      4.0432    
  4.0031      3.9504      3.8882      3.8205      3.7517      3.6866      3.6289      3.5813      3.6178      3.5890    
  3.5717      3.5659      3.5717      3.5890      3.6178      3.6576      3.7076      3.7655      3.8273      3.8882    
  3.9430      3.9869      4.0163      4.0296      4.0276      4.0136      3.9930      3.9720      3.9566      3.9510    
  3.9566      3.9720      3.9930      4.0136      4.0276      4.0296      4.0163      3.9869      3.9430      3.8882    
  3.8273      3.7655      3.7076      3.6576      3.6993      3.6670      3.6454      3.6346      3.6346      3.6454    
  3.6670      3.6993      3.7416      3.7923      3.8475      3.9021      3.9504      3.9869      4.0069      4.0082    
  3.9911      3.9591      3.9186      3.8777      3.8446      3.8261      3.8261      3.8446      3.8777      3.9186    
  3.9591      3.9911      4.0082      4.0069      3.9869      3.9504      3.9021      3.8475      3.7923      3.7416    
  3.7873      3.7524      3.7272      3.7121      3.7071      3.7121      3.7272      3.7524      3.7873      3.8309    
  3.8798      3.9289      3.9721      4.0031      4.0163      4.0082      3.9783      3.9298      3.8694      3.8064    
  3.7514      3.7140      3.7007      3.7140      3.7514      3.8064      3.8694      3.9298      3.9783      4.0082    
  4.0163      4.0031      3.9721      3.9289      3.8798      3.8309      3.8796      3.8429      3.8149      3.7962    
  3.7869      3.7869      3.7962      3.8149      3.8429      3.8796      3.9225      3.9667      4.0061      4.0337    
  4.0432      4.0296      3.9911      3.9298      3.8521      3.7681      3.6897      3.6292      3.5962      3.5962    
  3.6292      3.6897      3.7681      3.8521      3.9298      3.9911      4.0296      4.0432      4.0337      4.0061    
  3.9667      3.9225      3.9735      3.9365      3.9064      3.8848      3.8719      3.8676      3.8719      3.8848    
  3.9064      3.9365      3.9735      4.0132      4.0497      4.0759      4.0845      4.0696      4.0276      3.9591    
  3.8694      3.7681      3.6681      3.5836      3.5270      3.5071      3.5270      3.5836      3.6681      3.7681    
  3.8694      3.9591      4.0276      4.0696      4.0845      4.0759      4.0497      4.0132      4.0657      4.0305    
  3.9994      3.9756      3.9597      3.9519      3.9519      3.9597      3.9756      3.9994      4.0305      4.0657    
  4.0997      4.1256      4.1358      4.1233      4.0830      4.0136      3.9186      3.8064      3.6897      3.5836    
  3.5027      3.4591      3.4591      3.5027      3.5836      3.6897      3.8064      3.9186      4.0136      4.0830    
  4.1233      4.1358      4.1256      4.0997      4.1532      4.1218      4.0913      4.0661      4.0481      4.0373    
  4.0338      4.0373      4.0481      4.0661      4.0913      4.1218      4.1532      4.1791      4.1921      4.1846    
  4.1503      4.0861      3.9930      3.8777      3.7514      3.6292      3.5270      3.4591      3.4352      3.4591    
  3.5270      3.6292      3.7514      3.8777      3.9930      4.0861      4.1503      4.1846      4.1921      4.1791    
  4.2328      4.2073      4.1792      4.1539      4.1344      4.1215      4.1151      4.1151      4.1215      4.1344    
  4.1539      4.1792      4.2073      4.2328      4.2487      4.2474      4.2219      4.1673      4.0827      3.9720    
  3.8446      3.7140      3.5962      3.5071      3.4591      3.4591      3.5071      3.5962      3.7140      3.8446    
  3.9720      4.0827      4.1673      4.2219      4.2474      4.2487      4.3019      4.2840      4.2601      4.2361    
  4.2162      4.2019      4.1935      4.1907      4.1935      4.2019      4.2162      4.2361      4.2601      4.2840    
  4.3019      4.3064      4.2905      4.2482      4.1767      4.0773      3.9566      3.8261      3.7007      3.5962    
  3.5270      3.5027      3.5270      3.5962      3.7007      3.8261      3.9566      4.0773      4.1767      4.2482    
  4.2905      4.3064      4.3580      4.3491      4.3310      4.3100      4.2909      4.2762      4.2665      4.2617    
  4.2617      4.2665      4.2762      4.2909      4.3100      4.3310      4.3491      4.3580      4.3508      4.3211    
  4.2648      4.1810      4.0735      3.9510      3.8261      3.7140      3.6292      3.5836      3.5836      3.6292    
  3.7140      3.8261      3.9510      4.0735      4.1810      4.2648      4.3211      4.3508      4.3994      4.4001    
  4.3893      4.3728      4.3560      4.3421      4.3321      4.3262      4.3242      4.3262      4.3321      4.3421    
  4.3560      4.3728      4.3893      4.4001      4.3994      4.3807      4.3393      4.2727      4.1822      4.0735    
  3.9566      3.8446      3.7514      3.6897      3.6681      3.6897      3.7514      3.8446      3.9566      4.0735    
  4.1822      4.2727      4.3393      4.3807      4.4247      4.4352      4.4326      4.4222      4.4093      4.3974    
  4.3882      4.3822      4.3792      4.3792      4.3822      4.3882      4.3974      4.4093      4.4222      4.4326    
  4.4352      4.4247      4.3958      4.3454      4.2727      4.1810      4.0773      3.9720      3.8777      3.8064    
  3.7681      3.7681      3.8064      3.8777      3.9720      4.0773      4.1810      4.2727      4.3454      4.3958    
  4.4332      4.4531      4.4593      4.4563      4.4488      4.4406      4.4335      4.4284      4.4254      4.4244    
  4.4254      4.4284      4.4335      4.4406      4.4488      4.4563      4.4593      4.4531      4.4332      4.3958    
  4.3393      4.2648      4.1767      4.0827      3.9930      3.9186      3.8694      3.8521      3.8694      3.9186    
  3.9930      4.0827      4.1767      4.2648      4.3393      4.3958      4.4247      4.4531      4.4683      4.4737    
  4.4731      4.4701      4.4667      4.4638      4.4619      4.4609      4.4609      4.4619      4.4638      4.4667    
  4.4701      4.4731      4.4737      4.4683      4.4531      4.4247      4.3807      4.3211      4.2482      4.1673    
  4.0861      4.0136      3.9591      3.9298      3.9298      3.9591      4.0136      4.0861      4.1673      4.2482    
  4.3211      4.3807      4.3994      4.4352      4.4593      4.4737      4.4813      4.4851      4.4869      4.4877    
  4.4881      4.4883      4.4884      4.4883      4.4881      4.4877      4.4869      4.4851      4.4813      4.4737    
  4.4593      4.4352      4.3994      4.3508      4.2905      4.2219      4.1503      4.0830      4.0276      3.9911    
  3.9783      3.9911      4.0276      4.0830      4.1503      4.2219      4.2905      4.3508      4.3580      4.4001    
  4.4326      4.4563      4.4731      4.4851      4.4937      4.4997      4.5039      4.5065      4.5077      4.5077    
  4.5065      4.5039      4.4998      4.4937      4.4851      4.4731      4.4563      4.4326      4.4001      4.3580    
  4.3064      4.2474      4.1846      4.1233      4.0696      4.0296      4.0082      4.0082      4.0296      4.0696    
  4.1233      4.1846      4.2474      4.3064      4.3019      4.3491      4.3893      4.4222      4.4488      4.4701    
  4.4869      4.4997      4.5092      4.5155      4.5192      4.5204      4.5192      4.5155      4.5092      4.4998    
  4.4869      4.4701      4.4488      4.4222      4.3893      4.3491      4.3019      4.2487      4.1921      4.1358    
  4.0845      4.0432      4.0163      4.0069      4.0163      4.0432      4.0845      4.1358      4.1921      4.2487    
  4.2328      4.2840      4.3310      4.3728      4.4093      4.4406      4.4667      4.4877      4.5039      4.5155    
  4.5230      4.5267      4.5267      4.5230      4.5155      4.5039      4.4877      4.4667      4.4406      4.4093    
  4.3728      4.3310      4.2840      4.2328      4.1791      4.1256      4.0759      4.0337      4.0031      3.9869    
  3.9869      4.0031      4.0337      4.0759      4.1256      4.1791      4.1532      4.2073      4.2601      4.3100    
  4.3560      4.3974      4.4335      4.4638      4.4881      4.5065      4.5192      4.5267      4.5292      4.5267    
  4.5192      4.5065      4.4881      4.4638      4.4335      4.3974      4.3560      4.3100      4.2601      4.2073    
  4.1532      4.0997      4.0497      4.0061      3.9721      3.9504      3.9430      3.9504      3.9721      4.0061    
  4.0497      4.0997      4.0657      4.1218      4.1792      4.2361      4.2909      4.3421      4.3882      4.4284    
  4.4619      4.4883      4.5077      4.5204      4.5267      4.5267      4.5204      4.5077      4.4883      4.4619    
  4.4284      4.3882      4.3421      4.2909      4.2361      4.1792      4.1218      4.0657      4.0132      3.9667    
  3.9289      3.9021      3.8882      3.8882      3.9021      3.9289      3.9667      4.0132      3.9735      4.0305    
  4.0913      4.1539      4.2162      4.2762      4.3321      4.3822      4.4254      4.4609      4.4884      4.5077    
  4.5192      4.5230      4.5192      4.5077      4.4884      4.4609      4.4254      4.3822      4.3321      4.2762    
  4.2162      4.1539      4.0913      4.0305      3.9735      3.9225      3.8798      3.8475      3.8273      3.8205    
  3.8273      3.8475      3.8798      3.9225      3.8796      3.9365      3.9994      4.0661      4.1344      4.2019    
  4.2665      4.3262      4.3792      4.4244      4.4609      4.4883      4.5065      4.5155      4.5155      4.5065    
  4.4883      4.4609      4.4244      4.3792      4.3262      4.2665      4.2019      4.1344      4.0661      3.9994    
  3.9365      3.8796      3.8309      3.7923      3.7655      3.7517      3.7517      3.7655      3.7923      3.8309    
  3.7873      3.8429      3.9064      3.9756      4.0481      4.1215      4.1935      4.2617      4.3242      4.3792    
  4.4254      4.4619      4.4881      4.5039      4.5092      4.5039      4.4881      4.4619      4.4254      4.3792    
  4.3242      4.2617      4.1935      4.1215      4.0481      3.9756      3.9064      3.8429      3.7873      3.7416    
  3.7076      3.6866      3.6794      3.6866      3.7076      3.7416      3.6993      3.7524      3.8149      3.8848    
  3.9597      4.0373      4.1151      4.1907      4.2617      4.3262      4.3822      4.4284      4.4638      4.4877    
  4.4997      4.4997      4.4877      4.4638      4.4284      4.3822      4.3262      4.2617      4.1907      4.1151    
  4.0373      3.9597      3.8848      3.8149      3.7524      3.6993      3.6576      3.6289      3.6143      3.6143    
  3.6289      3.6576      3.6178      3.6670      3.7272      3.7962      3.8719      3.9519      4.0338      4.1151    
  4.1935      4.2665      4.3321      4.3882      4.4335      4.4667      4.4869      4.4937      4.4869      4.4667    
  4.4335      4.3882      4.3321      4.2665      4.1935      4.1151      4.0338      3.9519      3.8719      3.7962    
  3.7272      3.6670      3.6178      3.5813      3.5587      3.5511      3.5587      3.5813      3.5448      3.5890    
  3.6454      3.7121      3.7869      3.8676      3.9519      4.0373      4.1215      4.2019      4.2762      4.3421    
  4.3974      4.4406      4.4701      4.4851      4.4851      4.4701      4.4406      4.3974      4.3421      4.2762    
  4.2019      4.1215      4.0373      3.9519      3.8676      3.7869      3.7121      3.6454      3.5890      3.5448    
  3.5144      3.4988      3.4988      3.5144      3.4821      3.5203      3.5717      3.6346      3.7071      3.7869    
  3.8719      3.9597      4.0481      4.1344      4.2162      4.2909      4.3560      4.4093      4.4488      4.4731    
  4.4813      4.4731      4.4488      4.4093      4.3560      4.2909      4.2162      4.1344      4.0481      3.9597    
  3.8719      3.7869      3.7071      3.6346      3.5717      3.5203      3.4821      3.4586      3.4507      3.4586    
  3.4314      3.4626      3.5080      3.5659      3.6346      3.7121      3.7962      3.8848      3.9756      4.0661    
  4.1539      4.2361      4.3100      4.3728      4.4222      4.4563      4.4737      4.4737      4.4563      4.4222    
  4.3728      4.3100      4.2361      4.1539      4.0661      3.9756      3.8848      3.7962      3.7121      3.6346    
  3.5659      3.5080      3.4626      3.4314      3.4155      3.4155      3.3940      3.4176      3.4561      3.5080    
  3.5717      3.6454      3.7272      3.8149      3.9064      3.9994      4.0913      4.1792      4.2601      4.3310    
  4.3893      4.4326      4.4593      4.4683      4.4593      4.4326      4.3893      4.3310      4.2601      4.1792    
  4.0913      3.9994      3.9064      3.8149      3.7272      3.6454      3.5717      3.5080      3.4561      3.4176    
  3.3940      3.3860      3.3711      3.3868      3.4176      3.4626      3.5203      3.5890      3.6670      3.7524    
  3.8429      3.9365      4.0305      4.1218      4.2073      4.2840      4.3491      4.4001      4.4352      4.4531    
  4.4531      4.4352      4.4001      4.3491      4.2840      4.2073      4.1218      4.0305      3.9365      3.8429    
  3.7524      3.6670      3.5890      3.5203      3.4626      3.4176      3.3868      3.3711      3.3862      3.3938    
  3.4164      3.4534      3.5037      3.5658      3.6382      3.7190      3.8061      3.8972      3.9891      4.0787    
  4.1628      4.2387      4.3039      4.3564      4.3947      4.4181      4.4259      4.4181      4.3947      4.3564    
  4.3039      4.2387      4.1628      4.0787      3.9891      3.8972      3.8061      3.7190      3.6382      3.5658    
  3.5037      3.4534      3.4164      3.3938      3.3938      3.3938      3.4084      3.4374      3.4798      3.5348    
  3.6008      3.6763      3.7591      3.8466      3.9354      4.0222      4.1037      4.1772      4.2405      4.2921    
  4.3309      4.3568      4.3698      4.3698      4.3568      4.3309      4.2921      4.2405      4.1772      4.1037    
  4.0222      3.9354      3.8466      3.7591      3.6763      3.6008      3.5348      3.4798      3.4374      3.4084    
  3.4164      3.4094      3.4164      3.4374      3.4718      3.5189      3.5778      3.6468      3.7239      3.8062    
  3.8900      3.9715      4.0474      4.1148      4.1718      4.2174      4.2514      4.2747      4.2880      4.2924    
  4.2880      4.2747      4.2514      4.2174      4.1718      4.1148      4.0474      3.9715      3.8900      3.8062    
  3.7239      3.6468      3.5778      3.5189      3.4718      3.4374      3.4534      3.4401      3.4401      3.4534    
  3.4798      3.5189      3.5700      3.6317      3.7021      3.7780      3.8552      3.9298      3.9977      4.0559    
  4.1026      4.1372      4.1606      4.1749      4.1825      4.1856      4.1856      4.1825      4.1749      4.1606    
  4.1372      4.1026      4.0559      3.9977      3.9298      3.8552      3.7780      3.7021      3.6317      3.5700    
  3.5189      3.4798      3.5037      3.4849      3.4786      3.4849      3.5037      3.5348      3.5778      3.6317    
  3.6947      3.7634      3.8335      3.9000      3.9585      4.0056      4.0389      4.0584      4.0659      4.0647    
  4.0594      4.0541      4.0520      4.0541      4.0594      4.0647      4.0659      4.0584      4.0389      4.0056    
  3.9585      3.9000      3.8335      3.7634      3.6947      3.6317      3.5778      3.5348      3.5658      3.5423    
  3.5305      3.5305      3.5423      3.5658      3.6008      3.6468      3.7021      3.7634      3.8260      3.8844    
  3.9334      3.9686      3.9873      3.9892      3.9766      3.9546      3.9294      3.9078      3.8954      3.8954    
  3.9078      3.9294      3.9546      3.9766      3.9892      3.9873      3.9686      3.9334      3.8844      3.8260    
  3.7634      3.7021      3.6468      3.6008      3.6382      3.6107      3.5942      3.5887      3.5942      3.6107    
  3.6382      3.6763      3.7239      3.7780      3.8335      3.8844      3.9248      3.9491      3.9536      3.9375    
  3.9033      3.8567      3.8061      3.7610      3.7298      3.7187      3.7298      3.7610      3.8061      3.8567    
  3.9032      3.9375      3.9536      3.9491      3.9248      3.8844      3.8335      3.7780      3.7239      3.6763    
  3.7190      3.6883      3.6678      3.6576      3.6576      3.6678      3.6883      3.7190      3.7591      3.8062    
  3.8552      3.9000      3.9334      3.9491      3.9419      3.9099      3.8549      3.7832      3.7043      3.6303    
  3.5729      3.5415      3.5415      3.5729      3.6303      3.7043      3.7832      3.8549      3.9099      3.9419    
  3.9491      3.9334      3.9000      3.8552      3.8062      3.7591      3.8061      3.7731      3.7492      3.7350    
  3.7303      3.7350      3.7492      3.7731      3.8061      3.8466      3.8900      3.9298      3.9585      3.9686    
  3.9536      3.9099      3.8380      3.7437      3.6372      3.5321      3.4433      3.3839      3.3631      3.3839    
  3.4433      3.5321      3.6372      3.7437      3.8380      3.9099      3.9536      3.9686      3.9585      3.9298    
  3.8900      3.8466      3.8972      3.8630      3.8365      3.8188      3.8101      3.8101      3.8188      3.8365    
  3.8630      3.8972      3.9354      3.9715      3.9977      4.0056      3.9873      3.9375      3.8549      3.7437    
  3.6137      3.4795      3.3579      3.2657      3.2160      3.2160      3.2657      3.3579      3.4795      3.6137    
  3.7437      3.8549      3.9375      3.9873      4.0056      3.9977      3.9715      3.9354      3.9891      3.9557    
  3.9275      3.9070      3.8949      3.8908      3.8949      3.9070      3.9275      3.9557      3.9891      4.0222    
  4.0474      4.0559      4.0389      3.9892      3.9032      3.7832      3.6372      3.4795      3.3281      3.2023    
  3.1191      3.0899      3.1191      3.2023      3.3281      3.4795      3.6372      3.7832      3.9032      3.9892    
  4.0389      4.0559      4.0474      4.0222      4.0787      4.0484      4.0198      3.9973      3.9823      3.9749    
  3.9749      3.9823      3.9973      4.0198      4.0484      4.0787      4.1037      4.1148      4.1026      4.0584    
  3.9766      3.8567      3.7043      3.5321      3.3579      3.2023      3.0852      3.0224      3.0224      3.0852    
  3.2023      3.3579      3.5321      3.7043      3.8567      3.9766      4.0584      4.1026      4.1148      4.1037    
  4.1628      4.1380      4.1109      4.0872      4.0700      4.0598      4.0565      4.0598      4.0700      4.0872    
  4.1109      4.1380      4.1628      4.1772      4.1718      4.1372      4.0659      3.9546      3.8061      3.6303    
  3.4433      3.2657      3.1191      3.0224      2.9886      3.0224      3.1191      3.2657      3.4433      3.6303    
  3.8061      3.9546      4.0659      4.1372      4.1718      4.1772      4.2387      4.2215      4.1977      4.1743    
  4.1557      4.1434      4.1373      4.1373      4.1434      4.1557      4.1743      4.1977      4.2215      4.2387    
  4.2405      4.2174      4.1606      4.0647      3.9294      3.7610      3.5729      3.3839      3.2160      3.0899    
  3.0224      3.0224      3.0899      3.2160      3.3839      3.5729      3.7610      3.9294      4.0647      4.1606    
  4.2174      4.2405      4.3039      4.2960      4.2774      4.2558      4.2368      4.2230      4.2149      4.2123    
  4.2149      4.2230      4.2368      4.2558      4.2774      4.2960      4.3039      4.2921      4.2514      4.1749    
  4.0594      3.9078      3.7298      3.5415      3.3631      3.2160      3.1191      3.0852      3.1191      3.2160    
  3.3631      3.5415      3.7298      3.9078      4.0594      4.1749      4.2514      4.2921      4.3564      4.3588    
  4.3470      4.3288      4.3107      4.2965      4.2871      4.2825      4.2825      4.2871      4.2965      4.3107    
  4.3288      4.3470      4.3588      4.3564      4.3309      4.2747      4.1825      4.0541      3.8954      3.7187    
  3.5415      3.3839      3.2657      3.2023      3.2023      3.2657      3.3839      3.5415      3.7187      3.8954    
  4.0541      4.1825      4.2747      4.3309      4.3947      4.4078      4.4039      4.3908      4.3751      4.3615    
  4.3517      4.3459      4.3441      4.3459      4.3517      4.3615      4.3751      4.3908      4.4039      4.4078    
  4.3947      4.3568      4.2880      4.1856      4.0520      3.8954      3.7298      3.5729      3.4433      3.3579    
  3.3281      3.3579      3.4433      3.5729      3.7298      3.8954      4.0520      4.1856      4.2880      4.3568    
  4.4181      4.4414      4.4462      4.4395      4.4277      4.4160      4.4069      4.4009      4.3981      4.3981    
  4.4009      4.4069      4.4160      4.4277      4.4395      4.4462      4.4414      4.4181      4.3698      4.2924    
  4.1856      4.0541      3.9078      3.7610      3.6303      3.5321      3.4795      3.4795      3.5321      3.6303    
  3.7610      3.9078      4.0541      4.1856      4.2924      4.3698      4.4259      4.4585      4.4722      4.4730    
  4.4667      4.4584      4.4513      4.4462      4.4432      4.4423      4.4432      4.4462      4.4513      4.4584    
  4.4667      4.4730      4.4722      4.4585      4.4259      4.3698      4.2880      4.1825      4.0594      3.9294    
  3.8061      3.7043      3.6372      3.6137      3.6372      3.7043      3.8061      3.9294      4.0594      4.1825    
  4.2880      4.3698      4.4181      4.4585      4.4810      4.4900      4.4906      4.4874      4.4837      4.4807    
  4.4787      4.4778      4.4778      4.4787      4.4807      4.4837      4.4874      4.4906      4.4900      4.4810    
  4.4585      4.4181      4.3568      4.2747      4.1749      4.0647      3.9546      3.8567      3.7832      3.7437    
  3.7437      3.7832      3.8567      3.9546      4.0647      4.1749      4.2747      4.3568      4.3947      4.4414    
  4.4722      4.4900      4.4987      4.5022      4.5034      4.5039      4.5042      4.5044      4.5045      4.5044    
  4.5042      4.5039      4.5034      4.5022      4.4987      4.4900      4.4722      4.4414      4.3947      4.3309    
  4.2514      4.1606      4.0659      3.9766      3.9032      3.8549      3.8380      3.8549      3.9033      3.9766    
  4.0659      4.1606      4.2514      4.3309      4.3564      4.4078      4.4462      4.4730      4.4906      4.5022    
  4.5100      4.5156      4.5194      4.5220      4.5232      4.5232      4.5220      4.5194      4.5156      4.5100    
  4.5022      4.4906      4.4730      4.4462      4.4078      4.3564      4.2921      4.2174      4.1372      4.0584    
  3.9892      3.9375      3.9099      3.9099      3.9375      3.9892      4.0584      4.1372      4.2174      4.2921    
  4.3039      4.3588      4.4039      4.4395      4.4667      4.4874      4.5034      4.5156      4.5245      4.5307    
  4.5344      4.5356      4.5344      4.5307      4.5245      4.5156      4.5034      4.4874      4.4667      4.4395    
  4.4039      4.3588      4.3039      4.2405      4.1718      4.1026      4.0389      3.9873      3.9536      3.9419    
  3.9536      3.9873      4.0389      4.1026      4.1718      4.2405      4.2387      4.2960      4.3470      4.3908    
  4.4277      4.4584      4.4837      4.5039      4.5194      4.5307      4.5380      4.5416      4.5416      4.5380    
  4.5307      4.5194      4.5039      4.4837      4.4584      4.4277      4.3908      4.3470      4.2960      4.2387    
  4.1772      4.1148      4.0559      4.0056      3.9686      3.9491      3.9491      3.9686      4.0056      4.0559    
  4.1148      4.1772      4.1628      4.2215      4.2774      4.3288      4.3751      4.4160      4.4513      4.4807    
  4.5042      4.5220      4.5344      4.5416      4.5440      4.5416      4.5344      4.5220      4.5042      4.4807    
  4.4513      4.4160      4.3751      4.3288      4.2774      4.2215      4.1628      4.1037      4.0474      3.9977    
  3.9585      3.9334      3.9248      3.9334      3.9585      3.9977      4.0474      4.1037      4.0787      4.1380    
  4.1977      4.2558      4.3107      4.3615      4.4069      4.4462      4.4787      4.5044      4.5232      4.5356    
  4.5416      4.5416      4.5356      4.5232      4.5044      4.4787      4.4462      4.4069      4.3615      4.3107    
  4.2558      4.1977      4.1380      4.0787      4.0222      3.9715      3.9298      3.9000      3.8844      3.8844    
  3.9000      3.9298      3.9715      4.0222      3.9891      4.0484      4.1109      4.1743      4.2368      4.2965    
  4.3517      4.4009      4.4432      4.4778      4.5045      4.5232      4.5344      4.5380      4.5344      4.5232    
  4.5045      4.4778      4.4432      4.4009      4.3517      4.2965      4.2368      4.1743      4.1109      4.0484    
  3.9891      3.9354      3.8900      3.8552      3.8335      3.8260      3.8335      3.8552      3.8900      3.9354    
  3.8972      3.9557      4.0198      4.0872      4.1557      4.2230      4.2871      4.3459      4.3981      4.4423    
  4.4778      4.5044      4.5220      4.5307      4.5307      4.5220      4.5044      4.4778      4.4423      4.3981    
  4.3459      4.2871      4.2230      4.1557      4.0872      4.0198      3.9557      3.8972      3.8466      3.8062    
  3.7780      3.7634      3.7634      3.7780      3.8062      3.8466      3.8061      3.8630      3.9275      3.9973    
  4.0700      4.1434      4.2149      4.2825      4.3441      4.3981      4.4432      4.4787      4.5042      4.5194    
  4.5245      4.5194      4.5042      4.4787      4.4432      4.3981      4.3441      4.2825      4.2149      4.1434    
  4.0700      3.9973      3.9275      3.8630      3.8061      3.7591      3.7239      3.7021      3.6947      3.7021    
  3.7239      3.7591      3.7190      3.7731      3.8365      3.9070      3.9823      4.0598      4.1373      4.2123    
  4.2825      4.3459      4.4009      4.4462      4.4807      4.5039      4.5156      4.5156      4.5039      4.4807    
  4.4462      4.4009      4.3459      4.2825      4.2123      4.1373      4.0598      3.9823      3.9070      3.8365    
  3.7731      3.7190      3.6763      3.6468      3.6317      3.6317      3.6468      3.6763      3.6382      3.6883    
  3.7492      3.8188      3.8949      3.9749      4.0565      4.1373      4.2149      4.2871      4.3517      4.4069    
  4.4513      4.4837      4.5034      4.5100      4.5034      4.4837      4.4513      4.4069      4.3517      4.2871    
  4.2149      4.1373      4.0565      3.9749      3.8949      3.8188      3.7492      3.6883      3.6382      3.6008    
  3.5778      3.5700      3.5778      3.6008      3.5658      3.6107      3.6678      3.7350      3.8101      3.8908    
  3.9749      4.0598      4.1434      4.2230      4.2965      4.3615      4.4160      4.4584      4.4874      4.5022    
  4.5022      4.4874      4.4584      4.4160      4.3615      4.2965      4.2230      4.1434      4.0598      3.9749    
  3.8908      3.8101      3.7350      3.6678      3.6107      3.5658      3.5348      3.5189      3.5189      3.5348    
  3.5037      3.5423      3.5942      3.6576      3.7303      3.8101      3.8949      3.9823      4.0700      4.1557    
  4.2368      4.3107      4.3751      4.4277      4.4667      4.4906      4.4987      4.4906      4.4667      4.4277    
  4.3751      4.3107      4.2368      4.1557      4.0700      3.9823      3.8949      3.8101      3.7303      3.6576    
  3.5942      3.5423      3.5037      3.4798      3.4718      3.4798      3.4534      3.4849      3.5305      3.5887    
  3.6576      3.7350      3.8188      3.9070      3.9973      4.0872      4.1743      4.2558      4.3288      4.3908    
  4.4395      4.4730      4.4900      4.4900      4.4730      4.4395      4.3908      4.3288      4.2558      4.1743    
  4.0872      3.9973      3.9070      3.8188      3.7350      3.6576      3.5887      3.5305      3.4849      3.4534    
  3.4374      3.4374      3.4164      3.4401      3.4786      3.5305      3.5942      3.6678      3.7492      3.8365    
  3.9275      4.0198      4.1109      4.1977      4.2774      4.3470      4.4039      4.4462      4.4722      4.4810    
  4.4722      4.4462      4.4039      4.3470      4.2774      4.1977      4.1109      4.0198      3.9275      3.8365    
  3.7492      3.6678      3.5942      3.5305      3.4786      3.4401      3.4164      3.4084      3.3938      3.4094    
  3.4401      3.4849      3.5423      3.6107      3.6883      3.7731      3.8630      3.9557      4.0484      4.1380    
  4.2215      4.2960      4.3588      4.4078      4.4414      4.4585      4.4585      4.4414      4.4078      4.3588    
  4.2960      4.2215      4.1380      4.0484      3.9557      3.8630      3.7731      3.6883      3.6107      3.5423    
  3.4849      3.4401      3.4094      3.3938      3.4078      3.4154      3.4377      3.4743      3.5240      3.5856    
  3.6574      3.7375      3.8238      3.9134      4.0030      4.0894      4.1697      4.2411      4.3016      4.3498    
  4.3845      4.4055      4.4126      4.4055      4.3845      4.3498      4.3016      4.2411      4.1697      4.0894    
  4.0030      3.9134      3.8238      3.7375      3.6574      3.5856      3.5240      3.4743      3.4377      3.4154    
  3.4154      3.4154      3.4297      3.4581      3.4999      3.5540      3.6192      3.6938      3.7753      3.8606    
  3.9460      4.0281      4.1038      4.1704      4.2263      4.2706      4.3031      4.3242      4.3346      4.3346    
  4.3242      4.3031      4.2706      4.2263      4.1704      4.1038      4.0281      3.9460      3.8606      3.7753    
  3.6937      3.6192      3.5540      3.4999      3.4581      3.4297      3.4377      3.4309      3.4377      3.4581    
  3.4917      3.5379      3.5956      3.6634      3.7387      3.8180      3.8972      3.9724      4.0401      4.0977    
  4.1436      4.1779      4.2015      4.2163      4.2241      4.2265      4.2241      4.2163      4.2015      4.1779    
  4.1436      4.0977      4.0401      3.9724      3.8972      3.8180      3.7387      3.6634      3.5956      3.5379    
  3.4917      3.4581      3.4743      3.4614      3.4614      3.4743      3.4999      3.5379      3.5876      3.6478    
  3.7160      3.7881      3.8597      3.9261      3.9833      4.0282      4.0596      4.0780      4.0856      4.0862    
  4.0836      4.0813      4.0813      4.0836      4.0862      4.0856      4.0780      4.0596      4.0282      3.9833    
  3.9261      3.8597      3.7881      3.7160      3.6478      3.5876      3.5379      3.4999      3.5240      3.5060    
  3.5000      3.5060      3.5240      3.5540      3.5956      3.6478      3.7082      3.7727      3.8360      3.8928    
  3.9382      3.9684      3.9819      3.9795      3.9648      3.9433      3.9215      3.9055      3.8997      3.9055    
  3.9215      3.9433      3.9648      3.9795      3.9819      3.9684      3.9382      3.8928      3.8360      3.7727    
  3.7082      3.6478      3.5956      3.5540      3.5856      3.5631      3.5519      3.5519      3.5631      3.5856    
  3.6192      3.6634      3.7160      3.7727      3.8279      3.8754      3.9091      3.9244      3.9187      3.8928    
  3.8512      3.8010      3.7516      3.7122      3.6904      3.6904      3.7122      3.7516      3.8010      3.8512    
  3.8928      3.9187      3.9244      3.9091      3.8754      3.8279      3.7727      3.7160      3.6634      3.6192    
  3.6574      3.6312      3.6155      3.6103      3.6155      3.6312      3.6574      3.6937      3.7387      3.7881    
  3.8360      3.8754      3.8991      3.9010      3.8773      3.8281      3.7578      3.6751      3.5915      3.5198    
  3.4715      3.4544      3.4715      3.5198      3.5915      3.6751      3.7578      3.8281      3.8773      3.9010    
  3.8991      3.8754      3.8360      3.7881      3.7387      3.6937      3.7375      3.7084      3.6889      3.6793    
  3.6793      3.6889      3.7084      3.7375      3.7753      3.8180      3.8597      3.8928      3.9091      3.9010    
  3.8629      3.7935      3.6964      3.5806      3.4598      3.3496      3.2657      3.2203      3.2203      3.2657    
  3.3496      3.4598      3.5806      3.6964      3.7935      3.8629      3.9010      3.9091      3.8928      3.8597    
  3.8180      3.7753      3.8238      3.7928      3.7702      3.7567      3.7523      3.7567      3.7702      3.7928    
  3.8238      3.8606      3.8972      3.9261      3.9382      3.9244      3.8773      3.7935      3.6749      3.5300    
  3.3731      3.2223      3.0969      3.0139      2.9849      3.0139      3.0969      3.2223      3.3731      3.5300    
  3.6749      3.7935      3.8773      3.9244      3.9382      3.9261      3.8972      3.8606      3.9134      3.8821    
  3.8572      3.8405      3.8322      3.8322      3.8405      3.8572      3.8821      3.9134      3.9460      3.9724    
  3.9833      3.9684      3.9187      3.8281      3.6964      3.5300      3.3429      3.1541      2.9860      2.8598    
  2.7921      2.7921      2.8598      2.9860      3.1541      3.3429      3.5300      3.6964      3.8281      3.9187    
  3.9684      3.9833      3.9724      3.9460      4.0030      3.9740      3.9478      3.9285      3.9170      3.9132    
  3.9170      3.9285      3.9478      3.9740      4.0030      4.0281      4.0401      4.0282      3.9819      3.8928    
  3.7578      3.5806      3.3731      3.1541      2.9474      2.7775      2.6658      2.6268      2.6658      2.7775    
  2.9474      3.1541      3.3731      3.5806      3.7578      3.8928      3.9819      4.0282      4.0401      4.0281    
  4.0894      4.0652      4.0396      4.0185      4.0042      3.9972      3.9972      4.0042      4.0185      4.0396    
  4.0652      4.0894      4.1038      4.0977      4.0596      3.9795      3.8512      3.6751      3.4598      3.2223    
  2.9860      2.7775      2.6217      2.5385      2.5385      2.6217      2.7775      2.9860      3.2223      3.4598    
  3.6751      3.8512      3.9795      4.0596      4.0977      4.1038      4.1697      4.1529      4.1299      4.1080    
  4.0917      4.0819      4.0787      4.0819      4.0917      4.1080      4.1299      4.1529      4.1697      4.1704    
  4.1436      4.0780      3.9648      3.8010      3.5915      3.3496      3.0969      2.8598      2.6658      2.5385    
  2.4942      2.5385      2.6658      2.8598      3.0969      3.3496      3.5915      3.8010      3.9648      4.0780    
  4.1436      4.1704      4.2411      4.2339      4.2155      4.1946      4.1769      4.1651      4.1592      4.1592    
  4.1651      4.1769      4.1946      4.2155      4.2339      4.2411      4.2263      4.1779      4.0856      3.9433    
  3.7516      3.5198      3.2657      3.0139      2.7921      2.6268      2.5385      2.5385      2.6268      2.7921    
  3.0139      3.2657      3.5198      3.7516      3.9433      4.0856      4.1779      4.2263      4.3016      4.3057    
  4.2937      4.2754      4.2575      4.2443      4.2364      4.2338      4.2364      4.2443      4.2575      4.2754    
  4.2937      4.3057      4.3016      4.2706      4.2015      4.0862      3.9215      3.7122      3.4715      3.2203    
  2.9849      2.7921      2.6658      2.6217      2.6658      2.7921      2.9849      3.2203      3.4715      3.7122    
  3.9215      4.0862      4.2015      4.2706      4.3498      4.3658      4.3618      4.3475      4.3309      4.3171    
  4.3079      4.3034      4.3034      4.3079      4.3171      4.3309      4.3475      4.3618      4.3658      4.3498    
  4.3031      4.2163      4.0836      3.9055      3.6904      3.4544      3.2203      3.0139      2.8598      2.7775    
  2.7775      2.8598      3.0139      3.2203      3.4544      3.6904      3.9055      4.0836      4.2163      4.3031    
  4.3845      4.4124      4.4172      4.4086      4.3947      4.3815      4.3718      4.3662      4.3643      4.3662    
  4.3718      4.3815      4.3947      4.4086      4.4172      4.4124      4.3845      4.3242      4.2241      4.0813    
  3.8997      3.6904      3.4715      3.2657      3.0969      2.9860      2.9474      2.9860      3.0969      3.2657    
  3.4715      3.6904      3.8997      4.0813      4.2241      4.3242      4.4055      4.4441      4.4582      4.4564    
  4.4467      4.4354      4.4263      4.4204      4.4175      4.4175      4.4204      4.4263      4.4354      4.4467    
  4.4564      4.4582      4.4441      4.4055      4.3346      4.2265      4.0813      3.9055      3.7122      3.5198    
  3.3496      3.2223      3.1541      3.1541      3.2223      3.3496      3.5198      3.7122      3.9055      4.0813    
  4.2265      4.3346      4.4126      4.4602      4.4833      4.4892      4.4851      4.4772      4.4700      4.4648    
  4.4619      4.4609      4.4619      4.4648      4.4700      4.4772      4.4851      4.4892      4.4833      4.4602    
  4.4126      4.3346      4.2241      4.0836      3.9215      3.7516      3.5915      3.4598      3.3731      3.3429    
  3.3731      3.4598      3.5915      3.7516      3.9215      4.0836      4.2241      4.3346      4.4055      4.4602    
  4.4918      4.5059      4.5086      4.5058      4.5018      4.4986      4.4966      4.4957      4.4957      4.4966    
  4.4986      4.5018      4.5058      4.5086      4.5059      4.4918      4.4602      4.4055      4.3242      4.2163    
  4.0862      3.9433      3.8010      3.6751      3.5806      3.5300      3.5300      3.5806      3.6751      3.8010    
  3.9433      4.0862      4.2163      4.3242      4.3845      4.4441      4.4833      4.5059      4.5165      4.5203    
  4.5211      4.5213      4.5214      4.5216      4.5217      4.5216      4.5214      4.5213      4.5211      4.5203    
  4.5165      4.5059      4.4833      4.4441      4.3845      4.3031      4.2015      4.0856      3.9648      3.8512    
  3.7578      3.6964      3.6749      3.6964      3.7578      3.8512      3.9648      4.0856      4.2015      4.3031    
  4.3498      4.4124      4.4582      4.4892      4.5086      4.5203      4.5276      4.5327      4.5363      4.5387    
  4.5400      4.5400      4.5387      4.5363      4.5327      4.5276      4.5203      4.5086      4.4892      4.4582    
  4.4124      4.3498      4.2706      4.1779      4.0780      3.9795      3.8928      3.8281      3.7935      3.7935    
  3.8281      3.8928      3.9795      4.0780      4.1779      4.2706      4.3016      4.3658      4.4172      4.4564    
  4.4851      4.5058      4.5211      4.5327      4.5412      4.5472      4.5508      4.5520      4.5508      4.5472    
  4.5412      4.5327      4.5211      4.5058      4.4851      4.4564      4.4172      4.3658      4.3016      4.2263    
  4.1436      4.0596      3.9819      3.9187      3.8773      3.8629      3.8773      3.9187      3.9819      4.0596    
  4.1436      4.2263      4.2411      4.3057      4.3618      4.4086      4.4467      4.4772      4.5018      4.5213    
  4.5363      4.5472      4.5544      4.5579      4.5579      4.5544      4.5472      4.5363      4.5213      4.5018    
  4.4772      4.4467      4.4086      4.3618      4.3057      4.2411      4.1704      4.0977      4.0282      3.9684    
  3.9244      3.9010      3.9010      3.9244      3.9684      4.0282      4.0977      4.1704      4.1697      4.2339    
  4.2937      4.3475      4.3947      4.4354      4.4700      4.4986      4.5214      4.5387      4.5508      4.5579    
  4.5603      4.5579      4.5508      4.5387      4.5214      4.4986      4.4700      4.4354      4.3947      4.3475    
  4.2937      4.2339      4.1697      4.1038      4.0401      3.9833      3.9382      3.9091      3.8991      3.9091    
  3.9382      3.9833      4.0401      4.1038      4.0894      4.1529      4.2155      4.2754      4.3309      4.3815    
  4.4263      4.4648      4.4966      4.5216      4.5400      4.5520      4.5579      4.5579      4.5520      4.5400    
  4.5216      4.4966      4.4648      4.4263      4.3815      4.3309      4.2754      4.2155      4.1529      4.0894    
  4.0281      3.9724      3.9261      3.8928      3.8754      3.8754      3.8928      3.9261      3.9724      4.0281    
  4.0030      4.0652      4.1299      4.1946      4.2575      4.3171      4.3718      4.4204      4.4619      4.4957    
  4.5217      4.5400      4.5508      4.5544      4.5508      4.5400      4.5217      4.4957      4.4619      4.4204    
  4.3718      4.3171      4.2575      4.1946      4.1299      4.0652      4.0030      3.9460      3.8972      3.8597    
  3.8360      3.8279      3.8360      3.8597      3.8972      3.9460      3.9134      3.9740      4.0396      4.1080    
  4.1769      4.2443      4.3079      4.3662      4.4175      4.4609      4.4957      4.5216      4.5387      4.5472    
  4.5472      4.5387      4.5216      4.4957      4.4609      4.4175      4.3662      4.3079      4.2443      4.1769    
  4.1080      4.0396      3.9740      3.9134      3.8606      3.8180      3.7881      3.7727      3.7727      3.7881    
  3.8180      3.8606      3.8238      3.8821      3.9478      4.0185      4.0917      4.1651      4.2364      4.3034    
  4.3643      4.4175      4.4619      4.4966      4.5214      4.5363      4.5412      4.5363      4.5214      4.4966    
  4.4619      4.4175      4.3643      4.3034      4.2364      4.1651      4.0917      4.0185      3.9478      3.8821    
  3.8238      3.7753      3.7387      3.7160      3.7082      3.7160      3.7387      3.7753      3.7375      3.7928    
  3.8572      3.9285      4.0042      4.0819      4.1592      4.2338      4.3034      4.3662      4.4204      4.4648    
  4.4986      4.5213      4.5327      4.5327      4.5213      4.4986      4.4648      4.4204      4.3662      4.3034    
  4.2338      4.1592      4.0819      4.0042      3.9285      3.8572      3.7928      3.7375      3.6937      3.6634    
  3.6478      3.6478      3.6634      3.6938      3.6574      3.7084      3.7702      3.8405      3.9170      3.9972    
  4.0787      4.1592      4.2364      4.3079      4.3718      4.4263      4.4700      4.5018      4.5211      4.5276    
  4.5211      4.5018      4.4700      4.4263      4.3718      4.3079      4.2364      4.1592      4.0787      3.9972    
  3.9170      3.8405      3.7702      3.7084      3.6574      3.6192      3.5956      3.5876      3.5956      3.6192    
  3.5856      3.6312      3.6889      3.7567      3.8322      3.9132      3.9972      4.0819      4.1651      4.2443    
  4.3171      4.3815      4.4354      4.4772      4.5058      4.5203      4.5203      4.5058      4.4772      4.4354    
  4.3815      4.3171      4.2443      4.1651      4.0819      3.9972      3.9132      3.8322      3.7567      3.6889    
  3.6312      3.5856      3.5540      3.5379      3.5379      3.5540      3.5240      3.5631      3.6155      3.6793    
  3.7523      3.8322      3.9170      4.0042      4.0917      4.1769      4.2575      4.3309      4.3947      4.4467    
  4.4851      4.5086      4.5165      4.5086      4.4851      4.4467      4.3947      4.3309      4.2575      4.1769    
  4.0917      4.0042      3.9170      3.8322      3.7523      3.6793      3.6155      3.5631      3.5240      3.4999    
  3.4917      3.4999      3.4743      3.5060      3.5519      3.6103      3.6793      3.7567      3.8405      3.9285    
  4.0185      4.1080      4.1946      4.2754      4.3475      4.4086      4.4564      4.4892      4.5059      4.5059    
  4.4892      4.4564      4.4086      4.3475      4.2754      4.1946      4.1080      4.0185      3.9285      3.8405    
  3.7567      3.6793      3.6103      3.5519      3.5060      3.4743      3.4581      3.4581      3.4377      3.4614    
  3.5000      3.5519      3.6155      3.6889      3.7702      3.8572      3.9478      4.0396      4.1299      4.2155    
  4.2937      4.3618      4.4172      4.4582      4.4833      4.4918      4.4833      4.4582      4.4172      4.3618    
  4.2937      4.2155      4.1299      4.0396      3.9478      3.8572      3.7702      3.6889      3.6155      3.5519    
  3.5000      3.4614      3.4377      3.4297      3.4154      3.4309      3.4614      3.5060      3.5631      3.6312    
  3.7084      3.7928      3.8821      3.9740      4.0652      4.1529      4.2339      4.3057      4.3658      4.4124    
  4.4441      4.4602      4.4602      4.4441      4.4124      4.3658      4.3057      4.2339      4.1529      4.0652    
  3.9740      3.8821      3.7928      3.7084      3.6312      3.5631      3.5060      3.4614      3.4309      3.4154    
  3.4274      3.4349      3.4569      3.4930      3.5422      3.6032      3.6745      3.7540      3.8393      3.9272    
  4.0143      4.0973      4.1734      4.2400      4.2956      4.3390      4.3700      4.3884      4.3946      4.3884    
  4.3700      4.3390      4.2956      4.2400      4.1734      4.0973      4.0143      3.9272      3.8393      3.7540    
  3.6745      3.6032      3.5422      3.4930      3.4569      3.4349      3.4349      3.4349      3.4489      3.4768    
  3.5178      3.5712      3.6356      3.7092      3.7892      3.8720      3.9538      4.0309      4.1002      4.1595    
  4.2076      4.2441      4.2698      4.2859      4.2936      4.2936      4.2859      4.2698      4.2441      4.2076    
  4.1595      4.1002      4.0309      3.9538      3.8720      3.7892      3.7092      3.6356      3.5712      3.5178    
  3.4768      3.4489      3.4569      3.4503      3.4569      3.4768      3.5096      3.5548      3.6115      3.6779    
  3.7512      3.8272      3.9015      3.9699      4.0288      4.0759      4.1102      4.1326      4.1453      4.1511    
  4.1531      4.1535      4.1531      4.1511      4.1453      4.1326      4.1102      4.0759      4.0288      3.9699    
  3.9015      3.8272      3.7512      3.6779      3.6115      3.5548      3.5096      3.4768      3.4930      3.4806    
  3.4806      3.4930      3.5178      3.5548      3.6033      3.6619      3.7275      3.7956      3.8610      3.9188    
  3.9645      3.9955      4.0108      4.0122      4.0034      3.9897      3.9766      3.9687      3.9687      3.9766    
  3.9897      4.0034      4.0122      4.0108      3.9955      3.9645      3.9188      3.8610      3.7956      3.7275    
  3.6619      3.6033      3.5548      3.5178      3.5422      3.5248      3.5191      3.5248      3.5422      3.5712    
  3.6115      3.6619      3.7194      3.7792      3.8354      3.8819      3.9133      3.9259      3.9186      3.8935    
  3.8559      3.8134      3.7747      3.7478      3.7381      3.7478      3.7747      3.8134      3.8559      3.8935    
  3.9186      3.9259      3.9133      3.8819      3.8354      3.7792      3.7194      3.6619      3.6115      3.5712    
  3.6032      3.5817      3.5709      3.5709      3.5817      3.6032      3.6356      3.6779      3.7275      3.7792    
  3.8266      3.8625      3.8801      3.8744      3.8434      3.7890      3.7174      3.6386      3.5644      3.5069    
  3.4755      3.4755      3.5069      3.5644      3.6386      3.7174      3.7890      3.8434      3.8744      3.8801    
  3.8625      3.8266      3.7792      3.7275      3.6779      3.6356      3.6745      3.6494      3.6345      3.6295    
  3.6345      3.6494      3.6745      3.7092      3.7512      3.7956      3.8354      3.8625      3.8686      3.8471    
  3.7942      3.7109      3.6037      3.4842      3.3671      3.2687      3.2031      3.1801      3.2031      3.2687    
  3.3671      3.4842      3.6037      3.7109      3.7942      3.8471      3.8686      3.8625      3.8354      3.7956    
  3.7512      3.7092      3.7540      3.7263      3.7078      3.6986      3.6986      3.7078      3.7263      3.7540    
  3.7892      3.8272      3.8610      3.8819      3.8801      3.8471      3.7770      3.6691      3.5290      3.3687    
  3.2055      3.0591      2.9488      2.8895      2.8895      2.9488      3.0591      3.2055      3.3687      3.5290    
  3.6691      3.7770      3.8471      3.8801      3.8819      3.8610      3.8272      3.7892      3.8393      3.8103    
  3.7889      3.7761      3.7719      3.7761      3.7889      3.8103      3.8393      3.8720      3.9015      3.9188    
  3.9133      3.8744      3.7942      3.6691      3.5030      3.3069      3.0993      2.9028      2.7411      2.6347    
  2.5976      2.6347      2.7411      2.9028      3.0993      3.3069      3.5030      3.6691      3.7942      3.8744    
  3.9133      3.9188      3.9015      3.8720      3.9272      3.8992      3.8758      3.8599      3.8520      3.8520    
  3.8599      3.8758      3.8992      3.9272      3.9538      3.9699      3.9645      3.9259      3.8434      3.7109    
  3.5290      3.3069      3.0623      2.8193      2.6051      2.4453      2.3600      2.3600      2.4453      2.6051    
  2.8193      3.0623      3.3069      3.5290      3.7109      3.8434      3.9259      3.9645      3.9699      3.9538    
  4.0143      3.9900      3.9661      3.9479      3.9369      3.9332      3.9369      3.9479      3.9661      3.9900    
  4.0143      4.0309      4.0288      3.9955      3.9186      3.7890      3.6037      3.3687      3.0993      2.8193    
  2.5577      2.3443      2.2048      2.1562      2.2048      2.3443      2.5577      2.8193      3.0993      3.3687    
  3.6037      3.7890      3.9186      3.9955      4.0288      4.0309      4.0973      4.0797      4.0575      4.0377    
  4.0242      4.0174      4.0174      4.0242      4.0377      4.0575      4.0797      4.0973      4.1002      4.0759    
  4.0108      3.8935      3.7174      3.4842      3.2055      2.9028      2.6051      2.3443      2.1508      2.0477    
  2.0477      2.1508      2.3443      2.6051      2.9028      3.2055      3.4842      3.7174      3.8935      4.0108    
  4.0759      4.1002      4.1734      4.1652      4.1469      4.1271      4.1115      4.1022      4.0990      4.1022    
  4.1115      4.1271      4.1469      4.1652      4.1734      4.1595      4.1102      4.0122      3.8559      3.6386    
  3.3671      3.0591      2.7411      2.4453      2.2048      2.0477      1.9931      2.0477      2.2048      2.4453    
  2.7411      3.0591      3.3671      3.6386      3.8559      4.0122      4.1102      4.1595      4.2400      4.2437    
  4.2313      4.2133      4.1967      4.1852      4.1795      4.1795      4.1852      4.1967      4.2133      4.2313    
  4.2437      4.2400      4.2076      4.1326      4.0034      3.8134      3.5644      3.2687      2.9488      2.6347    
  2.3600      2.1562      2.0477      2.0477      2.1562      2.3600      2.6347      2.9488      3.2687      3.5644    
  3.8134      4.0034      4.1326      4.2076      4.2956      4.3125      4.3080      4.2934      4.2770      4.2642    
  4.2565      4.2539      4.2565      4.2642      4.2770      4.2934      4.3080      4.3125      4.2956      4.2441    
  4.1453      3.9897      3.7747      3.5069      3.2031      2.8895      2.5976      2.3600      2.2048      2.1508    
  2.2048      2.3600      2.5976      2.8895      3.2031      3.5069      3.7747      3.9897      4.1453      4.2441    
  4.3390      4.3697      4.3744      4.3647      4.3500      4.3367      4.3277      4.3233      4.3233      4.3277    
  4.3367      4.3500      4.3647      4.3744      4.3697      4.3390      4.2698      4.1511      3.9766      3.7478    
  3.4755      3.1801      2.8895      2.6347      2.4453      2.3443      2.3443      2.4453      2.6347      2.8895    
  3.1801      3.4755      3.7478      3.9766      4.1511      4.2698      4.3700      4.4137      4.4282      4.4248    
  4.4133      4.4007      4.3912      4.3856      4.3837      4.3856      4.3912      4.4007      4.4133      4.4248    
  4.4282      4.4137      4.3700      4.2859      4.1531      3.9687      3.7381      3.4755      3.2031      2.9488    
  2.7411      2.6051      2.5577      2.6051      2.7411      2.9488      3.2031      3.4755      3.7381      3.9687    
  4.1531      4.2859      4.3884      4.4435      4.4678      4.4717      4.4647      4.4542      4.4452      4.4393    
  4.4364      4.4364      4.4393      4.4452      4.4542      4.4647      4.4717      4.4678      4.4435      4.3884    
  4.2936      4.1535      3.9687      3.7478      3.5069      3.2687      3.0591      2.9028      2.8193      2.8193    
  2.9028      3.0591      3.2687      3.5069      3.7478      3.9687      4.1535      4.2936      4.3946      4.4585    
  4.4921      4.5038      4.5025      4.4956      4.4884      4.4831      4.4801      4.4792      4.4801      4.4831    
  4.4884      4.4956      4.5025      4.5038      4.4921      4.4585      4.3946      4.2936      4.1531      3.9766    
  3.7747      3.5644      3.3671      3.2055      3.0993      3.0623      3.0993      3.2055      3.3671      3.5644    
  3.7747      3.9766      4.1531      4.2936      4.3884      4.4585      4.5002      4.5201      4.5257      4.5238    
  4.5198      4.5164      4.5143      4.5134      4.5134      4.5143      4.5164      4.5198      4.5238      4.5257    
  4.5201      4.5002      4.4585      4.3884      4.2859      4.1511      3.9897      3.8134      3.6386      3.4842    
  3.3687      3.3069      3.3069      3.3687      3.4842      3.6386      3.8134      3.9897      4.1511      4.2859    
  4.3700      4.4435      4.4921      4.5201      4.5335      4.5381      4.5388      4.5387      4.5387      4.5389    
  4.5389      4.5389      4.5387      4.5387      4.5388      4.5381      4.5335      4.5201      4.4921      4.4435    
  4.3700      4.2698      4.1453      4.0034      3.8559      3.7174      3.6037      3.5290      3.5030      3.5290    
  3.6037      3.7174      3.8559      4.0034      4.1453      4.2698      4.3390      4.4137      4.4678      4.5038    
  4.5257      4.5381      4.5452      4.5499      4.5533      4.5556      4.5569      4.5569      4.5556      4.5533    
  4.5499      4.5452      4.5381      4.5257      4.5038      4.4678      4.4137      4.3390      4.2441      4.1326    
  4.0122      3.8935      3.7890      3.7109      3.6691      3.6691      3.7109      3.7890      3.8935      4.0122    
  4.1326      4.2441      4.2956      4.3697      4.4282      4.4717      4.5025      4.5238      4.5388      4.5499    
  4.5581      4.5640      4.5675      4.5687      4.5675      4.5640      4.5581      4.5499      4.5388      4.5238    
  4.5025      4.4717      4.4282      4.3697      4.2956      4.2076      4.1102      4.0108      3.9186      3.8434    
  3.7942      3.7770      3.7942      3.8434      3.9186      4.0108      4.1102      4.2076      4.2400      4.3125    
  4.3744      4.4248      4.4647      4.4956      4.5198      4.5387      4.5533      4.5640      4.5710      4.5745    
  4.5745      4.5710      4.5640      4.5533      4.5387      4.5198      4.4956      4.4647      4.4248      4.3744    
  4.3125      4.2400      4.1595      4.0759      3.9955      3.9259      3.8744      3.8471      3.8471      3.8744    
  3.9259      3.9955      4.0759      4.1595      4.1734      4.2437      4.3080      4.3647      4.4133      4.4542    
  4.4884      4.5164      4.5387      4.5556      4.5675      4.5745      4.5768      4.5745      4.5675      4.5556    
  4.5387      4.5164      4.4884      4.4542      4.4133      4.3647      4.3080      4.2437      4.1734      4.1002    
  4.0288      3.9645      3.9133      3.8801      3.8686      3.8801      3.9133      3.9645      4.0288      4.1002    
  4.0973      4.1652      4.2313      4.2934      4.3500      4.4007      4.4452      4.4831      4.5143      4.5389    
  4.5569      4.5687      4.5745      4.5745      4.5687      4.5569      4.5389      4.5143      4.4831      4.4452    
  4.4007      4.3500      4.2934      4.2313      4.1652      4.0973      4.0309      3.9699      3.9188      3.8819    
  3.8625      3.8625      3.8819      3.9188      3.9699      4.0309      4.0143      4.0797      4.1469      4.2133    
  4.2770      4.3367      4.3912      4.4393      4.4801      4.5134      4.5389      4.5569      4.5675      4.5710    
  4.5675      4.5569      4.5389      4.5134      4.4801      4.4393      4.3912      4.3367      4.2770      4.2133    
  4.1469      4.0797      4.0143      3.9538      3.9015      3.8610      3.8354      3.8266      3.8354      3.8610    
  3.9015      3.9538      3.9272      3.9900      4.0575      4.1271      4.1967      4.2642      4.3277      4.3856    
  4.4364      4.4792      4.5134      4.5389      4.5556      4.5640      4.5640      4.5556      4.5389      4.5134    
  4.4792      4.4364      4.3856      4.3277      4.2642      4.1967      4.1271      4.0575      3.9900      3.9272    
  3.8720      3.8272      3.7956      3.7792      3.7792      3.7956      3.8272      3.8720      3.8393      3.8992    
  3.9661      4.0377      4.1115      4.1852      4.2565      4.3233      4.3837      4.4364      4.4801      4.5143    
  4.5387      4.5533      4.5581      4.5533      4.5387      4.5143      4.4801      4.4364      4.3837      4.3233    
  4.2565      4.1852      4.1115      4.0377      3.9661      3.8992      3.8393      3.7892      3.7512      3.7275    
  3.7194      3.7275      3.7512      3.7892      3.7540      3.8103      3.8758      3.9479      4.0242      4.1022    
  4.1795      4.2539      4.3233      4.3856      4.4393      4.4831      4.5164      4.5387      4.5499      4.5499    
  4.5387      4.5164      4.4831      4.4393      4.3856      4.3233      4.2539      4.1795      4.1022      4.0242    
  3.9479      3.8758      3.8103      3.7540      3.7092      3.6779      3.6619      3.6619      3.6779      3.7092    
  3.6745      3.7263      3.7889      3.8599      3.9369      4.0174      4.0990      4.1795      4.2565      4.3277    
  4.3912      4.4452      4.4884      4.5198      4.5388      4.5452      4.5388      4.5198      4.4884      4.4452    
  4.3912      4.3277      4.2565      4.1795      4.0990      4.0174      3.9369      3.8599      3.7889      3.7263    
  3.6745      3.6356      3.6115      3.6033      3.6115      3.6356      3.6032      3.6494      3.7078      3.7761    
  3.8520      3.9332      4.0174      4.1022      4.1852      4.2642      4.3367      4.4007      4.4542      4.4956    
  4.5238      4.5381      4.5381      4.5238      4.4956      4.4542      4.4007      4.3367      4.2642      4.1852    
  4.1022      4.0174      3.9332      3.8520      3.7761      3.7078      3.6494      3.6032      3.5712      3.5548    
  3.5548      3.5712      3.5422      3.5817      3.6345      3.6986      3.7719      3.8520      3.9369      4.0242    
  4.1115      4.1967      4.2770      4.3500      4.4133      4.4647      4.5025      4.5257      4.5335      4.5257    
  4.5025      4.4647      4.4133      4.3500      4.2770      4.1967      4.1115      4.0242      3.9369      3.8520    
  3.7719      3.6986      3.6345      3.5817      3.5422      3.5178      3.5096      3.5178      3.4930      3.5248    
  3.5709      3.6295      3.6986      3.7761      3.8599      3.9479      4.0377      4.1271      4.2133      4.2934    
  4.3647      4.4248      4.4717      4.5038      4.5201      4.5201      4.5038      4.4717      4.4248      4.3647    
  4.2934      4.2133      4.1271      4.0377      3.9479      3.8599      3.7761      3.6986      3.6295      3.5709    
  3.5248      3.4930      3.4768      3.4768      3.4569      3.4806      3.5191      3.5709      3.6345      3.7078    
  3.7889      3.8758      3.9661      4.0575      4.1469      4.2313      4.3080      4.3744      4.4282      4.4678    
  4.4921      4.5002      4.4921      4.4678      4.4282      4.3744      4.3080      4.2313      4.1469      4.0575    
  3.9661      3.8758      3.7889      3.7078      3.6345      3.5709      3.5191      3.4806      3.4569      3.4489    
  3.4349      3.4503      3.4806      3.5248      3.5817      3.6494      3.7263      3.8103      3.8992      3.9900    
  4.0797      4.1652      4.2437      4.3125      4.3697      4.4137      4.4435      4.4585      4.4585      4.4435    
  4.4137      4.3697      4.3125      4.2437      4.1652      4.0797      3.9900      3.8992      3.8103      3.7263    
  3.6494      3.5817      3.5248      3.4806      3.4503      3.4349      3.4440      3.4513      3.4731      3.5087    
  3.5574      3.6179      3.6886      3.7675      3.8518      3.9380      4.0227      4.1024      4.1744      4.2364    
  4.2872      4.3261      4.3534      4.3695      4.3747      4.3695      4.3534      4.3261      4.2872      4.2364    
  4.1744      4.1024      4.0227      3.9380      3.8518      3.7675      3.6886      3.6179      3.5574      3.5087    
  3.4731      3.4513      3.4513      3.4513      3.4651      3.4925      3.5329      3.5855      3.6491      3.7217    
  3.8002      3.8806      3.9588      4.0310      4.0943      4.1466      4.1871      4.2162      4.2354      4.2467    
  4.2519      4.2519      4.2467      4.2354      4.2162      4.1871      4.1466      4.0943      4.0310      3.9588    
  3.8806      3.8002      3.7217      3.6491      3.5855      3.5329      3.4925      3.4651      3.4731      3.4666    
  3.4731      3.4925      3.5246      3.5689      3.6246      3.6898      3.7610      3.8337      3.9032      3.9651    
  4.0156      4.0526      4.0759      4.0871      4.0893      4.0867      4.0832      4.0817      4.0832      4.0867    
  4.0893      4.0871      4.0759      4.0526      4.0156      3.9651      3.9032      3.8337      3.7610      3.6898    
  3.6246      3.5689      3.5246      3.4925      3.5087      3.4967      3.4967      3.5087      3.5329      3.5689    
  3.6163      3.6733      3.7364      3.8005      3.8600      3.9095      3.9444      3.9620      3.9621      3.9475    
  3.9233      3.8963      3.8733      3.8602      3.8602      3.8733      3.8963      3.9233      3.9475      3.9621    
  3.9620      3.9444      3.9095      3.8600      3.8005      3.7364      3.6733      3.6163      3.5689      3.5329    
  3.5574      3.5406      3.5350      3.5406      3.5574      3.5855      3.6246      3.6733      3.7281      3.7833    
  3.8325      3.8692      3.8873      3.8832      3.8564      3.8100      3.7510      3.6891      3.6347      3.5976    
  3.5844      3.5976      3.6347      3.6891      3.7510      3.8100      3.8564      3.8832      3.8873      3.8692    
  3.8325      3.7833      3.7281      3.6733      3.6246      3.5855      3.6179      3.5971      3.5867      3.5867    
  3.5971      3.6179      3.6491      3.6898      3.7364      3.7833      3.8231      3.8479      3.8503      3.8250    
  3.7702      3.6890      3.5896      3.4843      3.3874      3.3132      3.2730      3.2730      3.3132      3.3874    
  3.4843      3.5896      3.6890      3.7702      3.8250      3.8503      3.8479      3.8231      3.7833      3.7364    
  3.6898      3.6491      3.6886      3.6645      3.6501      3.6454      3.6501      3.6645      3.6886      3.7217    
  3.7610      3.8005      3.8325      3.8479      3.8375      3.7939      3.7137      3.5987      3.4574      3.3039    
  3.1562      3.0334      2.9520      2.9236      2.9520      3.0334      3.1562      3.3039      3.4574      3.5987    
  3.7137      3.7939      3.8375      3.8479      3.8325      3.8005      3.7610      3.7217      3.7675      3.7411    
  3.7233      3.7145      3.7145      3.7233      3.7411      3.7675      3.8002      3.8337      3.8600      3.8692    
  3.8503      3.7939      3.6940      3.5504      3.3706      3.1693      2.9673      2.7880      2.6537      2.5819    
  2.5819      2.6537      2.7880      2.9673      3.1693      3.3706      3.5504      3.6940      3.7939      3.8503    
  3.8692      3.8600      3.8337      3.8002      3.8518      3.8248      3.8044      3.7921      3.7880      3.7921    
  3.8044      3.8248      3.8518      3.8806      3.9032      3.9095      3.8873      3.8250      3.7137      3.5504    
  3.3403      3.0973      2.8435      2.6056      2.4111      2.2837      2.2393      2.2837      2.4111      2.6056    
  2.8435      3.0973      3.3403      3.5504      3.7137      3.8250      3.8873      3.9095      3.9032      3.8806    
  3.9380      3.9131      3.8911      3.8760      3.8684      3.8684      3.8760      3.8911      3.9131      3.9380    
  3.9588      3.9651      3.9444      3.8832      3.7702      3.5987      3.3706      3.0973      2.8004      2.5083    
  2.2525      2.0628      1.9617      1.9617      2.0628      2.2525      2.5083      2.8004      3.0973      3.3706    
  3.5987      3.7702      3.8832      3.9444      3.9651      3.9588      4.0227      4.0030      3.9813      3.9640    
  3.9534      3.9499      3.9534      3.9640      3.9813      4.0030      4.0227      4.0310      4.0156      3.9620    
  3.8564      3.6890      3.4574      3.1693      2.8435      2.5083      2.1974      1.9452      1.7808      1.7237    
  1.7808      1.9452      2.1974      2.5083      2.8435      3.1693      3.4574      3.6890      3.8564      3.9620    
  4.0156      4.0310      4.1024      4.0912      4.0722      4.0539      4.0408      4.0343      4.0343      4.0408    
  4.0539      4.0722      4.0912      4.1024      4.0943      4.0526      3.9621      3.8100      3.5896      3.3039    
  2.9673      2.6056      2.2525      1.9452      1.7180      1.5973      1.5973      1.7180      1.9452      2.2525    
  2.6056      2.9673      3.3039      3.5896      3.8100      3.9621      4.0526      4.0943      4.1744      4.1746    
  4.1608      4.1431      4.1283      4.1192      4.1162      4.1192      4.1283      4.1431      4.1608      4.1746    
  4.1744      4.1466      4.0759      3.9475      3.7510      3.4843      3.1562      2.7880      2.4111      2.0628    
  1.7808      1.5973      1.5336      1.5973      1.7808      2.0628      2.4111      2.7880      3.1562      3.4843    
  3.7510      3.9475      4.0759      4.1466      4.2364      4.2505      4.2441      4.2290      4.2135      4.2024    
  4.1968      4.1968      4.2024      4.2135      4.2290      4.2441      4.2505      4.2364      4.1871      4.0871    
  3.9233      3.6891      3.3874      3.0334      2.6537      2.2837      1.9617      1.7237      1.5973      1.5973    
  1.7237      1.9617      2.2837      2.6537      3.0334      3.3874      3.6891      3.9233      4.0871      4.1871    
  4.2872      4.3166      4.3194      4.3085      4.2937      4.2813      4.2738      4.2713      4.2738      4.2813    
  4.2937      4.3085      4.3194      4.3166      4.2872      4.2162      4.0893      3.8963      3.6347      3.3132    
  2.9520      2.5819      2.2393      1.9617      1.7808      1.7180      1.7808      1.9617      2.2393      2.5819    
  2.9520      3.3132      3.6347      3.8963      4.0893      4.2162      4.3261      4.3710      4.3842      4.3791    
  4.3665      4.3538      4.3449      4.3405      4.3405      4.3449      4.3538      4.3665      4.3791      4.3842    
  4.3710      4.3261      4.2354      4.0867      3.8733      3.5976      3.2730      2.9236      2.5819      2.2837    
  2.0628      1.9452      1.9452      2.0628      2.2837      2.5819      2.9236      3.2730      3.5976      3.8733    
  4.0867      4.2354      4.3534      4.4124      4.4365      4.4384      4.4294      4.4176      4.4082      4.4026    
  4.4008      4.4026      4.4082      4.4176      4.4294      4.4384      4.4365      4.4124      4.3534      4.2467    
  4.0832      3.8602      3.5844      3.2730      2.9520      2.6537      2.4111      2.2525      2.1974      2.2525    
  2.4111      2.6537      2.9520      3.2730      3.5844      3.8602      4.0832      4.2467      4.3695      4.4403    
  4.4748      4.4845      4.4803      4.4709      4.4620      4.4561      4.4532      4.4532      4.4561      4.4620    
  4.4709      4.4803      4.4845      4.4748      4.4403      4.3695      4.2519      4.0817      3.8602      3.5976    
  3.3132      3.0334      2.7880      2.6056      2.5083      2.5083      2.6056      2.7880      3.0334      3.3132    
  3.5976      3.8602      4.0817      4.2519      4.3747      4.4544      4.4981      4.5160      4.5177      4.5120    
  4.5049      4.4996      4.4966      4.4956      4.4966      4.4996      4.5049      4.5120      4.5177      4.5160    
  4.4981      4.4544      4.3747      4.2519      4.0832      3.8733      3.6347      3.3874      3.1562      2.9673    
  2.8435      2.8004      2.8435      2.9673      3.1562      3.3874      3.6347      3.8733      4.0832      4.2519    
  4.3695      4.4544      4.5060      4.5319      4.5406      4.5399      4.5361      4.5326      4.5305      4.5295    
  4.5295      4.5305      4.5326      4.5361      4.5399      4.5406      4.5319      4.5060      4.4544      4.3695    
  4.2467      4.0867      3.8963      3.6891      3.4843      3.3039      3.1693      3.0973      3.0973      3.1693    
  3.3039      3.4843      3.6891      3.8963      4.0867      4.2467      4.3534      4.4403      4.4981      4.5319    
  4.5483      4.5540      4.5549      4.5547      4.5546      4.5547      4.5547      4.5547      4.5546      4.5547    
  4.5549      4.5540      4.5483      4.5319      4.4981      4.4403      4.3534      4.2354      4.0893      3.9233    
  3.7510      3.5896      3.4574      3.3706      3.3403      3.3706      3.4574      3.5896      3.7510      3.9233    
  4.0893      4.2354      4.3261      4.4124      4.4748      4.5160      4.5406      4.5540      4.5612      4.5657    
  4.5689      4.5712      4.5724      4.5724      4.5712      4.5689      4.5657      4.5612      4.5540      4.5406    
  4.5160      4.4748      4.4124      4.3261      4.2162      4.0871      3.9475      3.8100      3.6890      3.5987    
  3.5504      3.5504      3.5987      3.6890      3.8100      3.9475      4.0871      4.2162      4.2872      4.3710    
  4.4365      4.4845      4.5177      4.5399      4.5549      4.5657      4.5737      4.5794      4.5829      4.5841    
  4.5829      4.5794      4.5737      4.5657      4.5549      4.5399      4.5177      4.4845      4.4365      4.3710    
  4.2872      4.1871      4.0759      3.9621      3.8564      3.7702      3.7137      3.6940      3.7137      3.7702    
  3.8564      3.9621      4.0759      4.1871      4.2364      4.3166      4.3842      4.4384      4.4803      4.5120    
  4.5361      4.5547      4.5689      4.5794      4.5864      4.5898      4.5898      4.5864      4.5794      4.5689    
  4.5547      4.5361      4.5120      4.4803      4.4384      4.3842      4.3166      4.2364      4.1466      4.0526    
  3.9620      3.8832      3.8250      3.7939      3.7939      3.8250      3.8832      3.9620      4.0526      4.1466    
  4.1744      4.2505      4.3194      4.3791      4.4294      4.4709      4.5049      4.5326      4.5546      4.5712    
  4.5829      4.5898      4.5921      4.5898      4.5829      4.5712      4.5546      4.5326      4.5049      4.4709    
  4.4294      4.3791      4.3194      4.2505      4.1744      4.0943      4.0156      3.9444      3.8873      3.8503    
  3.8375      3.8503      3.8873      3.9444      4.0156      4.0943      4.1024      4.1746      4.2441      4.3085    
  4.3665      4.4176      4.4620      4.4996      4.5305      4.5547      4.5724      4.5841      4.5898      4.5898    
  4.5841      4.5724      4.5547      4.5305      4.4996      4.4620      4.4176      4.3665      4.3085      4.2441    
  4.1746      4.1024      4.0310      3.9651      3.9095      3.8692      3.8479      3.8479      3.8692      3.9095    
  3.9651      4.0310      4.0227      4.0912      4.1608      4.2290      4.2937      4.3538      4.4082      4.4561    
  4.4966      4.5295      4.5547      4.5724      4.5829      4.5864      4.5829      4.5724      4.5547      4.5295    
  4.4966      4.4561      4.4082      4.3538      4.2937      4.2290      4.1608      4.0912      4.0227      3.9588    
  3.9032      3.8600      3.8325      3.8231      3.8325      3.8600      3.9032      3.9588      3.9380      4.0030    
  4.0722      4.1431      4.2135      4.2813      4.3449      4.4026      4.4532      4.4956      4.5295      4.5547    
  4.5712      4.5794      4.5794      4.5712      4.5547      4.5295      4.4956      4.4532      4.4026      4.3449    
  4.2813      4.2135      4.1431      4.0722      4.0030      3.9380      3.8806      3.8337      3.8005      3.7833    
  3.7833      3.8005      3.8337      3.8806      3.8518      3.9131      3.9813      4.0539      4.1283      4.2024    
  4.2738      4.3405      4.4008      4.4532      4.4966      4.5305      4.5546      4.5689      4.5737      4.5689    
  4.5546      4.5305      4.4966      4.4532      4.4008      4.3405      4.2738      4.2024      4.1283      4.0539    
  3.9813      3.9131      3.8518      3.8002      3.7610      3.7364      3.7281      3.7364      3.7610      3.8002    
  3.7675      3.8248      3.8911      3.9640      4.0408      4.1192      4.1968      4.2713      4.3405      4.4026    
  4.4561      4.4996      4.5326      4.5547      4.5657      4.5657      4.5547      4.5326      4.4996      4.4561    
  4.4026      4.3405      4.2713      4.1968      4.1192      4.0408      3.9640      3.8911      3.8248      3.7675    
  3.7217      3.6898      3.6733      3.6733      3.6898      3.7217      3.6886      3.7411      3.8044      3.8760    
  3.9534      4.0343      4.1162      4.1968      4.2738      4.3449      4.4082      4.4620      4.5049      4.5361    
  4.5549      4.5612      4.5549      4.5361      4.5049      4.4620      4.4082      4.3449      4.2738      4.1968    
  4.1162      4.0343      3.9534      3.8760      3.8044      3.7411      3.6886      3.6491      3.6246      3.6163    
  3.6246      3.6491      3.6179      3.6645      3.7233      3.7921      3.8684      3.9499      4.0343      4.1192    
  4.2024      4.2813      4.3538      4.4176      4.4709      4.5120      4.5399      4.5540      4.5540      4.5399    
  4.5120      4.4709      4.4176      4.3538      4.2813      4.2024      4.1192      4.0343      3.9499      3.8684    
  3.7921      3.7233      3.6645      3.6179      3.5855      3.5689      3.5689      3.5855      3.5574      3.5971    
  3.6501      3.7145      3.7880      3.8684      3.9534      4.0408      4.1283      4.2135      4.2937      4.3665    
  4.4294      4.4803      4.5177      4.5406      4.5483      4.5406      4.5177      4.4803      4.4294      4.3665    
  4.2937      4.2135      4.1283      4.0408      3.9534      3.8684      3.7880      3.7145      3.6501      3.5971    
  3.5574      3.5329      3.5246      3.5329      3.5087      3.5406      3.5867      3.6454      3.7145      3.7921    
  3.8760      3.9640      4.0539      4.1431      4.2290      4.3085      4.3791      4.4384      4.4845      4.5160    
  4.5319      4.5319      4.5160      4.4845      4.4384      4.3791      4.3085      4.2290      4.1431      4.0539    
  3.9640      3.8760      3.7921      3.7145      3.6454      3.5867      3.5406      3.5087      3.4925      3.4925    
  3.4731      3.4967      3.5350      3.5867      3.6501      3.7233      3.8044      3.8911      3.9813      4.0722    
  4.1608      4.2441      4.3194      4.3842      4.4365      4.4748      4.4981      4.5060      4.4981      4.4748    
  4.4365      4.3842      4.3194      4.2441      4.1608      4.0722      3.9813      3.8911      3.8044      3.7233    
  3.6501      3.5867      3.5350      3.4967      3.4731      3.4651      3.4513      3.4666      3.4967      3.5406    
  3.5971      3.6645      3.7411      3.8248      3.9131      4.0030      4.0912      4.1746      4.2505      4.3166    
  4.3710      4.4124      4.4403      4.4544      4.4544      4.4403      4.4124      4.3710      4.3166      4.2505    
  4.1746      4.0912      4.0030      3.9131      3.8248      3.7411      3.6645      3.5971      3.5406      3.4967    
  3.4666      3.4513      3.4566      3.4639      3.4853      3.5206      3.5689      3.6289      3.6991      3.7774    
  3.8608      3.9456      4.0282      4.1051      4.1737      4.2319      4.2786      4.3139      4.3381      4.3521    
  4.3567      4.3521      4.3381      4.3139      4.2787      4.2319      4.1737      4.1051      4.0282      3.9456    
  3.8608      3.7774      3.6991      3.6289      3.5689      3.5206      3.4853      3.4639      3.4639      3.4639    
  3.4774      3.5043      3.5442      3.5963      3.6592      3.7310      3.8081      3.8863      3.9615      4.0297    
  4.0880      4.1344      4.1685      4.1915      4.2054      4.2127      4.2157      4.2157      4.2127      4.2054    
  4.1915      4.1685      4.1344      4.0880      4.0297      3.9615      3.8863      3.8081      3.7310      3.6592    
  3.5963      3.5442      3.5043      3.4774      3.4853      3.4790      3.4853      3.5043      3.5359      3.5796    
  3.6344      3.6985      3.7679      3.8379      3.9034      3.9597      4.0032      4.0319      4.0460      4.0479    
  4.0416      4.0320      4.0240      4.0209      4.0240      4.0320      4.0416      4.0479      4.0460      4.0319    
  4.0032      3.9597      3.9034      3.8379      3.7679      3.6985      3.6344      3.5796      3.5359      3.5043    
  3.5206      3.5088      3.5088      3.5206      3.5442      3.5796      3.6260      3.6817      3.7427      3.8034    
  3.8579      3.9005      3.9263      3.9329      3.9205      3.8928      3.8559      3.8179      3.7869      3.7695    
  3.7695      3.7869      3.8179      3.8559      3.8928      3.9205      3.9329      3.9263      3.9005      3.8579    
  3.8034      3.7427      3.6817      3.6260      3.5796      3.5442      3.5689      3.5525      3.5470      3.5525    
  3.5689      3.5963      3.6344      3.6817      3.7341      3.7855      3.8290      3.8574      3.8645      3.8467    
  3.8038      3.7400      3.6636      3.5857      3.5186      3.4732      3.4572      3.4732      3.5186      3.5857    
  3.6635      3.7400      3.8038      3.8467      3.8646      3.8574      3.8290      3.7855      3.7341      3.6817    
  3.6344      3.5963      3.6289      3.6086      3.5986      3.5986      3.6086      3.6289      3.6592      3.6985    
  3.7427      3.7855      3.8190      3.8347      3.8245      3.7829      3.7086      3.6057      3.4836      3.3567    
  3.2414      3.1538      3.1065      3.1065      3.1538      3.2414      3.3567      3.4836      3.6057      3.7086    
  3.7829      3.8245      3.8347      3.8190      3.7855      3.7427      3.6985      3.6592      3.6991      3.6758    
  3.6618      3.6572      3.6618      3.6758      3.6991      3.7310      3.7679      3.8034      3.8290      3.8347    
  3.8106      3.7489      3.6463      3.5055      3.3364      3.1555      2.9831      2.8407      2.7467      2.7139    
  2.7467      2.8407      2.9831      3.1555      3.3364      3.5055      3.6463      3.7489      3.8106      3.8347    
  3.8290      3.8034      3.7679      3.7310      3.7774      3.7521      3.7349      3.7264      3.7264      3.7349    
  3.7521      3.7774      3.8081      3.8379      3.8579      3.8574      3.8245      3.7489      3.6245      3.4519    
  3.2398      3.0056      2.7725      2.5669      2.4135      2.3316      2.3316      2.4135      2.5669      2.7725    
  3.0056      3.2398      3.4519      3.6245      3.7489      3.8245      3.8574      3.8579      3.8379      3.8081    
  3.8608      3.8355      3.8159      3.8040      3.8000      3.8040      3.8159      3.8355      3.8608      3.8863    
  3.9034      3.9005      3.8646      3.7829      3.6463      3.4519      3.2062      2.9255      2.6347      2.3637    
  2.1431      1.9991      1.9490      1.9991      2.1431      2.3637      2.6347      2.9255      3.2062      3.4519    
  3.6463      3.7829      3.8646      3.9005      3.9034      3.8863      3.9456      3.9233      3.9025      3.8879    
  3.8806      3.8806      3.8879      3.9025      3.9233      3.9456      3.9615      3.9597      3.9263      3.8467    
  3.7086      3.5055      3.2398      2.9255      2.5867      2.2554      1.9668      1.7533      1.6398      1.6398    
  1.7533      1.9668      2.2554      2.5867      2.9255      3.2398      3.5055      3.7086      3.8467      3.9263    
  3.9597      3.9615      4.0282      4.0123      3.9926      3.9760      3.9658      3.9623      3.9658      3.9760    
  3.9926      4.0123      4.0282      4.0297      4.0032      3.9329      3.8038      3.6057      3.3364      3.0056    
  2.6347      2.2554      1.9056      1.6227      1.4388      1.3750      1.4388      1.6227      1.9056      2.2554    
  2.6347      3.0056      3.3364      3.6057      3.8038      3.9329      4.0032      4.0297      4.1051      4.0992    
  4.0831      4.0659      4.0533      4.0469      4.0469      4.0533      4.0659      4.0831      4.0992      4.1051    
  4.0880      4.0319      3.9205      3.7400      3.4836      3.1555      2.7725      2.3637      1.9668      1.6227    
  1.3691      1.2345      1.2345      1.3691      1.6227      1.9668      2.3637      2.7725      3.1555      3.4836    
  3.7400      3.9205      4.0319      4.0880      4.1737      4.1810      4.1710      4.1552      4.1410      4.1321    
  4.1291      4.1321      4.1410      4.1552      4.1710      4.1810      4.1737      4.1344      4.0460      3.8928    
  3.6635      3.3567      2.9831      2.5669      2.1431      1.7533      1.4388      1.2345      1.1637      1.2345    
  1.4388      1.7533      2.1431      2.5669      2.9831      3.3567      3.6635      3.8928      4.0460      4.1344    
  4.2319      4.2548      4.2534      4.2408      4.2262      4.2154      4.2099      4.2099      4.2154      4.2262    
  4.2408      4.2534      4.2548      4.2319      4.1685      4.0479      3.8559      3.5857      3.2414      2.8407    
  2.4135      1.9991      1.6398      1.3750      1.2345      1.2345      1.3750      1.6398      1.9991      2.4135    
  2.8407      3.2414      3.5857      3.8559      4.0479      4.1685      4.2787      4.3185      4.3275      4.3199    
  4.3065      4.2945      4.2870      4.2846      4.2870      4.2945      4.3065      4.3199      4.3275      4.3185    
  4.2787      4.1915      4.0416      3.8179      3.5186      3.1538      2.7467      2.3316      1.9490      1.6398    
  1.4388      1.3691      1.4388      1.6398      1.9490      2.3316      2.7467      3.1538      3.5186      3.8179    
  4.0416      4.1915      4.3139      4.3705      4.3910      4.3899      4.3792      4.3671      4.3583      4.3539    
  4.3539      4.3583      4.3671      4.3792      4.3899      4.3910      4.3705      4.3139      4.2054      4.0320    
  3.7869      3.4732      3.1065      2.7139      2.3316      1.9991      1.7533      1.6227      1.6227      1.7533    
  1.9991      2.3316      2.7139      3.1065      3.4732      3.7869      4.0320      4.2054      4.3381      4.4099    
  4.4420      4.4485      4.4418      4.4308      4.4216      4.4160      4.4142      4.4160      4.4216      4.4308    
  4.4418      4.4485      4.4420      4.4099      4.3381      4.2127      4.0240      3.7695      3.4572      3.1065    
  2.7467      2.4135      2.1431      1.9668      1.9056      1.9668      2.1431      2.4135      2.7467      3.1065    
  3.4572      3.7695      4.0240      4.2127      4.3521      4.4362      4.4792      4.4940      4.4923      4.4839    
  4.4753      4.4693      4.4664      4.4664      4.4693      4.4753      4.4839      4.4923      4.4940      4.4792    
  4.4362      4.3521      4.2157      4.0209      3.7695      3.4732      3.1538      2.8407      2.5669      2.3637    
  2.2554      2.2554      2.3637      2.5669      2.8407      3.1538      3.4732      3.7695      4.0209      4.2157    
  4.3567      4.4494      4.5019      4.5249      4.5295      4.5249      4.5181      4.5128      4.5097      4.5087    
  4.5097      4.5128      4.5181      4.5249      4.5295      4.5249      4.5019      4.4494      4.3567      4.2157    
  4.0240      3.7869      3.5186      3.2414      2.9831      2.7725      2.6347      2.5867      2.6347      2.7725    
  2.9831      3.2414      3.5186      3.7869      4.0240      4.2157      4.3521      4.4494      4.5095      4.5406    
  4.5521      4.5526      4.5491      4.5456      4.5434      4.5424      4.5424      4.5434      4.5456      4.5491    
  4.5526      4.5521      4.5406      4.5095      4.4494      4.3521      4.2127      4.0320      3.8179      3.5857    
  3.3567      3.1555      3.0056      2.9255      2.9255      3.0056      3.1555      3.3567      3.5857      3.8179    
  4.0320      4.2127      4.3381      4.4362      4.5019      4.5406      4.5597      4.5667      4.5678      4.5675    
  4.5673      4.5674      4.5675      4.5674      4.5673      4.5675      4.5678      4.5667      4.5597      4.5406    
  4.5019      4.4362      4.3381      4.2054      4.0416      3.8559      3.6635      3.4836      3.3364      3.2398    
  3.2062      3.2398      3.3364      3.4836      3.6636      3.8559      4.0416      4.2054      4.3139      4.4099    
  4.4792      4.5249      4.5521      4.5667      4.5741      4.5785      4.5816      4.5838      4.5851      4.5851    
  4.5838      4.5816      4.5785      4.5741      4.5667      4.5521      4.5249      4.4792      4.4099      4.3139    
  4.1915      4.0479      3.8928      3.7400      3.6057      3.5055      3.4519      3.4519      3.5055      3.6057    
  3.7400      3.8928      4.0479      4.1915      4.2786      4.3705      4.4420      4.4940      4.5295      4.5526    
  4.5678      4.5785      4.5864      4.5920      4.5954      4.5966      4.5954      4.5920      4.5864      4.5785    
  4.5678      4.5526      4.5295      4.4940      4.4420      4.3705      4.2787      4.1685      4.0460      3.9205    
  3.8038      3.7086      3.6463      3.6245      3.6463      3.7086      3.8038      3.9205      4.0460      4.1685    
  4.2319      4.3185      4.3910      4.4485      4.4923      4.5249      4.5491      4.5675      4.5816      4.5920    
  4.5989      4.6023      4.6023      4.5989      4.5920      4.5816      4.5675      4.5491      4.5249      4.4923    
  4.4485      4.3910      4.3185      4.2319      4.1344      4.0319      3.9329      3.8467      3.7829      3.7489    
  3.7489      3.7829      3.8467      3.9329      4.0319      4.1344      4.1737      4.2548      4.3275      4.3899    
  4.4418      4.4839      4.5181      4.5456      4.5673      4.5838      4.5954      4.6023      4.6046      4.6023    
  4.5954      4.5838      4.5673      4.5456      4.5181      4.4839      4.4418      4.3899      4.3275      4.2548    
  4.1737      4.0880      4.0032      3.9263      3.8646      3.8245      3.8106      3.8245      3.8645      3.9263    
  4.0032      4.0880      4.1051      4.1810      4.2534      4.3199      4.3792      4.4308      4.4753      4.5128    
  4.5434      4.5674      4.5851      4.5966      4.6023      4.6023      4.5966      4.5851      4.5674      4.5434    
  4.5128      4.4753      4.4308      4.3792      4.3199      4.2534      4.1810      4.1051      4.0297      3.9597    
  3.9005      3.8574      3.8347      3.8347      3.8574      3.9005      3.9597      4.0297      4.0282      4.0992    
  4.1710      4.2408      4.3065      4.3671      4.4216      4.4693      4.5097      4.5424      4.5675      4.5851    
  4.5954      4.5989      4.5954      4.5851      4.5675      4.5424      4.5097      4.4693      4.4216      4.3671    
  4.3065      4.2408      4.1710      4.0992      4.0282      3.9615      3.9034      3.8579      3.8290      3.8190    
  3.8290      3.8579      3.9034      3.9615      3.9456      4.0123      4.0831      4.1552      4.2262      4.2945    
  4.3583      4.4160      4.4664      4.5087      4.5424      4.5674      4.5838      4.5920      4.5920      4.5838    
  4.5674      4.5424      4.5087      4.4664      4.4160      4.3583      4.2945      4.2262      4.1552      4.0831    
  4.0123      3.9456      3.8863      3.8379      3.8034      3.7855      3.7855      3.8034      3.8379      3.8863    
  3.8608      3.9233      3.9926      4.0659      4.1410      4.2154      4.2870      4.3539      4.4142      4.4664    
  4.5097      4.5434      4.5673      4.5816      4.5864      4.5816      4.5673      4.5434      4.5097      4.4664    
  4.4142      4.3539      4.2870      4.2154      4.1410      4.0659      3.9926      3.9233      3.8608      3.8081    
  3.7679      3.7427      3.7341      3.7427      3.7679      3.8081      3.7774      3.8355      3.9025      3.9760    
  4.0533      4.1321      4.2099      4.2846      4.3539      4.4160      4.4693      4.5128      4.5456      4.5675    
  4.5785      4.5785      4.5675      4.5456      4.5128      4.4693      4.4160      4.3539      4.2846      4.2099    
  4.1321      4.0533      3.9760      3.9025      3.8355      3.7774      3.7310      3.6985      3.6817      3.6817    
  3.6985      3.7310      3.6991      3.7521      3.8159      3.8879      3.9658      4.0469      4.1291      4.2099    
  4.2870      4.3583      4.4216      4.4753      4.5181      4.5491      4.5678      4.5741      4.5678      4.5491    
  4.5181      4.4753      4.4216      4.3583      4.2870      4.2099      4.1291      4.0469      3.9658      3.8879    
  3.8159      3.7521      3.6991      3.6592      3.6344      3.6260      3.6344      3.6592      3.6289      3.6758    
  3.7349      3.8040      3.8806      3.9623      4.0469      4.1321      4.2154      4.2945      4.3671      4.4308    
  4.4839      4.5249      4.5526      4.5667      4.5667      4.5526      4.5249      4.4839      4.4308      4.3671    
  4.2945      4.2154      4.1321      4.0469      3.9623      3.8806      3.8040      3.7349      3.6758      3.6289    
  3.5963      3.5796      3.5796      3.5963      3.5689      3.6086      3.6618      3.7264      3.8000      3.8806    
  3.9658      4.0533      4.1410      4.2262      4.3065      4.3792      4.4418      4.4923      4.5295      4.5521    
  4.5597      4.5521      4.5295      4.4923      4.4418      4.3792      4.3065      4.2262      4.1410      4.0533    
  3.9658      3.8806      3.8000      3.7264      3.6618      3.6086      3.5689      3.5442      3.5359      3.5442    
  3.5206      3.5525      3.5986      3.6572      3.7264      3.8040      3.8879      3.9760      4.0659      4.1552    
  4.2408      4.3199      4.3899      4.4485      4.4940      4.5249      4.5406      4.5406      4.5249      4.4940    
  4.4485      4.3899      4.3199      4.2408      4.1552      4.0659      3.9760      3.8879      3.8040      3.7264    
  3.6572      3.5986      3.5525      3.5206      3.5043      3.5043      3.4853      3.5088      3.5470      3.5986    
  3.6618      3.7349      3.8159      3.9025      3.9926      4.0831      4.1710      4.2534      4.3275      4.3910    
  4.4420      4.4792      4.5019      4.5095      4.5019      4.4792      4.4420      4.3910      4.3275      4.2534    
  4.1710      4.0831      3.9926      3.9025      3.8159      3.7349      3.6618      3.5986      3.5470      3.5088    
  3.4853      3.4774      3.4639      3.4790      3.5088      3.5525      3.6086      3.6758      3.7521      3.8355    
  3.9233      4.0123      4.0992      4.1810      4.2548      4.3185      4.3705      4.4099      4.4362      4.4494    
  4.4494      4.4362      4.4099      4.3705      4.3185      4.2548      4.1810      4.0992      4.0123      3.9233    
  3.8355      3.7521      3.6758      3.6086      3.5525      3.5088      3.4790      3.4639      3.4646      3.4717    
  3.4930      3.5280      3.5760      3.6357      3.7056      3.7835      3.8663      3.9501      4.0312      4.1063    
  4.1726      4.2282      4.2723      4.3051      4.3272      4.3399      4.3440      4.3399      4.3272      4.3051    
  4.2723      4.2282      4.1726      4.1063      4.0312      3.9501      3.8663      3.7835      3.7056      3.6357    
  3.5760      3.5280      3.4930      3.4717      3.4717      3.4717      3.4851      3.5118      3.5513      3.6030    
  3.6655      3.7366      3.8128      3.8896      3.9628      4.0283      4.0831      4.1256      4.1556      4.1745    
  4.1849      4.1895      4.1911      4.1911      4.1895      4.1849      4.1745      4.1556      4.1256      4.0831    
  4.0283      3.9628      3.8896      3.8128      3.7366      3.6655      3.6030      3.5513      3.5118      3.4851    
  3.4930      3.4868      3.4930      3.5118      3.5430      3.5862      3.6405      3.7038      3.7720      3.8401    
  3.9029      3.9555      3.9944      4.0176      4.0257      4.0214      4.0094      3.9952      3.9843      3.9801    
  3.9843      3.9952      4.0094      4.0214      4.0257      4.0176      3.9944      3.9555      3.9029      3.8401    
  3.7720      3.7038      3.6405      3.5862      3.5430      3.5118      3.5280      3.5164      3.5164      3.5280    
  3.5513      3.5862      3.6320      3.6869      3.7463      3.8048      3.8560      3.8939      3.9138      3.9131    
  3.8925      3.8560      3.8108      3.7656      3.7293      3.7092      3.7092      3.7293      3.7656      3.8108    
  3.8560      3.8925      3.9131      3.9138      3.8939      3.8560      3.8048      3.7463      3.6869      3.6320    
  3.5862      3.5513      3.5760      3.5598      3.5545      3.5598      3.5760      3.6030      3.6405      3.6869    
  3.7376      3.7864      3.8261      3.8491      3.8490      3.8221      3.7686      3.6933      3.6054      3.5171    
  3.4417      3.3910      3.3731      3.3909      3.4417      3.5171      3.6054      3.6933      3.7686      3.8221    
  3.8490      3.8491      3.8261      3.7864      3.7376      3.6869      3.6405      3.6030      3.6357      3.6158    
  3.6059      3.6059      3.6158      3.6357      3.6655      3.7038      3.7463      3.7864      3.8158      3.8254    
  3.8069      3.7547      3.6676      3.5503      3.4135      3.2725      3.1452      3.0489      2.9969      2.9969    
  3.0488      3.1452      3.2725      3.4135      3.5503      3.6676      3.7547      3.8069      3.8254      3.8158    
  3.7864      3.7463      3.7038      3.6655      3.7056      3.6827      3.6690      3.6645      3.6690      3.6827    
  3.7056      3.7366      3.7720      3.8048      3.8261      3.8254      3.7923      3.7187      3.6014      3.4437    
  3.2566      3.0578      2.8694      2.7142      2.6121      2.5765      2.6121      2.7142      2.8694      3.0578    
  3.2566      3.4437      3.6014      3.7187      3.7923      3.8254      3.8261      3.8048      3.7720      3.7366    
  3.7835      3.7588      3.7420      3.7336      3.7336      3.7420      3.7588      3.7835      3.8128      3.8401    
  3.8560      3.8491      3.8069      3.7187      3.5783      3.3867      3.1537      2.8980      2.6448      2.4222    
  2.2565      2.1681      2.1681      2.2565      2.4222      2.6448      2.8980      3.1537      3.3867      3.5783    
  3.7187      3.8069      3.8491      3.8560      3.8401      3.8128      3.8663      3.8420      3.8229      3.8112    
  3.8074      3.8112      3.8229      3.8420      3.8663      3.8896      3.9029      3.8939      3.8490      3.7547    
  3.6014      3.3867      3.1178      2.8127      2.4979      2.2056      1.9683      1.8136      1.7598      1.8136    
  1.9683      2.2056      2.4979      2.8127      3.1178      3.3867      3.6014      3.7547      3.8490      3.8939    
  3.9029      3.8896      3.9501      3.9295      3.9095      3.8952      3.8880      3.8880      3.8952      3.9095    
  3.9295      3.9501      3.9628      3.9555      3.9138      3.8221      3.6676      3.4437      3.1537      2.8127    
  2.4468      2.0904      1.7806      1.5519      1.4305      1.4305      1.5519      1.7806      2.0904      2.4468    
  2.8127      3.1537      3.4437      3.6676      3.8221      3.9138      3.9555      3.9628      4.0312      4.0179    
  3.9995      3.9834      3.9733      3.9700      3.9733      3.9834      3.9995      4.0179      4.0312      4.0283    
  3.9944      3.9131      3.7686      3.5503      3.2566      2.8980      2.4979      2.0904      1.7155      1.4130    
  1.2167      1.1486      1.2167      1.4130      1.7155      2.0904      2.4979      2.8980      3.2566      3.5503    
  3.7686      3.9131      3.9944      4.0283      4.1063      4.1040      4.0897      4.0734      4.0610      4.0547    
  4.0547      4.0610      4.0734      4.0897      4.1040      4.1063      4.0831      4.0176      3.8925      3.6933    
  3.4135      3.0578      2.6448      2.2056      1.7806      1.4130      1.1425     0.99919     0.99919      1.1425    
  1.4130      1.7806      2.2056      2.6448      3.0578      3.4135      3.6933      3.8925      4.0176      4.0831    
  4.1726      4.1846      4.1772      4.1626      4.1488      4.1401      4.1371      4.1401      4.1488      4.1626    
  4.1772      4.1846      4.1726      4.1256      4.0257      3.8560      3.6054      3.2725      2.8694      2.4222    
  1.9683      1.5519      1.2167     0.99919     0.92387     0.99919      1.2167      1.5519      1.9683      2.4222    
  2.8694      3.2725      3.6054      3.8560      4.0257      4.1256      4.2282      4.2570      4.2590      4.2480    
  4.2342      4.2235      4.2181      4.2181      4.2235      4.2342      4.2480      4.2590      4.2570      4.2282    
  4.1556      4.0214      3.8108      3.5171      3.1452      2.7142      2.2565      1.8136      1.4305      1.1486    
 0.99919     0.99919      1.1486      1.4305      1.8136      2.2565      2.7142      3.1452      3.5171      3.8108    
  4.0214      4.1556      4.2723      4.3192      4.3323      4.3269      4.3145      4.3028      4.2954      4.2929    
  4.2954      4.3028      4.3145      4.3269      4.3323      4.3192      4.2723      4.1745      4.0094      3.7656    
  3.4417      3.0489      2.6121      2.1681      1.7598      1.4305      1.2167      1.1425      1.2167      1.4305    
  1.7598      2.1681      2.6121      3.0488      3.4417      3.7656      4.0094      4.1745      4.3051      4.3696    
  4.3949      4.3965      4.3871      4.3754      4.3667      4.3623      4.3623      4.3667      4.3754      4.3871    
  4.3965      4.3949      4.3696      4.3051      4.1849      3.9952      3.7293      3.3909      2.9969      2.5765    
  2.1681      1.8136      1.5519      1.4130      1.4130      1.5519      1.8136      2.1681      2.5765      2.9969    
  3.3909      3.7293      3.9952      4.1849      4.3272      4.4076      4.4451      4.4547      4.4495      4.4392    
  4.4301      4.4245      4.4227      4.4245      4.4301      4.4392      4.4495      4.4547      4.4451      4.4076    
  4.3272      4.1895      3.9843      3.7092      3.3731      2.9969      2.6121      2.2565      1.9683      1.7806    
  1.7155      1.7806      1.9683      2.2565      2.6121      2.9969      3.3731      3.7092      3.9843      4.1895    
  4.3399      4.4329      4.4816      4.4998      4.4999      4.4923      4.4838      4.4778      4.4749      4.4749    
  4.4778      4.4838      4.4923      4.4999      4.4998      4.4816      4.4329      4.3399      4.1911      3.9801    
  3.7092      3.3909      3.0489      2.7142      2.4222      2.2056      2.0904      2.0904      2.2056      2.4222    
  2.7142      3.0489      3.3910      3.7092      3.9801      4.1911      4.3440      4.4454      4.5038      4.5304    
  4.5368      4.5331      4.5265      4.5212      4.5182      4.5172      4.5182      4.5212      4.5265      4.5331    
  4.5368      4.5304      4.5038      4.4454      4.3440      4.1911      3.9843      3.7293      3.4417      3.1452    
  2.8694      2.6448      2.4979      2.4468      2.4979      2.6448      2.8694      3.1452      3.4417      3.7293    
  3.9843      4.1911      4.3399      4.4454      4.5112      4.5459      4.5593      4.5608      4.5575      4.5540    
  4.5518      4.5508      4.5508      4.5518      4.5540      4.5575      4.5608      4.5593      4.5459      4.5112    
  4.4454      4.3399      4.1895      3.9952      3.7656      3.5171      3.2725      3.0578      2.8980      2.8127    
  2.8127      2.8980      3.0578      3.2725      3.5171      3.7656      3.9952      4.1895      4.3272      4.4329    
  4.5038      4.5459      4.5669      4.5748      4.5762      4.5759      4.5757      4.5757      4.5758      4.5757    
  4.5757      4.5759      4.5762      4.5748      4.5669      4.5459      4.5038      4.4329      4.3272      4.1849    
  4.0094      3.8108      3.6054      3.4135      3.2566      3.1537      3.1178      3.1537      3.2566      3.4135    
  3.6054      3.8108      4.0094      4.1849      4.3051      4.4076      4.4816      4.5304      4.5593      4.5748    
  4.5824      4.5868      4.5899      4.5921      4.5933      4.5933      4.5921      4.5899      4.5868      4.5824    
  4.5748      4.5593      4.5304      4.4816      4.4076      4.3051      4.1745      4.0214      3.8560      3.6933    
  3.5503      3.4437      3.3867      3.3867      3.4437      3.5503      3.6933      3.8560      4.0214      4.1745    
  4.2723      4.3696      4.4451      4.4998      4.5368      4.5608      4.5762      4.5868      4.5946      4.6002    
  4.6036      4.6048      4.6036      4.6002      4.5946      4.5868      4.5762      4.5608      4.5368      4.4998    
  4.4451      4.3696      4.2723      4.1556      4.0257      3.8925      3.7686      3.6676      3.6014      3.5783    
  3.6014      3.6676      3.7686      3.8925      4.0257      4.1556      4.2282      4.3192      4.3949      4.4547    
  4.4999      4.5331      4.5575      4.5759      4.5899      4.6002      4.6071      4.6105      4.6105      4.6071    
  4.6002      4.5899      4.5759      4.5575      4.5331      4.4999      4.4547      4.3949      4.3192      4.2282    
  4.1256      4.0176      3.9131      3.8221      3.7547      3.7187      3.7187      3.7547      3.8221      3.9131    
  4.0176      4.1256      4.1726      4.2570      4.3323      4.3965      4.4495      4.4923      4.5265      4.5540    
  4.5757      4.5921      4.6036      4.6105      4.6128      4.6105      4.6036      4.5921      4.5757      4.5540    
  4.5265      4.4923      4.4495      4.3965      4.3323      4.2570      4.1726      4.0831      3.9944      3.9138    
  3.8490      3.8069      3.7923      3.8069      3.8490      3.9138      3.9944      4.0831      4.1063      4.1846    
  4.2590      4.3269      4.3871      4.4392      4.4838      4.5212      4.5518      4.5757      4.5933      4.6048    
  4.6105      4.6105      4.6048      4.5933      4.5757      4.5518      4.5212      4.4838      4.4392      4.3871    
  4.3269      4.2590      4.1846      4.1063      4.0283      3.9555      3.8939      3.8491      3.8254      3.8254    
  3.8491      3.8939      3.9555      4.0283      4.0312      4.1040      4.1772      4.2480      4.3145      4.3754    
  4.4301      4.4778      4.5182      4.5508      4.5758      4.5933      4.6036      4.6071      4.6036      4.5933    
  4.5758      4.5508      4.5182      4.4778      4.4301      4.3754      4.3145      4.2480      4.1772      4.1040    
  4.0312      3.9628      3.9029      3.8560      3.8261      3.8158      3.8261      3.8560      3.9029      3.9628    
  3.9501      4.0179      4.0897      4.1626      4.2342      4.3028      4.3667      4.4245      4.4749      4.5172    
  4.5508      4.5757      4.5921      4.6002      4.6002      4.5921      4.5757      4.5508      4.5172      4.4749    
  4.4245      4.3667      4.3028      4.2342      4.1626      4.0897      4.0179      3.9501      3.8896      3.8401    
  3.8048      3.7864      3.7864      3.8048      3.8401      3.8896      3.8663      3.9295      3.9995      4.0734    
  4.1488      4.2235      4.2954      4.3623      4.4227      4.4749      4.5182      4.5518      4.5757      4.5899    
  4.5946      4.5899      4.5757      4.5518      4.5182      4.4749      4.4227      4.3623      4.2954      4.2235    
  4.1488      4.0734      3.9995      3.9295      3.8663      3.8128      3.7720      3.7463      3.7376      3.7463    
  3.7720      3.8128      3.7835      3.8420      3.9095      3.9834      4.0610      4.1401      4.2181      4.2929    
  4.3623      4.4245      4.4778      4.5212      4.5540      4.5759      4.5868      4.5868      4.5759      4.5540    
  4.5212      4.4778      4.4245      4.3623      4.2929      4.2181      4.1401      4.0610      3.9834      3.9095    
  3.8420      3.7835      3.7366      3.7038      3.6869      3.6869      3.7038      3.7366      3.7056      3.7588    
  3.8229      3.8952      3.9733      4.0547      4.1371      4.2181      4.2954      4.3667      4.4301      4.4838    
  4.5265      4.5575      4.5762      4.5824      4.5762      4.5575      4.5265      4.4838      4.4301      4.3667    
  4.2954      4.2181      4.1371      4.0547      3.9733      3.8952      3.8229      3.7588      3.7056      3.6655    
  3.6405      3.6320      3.6405      3.6655      3.6357      3.6827      3.7420      3.8112      3.8880      3.9700    
  4.0547      4.1401      4.2235      4.3028      4.3754      4.4392      4.4923      4.5331      4.5608      4.5748    
  4.5748      4.5608      4.5331      4.4923      4.4392      4.3754      4.3028      4.2235      4.1401      4.0547    
  3.9700      3.8880      3.8112      3.7420      3.6827      3.6357      3.6030      3.5862      3.5862      3.6030    
  3.5760      3.6158      3.6690      3.7336      3.8074      3.8880      3.9733      4.0610      4.1488      4.2342    
  4.3145      4.3871      4.4495      4.4999      4.5368      4.5593      4.5669      4.5593      4.5368      4.4999    
  4.4495      4.3871      4.3145      4.2342      4.1488      4.0610      3.9733      3.8880      3.8074      3.7336    
  3.6690      3.6158      3.5760      3.5513      3.5430      3.5513      3.5280      3.5598      3.6059      3.6645    
  3.7336      3.8112      3.8952      3.9834      4.0734      4.1626      4.2480      4.3269      4.3965      4.4547    
  4.4998      4.5304      4.5459      4.5459      4.5304      4.4998      4.4547      4.3965      4.3269      4.2480    
  4.1626      4.0734      3.9834      3.8952      3.8112      3.7336      3.6645      3.6059      3.5598      3.5280    
  3.5118      3.5118      3.4930      3.5164      3.5545      3.6059      3.6690      3.7420      3.8229      3.9095    
  3.9995      4.0897      4.1772      4.2590      4.3323      4.3949      4.4451      4.4816      4.5038      4.5112    
  4.5038      4.4816      4.4451      4.3949      4.3323      4.2590      4.1772      4.0897      3.9995      3.9095    
  3.8229      3.7420      3.6690      3.6059      3.5545      3.5164      3.4930      3.4851      3.4717      3.4868    
  3.5164      3.5598      3.6158      3.6827      3.7588      3.8420      3.9295      4.0179      4.1040      4.1846    
  4.2570      4.3192      4.3696      4.4076      4.4329      4.4454      4.4454      4.4329      4.4076      4.3696    
  4.3192      4.2570      4.1846      4.1040      4.0179      3.9295      3.8420      3.7588      3.6827      3.6158    
  3.5598      3.5164      3.4868      3.4717      3.4673      3.4744      3.4956      3.5305      3.5784      3.6380    
  3.7077      3.7856      3.8681      3.9516      4.0322      4.1066      4.1721      4.2268      4.2700      4.3019    
  4.3233      4.3355      4.3395      4.3355      4.3233      4.3019      4.2700      4.2268      4.1721      4.1066    
  4.0322      3.9516      3.8681      3.7856      3.7077      3.6380      3.5784      3.5305      3.4956      3.4744    
  3.4744      3.4744      3.4877      3.5143      3.5537      3.6052      3.6676      3.7385      3.8144      3.8907    
  3.9631      4.0277      4.0813      4.1224      4.1510      4.1685      4.1776      4.1813      4.1824      4.1824    
  4.1813      4.1776      4.1685      4.1510      4.1224      4.0813      4.0277      3.9631      3.8907      3.8144    
  3.7385      3.6676      3.6052      3.5537      3.5143      3.4877      3.4956      3.4894      3.4956      3.5143    
  3.5454      3.5884      3.6426      3.7056      3.7733      3.8408      3.9026      3.9540      3.9912      4.0125    
  4.0184      4.0120      3.9980      3.9823      3.9703      3.9658      3.9703      3.9823      3.9980      4.0120    
  4.0184      4.0125      3.9912      3.9540      3.9026      3.8408      3.7733      3.7056      3.6426      3.5884    
  3.5454      3.5143      3.5305      3.5190      3.5190      3.5305      3.5537      3.5884      3.6341      3.6886    
  3.7475      3.8052      3.8553      3.8916      3.9093      3.9060      3.8825      3.8431      3.7950      3.7473    
  3.7091      3.6880      3.6880      3.7091      3.7473      3.7950      3.8431      3.8825      3.9060      3.9093    
  3.8916      3.8553      3.8052      3.7475      3.6886      3.6341      3.5884      3.5537      3.5784      3.5623    
  3.5570      3.5623      3.5784      3.6052      3.6426      3.6886      3.7387      3.7867      3.8250      3.8461    
  3.8434      3.8134      3.7562      3.6769      3.5850      3.4931      3.4148      3.3622      3.3437      3.3622    
  3.4148      3.4931      3.5850      3.6769      3.7562      3.8134      3.8434      3.8461      3.8250      3.7867    
  3.7387      3.6886      3.6426      3.6052      3.6380      3.6182      3.6084      3.6084      3.6182      3.6380    
  3.6676      3.7056      3.7475      3.7867      3.8146      3.8221      3.8007      3.7447      3.6532      3.5309    
  3.3890      3.2431      3.1117      3.0122      2.9587      2.9587      3.0122      3.1117      3.2431      3.3890    
  3.5309      3.6532      3.7447      3.8007      3.8221      3.8146      3.7867      3.7475      3.7056      3.6676    
  3.7077      3.6850      3.6714      3.6669      3.6714      3.6850      3.7077      3.7385      3.7733      3.8052    
  3.8250      3.8221      3.7858      3.7081      3.5856      3.4221      3.2287      3.0237      2.8298      2.6702    
  2.5653      2.5287      2.5653      2.6702      2.8298      3.0237      3.2287      3.4221      3.5856      3.7081    
  3.7858      3.8221      3.8250      3.8052      3.7733      3.7385      3.7856      3.7611      3.7444      3.7361    
  3.7361      3.7444      3.7611      3.7856      3.8144      3.8408      3.8553      3.8461      3.8007      3.7081    
  3.5621      3.3639      3.1236      2.8605      2.6003      2.3718      2.2019      2.1113      2.1113      2.2019    
  2.3718      2.6003      2.8605      3.1236      3.3639      3.5621      3.7081      3.8007      3.8461      3.8553    
  3.8408      3.8144      3.8681      3.8442      3.8253      3.8137      3.8098      3.8137      3.8253      3.8442    
  3.8681      3.8907      3.9026      3.8916      3.8434      3.7447      3.5856      3.3639      3.0870      2.7733    
  2.4503      2.1507      1.9076      1.7492      1.6942      1.7492      1.9076      2.1507      2.4503      2.7733    
  3.0870      3.3639      3.5856      3.7447      3.8434      3.8916      3.9026      3.8907      3.9516      3.9316    
  3.9119      3.8977      3.8905      3.8905      3.8977      3.9119      3.9316      3.9516      3.9631      3.9540    
  3.9093      3.8134      3.6532      3.4221      3.1236      2.7733      2.3981      2.0330      1.7160      1.4821    
  1.3579      1.3579      1.4821      1.7160      2.0330      2.3981      2.7733      3.1236      3.4221      3.6532    
  3.8134      3.9093      3.9540      3.9631      4.0322      4.0198      4.0018      3.9859      3.9759      3.9725    
  3.9759      3.9859      4.0018      4.0198      4.0322      4.0277      3.9912      3.9060      3.7562      3.5309    
  3.2287      2.8605      2.4503      2.0330      1.6495      1.3403      1.1397      1.0701      1.1397      1.3403    
  1.6495      2.0330      2.4503      2.8605      3.2287      3.5309      3.7562      3.9060      3.9912      4.0277    
  4.1066      4.1055      4.0919      4.0759      4.0636      4.0574      4.0574      4.0636      4.0759      4.0919    
  4.1055      4.1066      4.0813      4.0125      3.8825      3.6769      3.3890      3.0237      2.6003      2.1507    
  1.7160      1.3403      1.0640     0.91768     0.91768      1.0640      1.3403      1.7160      2.1507      2.6003    
  3.0237      3.3890      3.6769      3.8825      4.0125      4.0813      4.1721      4.1857      4.1793      4.1651    
  4.1515      4.1428      4.1398      4.1428      4.1515      4.1651      4.1793      4.1857      4.1721      4.1224    
  4.0184      3.8431      3.5850      3.2431      2.8298      2.3718      1.9076      1.4821      1.1397     0.91768    
 0.84081     0.91768      1.1397      1.4821      1.9076      2.3718      2.8298      3.2431      3.5850      3.8431    
  4.0184      4.1224      4.2268      4.2577      4.2608      4.2505      4.2369      4.2263      4.2209      4.2209    
  4.2263      4.2369      4.2505      4.2608      4.2577      4.2268      4.1510      4.0120      3.7950      3.4931    
  3.1117      2.6702      2.2019      1.7492      1.3579      1.0701     0.91768     0.91768      1.0701      1.3579    
  1.7492      2.2019      2.6702      3.1117      3.4931      3.7950      4.0120      4.1510      4.2700      4.3193    
  4.3339      4.3293      4.3172      4.3056      4.2982      4.2957      4.2982      4.3056      4.3172      4.3293    
  4.3339      4.3193      4.2700      4.1685      3.9980      3.7473      3.4148      3.0122      2.5653      2.1113    
  1.6942      1.3579      1.1397      1.0640      1.1397      1.3579      1.6942      2.1113      2.5653      3.0122    
  3.4148      3.7473      3.9980      4.1685      4.3019      4.3692      4.3962      4.3988      4.3898      4.3783    
  4.3696      4.3652      4.3652      4.3696      4.3783      4.3898      4.3988      4.3962      4.3692      4.3019    
  4.1776      3.9823      3.7091      3.3622      2.9587      2.5287      2.1113      1.7492      1.4821      1.3403    
  1.3403      1.4821      1.7492      2.1113      2.5287      2.9587      3.3622      3.7091      3.9823      4.1776    
  4.3233      4.4067      4.4461      4.4568      4.4522      4.4421      4.4330      4.4274      4.4256      4.4274    
  4.4330      4.4421      4.4522      4.4568      4.4461      4.4067      4.3233      4.1813      3.9702      3.6880    
  3.3437      2.9587      2.5653      2.2019      1.9076      1.7160      1.6495      1.7160      1.9076      2.2019    
  2.5653      2.9587      3.3437      3.6880      3.9703      4.1813      4.3355      4.4316      4.4824      4.5017    
  4.5025      4.4951      4.4867      4.4808      4.4779      4.4779      4.4808      4.4867      4.4951      4.5025    
  4.5017      4.4824      4.4316      4.3355      4.1824      3.9658      3.6880      3.3622      3.0122      2.6702    
  2.3718      2.1507      2.0330      2.0330      2.1507      2.3718      2.6702      3.0122      3.3622      3.6880    
  3.9658      4.1824      4.3395      4.4440      4.5043      4.5322      4.5394      4.5359      4.5294      4.5241    
  4.5211      4.5201      4.5211      4.5241      4.5294      4.5359      4.5394      4.5322      4.5043      4.4440    
  4.3395      4.1824      3.9702      3.7091      3.4148      3.1117      2.8298      2.6003      2.4503      2.3981    
  2.4503      2.6003      2.8298      3.1117      3.4148      3.7091      3.9703      4.1824      4.3355      4.4440    
  4.5117      4.5476      4.5618      4.5636      4.5604      4.5569      4.5547      4.5537      4.5537      4.5547    
  4.5569      4.5604      4.5636      4.5618      4.5476      4.5117      4.4440      4.3355      4.1813      3.9823    
  3.7473      3.4931      3.2431      3.0237      2.8605      2.7733      2.7733      2.8605      3.0237      3.2431    
  3.4931      3.7473      3.9823      4.1813      4.3233      4.4316      4.5043      4.5476      4.5693      4.5775    
  4.5791      4.5788      4.5786      4.5786      4.5787      4.5786      4.5786      4.5788      4.5791      4.5775    
  4.5693      4.5476      4.5043      4.4316      4.3233      4.1776      3.9980      3.7950      3.5850      3.3890    
  3.2287      3.1236      3.0870      3.1236      3.2287      3.3890      3.5850      3.7950      3.9980      4.1776    
  4.3019      4.4067      4.4824      4.5322      4.5618      4.5775      4.5853      4.5897      4.5928      4.5950    
  4.5962      4.5962      4.5950      4.5928      4.5897      4.5853      4.5775      4.5618      4.5322      4.4824    
  4.4067      4.3019      4.1685      4.0120      3.8431      3.6769      3.5309      3.4221      3.3639      3.3639    
  3.4221      3.5309      3.6769      3.8431      4.0120      4.1685      4.2700      4.3692      4.4461      4.5017    
  4.5394      4.5636      4.5791      4.5897      4.5975      4.6031      4.6065      4.6077      4.6065      4.6031    
  4.5975      4.5897      4.5791      4.5636      4.5394      4.5017      4.4461      4.3692      4.2700      4.1510    
  4.0184      3.8825      3.7562      3.6532      3.5856      3.5621      3.5856      3.6532      3.7562      3.8825    
  4.0184      4.1510      4.2268      4.3193      4.3962      4.4568      4.5025      4.5359      4.5604      4.5788    
  4.5928      4.6031      4.6099      4.6134      4.6134      4.6099      4.6031      4.5928      4.5788      4.5604    
  4.5359      4.5025      4.4568      4.3962      4.3193      4.2268      4.1224      4.0125      3.9060      3.8134    
  3.7447      3.7081      3.7081      3.7447      3.8134      3.9060      4.0125      4.1224      4.1721      4.2577    
  4.3339      4.3988      4.4522      4.4951      4.5294      4.5569      4.5786      4.5950      4.6065      4.6134    
  4.6157      4.6134      4.6065      4.5950      4.5786      4.5569      4.5294      4.4951      4.4522      4.3988    
  4.3339      4.2577      4.1721      4.0813      3.9912      3.9093      3.8434      3.8007      3.7858      3.8007    
  3.8434      3.9093      3.9912      4.0813      4.1066      4.1857      4.2608      4.3293      4.3898      4.4421    
  4.4867      4.5241      4.5547      4.5786      4.5962      4.6077      4.6134      4.6134      4.6077      4.5962    
  4.5786      4.5547      4.5241      4.4867      4.4421      4.3898      4.3293      4.2608      4.1857      4.1066    
  4.0277      3.9540      3.8916      3.8461      3.8221      3.8221      3.8461      3.8916      3.9540      4.0277    
  4.0322      4.1055      4.1793      4.2505      4.3172      4.3783      4.4330      4.4808      4.5211      4.5537    
  4.5787      4.5962      4.6065      4.6099      4.6065      4.5962      4.5787      4.5537      4.5211      4.4808    
  4.4330      4.3783      4.3172      4.2505      4.1793      4.1055      4.0322      3.9631      3.9026      3.8553    
  3.8250      3.8146      3.8250      3.8553      3.9026      3.9631      3.9516      4.0198      4.0919      4.1651    
  4.2369      4.3056      4.3696      4.4274      4.4778      4.5201      4.5537      4.5786      4.5950      4.6031    
  4.6031      4.5950      4.5786      4.5537      4.5201      4.4779      4.4274      4.3696      4.3056      4.2369    
  4.1651      4.0919      4.0198      3.9516      3.8907      3.8408      3.8052      3.7867      3.7867      3.8052    
  3.8408      3.8907      3.8681      3.9316      4.0018      4.0759      4.1515      4.2263      4.2982      4.3652    
  4.4256      4.4778      4.5211      4.5547      4.5786      4.5928      4.5975      4.5928      4.5786      4.5547    
  4.5211      4.4779      4.4256      4.3652      4.2982      4.2263      4.1515      4.0759      4.0018      3.9316    
  3.8681      3.8144      3.7733      3.7475      3.7387      3.7475      3.7733      3.8144      3.7856      3.8442    
  3.9119      3.9859      4.0636      4.1428      4.2209      4.2957      4.3652      4.4274      4.4808      4.5241    
  4.5569      4.5788      4.5897      4.5897      4.5788      4.5569      4.5241      4.4808      4.4274      4.3652    
  4.2957      4.2209      4.1428      4.0636      3.9859      3.9119      3.8442      3.7856      3.7385      3.7056    
  3.6886      3.6886      3.7056      3.7385      3.7077      3.7611      3.8253      3.8977      3.9759      4.0574    
  4.1398      4.2209      4.2982      4.3696      4.4330      4.4867      4.5294      4.5604      4.5791      4.5853    
  4.5791      4.5604      4.5294      4.4867      4.4330      4.3696      4.2982      4.2209      4.1398      4.0574    
  3.9759      3.8977      3.8253      3.7611      3.7077      3.6676      3.6426      3.6341      3.6426      3.6676    
  3.6380      3.6850      3.7444      3.8137      3.8905      3.9725      4.0574      4.1428      4.2263      4.3056    
  4.3783      4.4421      4.4951      4.5359      4.5636      4.5775      4.5775      4.5636      4.5359      4.4951    
  4.4421      4.3783      4.3056      4.2263      4.1428      4.0574      3.9725      3.8905      3.8137      3.7444    
  3.6850      3.6380      3.6052      3.5884      3.5884      3.6052      3.5784      3.6182      3.6714      3.7361    
  3.8098      3.8905      3.9759      4.0636      4.1515      4.2369      4.3172      4.3898      4.4522      4.5025    
  4.5394      4.5618      4.5693      4.5618      4.5394      4.5025      4.4522      4.3898      4.3172      4.2369    
  4.1515      4.0636      3.9759      3.8905      3.8098      3.7361      3.6714      3.6182      3.5784      3.5537    
  3.5454      3.5537      3.5305      3.5623      3.6084      3.6669      3.7361      3.8137      3.8977      3.9859    
  4.0759      4.1651      4.2505      4.3293      4.3988      4.4568      4.5017      4.5322      4.5476      4.5476    
  4.5322      4.5017      4.4568      4.3988      4.3293      4.2505      4.1651      4.0759      3.9859      3.8977    
  3.8137      3.7361      3.6669      3.6084      3.5623      3.5305      3.5143      3.5143      3.4956      3.5190    
  3.5570      3.6084      3.6714      3.7444      3.8253      3.9119      4.0018      4.0919      4.1793      4.2608    
  4.3339      4.3962      4.4461      4.4824      4.5043      4.5117      4.5043      4.4824      4.4461      4.3962    
  4.3339      4.2608      4.1793      4.0919      4.0018      3.9119      3.8253      3.7444      3.6714      3.6084    
  3.5570      3.5190      3.4956      3.4877      3.4744      3.4894      3.5190      3.5623      3.6182      3.6850    
  3.7611      3.8442      3.9316      4.0198      4.1055      4.1857      4.2577      4.3193      4.3692      4.4067    
  4.4316      4.4440      4.4440      4.4316      4.4067      4.3692      4.3193      4.2577      4.1857      4.1055    
  4.0198      3.9316      3.8442      3.7611      3.6850      3.6182      3.5623      3.5190      3.4894      3.4744    
  3.4646      3.4717      3.4930      3.5280      3.5760      3.6357      3.7056      3.7835      3.8663      3.9501    
  4.0312      4.1063      4.1726      4.2282      4.2723      4.3051      4.3272      4.3399      4.3440      4.3399    
  4.3272      4.3051      4.2723      4.2282      4.1726      4.1063      4.0312      3.9501      3.8663      3.7835    
  3.7056      3.6357      3.5760      3.5280      3.4930      3.4717      3.4717      3.4717      3.4851      3.5118    
  3.5513      3.6030      3.6655      3.7366      3.8128      3.8896      3.9628      4.0283      4.0831      4.1256    
  4.1556      4.1745      4.1849      4.1895      4.1911      4.1911      4.1895      4.1849      4.1745      4.1556    
  4.1256      4.0831      4.0283      3.9628      3.8896      3.8128      3.7366      3.6655      3.6030      3.5513    
  3.5118      3.4851      3.4930      3.4868      3.4930      3.5118      3.5430      3.5862      3.6405      3.7038    
  3.7720      3.8401      3.9029      3.9555      3.9944      4.0176      4.0257      4.0214      4.0094      3.9952    
  3.9843      3.9801      3.9843      3.9952      4.0094      4.0214      4.0257      4.0176      3.9944      3.9555    
  3.9029      3.8401      3.7720      3.7038      3.6405      3.5862      3.5430      3.5118      3.5280      3.5164    
  3.5164      3.5280      3.5513      3.5862      3.6320      3.6869      3.7463      3.8048      3.8560      3.8939    
  3.9138      3.9131      3.8925      3.8560      3.8108      3.7656      3.7293      3.7092      3.7092      3.7293    
  3.7656      3.8108      3.8560      3.8925      3.9131      3.9138      3.8939      3.8560      3.8048      3.7463    
  3.6869      3.6320      3.5862      3.5513      3.5760      3.5598      3.5545      3.5598      3.5760      3.6030    
  3.6405      3.6869      3.7376      3.7864      3.8261      3.8491      3.8490      3.8221      3.7686      3.6933    
  3.6054      3.5171      3.4417      3.3910      3.3731      3.3909      3.4417      3.5171      3.6054      3.6933    
  3.7686      3.8221      3.8490      3.8491      3.8261      3.7864      3.7376      3.6869      3.6405      3.6030    
  3.6357      3.6158      3.6059      3.6059      3.6158      3.6357      3.6655      3.7038      3.7463      3.7864    
  3.8158      3.8254      3.8069      3.7547      3.6676      3.5503      3.4135      3.2725      3.1452      3.0489    
  2.9969      2.9969      3.0488      3.1452      3.2725      3.4135      3.5503      3.6676      3.7547      3.8069    
  3.8254      3.8158      3.7864      3.7463      3.7038      3.6655      3.7056      3.6827      3.6690      3.6645    
  3.6690      3.6827      3.7056      3.7366      3.7720      3.8048      3.8261      3.8254      3.7923      3.7187    
  3.6014      3.4437      3.2566      3.0578      2.8694      2.7142      2.6121      2.5765      2.6121      2.7142    
  2.8694      3.0578      3.2566      3.4437      3.6014      3.7187      3.7923      3.8254      3.8261      3.8048    
  3.7720      3.7366      3.7835      3.7588      3.7420      3.7336      3.7336      3.7420      3.7588      3.7835    
  3.8128      3.8401      3.8560      3.8491      3.8069      3.7187      3.5783      3.3867      3.1537      2.8980    
  2.6448      2.4222      2.2565      2.1681      2.1681      2.2565      2.4222      2.6448      2.8980      3.1537    
  3.3867      3.5783      3.7187      3.8069      3.8491      3.8560      3.8401      3.8128      3.8663      3.8420    
  3.8229      3.8112      3.8074      3.8112      3.8229      3.8420      3.8663      3.8896      3.9029      3.8939    
  3.8490      3.7547      3.6014      3.3867      3.1178      2.8127      2.4979      2.2056      1.9683      1.8136    
  1.7598      1.8136      1.9683      2.2056      2.4979      2.8127      3.1178      3.3867      3.6014      3.7547    
  3.8490      3.8939      3.9029      3.8896      3.9501      3.9295      3.9095      3.8952      3.8880      3.8880    
  3.8952      3.9095      3.9295      3.9501      3.9628      3.9555      3.9138      3.8221      3.6676      3.4437    
  3.1537      2.8127      2.4468      2.0904      1.7806      1.5519      1.4305      1.4305      1.5519      1.7806    
  2.0904      2.4468      2.8127      3.1537      3.4437      3.6676      3.8221      3.9138      3.9555      3.9628    
  4.0312      4.0179      3.9995      3.9834      3.9733      3.9700      3.9733      3.9834      3.9995      4.0179    
  4.0312      4.0283      3.9944      3.9131      3.7686      3.5503      3.2566      2.8980      2.4979      2.0904    
  1.7155      1.4130      1.2167      1.1486      1.2167      1.4130      1.7155      2.0904      2.4979      2.8980    
  3.2566      3.5503      3.7686      3.9131      3.9944      4.0283      4.1063      4.1040      4.0897      4.0734    
  4.0610      4.0547      4.0547      4.0610      4.0734      4.0897      4.1040      4.1063      4.0831      4.0176    
  3.8925      3.6933      3.4135      3.0578      2.6448      2.2056      1.7806      1.4130      1.1425     0.99919    
 0.99919      1.1425      1.4130      1.7806      2.2056      2.6448      3.0578      3.4135      3.6933      3.8925    
  4.0176      4.0831      4.1726      4.1846      4.1772      4.1626      4.1488      4.1401      4.1371      4.1401    
  4.1488      4.1626      4.1772      4.1846      4.1726      4.1256      4.0257      3.8560      3.6054      3.2725    
  2.8694      2.4222      1.9683      1.5519      1.2167     0.99919     0.92387     0.99919      1.2167      1.5519    
  1.9683      2.4222      2.8694      3.2725      3.6054      3.8560      4.0257      4.1256      4.2282      4.2570    
  4.2590      4.2480      4.2342      4.2235      4.2181      4.2181      4.2235      4.2342      4.2480      4.2590    
  4.2570      4.2282      4.1556      4.0214      3.8108      3.5171      3.1452      2.7142      2.2565      1.8136    
  1.4305      1.1486     0.99919     0.99919      1.1486      1.4305      1.8136      2.2565      2.7142      3.1452    
  3.5171      3.8108      4.0214      4.1556      4.2723      4.3192      4.3323      4.3269      4.3145      4.3028    
  4.2954      4.2929      4.2954      4.3028      4.3145      4.3269      4.3323      4.3192      4.2723      4.1745    
  4.0094      3.7656      3.4417      3.0489      2.6121      2.1681      1.7598      1.4305      1.2167      1.1425    
  1.2167      1.4305      1.7598      2.1681      2.6121      3.0488      3.4417      3.7656      4.0094      4.1745    
  4.3051      4.3696      4.3949      4.3965      4.3871      4.3754      4.3667      4.3623      4.3623      4.3667    
  4.3754      4.3871      4.3965      4.3949      4.3696      4.3051      4.1849      3.9952      3.7293      3.3909    
  2.9969      2.5765      2.1681      1.8136      1.5519      1.4130      1.4130      1.5519      1.8136      2.1681    
  2.5765      2.9969      3.3909      3.7293      3.9952      4.1849      4.3272      4.4076      4.4451      4.4547    
  4.4495      4.4392      4.4301      4.4245      4.4227      4.4245      4.4301      4.4392      4.4495      4.4547    
  4.4451      4.4076      4.3272      4.1895      3.9843      3.7092      3.3731      2.9969      2.6121      2.2565    
  1.9683      1.7806      1.7155      1.7806      1.9683      2.2565      2.6121      2.9969      3.3731      3.7092    
  3.9843      4.1895      4.3399      4.4329      4.4816      4.4998      4.4999      4.4923      4.4838      4.4778    
  4.4749      4.4749      4.4778      4.4838      4.4923      4.4999      4.4998      4.4816      4.4329      4.3399    
  4.1911      3.9801      3.7092      3.3909      3.0489      2.7142      2.4222      2.2056      2.0904      2.0904    
  2.2056      2.4222      2.7142      3.0489      3.3910      3.7092      3.9801      4.1911      4.3440      4.4454    
  4.5038      4.5304      4.5368      4.5331      4.5265      4.5212      4.5182      4.5172      4.5182      4.5212    
  4.5265      4.5331      4.5368      4.5304      4.5038      4.4454      4.3440      4.1911      3.9843      3.7293    
  3.4417      3.1452      2.8694      2.6448      2.4979      2.4468      2.4979      2.6448      2.8694      3.1452    
  3.4417      3.7293      3.9843      4.1911      4.3399      4.4454      4.5112      4.5459      4.5593      4.5608    
  4.5575      4.5540      4.5518      4.5508      4.5508      4.5518      4.5540      4.5575      4.5608      4.5593    
  4.5459      4.5112      4.4454      4.3399      4.1895      3.9952      3.7656      3.5171      3.2725      3.0578    
  2.8980      2.8127      2.8127      2.8980      3.0578      3.2725      3.5171      3.7656      3.9952      4.1895    
  4.3272      4.4329      4.5038      4.5459      4.5669      4.5748      4.5762      4.5759      4.5757      4.5757    
  4.5758      4.5757      4.5757      4.5759      4.5762      4.5748      4.5669      4.5459      4.5038      4.4329    
  4.3272      4.1849      4.0094      3.8108      3.6054      3.4135      3.2566      3.1537      3.1178      3.1537    
  3.2566      3.4135      3.6054      3.8108      4.0094      4.1849      4.3051      4.4076      4.4816      4.5304    
  4.5593      4.5748      4.5824      4.5868      4.5899      4.5921      4.5933      4.5933      4.5921      4.5899    
  4.5868      4.5824      4.5748      4.5593      4.5304      4.4816      4.4076      4.3051      4.1745      4.0214    
  3.8560      3.6933      3.5503      3.4437      3.3867      3.3867      3.4437      3.5503      3.6933      3.8560    
  4.0214      4.1745      4.2723      4.3696      4.4451      4.4998      4.5368      4.5608      4.5762      4.5868    
  4.5946      4.6002      4.6036      4.6048      4.6036      4.6002      4.5946      4.5868      4.5762      4.5608    
  4.5368      4.4998      4.4451      4.3696      4.2723      4.1556      4.0257      3.8925      3.7686      3.6676    
  3.6014      3.5783      3.6014      3.6676      3.7686      3.8925      4.0257      4.1556      4.2282      4.3192    
  4.3949      4.4547      4.4999      4.5331      4.5575      4.5759      4.5899      4.6002      4.6071      4.6105    
  4.6105      4.6071      4.6002      4.5899      4.5759      4.5575      4.5331      4.4999      4.4547      4.3949    
  4.3192      4.2282      4.1256      4.0176      3.9131      3.8221      3.7547      3.7187      3.7187      3.7547    
  3.8221      3.9131      4.0176      4.1256      4.1726      4.2570      4.3323      4.3965      4.4495      4.4923    
  4.5265      4.5540      4.5757      4.5921      4.6036      4.6105      4.6128      4.6105      4.6036      4.5921    
  4.5757      4.5540      4.5265      4.4923      4.4495      4.3965      4.3323      4.2570      4.1726      4.0831    
  3.9944      3.9138      3.8490      3.8069      3.7923      3.8069      3.8490      3.9138      3.9944      4.0831    
  4.1063      4.1846      4.2590      4.3269      4.3871      4.4392      4.4838      4.5212      4.5518      4.5757    
  4.5933      4.6048      4.6105      4.6105      4.6048      4.5933      4.5757      4.5518      4.5212      4.4838    
  4.4392      4.3871      4.3269      4.2590      4.1846      4.1063      4.0283      3.9555      3.8939      3.8491    
  3.8254      3.8254      3.8491      3.8939      3.9555      4.0283      4.0312      4.1040      4.1772      4.2480    
  4.3145      4.3754      4.4301      4.4778      4.5182      4.5508      4.5758      4.5933      4.6036      4.6071    
  4.6036      4.5933      4.5758      4.5508      4.5182      4.4778      4.4301      4.3754      4.3145      4.2480    
  4.1772      4.1040      4.0312      3.9628      3.9029      3.8560      3.8261      3.8158      3.8261      3.8560    
  3.9029      3.9628      3.9501      4.0179      4.0897      4.1626      4.2342      4.3028      4.3667      4.4245    
  4.4749      4.5172      4.5508      4.5757      4.5921      4.6002      4.6002      4.5921      4.5757      4.5508    
  4.5172      4.4749      4.4245      4.3667      4.3028      4.2342      4.1626      4.0897      4.0179      3.9501    
  3.8896      3.8401      3.8048      3.7864      3.7864      3.8048      3.8401      3.8896      3.8663      3.9295    
  3.9995      4.0734      4.1488      4.2235      4.2954      4.3623      4.4227      4.4749      4.5182      4.5518    
  4.5757      4.5899      4.5946      4.5899      4.5757      4.5518      4.5182      4.4749      4.4227      4.3623    
  4.2954      4.2235      4.1488      4.0734      3.9995      3.9295      3.8663      3.8128      3.7720      3.7463    
  3.7376      3.7463      3.7720      3.8128      3.7835      3.8420      3.9095      3.9834      4.0610      4.1401    
  4.2181      4.2929      4.3623      4.4245      4.4778      4.5212      4.5540      4.5759      4.5868      4.5868    
  4.5759      4.5540      4.5212      4.4778      4.4245      4.3623      4.2929      4.2181      4.1401      4.0610    
  3.9834      3.9095      3.8420      3.7835      3.7366      3.7038      3.6869      3.6869      3.7038      3.7366    
  3.7056      3.7588      3.8229      3.8952      3.9733      4.0547      4.1371      4.2181      4.2954      4.3667    
  4.4301      4.4838      4.5265      4.5575      4.5762      4.5824      4.5762      4.5575      4.5265      4.4838    
  4.4301      4.3667      4.2954      4.2181      4.1371      4.0547      3.9733      3.8952      3.8229      3.7588    
  3.7056      3.6655      3.6405      3.6320      3.6405      3.6655      3.6357      3.6827      3.7420      3.8112    
  3.8880      3.9700      4.0547      4.1401      4.2235      4.3028      4.3754      4.4392      4.4923      4.5331    
  4.5608      4.5748      4.5748      4.5608      4.5331      4.4923      4.4392      4.3754      4.3028      4.2235    
  4.1401      4.0547      3.9700      3.8880      3.8112      3.7420      3.6827      3.6357      3.6030      3.5862    
  3.5862      3.6030      3.5760      3.6158      3.6690      3.7336      3.8074      3.8880      3.9733      4.0610    
  4.1488      4.2342      4.3145      4.3871      4.4495      4.4999      4.5368      4.5593      4.5669      4.5593    
  4.5368      4.4999      4.4495      4.3871      4.3145      4.2342      4.1488      4.0610      3.9733      3.8880    
  3.8074      3.7336      3.6690      3.6158      3.5760      3.5513      3.5430      3.5513      3.5280      3.5598    
  3.6059      3.6645      3.7336      3.8112      3.8952      3.9834      4.0734      4.1626      4.2480      4.3269    
  4.3965      4.4547      4.4998      4.5304      4.5459      4.5459      4.5304      4.4998      4.4547      4.3965    
  4.3269      4.2480      4.1626      4.0734      3.9834      3.8952      3.8112      3.7336      3.6645      3.6059    
  3.5598      3.5280      3.5118      3.5118      3.4930      3.5164      3.5545      3.6059      3.6690      3.7420    
  3.8229      3.9095      3.9995      4.0897      4.1772      4.2590      4.3323      4.3949      4.4451      4.4816    
  4.5038      4.5112      4.5038      4.4816      4.4451      4.3949      4.3323      4.2590      4.1772      4.0897    
  3.9995      3.9095      3.8229      3.7420      3.6690      3.6059      3.5545      3.5164      3.4930      3.4851    
  3.4717      3.4868      3.5164      3.5598      3.6158      3.6827      3.7588      3.8420      3.9295      4.0179    
  4.1040      4.1846      4.2570      4.3192      4.3696      4.4076      4.4329      4.4454      4.4454      4.4329    
  4.4076      4.3696      4.3192      4.2570      4.1846      4.1040      4.0179      3.9295      3.8420      3.7588    
  3.6827      3.6158      3.5598      3.5164      3.4868      3.4717      3.4566      3.4639      3.4853      3.5206    
  3.5689      3.6289      3.6991      3.7774      3.8608      3.9456      4.0282      4.1051      4.1737      4.2319    
  4.2786      4.3139      4.3381      4.3521      4.3567      4.3521      4.3381      4.3139      4.2787      4.2319    
  4.1737      4.1051      4.0282      3.9456      3.8608      3.7774      3.6991      3.6289      3.5689      3.5206    
  3.4853      3.4639      3.4639      3.4639      3.4774      3.5043      3.5442      3.5963      3.6592      3.7310    
  3.8081      3.8863      3.9615      4.0297      4.0880      4.1344      4.1685      4.1915      4.2054      4.2127    
  4.2157      4.2157      4.2127      4.2054      4.1915      4.1685      4.1344      4.0880      4.0297      3.9615    
  3.8863      3.8081      3.7310      3.6592      3.5963      3.5442      3.5043      3.4774      3.4853      3.4790    
  3.4853      3.5043      3.5359      3.5796      3.6344      3.6985      3.7679      3.8379      3.9034      3.9597    
  4.0032      4.0319      4.0460      4.0479      4.0416      4.0320      4.0240      4.0209      4.0240      4.0320    
  4.0416      4.0479      4.0460      4.0319      4.0032      3.9597      3.9034      3.8379      3.7679      3.6985    
  3.6344      3.5796      3.5359      3.5043      3.5206      3.5088      3.5088      3.5206      3.5442      3.5796    
  3.6260      3.6817      3.7427      3.8034      3.8579      3.9005      3.9263      3.9329      3.9205      3.8928    
  3.8559      3.8179      3.7869      3.7695      3.7695      3.7869      3.8179      3.8559      3.8928      3.9205    
  3.9329      3.9263      3.9005      3.8579      3.8034      3.7427      3.6817      3.6260      3.5796      3.5442    
  3.5689      3.5525      3.5470      3.5525      3.5689      3.5963      3.6344      3.6817      3.7341      3.7855    
  3.8290      3.8574      3.8645      3.8467      3.8038      3.7400      3.6636      3.5857      3.5186      3.4732    
  3.4572      3.4732      3.5186      3.5857      3.6635      3.7400      3.8038      3.8467      3.8646      3.8574    
  3.8290      3.7855      3.7341      3.6817      3.6344      3.5963      3.6289      3.6086      3.5986      3.5986    
  3.6086      3.6289      3.6592      3.6985      3.7427      3.7855      3.8190      3.8347      3.8245      3.7829    
  3.7086      3.6057      3.4836      3.3567      3.2414      3.1538      3.1065      3.1065      3.1538      3.2414    
  3.3567      3.4836      3.6057      3.7086      3.7829      3.8245      3.8347      3.8190      3.7855      3.7427    
  3.6985      3.6592      3.6991      3.6758      3.6618      3.6572      3.6618      3.6758      3.6991      3.7310    
  3.7679      3.8034      3.8290      3.8347      3.8106      3.7489      3.6463      3.5055      3.3364      3.1555    
  2.9831      2.8407      2.7467      2.7139      2.7467      2.8407      2.9831      3.1555      3.3364      3.5055    
  3.6463      3.7489      3.8106      3.8347      3.8290      3.8034      3.7679      3.7310      3.7774      3.7521    
  3.7349      3.7264      3.7264      3.7349      3.7521      3.7774      3.8081      3.8379      3.8579      3.8574    
  3.8245      3.7489      3.6245      3.4519      3.2398      3.0056      2.7725      2.5669      2.4135      2.3316    
  2.3316      2.4135      2.5669      2.7725      3.0056      3.2398      3.4519      3.6245      3.7489      3.8245    
  3.8574      3.8579      3.8379      3.8081      3.8608      3.8355      3.8159      3.8040      3.8000      3.8040    
  3.8159      3.8355      3.8608      3.8863      3.9034      3.9005      3.8646      3.7829      3.6463      3.4519    
  3.2062      2.9255      2.6347      2.3637      2.1431      1.9991      1.9490      1.9991      2.1431      2.3637    
  2.6347      2.9255      3.2062      3.4519      3.6463      3.7829      3.8646      3.9005      3.9034      3.8863    
  3.9456      3.9233      3.9025      3.8879      3.8806      3.8806      3.8879      3.9025      3.9233      3.9456    
  3.9615      3.9597      3.9263      3.8467      3.7086      3.5055      3.2398      2.9255      2.5867      2.2554    
  1.9668      1.7533      1.6398      1.6398      1.7533      1.9668      2.2554      2.5867      2.9255      3.2398    
  3.5055      3.7086      3.8467      3.9263      3.9597      3.9615      4.0282      4.0123      3.9926      3.9760    
  3.9658      3.9623      3.9658      3.9760      3.9926      4.0123      4.0282      4.0297      4.0032      3.9329    
  3.8038      3.6057      3.3364      3.0056      2.6347      2.2554      1.9056      1.6227      1.4388      1.3750    
  1.4388      1.6227      1.9056      2.2554      2.6347      3.0056      3.3364      3.6057      3.8038      3.9329    
  4.0032      4.0297      4.1051      4.0992      4.0831      4.0659      4.0533      4.0469      4.0469      4.0533    
  4.0659      4.0831      4.0992      4.1051      4.0880      4.0319      3.9205      3.7400      3.4836      3.1555    
  2.7725      2.3637      1.9668      1.6227      1.3691      1.2345      1.2345      1.3691      1.6227      1.9668    
  2.3637      2.7725      3.1555      3.4836      3.7400      3.9205      4.0319      4.0880      4.1737      4.1810    
  4.1710      4.1552      4.1410      4.1321      4.1291      4.1321      4.1410      4.1552      4.1710      4.1810    
  4.1737      4.1344      4.0460      3.8928      3.6635      3.3567      2.9831      2.5669      2.1431      1.7533    
  1.4388      1.2345      1.1637      1.2345      1.4388      1.7533      2.1431      2.5669      2.9831      3.3567    
  3.6635      3.8928      4.0460      4.1344      4.2319      4.2548      4.2534      4.2408      4.2262      4.2154    
  4.2099      4.2099      4.2154      4.2262      4.2408      4.2534      4.2548      4.2319      4.1685      4.0479    
  3.8559      3.5857      3.2414      2.8407      2.4135      1.9991      1.6398      1.3750      1.2345      1.2345    
  1.3750      1.6398      1.9991      2.4135      2.8407      3.2414      3.5857      3.8559      4.0479      4.1685    
  4.2787      4.3185      4.3275      4.3199      4.3065      4.2945      4.2870      4.2846      4.2870      4.2945    
  4.3065      4.3199      4.3275      4.3185      4.2787      4.1915      4.0416      3.8179      3.5186      3.1538    
  2.7467      2.3316      1.9490      1.6398      1.4388      1.3691      1.4388      1.6398      1.9490      2.3316    
  2.7467      3.1538      3.5186      3.8179      4.0416      4.1915      4.3139      4.3705      4.3910      4.3899    
  4.3792      4.3671      4.3583      4.3539      4.3539      4.3583      4.3671      4.3792      4.3899      4.3910    
  4.3705      4.3139      4.2054      4.0320      3.7869      3.4732      3.1065      2.7139      2.3316      1.9991    
  1.7533      1.6227      1.6227      1.7533      1.9991      2.3316      2.7139      3.1065      3.4732      3.7869    
  4.0320      4.2054      4.3381      4.4099      4.4420      4.4485      4.4418      4.4308      4.4216      4.4160    
  4.4142      4.4160      4.4216      4.4308      4.4418      4.4485      4.4420      4.4099      4.3381      4.2127    
  4.0240      3.7695      3.4572      3.1065      2.7467      2.4135      2.1431      1.9668      1.9056      1.9668    
  2.1431      2.4135      2.7467      3.1065      3.4572      3.7695      4.0240      4.2127      4.3521      4.4362    
  4.4792      4.4940      4.4923      4.4839      4.4753      4.4693      4.4664      4.4664      4.4693      4.4753    
  4.4839      4.4923      4.4940      4.4792      4.4362      4.3521      4.2157      4.0209      3.7695      3.4732    
  3.1538      2.8407      2.5669      2.3637      2.2554      2.2554      2.3637      2.5669      2.8407      3.1538    
  3.4732      3.7695      4.0209      4.2157      4.3567      4.4494      4.5019      4.5249      4.5295      4.5249    
  4.5181      4.5128      4.5097      4.5087      4.5097      4.5128      4.5181      4.5249      4.5295      4.5249    
  4.5019      4.4494      4.3567      4.2157      4.0240      3.7869      3.5186      3.2414      2.9831      2.7725    
  2.6347      2.5867      2.6347      2.7725      2.9831      3.2414      3.5186      3.7869      4.0240      4.2157    
  4.3521      4.4494      4.5095      4.5406      4.5521      4.5526      4.5491      4.5456      4.5434      4.5424    
  4.5424      4.5434      4.5456      4.5491      4.5526      4.5521      4.5406      4.5095      4.4494      4.3521    
  4.2127      4.0320      3.8179      3.5857      3.3567      3.1555      3.0056      2.9255      2.9255      3.0056    
  3.1555      3.3567      3.5857      3.8179      4.0320      4.2127      4.3381      4.4362      4.5019      4.5406    
  4.5597      4.5667      4.5678      4.5675      4.5673      4.5674      4.5675      4.5674      4.5673      4.5675    
  4.5678      4.5667      4.5597      4.5406      4.5019      4.4362      4.3381      4.2054      4.0416      3.8559    
  3.6635      3.4836      3.3364      3.2398      3.2062      3.2398      3.3364      3.4836      3.6636      3.8559    
  4.0416      4.2054      4.3139      4.4099      4.4792      4.5249      4.5521      4.5667      4.5741      4.5785    
  4.5816      4.5838      4.5851      4.5851      4.5838      4.5816      4.5785      4.5741      4.5667      4.5521    
  4.5249      4.4792      4.4099      4.3139      4.1915      4.0479      3.8928      3.7400      3.6057      3.5055    
  3.4519      3.4519      3.5055      3.6057      3.7400      3.8928      4.0479      4.1915      4.2786      4.3705    
  4.4420      4.4940      4.5295      4.5526      4.5678      4.5785      4.5864      4.5920      4.5954      4.5966    
  4.5954      4.5920      4.5864      4.5785      4.5678      4.5526      4.5295      4.4940      4.4420      4.3705    
  4.2787      4.1685      4.0460      3.9205      3.8038      3.7086      3.6463      3.6245      3.6463      3.7086    
  3.8038      3.9205      4.0460      4.1685      4.2319      4.3185      4.3910      4.4485      4.4923      4.5249    
  4.5491      4.5675      4.5816      4.5920      4.5989      4.6023      4.6023      4.5989      4.5920      4.5816    
  4.5675      4.5491      4.5249      4.4923      4.4485      4.3910      4.3185      4.2319      4.1344      4.0319    
  3.9329      3.8467      3.7829      3.7489      3.7489      3.7829      3.8467      3.9329      4.0319      4.1344    
  4.1737      4.2548      4.3275      4.3899      4.4418      4.4839      4.5181      4.5456      4.5673      4.5838    
  4.5954      4.6023      4.6046      4.6023      4.5954      4.5838      4.5673      4.5456      4.5181      4.4839    
  4.4418      4.3899      4.3275      4.2548      4.1737      4.0880      4.0032      3.9263      3.8646      3.8245    
  3.8106      3.8245      3.8645      3.9263      4.0032      4.0880      4.1051      4.1810      4.2534      4.3199    
  4.3792      4.4308      4.4753      4.5128      4.5434      4.5674      4.5851      4.5966      4.6023      4.6023    
  4.5966      4.5851      4.5674      4.5434      4.5128      4.4753      4.4308      4.3792      4.3199      4.2534    
  4.1810      4.1051      4.0297      3.9597      3.9005      3.8574      3.8347      3.8347      3.8574      3.9005    
  3.9597      4.0297      4.0282      4.0992      4.1710      4.2408      4.3065      4.3671      4.4216      4.4693    
  4.5097      4.5424      4.5675      4.5851      4.5954      4.5989      4.5954      4.5851      4.5675      4.5424    
  4.5097      4.4693      4.4216      4.3671      4.3065      4.2408      4.1710      4.0992      4.0282      3.9615    
  3.9034      3.8579      3.8290      3.8190      3.8290      3.8579      3.9034      3.9615      3.9456      4.0123    
  4.0831      4.1552      4.2262      4.2945      4.3583      4.4160      4.4664      4.5087      4.5424      4.5674    
  4.5838      4.5920      4.5920      4.5838      4.5674      4.5424      4.5087      4.4664      4.4160      4.3583    
  4.2945      4.2262      4.1552      4.0831      4.0123      3.9456      3.8863      3.8379      3.8034      3.7855    
  3.7855      3.8034      3.8379      3.8863      3.8608      3.9233      3.9926      4.0659      4.1410      4.2154    
  4.2870      4.3539      4.4142      4.4664      4.5097      4.5434      4.5673      4.5816      4.5864      4.5816    
  4.5673      4.5434      4.5097      4.4664      4.4142      4.3539      4.2870      4.2154      4.1410      4.0659    
  3.9926      3.9233      3.8608      3.8081      3.7679      3.7427      3.7341      3.7427      3.7679      3.8081    
  3.7774      3.8355      3.9025      3.9760      4.0533      4.1321      4.2099      4.2846      4.3539      4.4160    
  4.4693      4.5128      4.5456      4.5675      4.5785      4.5785      4.5675      4.5456      4.5128      4.4693    
  4.4160      4.3539      4.2846      4.2099      4.1321      4.0533      3.9760      3.9025      3.8355      3.7774    
  3.7310      3.6985      3.6817      3.6817      3.6985      3.7310      3.6991      3.7521      3.8159      3.8879    
  3.9658      4.0469      4.1291      4.2099      4.2870      4.3583      4.4216      4.4753      4.5181      4.5491    
  4.5678      4.5741      4.5678      4.5491      4.5181      4.4753      4.4216      4.3583      4.2870      4.2099    
  4.1291      4.0469      3.9658      3.8879      3.8159      3.7521      3.6991      3.6592      3.6344      3.6260    
  3.6344      3.6592      3.6289      3.6758      3.7349      3.8040      3.8806      3.9623      4.0469      4.1321    
  4.2154      4.2945      4.3671      4.4308      4.4839      4.5249      4.5526      4.5667      4.5667      4.5526    
  4.5249      4.4839      4.4308      4.3671      4.2945      4.2154      4.1321      4.0469      3.9623      3.8806    
  3.8040      3.7349      3.6758      3.6289      3.5963      3.5796      3.5796      3.5963      3.5689      3.6086    
  3.6618      3.7264      3.8000      3.8806      3.9658      4.0533      4.1410      4.2262      4.3065      4.3792    
  4.4418      4.4923      4.5295      4.5521      4.5597      4.5521      4.5295      4.4923      4.4418      4.3792    
  4.3065      4.2262      4.1410      4.0533      3.9658      3.8806      3.8000      3.7264      3.6618      3.6086    
  3.5689      3.5442      3.5359      3.5442      3.5206      3.5525      3.5986      3.6572      3.7264      3.8040    
  3.8879      3.9760      4.0659      4.1552      4.2408      4.3199      4.3899      4.4485      4.4940      4.5249    
  4.5406      4.5406      4.5249      4.4940      4.4485      4.3899      4.3199      4.2408      4.1552      4.0659    
  3.9760      3.8879      3.8040      3.7264      3.6572      3.5986      3.5525      3.5206      3.5043      3.5043    
  3.4853      3.5088      3.5470      3.5986      3.6618      3.7349      3.8159      3.9025      3.9926      4.0831    
  4.1710      4.2534      4.3275      4.3910      4.4420      4.4792      4.5019      4.5095      4.5019      4.4792    
  4.4420      4.3910      4.3275      4.2534      4.1710      4.0831      3.9926      3.9025      3.8159      3.7349    
  3.6618      3.5986      3.5470      3.5088      3.4853      3.4774      3.4639      3.4790      3.5088      3.5525    
  3.6086      3.6758      3.7521      3.8355      3.9233      4.0123      4.0992      4.1810      4.2548      4.3185    
  4.3705      4.4099      4.4362      4.4494      4.4494      4.4362      4.4099      4.3705      4.3185      4.2548    
  4.1810      4.0992      4.0123      3.9233      3.8355      3.7521      3.6758      3.6086      3.5525      3.5088    
  3.4790      3.4639      3.4440      3.4513      3.4731      3.5087      3.5574      3.6179      3.6886      3.7675    
  3.8518      3.9380      4.0227      4.1024      4.1744      4.2364      4.2872      4.3261      4.3534      4.3695    
  4.3747      4.3695      4.3534      4.3261      4.2872      4.2364      4.1744      4.1024      4.0227      3.9380    
  3.8518      3.7675      3.6886      3.6179      3.5574      3.5087      3.4731      3.4513      3.4513      3.4513    
  3.4651      3.4925      3.5329      3.5855      3.6491      3.7217      3.8002      3.8806      3.9588      4.0310    
  4.0943      4.1466      4.1871      4.2162      4.2354      4.2467      4.2519      4.2519      4.2467      4.2354    
  4.2162      4.1871      4.1466      4.0943      4.0310      3.9588      3.8806      3.8002      3.7217      3.6491    
  3.5855      3.5329      3.4925      3.4651      3.4731      3.4666      3.4731      3.4925      3.5246      3.5689    
  3.6246      3.6898      3.7610      3.8337      3.9032      3.9651      4.0156      4.0526      4.0759      4.0871    
  4.0893      4.0867      4.0832      4.0817      4.0832      4.0867      4.0893      4.0871      4.0759      4.0526    
  4.0156      3.9651      3.9032      3.8337      3.7610      3.6898      3.6246      3.5689      3.5246      3.4925    
  3.5087      3.4967      3.4967      3.5087      3.5329      3.5689      3.6163      3.6733      3.7364      3.8005    
  3.8600      3.9095      3.9444      3.9620      3.9621      3.9475      3.9233      3.8963      3.8733      3.8602    
  3.8602      3.8733      3.8963      3.9233      3.9475      3.9621      3.9620      3.9444      3.9095      3.8600    
  3.8005      3.7364      3.6733      3.6163      3.5689      3.5329      3.5574      3.5406      3.5350      3.5406    
  3.5574      3.5855      3.6246      3.6733      3.7281      3.7833      3.8325      3.8692      3.8873      3.8832    
  3.8564      3.8100      3.7510      3.6891      3.6347      3.5976      3.5844      3.5976      3.6347      3.6891    
  3.7510      3.8100      3.8564      3.8832      3.8873      3.8692      3.8325      3.7833      3.7281      3.6733    
  3.6246      3.5855      3.6179      3.5971      3.5867      3.5867      3.5971      3.6179      3.6491      3.6898    
  3.7364      3.7833      3.8231      3.8479      3.8503      3.8250      3.7702      3.6890      3.5896      3.4843    
  3.3874      3.3132      3.2730      3.2730      3.3132      3.3874      3.4843      3.5896      3.6890      3.7702    
  3.8250      3.8503      3.8479      3.8231      3.7833      3.7364      3.6898      3.6491      3.6886      3.6645    
  3.6501      3.6454      3.6501      3.6645      3.6886      3.7217      3.7610      3.8005      3.8325      3.8479    
  3.8375      3.7939      3.7137      3.5987      3.4574      3.3039      3.1562      3.0334      2.9520      2.9236    
  2.9520      3.0334      3.1562      3.3039      3.4574      3.5987      3.7137      3.7939      3.8375      3.8479    
  3.8325      3.8005      3.7610      3.7217      3.7675      3.7411      3.7233      3.7145      3.7145      3.7233    
  3.7411      3.7675      3.8002      3.8337      3.8600      3.8692      3.8503      3.7939      3.6940      3.5504    
  3.3706      3.1693      2.9673      2.7880      2.6537      2.5819      2.5819      2.6537      2.7880      2.9673    
  3.1693      3.3706      3.5504      3.6940      3.7939      3.8503      3.8692      3.8600      3.8337      3.8002    
  3.8518      3.8248      3.8044      3.7921      3.7880      3.7921      3.8044      3.8248      3.8518      3.8806    
  3.9032      3.9095      3.8873      3.8250      3.7137      3.5504      3.3403      3.0973      2.8435      2.6056    
  2.4111      2.2837      2.2393      2.2837      2.4111      2.6056      2.8435      3.0973      3.3403      3.5504    
  3.7137      3.8250      3.8873      3.9095      3.9032      3.8806      3.9380      3.9131      3.8911      3.8760    
  3.8684      3.8684      3.8760      3.8911      3.9131      3.9380      3.9588      3.9651      3.9444      3.8832    
  3.7702      3.5987      3.3706      3.0973      2.8004      2.5083      2.2525      2.0628      1.9617      1.9617    
  2.0628      2.2525      2.5083      2.8004      3.0973      3.3706      3.5987      3.7702      3.8832      3.9444    
  3.9651      3.9588      4.0227      4.0030      3.9813      3.9640      3.9534      3.9499      3.9534      3.9640    
  3.9813      4.0030      4.0227      4.0310      4.0156      3.9620      3.8564      3.6890      3.4574      3.1693    
  2.8435      2.5083      2.1974      1.9452      1.7808      1.7237      1.7808      1.9452      2.1974      2.5083    
  2.8435      3.1693      3.4574      3.6890      3.8564      3.9620      4.0156      4.0310      4.1024      4.0912    
  4.0722      4.0539      4.0408      4.0343      4.0343      4.0408      4.0539      4.0722      4.0912      4.1024    
  4.0943      4.0526      3.9621      3.8100      3.5896      3.3039      2.9673      2.6056      2.2525      1.9452    
  1.7180      1.5973      1.5973      1.7180      1.9452      2.2525      2.6056      2.9673      3.3039      3.5896    
  3.8100      3.9621      4.0526      4.0943      4.1744      4.1746      4.1608      4.1431      4.1283      4.1192    
  4.1162      4.1192      4.1283      4.1431      4.1608      4.1746      4.1744      4.1466      4.0759      3.9475    
  3.7510      3.4843      3.1562      2.7880      2.4111      2.0628      1.7808      1.5973      1.5336      1.5973    
  1.7808      2.0628      2.4111      2.7880      3.1562      3.4843      3.7510      3.9475      4.0759      4.1466    
  4.2364      4.2505      4.2441      4.2290      4.2135      4.2024      4.1968      4.1968      4.2024      4.2135    
  4.2290      4.2441      4.2505      4.2364      4.1871      4.0871      3.9233      3.6891      3.3874      3.0334    
  2.6537      2.2837      1.9617      1.7237      1.5973      1.5973      1.7237      1.9617      2.2837      2.6537    
  3.0334      3.3874      3.6891      3.9233      4.0871      4.1871      4.2872      4.3166      4.3194      4.3085    
  4.2937      4.2813      4.2738      4.2713      4.2738      4.2813      4.2937      4.3085      4.3194      4.3166    
  4.2872      4.2162      4.0893      3.8963      3.6347      3.3132      2.9520      2.5819      2.2393      1.9617    
  1.7808      1.7180      1.7808      1.9617      2.2393      2.5819      2.9520      3.3132      3.6347      3.8963    
  4.0893      4.2162      4.3261      4.3710      4.3842      4.3791      4.3665      4.3538      4.3449      4.3405    
  4.3405      4.3449      4.3538      4.3665      4.3791      4.3842      4.3710      4.3261      4.2354      4.0867    
  3.8733      3.5976      3.2730      2.9236      2.5819      2.2837      2.0628      1.9452      1.9452      2.0628    
  2.2837      2.5819      2.9236      3.2730      3.5976      3.8733      4.0867      4.2354      4.3534      4.4124    
  4.4365      4.4384      4.4294      4.4176      4.4082      4.4026      4.4008      4.4026      4.4082      4.4176    
  4.4294      4.4384      4.4365      4.4124      4.3534      4.2467      4.0832      3.8602      3.5844      3.2730    
  2.9520      2.6537      2.4111      2.2525      2.1974      2.2525      2.4111      2.6537      2.9520      3.2730    
  3.5844      3.8602      4.0832      4.2467      4.3695      4.4403      4.4748      4.4845      4.4803      4.4709    
  4.4620      4.4561      4.4532      4.4532      4.4561      4.4620      4.4709      4.4803      4.4845      4.4748    
  4.4403      4.3695      4.2519      4.0817      3.8602      3.5976      3.3132      3.0334      2.7880      2.6056    
  2.5083      2.5083      2.6056      2.7880      3.0334      3.3132      3.5976      3.8602      4.0817      4.2519    
  4.3747      4.4544      4.4981      4.5160      4.5177      4.5120      4.5049      4.4996      4.4966      4.4956    
  4.4966      4.4996      4.5049      4.5120      4.5177      4.5160      4.4981      4.4544      4.3747      4.2519    
  4.0832      3.8733      3.6347      3.3874      3.1562      2.9673      2.8435      2.8004      2.8435      2.9673    
  3.1562      3.3874      3.6347      3.8733      4.0832      4.2519      4.3695      4.4544      4.5060      4.5319    
  4.5406      4.5399      4.5361      4.5326      4.5305      4.5295      4.5295      4.5305      4.5326      4.5361    
  4.5399      4.5406      4.5319      4.5060      4.4544      4.3695      4.2467      4.0867      3.8963      3.6891    
  3.4843      3.3039      3.1693      3.0973      3.0973      3.1693      3.3039      3.4843      3.6891      3.8963    
  4.0867      4.2467      4.3534      4.4403      4.4981      4.5319      4.5483      4.5540      4.5549      4.5547    
  4.5546      4.5547      4.5547      4.5547      4.5546      4.5547      4.5549      4.5540      4.5483      4.5319    
  4.4981      4.4403      4.3534      4.2354      4.0893      3.9233      3.7510      3.5896      3.4574      3.3706    
  3.3403      3.3706      3.4574      3.5896      3.7510      3.9233      4.0893      4.2354      4.3261      4.4124    
  4.4748      4.5160      4.5406      4.5540      4.5612      4.5657      4.5689      4.5712      4.5724      4.5724    
  4.5712      4.5689      4.5657      4.5612      4.5540      4.5406      4.5160      4.4748      4.4124      4.3261    
  4.2162      4.0871      3.9475      3.8100      3.6890      3.5987      3.5504      3.5504      3.5987      3.6890    
  3.8100      3.9475      4.0871      4.2162      4.2872      4.3710      4.4365      4.4845      4.5177      4.5399    
  4.5549      4.5657      4.5737      4.5794      4.5829      4.5841      4.5829      4.5794      4.5737      4.5657    
  4.5549      4.5399      4.5177      4.4845      4.4365      4.3710      4.2872      4.1871      4.0759      3.9621    
  3.8564      3.7702      3.7137      3.6940      3.7137      3.7702      3.8564      3.9621      4.0759      4.1871    
  4.2364      4.3166      4.3842      4.4384      4.4803      4.5120      4.5361      4.5547      4.5689      4.5794    
  4.5864      4.5898      4.5898      4.5864      4.5794      4.5689      4.5547      4.5361      4.5120      4.4803    
  4.4384      4.3842      4.3166      4.2364      4.1466      4.0526      3.9620      3.8832      3.8250      3.7939    
  3.7939      3.8250      3.8832      3.9620      4.0526      4.1466      4.1744      4.2505      4.3194      4.3791    
  4.4294      4.4709      4.5049      4.5326      4.5546      4.5712      4.5829      4.5898      4.5921      4.5898    
  4.5829      4.5712      4.5546      4.5326      4.5049      4.4709      4.4294      4.3791      4.3194      4.2505    
  4.1744      4.0943      4.0156      3.9444      3.8873      3.8503      3.8375      3.8503      3.8873      3.9444    
  4.0156      4.0943      4.1024      4.1746      4.2441      4.3085      4.3665      4.4176      4.4620      4.4996    
  4.5305      4.5547      4.5724      4.5841      4.5898      4.5898      4.5841      4.5724      4.5547      4.5305    
  4.4996      4.4620      4.4176      4.3665      4.3085      4.2441      4.1746      4.1024      4.0310      3.9651    
  3.9095      3.8692      3.8479      3.8479      3.8692      3.9095      3.9651      4.0310      4.0227      4.0912    
  4.1608      4.2290      4.2937      4.3538      4.4082      4.4561      4.4966      4.5295      4.5547      4.5724    
  4.5829      4.5864      4.5829      4.5724      4.5547      4.5295      4.4966      4.4561      4.4082      4.3538    
  4.2937      4.2290      4.1608      4.0912      4.0227      3.9588      3.9032      3.8600      3.8325      3.8231    
  3.8325      3.8600      3.9032      3.9588      3.9380      4.0030      4.0722      4.1431      4.2135      4.2813    
  4.3449      4.4026      4.4532      4.4956      4.5295      4.5547      4.5712      4.5794      4.5794      4.5712    
  4.5547      4.5295      4.4956      4.4532      4.4026      4.3449      4.2813      4.2135      4.1431      4.0722    
  4.0030      3.9380      3.8806      3.8337      3.8005      3.7833      3.7833      3.8005      3.8337      3.8806    
  3.8518      3.9131      3.9813      4.0539      4.1283      4.2024      4.2738      4.3405      4.4008      4.4532    
  4.4966      4.5305      4.5546      4.5689      4.5737      4.5689      4.5546      4.5305      4.4966      4.4532    
  4.4008      4.3405      4.2738      4.2024      4.1283      4.0539      3.9813      3.9131      3.8518      3.8002    
  3.7610      3.7364      3.7281      3.7364      3.7610      3.8002      3.7675      3.8248      3.8911      3.9640    
  4.0408      4.1192      4.1968      4.2713      4.3405      4.4026      4.4561      4.4996      4.5326      4.5547    
  4.5657      4.5657      4.5547      4.5326      4.4996      4.4561      4.4026      4.3405      4.2713      4.1968    
  4.1192      4.0408      3.9640      3.8911      3.8248      3.7675      3.7217      3.6898      3.6733      3.6733    
  3.6898      3.7217      3.6886      3.7411      3.8044      3.8760      3.9534      4.0343      4.1162      4.1968    
  4.2738      4.3449      4.4082      4.4620      4.5049      4.5361      4.5549      4.5612      4.5549      4.5361    
  4.5049      4.4620      4.4082      4.3449      4.2738      4.1968      4.1162      4.0343      3.9534      3.8760    
  3.8044      3.7411      3.6886      3.6491      3.6246      3.6163      3.6246      3.6491      3.6179      3.6645    
  3.7233      3.7921      3.8684      3.9499      4.0343      4.1192      4.2024      4.2813      4.3538      4.4176    
  4.4709      4.5120      4.5399      4.5540      4.5540      4.5399      4.5120      4.4709      4.4176      4.3538    
  4.2813      4.2024      4.1192      4.0343      3.9499      3.8684      3.7921      3.7233      3.6645      3.6179    
  3.5855      3.5689      3.5689      3.5855      3.5574      3.5971      3.6501      3.7145      3.7880      3.8684    
  3.9534      4.0408      4.1283      4.2135      4.2937      4.3665      4.4294      4.4803      4.5177      4.5406    
  4.5483      4.5406      4.5177      4.4803      4.4294      4.3665      4.2937      4.2135      4.1283      4.0408    
  3.9534      3.8684      3.7880      3.7145      3.6501      3.5971      3.5574      3.5329      3.5246      3.5329    
  3.5087      3.5406      3.5867      3.6454      3.7145      3.7921      3.8760      3.9640      4.0539      4.1431    
  4.2290      4.3085      4.3791      4.4384      4.4845      4.5160      4.5319      4.5319      4.5160      4.4845    
  4.4384      4.3791      4.3085      4.2290      4.1431      4.0539      3.9640      3.8760      3.7921      3.7145    
  3.6454      3.5867      3.5406      3.5087      3.4925      3.4925      3.4731      3.4967      3.5350      3.5867    
  3.6501      3.7233      3.8044      3.8911      3.9813      4.0722      4.1608      4.2441      4.3194      4.3842    
  4.4365      4.4748      4.4981      4.5060      4.4981      4.4748      4.4365      4.3842      4.3194      4.2441    
  4.1608      4.0722      3.9813      3.8911      3.8044      3.7233      3.6501      3.5867      3.5350      3.4967    
  3.4731      3.4651      3.4513      3.4666      3.4967      3.5406      3.5971      3.6645      3.7411      3.8248    
  3.9131      4.0030      4.0912      4.1746      4.2505      4.3166      4.3710      4.4124      4.4403      4.4544    
  4.4544      4.4403      4.4124      4.3710      4.3166      4.2505      4.1746      4.0912      4.0030      3.9131    
  3.8248      3.7411      3.6645      3.5971      3.5406      3.4967      3.4666      3.4513      3.4274      3.4349    
  3.4569      3.4930      3.5422      3.6032      3.6745      3.7540      3.8393      3.9272      4.0143      4.0973    
  4.1734      4.2400      4.2956      4.3390      4.3700      4.3884      4.3946      4.3884      4.3700      4.3390    
  4.2956      4.2400      4.1734      4.0973      4.0143      3.9272      3.8393      3.7540      3.6745      3.6032    
  3.5422      3.4930      3.4569      3.4349      3.4349      3.4349      3.4489      3.4768      3.5178      3.5712    
  3.6356      3.7092      3.7892      3.8720      3.9538      4.0309      4.1002      4.1595      4.2076      4.2441    
  4.2698      4.2859      4.2936      4.2936      4.2859      4.2698      4.2441      4.2076      4.1595      4.1002    
  4.0309      3.9538      3.8720      3.7892      3.7092      3.6356      3.5712      3.5178      3.4768      3.4489    
  3.4569      3.4503      3.4569      3.4768      3.5096      3.5548      3.6115      3.6779      3.7512      3.8272    
  3.9015      3.9699      4.0288      4.0759      4.1102      4.1326      4.1453      4.1511      4.1531      4.1535    
  4.1531      4.1511      4.1453      4.1326      4.1102      4.0759      4.0288      3.9699      3.9015      3.8272    
  3.7512      3.6779      3.6115      3.5548      3.5096      3.4768      3.4930      3.4806      3.4806      3.4930    
  3.5178      3.5548      3.6033      3.6619      3.7275      3.7956      3.8610      3.9188      3.9645      3.9955    
  4.0108      4.0122      4.0034      3.9897      3.9766      3.9687      3.9687      3.9766      3.9897      4.0034    
  4.0122      4.0108      3.9955      3.9645      3.9188      3.8610      3.7956      3.7275      3.6619      3.6033    
  3.5548      3.5178      3.5422      3.5248      3.5191      3.5248      3.5422      3.5712      3.6115      3.6619    
  3.7194      3.7792      3.8354      3.8819      3.9133      3.9259      3.9186      3.8935      3.8559      3.8134    
  3.7747      3.7478      3.7381      3.7478      3.7747      3.8134      3.8559      3.8935      3.9186      3.9259    
  3.9133      3.8819      3.8354      3.7792      3.7194      3.6619      3.6115      3.5712      3.6032      3.5817    
  3.5709      3.5709      3.5817      3.6032      3.6356      3.6779      3.7275      3.7792      3.8266      3.8625    
  3.8801      3.8744      3.8434      3.7890      3.7174      3.6386      3.5644      3.5069      3.4755      3.4755    
  3.5069      3.5644      3.6386      3.7174      3.7890      3.8434      3.8744      3.8801      3.8625      3.8266    
  3.7792      3.7275      3.6779      3.6356      3.6745      3.6494      3.6345      3.6295      3.6345      3.6494    
  3.6745      3.7092      3.7512      3.7956      3.8354      3.8625      3.8686      3.8471      3.7942      3.7109    
  3.6037      3.4842      3.3671      3.2687      3.2031      3.1801      3.2031      3.2687      3.3671      3.4842    
  3.6037      3.7109      3.7942      3.8471      3.8686      3.8625      3.8354      3.7956      3.7512      3.7092    
  3.7540      3.7263      3.7078      3.6986      3.6986      3.7078      3.7263      3.7540      3.7892      3.8272    
  3.8610      3.8819      3.8801      3.8471      3.7770      3.6691      3.5290      3.3687      3.2055      3.0591    
  2.9488      2.8895      2.8895      2.9488      3.0591      3.2055      3.3687      3.5290      3.6691      3.7770    
  3.8471      3.8801      3.8819      3.8610      3.8272      3.7892      3.8393      3.8103      3.7889      3.7761    
  3.7719      3.7761      3.7889      3.8103      3.8393      3.8720      3.9015      3.9188      3.9133      3.8744    
  3.7942      3.6691      3.5030      3.3069      3.0993      2.9028      2.7411      2.6347      2.5976      2.6347    
  2.7411      2.9028      3.0993      3.3069      3.5030      3.6691      3.7942      3.8744      3.9133      3.9188    
  3.9015      3.8720      3.9272      3.8992      3.8758      3.8599      3.8520      3.8520      3.8599      3.8758    
  3.8992      3.9272      3.9538      3.9699      3.9645      3.9259      3.8434      3.7109      3.5290      3.3069    
  3.0623      2.8193      2.6051      2.4453      2.3600      2.3600      2.4453      2.6051      2.8193      3.0623    
  3.3069      3.5290      3.7109      3.8434      3.9259      3.9645      3.9699      3.9538      4.0143      3.9900    
  3.9661      3.9479      3.9369      3.9332      3.9369      3.9479      3.9661      3.9900      4.0143      4.0309    
  4.0288      3.9955      3.9186      3.7890      3.6037      3.3687      3.0993      2.8193      2.5577      2.3443    
  2.2048      2.1562      2.2048      2.3443      2.5577      2.8193      3.0993      3.3687      3.6037      3.7890    
  3.9186      3.9955      4.0288      4.0309      4.0973      4.0797      4.0575      4.0377      4.0242      4.0174    
  4.0174      4.0242      4.0377      4.0575      4.0797      4.0973      4.1002      4.0759      4.0108      3.8935    
  3.7174      3.4842      3.2055      2.9028      2.6051      2.3443      2.1508      2.0477      2.0477      2.1508    
  2.3443      2.6051      2.9028      3.2055      3.4842      3.7174      3.8935      4.0108      4.0759      4.1002    
  4.1734      4.1652      4.1469      4.1271      4.1115      4.1022      4.0990      4.1022      4.1115      4.1271    
  4.1469      4.1652      4.1734      4.1595      4.1102      4.0122      3.8559      3.6386      3.3671      3.0591    
  2.7411      2.4453      2.2048      2.0477      1.9931      2.0477      2.2048      2.4453      2.7411      3.0591    
  3.3671      3.6386      3.8559      4.0122      4.1102      4.1595      4.2400      4.2437      4.2313      4.2133    
  4.1967      4.1852      4.1795      4.1795      4.1852      4.1967      4.2133      4.2313      4.2437      4.2400    
  4.2076      4.1326      4.0034      3.8134      3.5644      3.2687      2.9488      2.6347      2.3600      2.1562    
  2.0477      2.0477      2.1562      2.3600      2.6347      2.9488      3.2687      3.5644      3.8134      4.0034    
  4.1326      4.2076      4.2956      4.3125      4.3080      4.2934      4.2770      4.2642      4.2565      4.2539    
  4.2565      4.2642      4.2770      4.2934      4.3080      4.3125      4.2956      4.2441      4.1453      3.9897    
  3.7747      3.5069      3.2031      2.8895      2.5976      2.3600      2.2048      2.1508      2.2048      2.3600    
  2.5976      2.8895      3.2031      3.5069      3.7747      3.9897      4.1453      4.2441      4.3390      4.3697    
  4.3744      4.3647      4.3500      4.3367      4.3277      4.3233      4.3233      4.3277      4.3367      4.3500    
  4.3647      4.3744      4.3697      4.3390      4.2698      4.1511      3.9766      3.7478      3.4755      3.1801    
  2.8895      2.6347      2.4453      2.3443      2.3443      2.4453      2.6347      2.8895      3.1801      3.4755    
  3.7478      3.9766      4.1511      4.2698      4.3700      4.4137      4.4282      4.4248      4.4133      4.4007    
  4.3912      4.3856      4.3837      4.3856      4.3912      4.4007      4.4133      4.4248      4.4282      4.4137    
  4.3700      4.2859      4.1531      3.9687      3.7381      3.4755      3.2031      2.9488      2.7411      2.6051    
  2.5577      2.6051      2.7411      2.9488      3.2031      3.4755      3.7381      3.9687      4.1531      4.2859    
  4.3884      4.4435      4.4678      4.4717      4.4647      4.4542      4.4452      4.4393      4.4364      4.4364    
  4.4393      4.4452      4.4542      4.4647      4.4717      4.4678      4.4435      4.3884      4.2936      4.1535    
  3.9687      3.7478      3.5069      3.2687      3.0591      2.9028      2.8193      2.8193      2.9028      3.0591    
  3.2687      3.5069      3.7478      3.9687      4.1535      4.2936      4.3946      4.4585      4.4921      4.5038    
  4.5025      4.4956      4.4884      4.4831      4.4801      4.4792      4.4801      4.4831      4.4884      4.4956    
  4.5025      4.5038      4.4921      4.4585      4.3946      4.2936      4.1531      3.9766      3.7747      3.5644    
  3.3671      3.2055      3.0993      3.0623      3.0993      3.2055      3.3671      3.5644      3.7747      3.9766    
  4.1531      4.2936      4.3884      4.4585      4.5002      4.5201      4.5257      4.5238      4.5198      4.5164    
  4.5143      4.5134      4.5134      4.5143      4.5164      4.5198      4.5238      4.5257      4.5201      4.5002    
  4.4585      4.3884      4.2859      4.1511      3.9897      3.8134      3.6386      3.4842      3.3687      3.3069    
  3.3069      3.3687      3.4842      3.6386      3.8134      3.9897      4.1511      4.2859      4.3700      4.4435    
  4.4921      4.5201      4.5335      4.5381      4.5388      4.5387      4.5387      4.5389      4.5389      4.5389    
  4.5387      4.5387      4.5388      4.5381      4.5335      4.5201      4.4921      4.4435      4.3700      4.2698    
  4.1453      4.0034      3.8559      3.7174      3.6037      3.5290      3.5030      3.5290      3.6037      3.7174    
  3.8559      4.0034      4.1453      4.2698      4.3390      4.4137      4.4678      4.5038      4.5257      4.5381    
  4.5452      4.5499      4.5533      4.5556      4.5569      4.5569      4.5556      4.5533      4.5499      4.5452    
  4.5381      4.5257      4.5038      4.4678      4.4137      4.3390      4.2441      4.1326      4.0122      3.8935    
  3.7890      3.7109      3.6691      3.6691      3.7109      3.7890      3.8935      4.0122      4.1326      4.2441    
  4.2956      4.3697      4.4282      4.4717      4.5025      4.5238      4.5388      4.5499      4.5581      4.5640    
  4.5675      4.5687      4.5675      4.5640      4.5581      4.5499      4.5388      4.5238      4.5025      4.4717    
  4.4282      4.3697      4.2956      4.2076      4.1102      4.0108      3.9186      3.8434      3.7942      3.7770    
  3.7942      3.8434      3.9186      4.0108      4.1102      4.2076      4.2400      4.3125      4.3744      4.4248    
  4.4647      4.4956      4.5198      4.5387      4.5533      4.5640      4.5710      4.5745      4.5745      4.5710    
  4.5640      4.5533      4.5387      4.5198      4.4956      4.4647      4.4248      4.3744      4.3125      4.2400    
  4.1595      4.0759      3.9955      3.9259      3.8744      3.8471      3.8471      3.8744      3.9259      3.9955    
  4.0759      4.1595      4.1734      4.2437      4.3080      4.3647      4.4133      4.4542      4.4884      4.5164    
  4.5387      4.5556      4.5675      4.5745      4.5768      4.5745      4.5675      4.5556      4.5387      4.5164    
  4.4884      4.4542      4.4133      4.3647      4.3080      4.2437      4.1734      4.1002      4.0288      3.9645    
  3.9133      3.8801      3.8686      3.8801      3.9133      3.9645      4.0288      4.1002      4.0973      4.1652    
  4.2313      4.2934      4.3500      4.4007      4.4452      4.4831      4.5143      4.5389      4.5569      4.5687    
  4.5745      4.5745      4.5687      4.5569      4.5389      4.5143      4.4831      4.4452      4.4007      4.3500    
  4.2934      4.2313      4.1652      4.0973      4.0309      3.9699      3.9188      3.8819      3.8625      3.8625    
  3.8819      3.9188      3.9699      4.0309      4.0143      4.0797      4.1469      4.2133      4.2770      4.3367    
  4.3912      4.4393      4.4801      4.5134      4.5389      4.5569      4.5675      4.5710      4.5675      4.5569    
  4.5389      4.5134      4.4801      4.4393      4.3912      4.3367      4.2770      4.2133      4.1469      4.0797    
  4.0143      3.9538      3.9015      3.8610      3.8354      3.8266      3.8354      3.8610      3.9015      3.9538    
  3.9272      3.9900      4.0575      4.1271      4.1967      4.2642      4.3277      4.3856      4.4364      4.4792    
  4.5134      4.5389      4.5556      4.5640      4.5640      4.5556      4.5389      4.5134      4.4792      4.4364    
  4.3856      4.3277      4.2642      4.1967      4.1271      4.0575      3.9900      3.9272      3.8720      3.8272    
  3.7956      3.7792      3.7792      3.7956      3.8272      3.8720      3.8393      3.8992      3.9661      4.0377    
  4.1115      4.1852      4.2565      4.3233      4.3837      4.4364      4.4801      4.5143      4.5387      4.5533    
  4.5581      4.5533      4.5387      4.5143      4.4801      4.4364      4.3837      4.3233      4.2565      4.1852    
  4.1115      4.0377      3.9661      3.8992      3.8393      3.7892      3.7512      3.7275      3.7194      3.7275    
  3.7512      3.7892      3.7540      3.8103      3.8758      3.9479      4.0242      4.1022      4.1795      4.2539    
  4.3233      4.3856      4.4393      4.4831      4.5164      4.5387      4.5499      4.5499      4.5387      4.5164    
  4.4831      4.4393      4.3856      4.3233      4.2539      4.1795      4.1022      4.0242      3.9479      3.8758    
  3.8103      3.7540      3.7092      3.6779      3.6619      3.6619      3.6779      3.7092      3.6745      3.7263    
  3.7889      3.8599      3.9369      4.0174      4.0990      4.1795      4.2565      4.3277      4.3912      4.4452    
  4.4884      4.5198      4.5388      4.5452      4.5388      4.5198      4.4884      4.4452      4.3912      4.3277    
  4.2565      4.1795      4.0990      4.0174      3.9369      3.8599      3.7889      3.7263      3.6745      3.6356    
  3.6115      3.6033      3.6115      3.6356      3.6032      3.6494      3.7078      3.7761      3.8520      3.9332    
  4.0174      4.1022      4.1852      4.2642      4.3367      4.4007      4.4542      4.4956      4.5238      4.5381    
  4.5381      4.5238      4.4956      4.4542      4.4007      4.3367      4.2642      4.1852      4.1022      4.0174    
  3.9332      3.8520      3.7761      3.7078      3.6494      3.6032      3.5712      3.5548      3.5548      3.5712    
  3.5422      3.5817      3.6345      3.6986      3.7719      3.8520      3.9369      4.0242      4.1115      4.1967    
  4.2770      4.3500      4.4133      4.4647      4.5025      4.5257      4.5335      4.5257      4.5025      4.4647    
  4.4133      4.3500      4.2770      4.1967      4.1115      4.0242      3.9369      3.8520      3.7719      3.6986    
  3.6345      3.5817      3.5422      3.5178      3.5096      3.5178      3.4930      3.5248      3.5709      3.6295    
  3.6986      3.7761      3.8599      3.9479      4.0377      4.1271      4.2133      4.2934      4.3647      4.4248    
  4.4717      4.5038      4.5201      4.5201      4.5038      4.4717      4.4248      4.3647      4.2934      4.2133    
  4.1271      4.0377      3.9479      3.8599      3.7761      3.6986      3.6295      3.5709      3.5248      3.4930    
  3.4768      3.4768      3.4569      3.4806      3.5191      3.5709      3.6345      3.7078      3.7889      3.8758    
  3.9661      4.0575      4.1469      4.2313      4.3080      4.3744      4.4282      4.4678      4.4921      4.5002    
  4.4921      4.4678      4.4282      4.3744      4.3080      4.2313      4.1469      4.0575      3.9661      3.8758    
  3.7889      3.7078      3.6345      3.5709      3.5191      3.4806      3.4569      3.4489      3.4349      3.4503    
  3.4806      3.5248      3.5817      3.6494      3.7263      3.8103      3.8992      3.9900      4.0797      4.1652    
  4.2437      4.3125      4.3697      4.4137      4.4435      4.4585      4.4585      4.4435      4.4137      4.3697    
  4.3125      4.2437      4.1652      4.0797      3.9900      3.8992      3.8103      3.7263      3.6494      3.5817    
  3.5248      3.4806      3.4503      3.4349      3.4078      3.4154      3.4377      3.4743      3.5240      3.5856    
  3.6574      3.7375      3.8238      3.9134      4.0030      4.0894      4.1697      4.2411      4.3016      4.3498    
  4.3845      4.4055      4.4126      4.4055      4.3845      4.3498      4.3016      4.2411      4.1697      4.0894    
  4.0030      3.9134      3.8238      3.7375      3.6574      3.5856      3.5240      3.4743      3.4377      3.4154    
  3.4154      3.4154      3.4297      3.4581      3.4999      3.5540      3.6192      3.6938      3.7753      3.8606    
  3.9460      4.0281      4.1038      4.1704      4.2263      4.2706      4.3031      4.3242      4.3346      4.3346    
  4.3242      4.3031      4.2706      4.2263      4.1704      4.1038      4.0281      3.9460      3.8606      3.7753    
  3.6937      3.6192      3.5540      3.4999      3.4581      3.4297      3.4377      3.4309      3.4377      3.4581    
  3.4917      3.5379      3.5956      3.6634      3.7387      3.8180      3.8972      3.9724      4.0401      4.0977    
  4.1436      4.1779      4.2015      4.2163      4.2241      4.2265      4.2241      4.2163      4.2015      4.1779    
  4.1436      4.0977      4.0401      3.9724      3.8972      3.8180      3.7387      3.6634      3.5956      3.5379    
  3.4917      3.4581      3.4743      3.4614      3.4614      3.4743      3.4999      3.5379      3.5876      3.6478    
  3.7160      3.7881      3.8597      3.9261      3.9833      4.0282      4.0596      4.0780      4.0856      4.0862    
  4.0836      4.0813      4.0813      4.0836      4.0862      4.0856      4.0780      4.0596      4.0282      3.9833    
  3.9261      3.8597      3.7881      3.7160      3.6478      3.5876      3.5379      3.4999      3.5240      3.5060    
  3.5000      3.5060      3.5240      3.5540      3.5956      3.6478      3.7082      3.7727      3.8360      3.8928    
  3.9382      3.9684      3.9819      3.9795      3.9648      3.9433      3.9215      3.9055      3.8997      3.9055    
  3.9215      3.9433      3.9648      3.9795      3.9819      3.9684      3.9382      3.8928      3.8360      3.7727    
  3.7082      3.6478      3.5956      3.5540      3.5856      3.5631      3.5519      3.5519      3.5631      3.5856    
  3.6192      3.6634      3.7160      3.7727      3.8279      3.8754      3.9091      3.9244      3.9187      3.8928    
  3.8512      3.8010      3.7516      3.7122      3.6904      3.6904      3.7122      3.7516      3.8010      3.8512    
  3.8928      3.9187      3.9244      3.9091      3.8754      3.8279      3.7727      3.7160      3.6634      3.6192    
  3.6574      3.6312      3.6155      3.6103      3.6155      3.6312      3.6574      3.6937      3.7387      3.7881    
  3.8360      3.8754      3.8991      3.9010      3.8773      3.8281      3.7578      3.6751      3.5915      3.5198    
  3.4715      3.4544      3.4715      3.5198      3.5915      3.6751      3.7578      3.8281      3.8773      3.9010    
  3.8991      3.8754      3.8360      3.7881      3.7387      3.6937      3.7375      3.7084      3.6889      3.6793    
  3.6793      3.6889      3.7084      3.7375      3.7753      3.8180      3.8597      3.8928      3.9091      3.9010    
  3.8629      3.7935      3.6964      3.5806      3.4598      3.3496      3.2657      3.2203      3.2203      3.2657    
  3.3496      3.4598      3.5806      3.6964      3.7935      3.8629      3.9010      3.9091      3.8928      3.8597    
  3.8180      3.7753      3.8238      3.7928      3.7702      3.7567      3.7523      3.7567      3.7702      3.7928    
  3.8238      3.8606      3.8972      3.9261      3.9382      3.9244      3.8773      3.7935      3.6749      3.5300    
  3.3731      3.2223      3.0969      3.0139      2.9849      3.0139      3.0969      3.2223      3.3731      3.5300    
  3.6749      3.7935      3.8773      3.9244      3.9382      3.9261      3.8972      3.8606      3.9134      3.8821    
  3.8572      3.8405      3.8322      3.8322      3.8405      3.8572      3.8821      3.9134      3.9460      3.9724    
  3.9833      3.9684      3.9187      3.8281      3.6964      3.5300      3.3429      3.1541      2.9860      2.8598    
  2.7921      2.7921      2.8598      2.9860      3.1541      3.3429      3.5300      3.6964      3.8281      3.9187    
  3.9684      3.9833      3.9724      3.9460      4.0030      3.9740      3.9478      3.9285      3.9170      3.9132    
  3.9170      3.9285      3.9478      3.9740      4.0030      4.0281      4.0401      4.0282      3.9819      3.8928    
  3.7578      3.5806      3.3731      3.1541      2.9474      2.7775      2.6658      2.6268      2.6658      2.7775    
  2.9474      3.1541      3.3731      3.5806      3.7578      3.8928      3.9819      4.0282      4.0401      4.0281    
  4.0894      4.0652      4.0396      4.0185      4.0042      3.9972      3.9972      4.0042      4.0185      4.0396    
  4.0652      4.0894      4.1038      4.0977      4.0596      3.9795      3.8512      3.6751      3.4598      3.2223    
  2.9860      2.7775      2.6217      2.5385      2.5385      2.6217      2.7775      2.9860      3.2223      3.4598    
  3.6751      3.8512      3.9795      4.0596      4.0977      4.1038      4.1697      4.1529      4.1299      4.1080    
  4.0917      4.0819      4.0787      4.0819      4.0917      4.1080      4.1299      4.1529      4.1697      4.1704    
  4.1436      4.0780      3.9648      3.8010      3.5915      3.3496      3.0969      2.8598      2.6658      2.5385    
  2.4942      2.5385      2.6658      2.8598      3.0969      3.3496      3.5915      3.8010      3.9648      4.0780    
  4.1436      4.1704      4.2411      4.2339      4.2155      4.1946      4.1769      4.1651      4.1592      4.1592    
  4.1651      4.1769      4.1946      4.2155      4.2339      4.2411      4.2263      4.1779      4.0856      3.9433    
  3.7516      3.5198      3.2657      3.0139      2.7921      2.6268      2.5385      2.5385      2.6268      2.7921    
  3.0139      3.2657      3.5198      3.7516      3.9433      4.0856      4.1779      4.2263      4.3016      4.3057    
  4.2937      4.2754      4.2575      4.2443      4.2364      4.2338      4.2364      4.2443      4.2575      4.2754    
  4.2937      4.3057      4.3016      4.2706      4.2015      4.0862      3.9215      3.7122      3.4715      3.2203    
  2.9849      2.7921      2.6658      2.6217      2.6658      2.7921      2.9849      3.2203      3.4715      3.7122    
  3.9215      4.0862      4.2015      4.2706      4.3498      4.3658      4.3618      4.3475      4.3309      4.3171    
  4.3079      4.3034      4.3034      4.3079      4.3171      4.3309      4.3475      4.3618      4.3658      4.3498    
  4.3031      4.2163      4.0836      3.9055      3.6904      3.4544      3.2203      3.0139      2.8598      2.7775    
  2.7775      2.8598      3.0139      3.2203      3.4544      3.6904      3.9055      4.0836      4.2163      4.3031    
  4.3845      4.4124      4.4172      4.4086      4.3947      4.3815      4.3718      4.3662      4.3643      4.3662    
  4.3718      4.3815      4.3947      4.4086      4.4172      4.4124      4.3845      4.3242      4.2241      4.0813    
  3.8997      3.6904      3.4715      3.2657      3.0969      2.9860      2.9474      2.9860      3.0969      3.2657    
  3.4715      3.6904      3.8997      4.0813      4.2241      4.3242      4.4055      4.4441      4.4582      4.4564    
  4.4467      4.4354      4.4263      4.4204      4.4175      4.4175      4.4204      4.4263      4.4354      4.4467    
  4.4564      4.4582      4.4441      4.4055      4.3346      4.2265      4.0813      3.9055      3.7122      3.5198    
  3.3496      3.2223      3.1541      3.1541      3.2223      3.3496      3.5198      3.7122      3.9055      4.0813    
  4.2265      4.3346      4.4126      4.4602      4.4833      4.4892      4.4851      4.4772      4.4700      4.4648    
  4.4619      4.4609      4.4619      4.4648      4.4700      4.4772      4.4851      4.4892      4.4833      4.4602    
  4.4126      4.3346      4.2241      4.0836      3.9215      3.7516      3.5915      3.4598      3.3731      3.3429    
  3.3731      3.4598      3.5915      3.7516      3.9215      4.0836      4.2241      4.3346      4.4055      4.4602    
  4.4918      4.5059      4.5086      4.5058      4.5018      4.4986      4.4966      4.4957      4.4957      4.4966    
  4.4986      4.5018      4.5058      4.5086      4.5059      4.4918      4.4602      4.4055      4.3242      4.2163    
  4.0862      3.9433      3.8010      3.6751      3.5806      3.5300      3.5300      3.5806      3.6751      3.8010    
  3.9433      4.0862      4.2163      4.3242      4.3845      4.4441      4.4833      4.5059      4.5165      4.5203    
  4.5211      4.5213      4.5214      4.5216      4.5217      4.5216      4.5214      4.5213      4.5211      4.5203    
  4.5165      4.5059      4.4833      4.4441      4.3845      4.3031      4.2015      4.0856      3.9648      3.8512    
  3.7578      3.6964      3.6749      3.6964      3.7578      3.8512      3.9648      4.0856      4.2015      4.3031    
  4.3498      4.4124      4.4582      4.4892      4.5086      4.5203      4.5276      4.5327      4.5363      4.5387    
  4.5400      4.5400      4.5387      4.5363      4.5327      4.5276      4.5203      4.5086      4.4892      4.4582    
  4.4124      4.3498      4.2706      4.1779      4.0780      3.9795      3.8928      3.8281      3.7935      3.7935    
  3.8281      3.8928      3.9795      4.0780      4.1779      4.2706      4.3016      4.3658      4.4172      4.4564    
  4.4851      4.5058      4.5211      4.5327      4.5412      4.5472      4.5508      4.5520      4.5508      4.5472    
  4.5412      4.5327      4.5211      4.5058      4.4851      4.4564      4.4172      4.3658      4.3016      4.2263    
  4.1436      4.0596      3.9819      3.9187      3.8773      3.8629      3.8773      3.9187      3.9819      4.0596    
  4.1436      4.2263      4.2411      4.3057      4.3618      4.4086      4.4467      4.4772      4.5018      4.5213    
  4.5363      4.5472      4.5544      4.5579      4.5579      4.5544      4.5472      4.5363      4.5213      4.5018    
  4.4772      4.4467      4.4086      4.3618      4.3057      4.2411      4.1704      4.0977      4.0282      3.9684    
  3.9244      3.9010      3.9010      3.9244      3.9684      4.0282      4.0977      4.1704      4.1697      4.2339    
  4.2937      4.3475      4.3947      4.4354      4.4700      4.4986      4.5214      4.5387      4.5508      4.5579    
  4.5603      4.5579      4.5508      4.5387      4.5214      4.4986      4.4700      4.4354      4.3947      4.3475    
  4.2937      4.2339      4.1697      4.1038      4.0401      3.9833      3.9382      3.9091      3.8991      3.9091    
  3.9382      3.9833      4.0401      4.1038      4.0894      4.1529      4.2155      4.2754      4.3309      4.3815    
  4.4263      4.4648      4.4966      4.5216      4.5400      4.5520      4.5579      4.5579      4.5520      4.5400    
  4.5216      4.4966      4.4648      4.4263      4.3815      4.3309      4.2754      4.2155      4.1529      4.0894    
  4.0281      3.9724      3.9261      3.8928      3.8754      3.8754      3.8928      3.9261      3.9724      4.0281    
  4.0030      4.0652      4.1299      4.1946      4.2575      4.3171      4.3718      4.4204      4.4619      4.4957    
  4.5217      4.5400      4.5508      4.5544      4.5508      4.5400      4.5217      4.4957      4.4619      4.4204    
  4.3718      4.3171      4.2575      4.1946      4.1299      4.0652      4.0030      3.9460      3.8972      3.8597    
  3.8360      3.8279      3.8360      3.8597      3.8972      3.9460      3.9134      3.9740      4.0396      4.1080    
  4.1769      4.2443      4.3079      4.3662      4.4175      4.4609      4.4957      4.5216      4.5387      4.5472    
  4.5472      4.5387      4.5216      4.4957      4.4609      4.4175      4.3662      4.3079      4.2443      4.1769    
  4.1080      4.0396      3.9740      3.9134      3.8606      3.8180      3.7881      3.7727      3.7727      3.7881    
  3.8180      3.8606      3.8238      3.8821      3.9478      4.0185      4.0917      4.1651      4.2364      4.3034    
  4.3643      4.4175      4.4619      4.4966      4.5214      4.5363      4.5412      4.5363      4.5214      4.4966    
  4.4619      4.4175      4.3643      4.3034      4.2364      4.1651      4.0917      4.0185      3.9478      3.8821    
  3.8238      3.7753      3.7387      3.7160      3.7082      3.7160      3.7387      3.7753      3.7375      3.7928    
  3.8572      3.9285      4.0042      4.0819      4.1592      4.2338      4.3034      4.3662      4.4204      4.4648    
  4.4986      4.5213      4.5327      4.5327      4.5213      4.4986      4.4648      4.4204      4.3662      4.3034    
  4.2338      4.1592      4.0819      4.0042      3.9285      3.8572      3.7928      3.7375      3.6937      3.6634    
  3.6478      3.6478      3.6634      3.6938      3.6574      3.7084      3.7702      3.8405      3.9170      3.9972    
  4.0787      4.1592      4.2364      4.3079      4.3718      4.4263      4.4700      4.5018      4.5211      4.5276    
  4.5211      4.5018      4.4700      4.4263      4.3718      4.3079      4.2364      4.1592      4.0787      3.9972    
  3.9170      3.8405      3.7702      3.7084      3.6574      3.6192      3.5956      3.5876      3.5956      3.6192    
  3.5856      3.6312      3.6889      3.7567      3.8322      3.9132      3.9972      4.0819      4.1651      4.2443    
  4.3171      4.3815      4.4354      4.4772      4.5058      4.5203      4.5203      4.5058      4.4772      4.4354    
  4.3815      4.3171      4.2443      4.1651      4.0819      3.9972      3.9132      3.8322      3.7567      3.6889    
  3.6312      3.5856      3.5540      3.5379      3.5379      3.5540      3.5240      3.5631      3.6155      3.6793    
  3.7523      3.8322      3.9170      4.0042      4.0917      4.1769      4.2575      4.3309      4.3947      4.4467    
  4.4851      4.5086      4.5165      4.5086      4.4851      4.4467      4.3947      4.3309      4.2575      4.1769    
  4.0917      4.0042      3.9170      3.8322      3.7523      3.6793      3.6155      3.5631      3.5240      3.4999    
  3.4917      3.4999      3.4743      3.5060      3.5519      3.6103      3.6793      3.7567      3.8405      3.9285    
  4.0185      4.1080      4.1946      4.2754      4.3475      4.4086      4.4564      4.4892      4.5059      4.5059    
  4.4892      4.4564      4.4086      4.3475      4.2754      4.1946      4.1080      4.0185      3.9285      3.8405    
  3.7567      3.6793      3.6103      3.5519      3.5060      3.4743      3.4581      3.4581      3.4377      3.4614    
  3.5000      3.5519      3.6155      3.6889      3.7702      3.8572      3.9478      4.0396      4.1299      4.2155    
  4.2937      4.3618      4.4172      4.4582      4.4833      4.4918      4.4833      4.4582      4.4172      4.3618    
  4.2937      4.2155      4.1299      4.0396      3.9478      3.8572      3.7702      3.6889      3.6155      3.5519    
  3.5000      3.4614      3.4377      3.4297      3.4154      3.4309      3.4614      3.5060      3.5631      3.6312    
  3.7084      3.7928      3.8821      3.9740      4.0652      4.1529      4.2339      4.3057      4.3658      4.4124    
  4.4441      4.4602      4.4602      4.4441      4.4124      4.3658      4.3057      4.2339      4.1529      4.0652    
  3.9740      3.8821      3.7928      3.7084      3.6312      3.5631      3.5060      3.4614      3.4309      3.4154    
  3.3862      3.3938      3.4164      3.4534      3.5037      3.5658      3.6382      3.7190      3.8061      3.8972    
  3.9891      4.0787      4.1628      4.2387      4.3039      4.3564      4.3947      4.4181      4.4259      4.4181    
  4.3947      4.3564      4.3039      4.2387      4.1628      4.0787      3.9891      3.8972      3.8061      3.7190    
  3.6382      3.5658      3.5037      3.4534      3.4164      3.3938      3.3938      3.3938      3.4084      3.4374    
  3.4798      3.5348      3.6008      3.6763      3.7591      3.8466      3.9354      4.0222      4.1037      4.1772    
  4.2405      4.2921      4.3309      4.3568      4.3698      4.3698      4.3568      4.3309      4.2921      4.2405    
  4.1772      4.1037      4.0222      3.9354      3.8466      3.7591      3.6763      3.6008      3.5348      3.4798    
  3.4374      3.4084      3.4164      3.4094      3.4164      3.4374      3.4718      3.5189      3.5778      3.6468    
  3.7239      3.8062      3.8900      3.9715      4.0474      4.1148      4.1718      4.2174      4.2514      4.2747    
  4.2880      4.2924      4.2880      4.2747      4.2514      4.2174      4.1718      4.1148      4.0474      3.9715    
  3.8900      3.8062      3.7239      3.6468      3.5778      3.5189      3.4718      3.4374      3.4534      3.4401    
  3.4401      3.4534      3.4798      3.5189      3.5700      3.6317      3.7021      3.7780      3.8552      3.9298    
  3.9977      4.0559      4.1026      4.1372      4.1606      4.1749      4.1825      4.1856      4.1856      4.1825    
  4.1749      4.1606      4.1372      4.1026      4.0559      3.9977      3.9298      3.8552      3.7780      3.7021    
  3.6317      3.5700      3.5189      3.4798      3.5037      3.4849      3.4786      3.4849      3.5037      3.5348    
  3.5778      3.6317      3.6947      3.7634      3.8335      3.9000      3.9585      4.0056      4.0389      4.0584    
  4.0659      4.0647      4.0594      4.0541      4.0520      4.0541      4.0594      4.0647      4.0659      4.0584    
  4.0389      4.0056      3.9585      3.9000      3.8335      3.7634      3.6947      3.6317      3.5778      3.5348    
  3.5658      3.5423      3.5305      3.5305      3.5423      3.5658      3.6008      3.6468      3.7021      3.7634    
  3.8260      3.8844      3.9334      3.9686      3.9873      3.9892      3.9766      3.9546      3.9294      3.9078    
  3.8954      3.8954      3.9078      3.9294      3.9546      3.9766      3.9892      3.9873      3.9686      3.9334    
  3.8844      3.8260      3.7634      3.7021      3.6468      3.6008      3.6382      3.6107      3.5942      3.5887    
  3.5942      3.6107      3.6382      3.6763      3.7239      3.7780      3.8335      3.8844      3.9248      3.9491    
  3.9536      3.9375      3.9033      3.8567      3.8061      3.7610      3.7298      3.7187      3.7298      3.7610    
  3.8061      3.8567      3.9032      3.9375      3.9536      3.9491      3.9248      3.8844      3.8335      3.7780    
  3.7239      3.6763      3.7190      3.6883      3.6678      3.6576      3.6576      3.6678      3.6883      3.7190    
  3.7591      3.8062      3.8552      3.9000      3.9334      3.9491      3.9419      3.9099      3.8549      3.7832    
  3.7043      3.6303      3.5729      3.5415      3.5415      3.5729      3.6303      3.7043      3.7832      3.8549    
  3.9099      3.9419      3.9491      3.9334      3.9000      3.8552      3.8062      3.7591      3.8061      3.7731    
  3.7492      3.7350      3.7303      3.7350      3.7492      3.7731      3.8061      3.8466      3.8900      3.9298    
  3.9585      3.9686      3.9536      3.9099      3.8380      3.7437      3.6372      3.5321      3.4433      3.3839    
  3.3631      3.3839      3.4433      3.5321      3.6372      3.7437      3.8380      3.9099      3.9536      3.9686    
  3.9585      3.9298      3.8900      3.8466      3.8972      3.8630      3.8365      3.8188      3.8101      3.8101    
  3.8188      3.8365      3.8630      3.8972      3.9354      3.9715      3.9977      4.0056      3.9873      3.9375    
  3.8549      3.7437      3.6137      3.4795      3.3579      3.2657      3.2160      3.2160      3.2657      3.3579    
  3.4795      3.6137      3.7437      3.8549      3.9375      3.9873      4.0056      3.9977      3.9715      3.9354    
  3.9891      3.9557      3.9275      3.9070      3.8949      3.8908      3.8949      3.9070      3.9275      3.9557    
  3.9891      4.0222      4.0474      4.0559      4.0389      3.9892      3.9032      3.7832      3.6372      3.4795    
  3.3281      3.2023      3.1191      3.0899      3.1191      3.2023      3.3281      3.4795      3.6372      3.7832    
  3.9032      3.9892      4.0389      4.0559      4.0474      4.0222      4.0787      4.0484      4.0198      3.9973    
  3.9823      3.9749      3.9749      3.9823      3.9973      4.0198      4.0484      4.0787      4.1037      4.1148    
  4.1026      4.0584      3.9766      3.8567      3.7043      3.5321      3.3579      3.2023      3.0852      3.0224    
  3.0224      3.0852      3.2023      3.3579      3.5321      3.7043      3.8567      3.9766      4.0584      4.1026    
  4.1148      4.1037      4.1628      4.1380      4.1109      4.0872      4.0700      4.0598      4.0565      4.0598    
  4.0700      4.0872      4.1109      4.1380      4.1628      4.1772      4.1718      4.1372      4.0659      3.9546    
  3.8061      3.6303      3.4433      3.2657      3.1191      3.0224      2.9886      3.0224      3.1191      3.2657    
  3.4433      3.6303      3.8061      3.9546      4.0659      4.1372      4.1718      4.1772      4.2387      4.2215    
  4.1977      4.1743      4.1557      4.1434      4.1373      4.1373      4.1434      4.1557      4.1743      4.1977    
  4.2215      4.2387      4.2405      4.2174      4.1606      4.0647      3.9294      3.7610      3.5729      3.3839    
  3.2160      3.0899      3.0224      3.0224      3.0899      3.2160      3.3839      3.5729      3.7610      3.9294    
  4.0647      4.1606      4.2174      4.2405      4.3039      4.2960      4.2774      4.2558      4.2368      4.2230    
  4.2149      4.2123      4.2149      4.2230      4.2368      4.2558      4.2774      4.2960      4.3039      4.2921    
  4.2514      4.1749      4.0594      3.9078      3.7298      3.5415      3.3631      3.2160      3.1191      3.0852    
  3.1191      3.2160      3.3631      3.5415      3.7298      3.9078      4.0594      4.1749      4.2514      4.2921    
  4.3564      4.3588      4.3470      4.3288      4.3107      4.2965      4.2871      4.2825      4.2825      4.2871    
  4.2965      4.3107      4.3288      4.3470      4.3588      4.3564      4.3309      4.2747      4.1825      4.0541    
  3.8954      3.7187      3.5415      3.3839      3.2657      3.2023      3.2023      3.2657      3.3839      3.5415    
  3.7187      3.8954      4.0541      4.1825      4.2747      4.3309      4.3947      4.4078      4.4039      4.3908    
  4.3751      4.3615      4.3517      4.3459      4.3441      4.3459      4.3517      4.3615      4.3751      4.3908    
  4.4039      4.4078      4.3947      4.3568      4.2880      4.1856      4.0520      3.8954      3.7298      3.5729    
  3.4433      3.3579      3.3281      3.3579      3.4433      3.5729      3.7298      3.8954      4.0520      4.1856    
  4.2880      4.3568      4.4181      4.4414      4.4462      4.4395      4.4277      4.4160      4.4069      4.4009    
  4.3981      4.3981      4.4009      4.4069      4.4160      4.4277      4.4395      4.4462      4.4414      4.4181    
  4.3698      4.2924      4.1856      4.0541      3.9078      3.7610      3.6303      3.5321      3.4795      3.4795    
  3.5321      3.6303      3.7610      3.9078      4.0541      4.1856      4.2924      4.3698      4.4259      4.4585    
  4.4722      4.4730      4.4667      4.4584      4.4513      4.4462      4.4432      4.4423      4.4432      4.4462    
  4.4513      4.4584      4.4667      4.4730      4.4722      4.4585      4.4259      4.3698      4.2880      4.1825    
  4.0594      3.9294      3.8061      3.7043      3.6372      3.6137      3.6372      3.7043      3.8061      3.9294    
  4.0594      4.1825      4.2880      4.3698      4.4181      4.4585      4.4810      4.4900      4.4906      4.4874    
  4.4837      4.4807      4.4787      4.4778      4.4778      4.4787      4.4807      4.4837      4.4874      4.4906    
  4.4900      4.4810      4.4585      4.4181      4.3568      4.2747      4.1749      4.0647      3.9546      3.8567    
  3.7832      3.7437      3.7437      3.7832      3.8567      3.9546      4.0647      4.1749      4.2747      4.3568    
  4.3947      4.4414      4.4722      4.4900      4.4987      4.5022      4.5034      4.5039      4.5042      4.5044    
  4.5045      4.5044      4.5042      4.5039      4.5034      4.5022      4.4987      4.4900      4.4722      4.4414    
  4.3947      4.3309      4.2514      4.1606      4.0659      3.9766      3.9032      3.8549      3.8380      3.8549    
  3.9033      3.9766      4.0659      4.1606      4.2514      4.3309      4.3564      4.4078      4.4462      4.4730    
  4.4906      4.5022      4.5100      4.5156      4.5194      4.5220      4.5232      4.5232      4.5220      4.5194    
  4.5156      4.5100      4.5022      4.4906      4.4730      4.4462      4.4078      4.3564      4.2921      4.2174    
  4.1372      4.0584      3.9892      3.9375      3.9099      3.9099      3.9375      3.9892      4.0584      4.1372    
  4.2174      4.2921      4.3039      4.3588      4.4039      4.4395      4.4667      4.4874      4.5034      4.5156    
  4.5245      4.5307      4.5344      4.5356      4.5344      4.5307      4.5245      4.5156      4.5034      4.4874    
  4.4667      4.4395      4.4039      4.3588      4.3039      4.2405      4.1718      4.1026      4.0389      3.9873    
  3.9536      3.9419      3.9536      3.9873      4.0389      4.1026      4.1718      4.2405      4.2387      4.2960    
  4.3470      4.3908      4.4277      4.4584      4.4837      4.5039      4.5194      4.5307      4.5380      4.5416    
  4.5416      4.5380      4.5307      4.5194      4.5039      4.4837      4.4584      4.4277      4.3908      4.3470    
  4.2960      4.2387      4.1772      4.1148      4.0559      4.0056      3.9686      3.9491      3.9491      3.9686    
  4.0056      4.0559      4.1148      4.1772      4.1628      4.2215      4.2774      4.3288      4.3751      4.4160    
  4.4513      4.4807      4.5042      4.5220      4.5344      4.5416      4.5440      4.5416      4.5344      4.5220    
  4.5042      4.4807      4.4513      4.4160      4.3751      4.3288      4.2774      4.2215      4.1628      4.1037    
  4.0474      3.9977      3.9585      3.9334      3.9248      3.9334      3.9585      3.9977      4.0474      4.1037    
  4.0787      4.1380      4.1977      4.2558      4.3107      4.3615      4.4069      4.4462      4.4787      4.5044    
  4.5232      4.5356      4.5416      4.5416      4.5356      4.5232      4.5044      4.4787      4.4462      4.4069    
  4.3615      4.3107      4.2558      4.1977      4.1380      4.0787      4.0222      3.9715      3.9298      3.9000    
  3.8844      3.8844      3.9000      3.9298      3.9715      4.0222      3.9891      4.0484      4.1109      4.1743    
  4.2368      4.2965      4.3517      4.4009      4.4432      4.4778      4.5045      4.5232      4.5344      4.5380    
  4.5344      4.5232      4.5045      4.4778      4.4432      4.4009      4.3517      4.2965      4.2368      4.1743    
  4.1109      4.0484      3.9891      3.9354      3.8900      3.8552      3.8335      3.8260      3.8335      3.8552    
  3.8900      3.9354      3.8972      3.9557      4.0198      4.0872      4.1557      4.2230      4.2871      4.3459    
  4.3981      4.4423      4.4778      4.5044      4.5220      4.5307      4.5307      4.5220      4.5044      4.4778    
  4.4423      4.3981      4.3459      4.2871      4.2230      4.1557      4.0872      4.0198      3.9557      3.8972    
  3.8466      3.8062      3.7780      3.7634      3.7634      3.7780      3.8062      3.8466      3.8061      3.8630    
  3.9275      3.9973      4.0700      4.1434      4.2149      4.2825      4.3441      4.3981      4.4432      4.4787    
  4.5042      4.5194      4.5245      4.5194      4.5042      4.4787      4.4432      4.3981      4.3441      4.2825    
  4.2149      4.1434      4.0700      3.9973      3.9275      3.8630      3.8061      3.7591      3.7239      3.7021    
  3.6947      3.7021      3.7239      3.7591      3.7190      3.7731      3.8365      3.9070      3.9823      4.0598    
  4.1373      4.2123      4.2825      4.3459      4.4009      4.4462      4.4807      4.5039      4.5156      4.5156    
  4.5039      4.4807      4.4462      4.4009      4.3459      4.2825      4.2123      4.1373      4.0598      3.9823    
  3.9070      3.8365      3.7731      3.7190      3.6763      3.6468      3.6317      3.6317      3.6468      3.6763    
  3.6382      3.6883      3.7492      3.8188      3.8949      3.9749      4.0565      4.1373      4.2149      4.2871    
  4.3517      4.4069      4.4513      4.4837      4.5034      4.5100      4.5034      4.4837      4.4513      4.4069    
  4.3517      4.2871      4.2149      4.1373      4.0565      3.9749      3.8949      3.8188      3.7492      3.6883    
  3.6382      3.6008      3.5778      3.5700      3.5778      3.6008      3.5658      3.6107      3.6678      3.7350    
  3.8101      3.8908      3.9749      4.0598      4.1434      4.2230      4.2965      4.3615      4.4160      4.4584    
  4.4874      4.5022      4.5022      4.4874      4.4584      4.4160      4.3615      4.2965      4.2230      4.1434    
  4.0598      3.9749      3.8908      3.8101      3.7350      3.6678      3.6107      3.5658      3.5348      3.5189    
  3.5189      3.5348      3.5037      3.5423      3.5942      3.6576      3.7303      3.8101      3.8949      3.9823    
  4.0700      4.1557      4.2368      4.3107      4.3751      4.4277      4.4667      4.4906      4.4987      4.4906    
  4.4667      4.4277      4.3751      4.3107      4.2368      4.1557      4.0700      3.9823      3.8949      3.8101    
  3.7303      3.6576      3.5942      3.5423      3.5037      3.4798      3.4718      3.4798      3.4534      3.4849    
  3.5305      3.5887      3.6576      3.7350      3.8188      3.9070      3.9973      4.0872      4.1743      4.2558    
  4.3288      4.3908      4.4395      4.4730      4.4900      4.4900      4.4730      4.4395      4.3908      4.3288    
  4.2558      4.1743      4.0872      3.9973      3.9070      3.8188      3.7350      3.6576      3.5887      3.5305    
  3.4849      3.4534      3.4374      3.4374      3.4164      3.4401      3.4786      3.5305      3.5942      3.6678    
  3.7492      3.8365      3.9275      4.0198      4.1109      4.1977      4.2774      4.3470      4.4039      4.4462    
  4.4722      4.4810      4.4722      4.4462      4.4039      4.3470      4.2774      4.1977      4.1109      4.0198    
  3.9275      3.8365      3.7492      3.6678      3.5942      3.5305      3.4786      3.4401      3.4164      3.4084    
  3.3938      3.4094      3.4401      3.4849      3.5423      3.6107      3.6883      3.7731      3.8630      3.9557    
  4.0484      4.1380      4.2215      4.2960      4.3588      4.4078      4.4414      4.4585      4.4585      4.4414    
  4.4078      4.3588      4.2960      4.2215      4.1380      4.0484      3.9557      3.8630      3.7731      3.6883    
  3.6107      3.5423      3.4849      3.4401      3.4094      3.3938      3.3634      3.3711      3.3940      3.4314    
  3.4821      3.5448      3.6178      3.6993      3.7873      3.8796      3.9735      4.0657      4.1532      4.2328    
  4.3019      4.3580      4.3994      4.4247      4.4332      4.4247      4.3994      4.3580      4.3019      4.2328    
  4.1532      4.0657      3.9735      3.8796      3.7873      3.6993      3.6178      3.5448      3.4821      3.4314    
  3.3940      3.3711      3.3711      3.3711      3.3860      3.4155      3.4586      3.5144      3.5813      3.6576    
  3.7416      3.8309      3.9225      4.0132      4.0997      4.1791      4.2487      4.3064      4.3508      4.3807    
  4.3958      4.3958      4.3807      4.3508      4.3064      4.2487      4.1791      4.0997      4.0132      3.9225    
  3.8309      3.7416      3.6576      3.5813      3.5144      3.4586      3.4155      3.3860      3.3940      3.3868    
  3.3940      3.4155      3.4507      3.4988      3.5587      3.6289      3.7076      3.7923      3.8798      3.9667    
  4.0497      4.1256      4.1921      4.2474      4.2905      4.3211      4.3393      4.3454      4.3393      4.3211    
  4.2905      4.2474      4.1921      4.1256      4.0497      3.9667      3.8798      3.7923      3.7076      3.6289    
  3.5587      3.4988      3.4507      3.4155      3.4314      3.4176      3.4176      3.4314      3.4586      3.4988    
  3.5511      3.6143      3.6866      3.7655      3.8475      3.9289      4.0061      4.0759      4.1358      4.1846    
  4.2219      4.2482      4.2648      4.2727      4.2727      4.2648      4.2482      4.2219      4.1846      4.1358    
  4.0759      4.0061      3.9289      3.8475      3.7655      3.6866      3.6143      3.5511      3.4988      3.4586    
  3.4821      3.4626      3.4561      3.4626      3.4821      3.5144      3.5587      3.6143      3.6794      3.7517    
  3.8273      3.9021      3.9721      4.0337      4.0845      4.1233      4.1503      4.1673      4.1767      4.1810    
  4.1822      4.1810      4.1767      4.1673      4.1503      4.1233      4.0845      4.0337      3.9721      3.9021    
  3.8273      3.7517      3.6794      3.6143      3.5587      3.5144      3.5448      3.5203      3.5080      3.5080    
  3.5203      3.5448      3.5813      3.6289      3.6866      3.7517      3.8205      3.8882      3.9504      4.0031    
  4.0432      4.0696      4.0830      4.0861      4.0827      4.0773      4.0735      4.0735      4.0773      4.0827    
  4.0861      4.0830      4.0696      4.0432      4.0031      3.9504      3.8882      3.8205      3.7517      3.6866    
  3.6289      3.5813      3.6178      3.5890      3.5717      3.5659      3.5717      3.5890      3.6178      3.6576    
  3.7076      3.7655      3.8273      3.8882      3.9430      3.9869      4.0163      4.0296      4.0276      4.0136    
  3.9930      3.9720      3.9566      3.9510      3.9566      3.9720      3.9930      4.0136      4.0276      4.0296    
  4.0163      3.9869      3.9430      3.8882      3.8273      3.7655      3.7076      3.6576      3.6993      3.6670    
  3.6454      3.6346      3.6346      3.6454      3.6670      3.6993      3.7416      3.7923      3.8475      3.9021    
  3.9504      3.9869      4.0069      4.0082      3.9911      3.9591      3.9186      3.8777      3.8446      3.8261    
  3.8261      3.8446      3.8777      3.9186      3.9591      3.9911      4.0082      4.0069      3.9869      3.9504    
  3.9021      3.8475      3.7923      3.7416      3.7873      3.7524      3.7272      3.7121      3.7071      3.7121    
  3.7272      3.7524      3.7873      3.8309      3.8798      3.9289      3.9721      4.0031      4.0163      4.0082    
  3.9783      3.9298      3.8694      3.8064      3.7514      3.7140      3.7007      3.7140      3.7514      3.8064    
  3.8694      3.9298      3.9783      4.0082      4.0163      4.0031      3.9721      3.9289      3.8798      3.8309    
  3.8796      3.8429      3.8149      3.7962      3.7869      3.7869      3.7962      3.8149      3.8429      3.8796    
  3.9225      3.9667      4.0061      4.0337      4.0432      4.0296      3.9911      3.9298      3.8521      3.7681    
  3.6897      3.6292      3.5962      3.5962      3.6292      3.6897      3.7681      3.8521      3.9298      3.9911    
  4.0296      4.0432      4.0337      4.0061      3.9667      3.9225      3.9735      3.9365      3.9064      3.8848    
  3.8719      3.8676      3.8719      3.8848      3.9064      3.9365      3.9735      4.0132      4.0497      4.0759    
  4.0845      4.0696      4.0276      3.9591      3.8694      3.7681      3.6681      3.5836      3.5270      3.5071    
  3.5270      3.5836      3.6681      3.7681      3.8694      3.9591      4.0276      4.0696      4.0845      4.0759    
  4.0497      4.0132      4.0657      4.0305      3.9994      3.9756      3.9597      3.9519      3.9519      3.9597    
  3.9756      3.9994      4.0305      4.0657      4.0997      4.1256      4.1358      4.1233      4.0830      4.0136    
  3.9186      3.8064      3.6897      3.5836      3.5027      3.4591      3.4591      3.5027      3.5836      3.6897    
  3.8064      3.9186      4.0136      4.0830      4.1233      4.1358      4.1256      4.0997      4.1532      4.1218    
  4.0913      4.0661      4.0481      4.0373      4.0338      4.0373      4.0481      4.0661      4.0913      4.1218    
  4.1532      4.1791      4.1921      4.1846      4.1503      4.0861      3.9930      3.8777      3.7514      3.6292    
  3.5270      3.4591      3.4352      3.4591      3.5270      3.6292      3.7514      3.8777      3.9930      4.0861    
  4.1503      4.1846      4.1921      4.1791      4.2328      4.2073      4.1792      4.1539      4.1344      4.1215    
  4.1151      4.1151      4.1215      4.1344      4.1539      4.1792      4.2073      4.2328      4.2487      4.2474    
  4.2219      4.1673      4.0827      3.9720      3.8446      3.7140      3.5962      3.5071      3.4591      3.4591    
  3.5071      3.5962      3.7140      3.8446      3.9720      4.0827      4.1673      4.2219      4.2474      4.2487    
  4.3019      4.2840      4.2601      4.2361      4.2162      4.2019      4.1935      4.1907      4.1935      4.2019    
  4.2162      4.2361      4.2601      4.2840      4.3019      4.3064      4.2905      4.2482      4.1767      4.0773    
  3.9566      3.8261      3.7007      3.5962      3.5270      3.5027      3.5270      3.5962      3.7007      3.8261    
  3.9566      4.0773      4.1767      4.2482      4.2905      4.3064      4.3580      4.3491      4.3310      4.3100    
  4.2909      4.2762      4.2665      4.2617      4.2617      4.2665      4.2762      4.2909      4.3100      4.3310    
  4.3491      4.3580      4.3508      4.3211      4.2648      4.1810      4.0735      3.9510      3.8261      3.7140    
  3.6292      3.5836      3.5836      3.6292      3.7140      3.8261      3.9510      4.0735      4.1810      4.2648    
  4.3211      4.3508      4.3994      4.4001      4.3893      4.3728      4.3560      4.3421      4.3321      4.3262    
  4.3242      4.3262      4.3321      4.3421      4.3560      4.3728      4.3893      4.4001      4.3994      4.3807    
  4.3393      4.2727      4.1822      4.0735      3.9566      3.8446      3.7514      3.6897      3.6681      3.6897    
  3.7514      3.8446      3.9566      4.0735      4.1822      4.2727      4.3393      4.3807      4.4247      4.4352    
  4.4326      4.4222      4.4093      4.3974      4.3882      4.3822      4.3792      4.3792      4.3822      4.3882    
  4.3974      4.4093      4.4222      4.4326      4.4352      4.4247      4.3958      4.3454      4.2727      4.1810    
  4.0773      3.9720      3.8777      3.8064      3.7681      3.7681      3.8064      3.8777      3.9720      4.0773    
  4.1810      4.2727      4.3454      4.3958      4.4332      4.4531      4.4593      4.4563      4.4488      4.4406    
  4.4335      4.4284      4.4254      4.4244      4.4254      4.4284      4.4335      4.4406      4.4488      4.4563    
  4.4593      4.4531      4.4332      4.3958      4.3393      4.2648      4.1767      4.0827      3.9930      3.9186    
  3.8694      3.8521      3.8694      3.9186      3.9930      4.0827      4.1767      4.2648      4.3393      4.3958    
  4.4247      4.4531      4.4683      4.4737      4.4731      4.4701      4.4667      4.4638      4.4619      4.4609    
  4.4609      4.4619      4.4638      4.4667      4.4701      4.4731      4.4737      4.4683      4.4531      4.4247    
  4.3807      4.3211      4.2482      4.1673      4.0861      4.0136      3.9591      3.9298      3.9298      3.9591    
  4.0136      4.0861      4.1673      4.2482      4.3211      4.3807      4.3994      4.4352      4.4593      4.4737    
  4.4813      4.4851      4.4869      4.4877      4.4881      4.4883      4.4884      4.4883      4.4881      4.4877    
  4.4869      4.4851      4.4813      4.4737      4.4593      4.4352      4.3994      4.3508      4.2905      4.2219    
  4.1503      4.0830      4.0276      3.9911      3.9783      3.9911      4.0276      4.0830      4.1503      4.2219    
  4.2905      4.3508      4.3580      4.4001      4.4326      4.4563      4.4731      4.4851      4.4937      4.4997    
  4.5039      4.5065      4.5077      4.5077      4.5065      4.5039      4.4998      4.4937      4.4851      4.4731    
  4.4563      4.4326      4.4001      4.3580      4.3064      4.2474      4.1846      4.1233      4.0696      4.0296    
  4.0082      4.0082      4.0296      4.0696      4.1233      4.1846      4.2474      4.3064      4.3019      4.3491    
  4.3893      4.4222      4.4488      4.4701      4.4869      4.4997      4.5092      4.5155      4.5192      4.5204    
  4.5192      4.5155      4.5092      4.4998      4.4869      4.4701      4.4488      4.4222      4.3893      4.3491    
  4.3019      4.2487      4.1921      4.1358      4.0845      4.0432      4.0163      4.0069      4.0163      4.0432    
  4.0845      4.1358      4.1921      4.2487      4.2328      4.2840      4.3310      4.3728      4.4093      4.4406    
  4.4667      4.4877      4.5039      4.5155      4.5230      4.5267      4.5267      4.5230      4.5155      4.5039    
  4.4877      4.4667      4.4406      4.4093      4.3728      4.3310      4.2840      4.2328      4.1791      4.1256    
  4.0759      4.0337      4.0031      3.9869      3.9869      4.0031      4.0337      4.0759      4.1256      4.1791    
  4.1532      4.2073      4.2601      4.3100      4.3560      4.3974      4.4335      4.4638      4.4881      4.5065    
  4.5192      4.5267      4.5292      4.5267      4.5192      4.5065      4.4881      4.4638      4.4335      4.3974    
  4.3560      4.3100      4.2601      4.2073      4.1532      4.0997      4.0497      4.0061      3.9721      3.9504    
  3.9430      3.9504      3.9721      4.0061      4.0497      4.0997      4.0657      4.1218      4.1792      4.2361    
  4.2909      4.3421      4.3882      4.4284      4.4619      4.4883      4.5077      4.5204      4.5267      4.5267    
  4.5204      4.5077      4.4883      4.4619      4.4284      4.3882      4.3421      4.2909      4.2361      4.1792    
  4.1218      4.0657      4.0132      3.9667      3.9289      3.9021      3.8882      3.8882      3.9021      3.9289    
  3.9667      4.0132      3.9735      4.0305      4.0913      4.1539      4.2162      4.2762      4.3321      4.3822    
  4.4254      4.4609      4.4884      4.5077      4.5192      4.5230      4.5192      4.5077      4.4884      4.4609    
  4.4254      4.3822      4.3321      4.2762      4.2162      4.1539      4.0913      4.0305      3.9735      3.9225    
  3.8798      3.8475      3.8273      3.8205      3.8273      3.8475      3.8798      3.9225      3.8796      3.9365    
  3.9994      4.0661      4.1344      4.2019      4.2665      4.3262      4.3792      4.4244      4.4609      4.4883    
  4.5065      4.5155      4.5155      4.5065      4.4883      4.4609      4.4244      4.3792      4.3262      4.2665    
  4.2019      4.1344      4.0661      3.9994      3.9365      3.8796      3.8309      3.7923      3.7655      3.7517    
  3.7517      3.7655      3.7923      3.8309      3.7873      3.8429      3.9064      3.9756      4.0481      4.1215    
  4.1935      4.2617      4.3242      4.3792      4.4254      4.4619      4.4881      4.5039      4.5092      4.5039    
  4.4881      4.4619      4.4254      4.3792      4.3242      4.2617      4.1935      4.1215      4.0481      3.9756    
  3.9064      3.8429      3.7873      3.7416      3.7076      3.6866      3.6794      3.6866      3.7076      3.7416    
  3.6993      3.7524      3.8149      3.8848      3.9597      4.0373      4.1151      4.1907      4.2617      4.3262    
  4.3822      4.4284      4.4638      4.4877      4.4997      4.4997      4.4877      4.4638      4.4284      4.3822    
  4.3262      4.2617      4.1907      4.1151      4.0373      3.9597      3.8848      3.8149      3.7524      3.6993    
  3.6576      3.6289      3.6143      3.6143      3.6289      3.6576      3.6178      3.6670      3.7272      3.7962    
  3.8719      3.9519      4.0338      4.1151      4.1935      4.2665      4.3321      4.3882      4.4335      4.4667    
  4.4869      4.4937      4.4869      4.4667      4.4335      4.3882      4.3321      4.2665      4.1935      4.1151    
  4.0338      3.9519      3.8719      3.7962      3.7272      3.6670      3.6178      3.5813      3.5587      3.5511    
  3.5587      3.5813      3.5448      3.5890      3.6454      3.7121      3.7869      3.8676      3.9519      4.0373    
  4.1215      4.2019      4.2762      4.3421      4.3974      4.4406      4.4701      4.4851      4.4851      4.4701    
  4.4406      4.3974      4.3421      4.2762      4.2019      4.1215      4.0373      3.9519      3.8676      3.7869    
  3.7121      3.6454      3.5890      3.5448      3.5144      3.4988      3.4988      3.5144      3.4821      3.5203    
  3.5717      3.6346      3.7071      3.7869      3.8719      3.9597      4.0481      4.1344      4.2162      4.2909    
  4.3560      4.4093      4.4488      4.4731      4.4813      4.4731      4.4488      4.4093      4.3560      4.2909    
  4.2162      4.1344      4.0481      3.9597      3.8719      3.7869      3.7071      3.6346      3.5717      3.5203    
  3.4821      3.4586      3.4507      3.4586      3.4314      3.4626      3.5080      3.5659      3.6346      3.7121    
  3.7962      3.8848      3.9756      4.0661      4.1539      4.2361      4.3100      4.3728      4.4222      4.4563    
  4.4737      4.4737      4.4563      4.4222      4.3728      4.3100      4.2361      4.1539      4.0661      3.9756    
  3.8848      3.7962      3.7121      3.6346      3.5659      3.5080      3.4626      3.4314      3.4155      3.4155    
  3.3940      3.4176      3.4561      3.5080      3.5717      3.6454      3.7272      3.8149      3.9064      3.9994    
  4.0913      4.1792      4.2601      4.3310      4.3893      4.4326      4.4593      4.4683      4.4593      4.4326    
  4.3893      4.3310      4.2601      4.1792      4.0913      3.9994      3.9064      3.8149      3.7272      3.6454    
  3.5717      3.5080      3.4561      3.4176      3.3940      3.3860      3.3711      3.3868      3.4176      3.4626    
  3.5203      3.5890      3.6670      3.7524      3.8429      3.9365      4.0305      4.1218      4.2073      4.2840    
  4.3491      4.4001      4.4352      4.4531      4.4531      4.4352      4.4001      4.3491      4.2840      4.2073    
  4.1218      4.0305      3.9365      3.8429      3.7524      3.6670      3.5890      3.5203      3.4626      3.4176    
  3.3868      3.3711      3.3405      3.3483      3.3715      3.4092      3.4604      3.5237      3.5974      3.6797    
  3.7686      3.8620      3.9573      4.0516      4.1416      4.2241      4.2961      4.3550      4.3986      4.4254    
  4.4344      4.4254      4.3986      4.3550      4.2961      4.2241      4.1416      4.0516      3.9573      3.8620    
  3.7686      3.6797      3.5974      3.5237      3.4604      3.4092      3.3715      3.3483      3.3483      3.3483    
  3.3635      3.3934      3.4373      3.4938      3.5615      3.6389      3.7239      3.8146      3.9083      4.0020    
  4.0924      4.1763      4.2508      4.3133      4.3619      4.3950      4.4118      4.4118      4.3950      4.3619    
  4.3133      4.2508      4.1763      4.0924      4.0020      3.9083      3.8146      3.7239      3.6389      3.5615    
  3.4938      3.4373      3.3934      3.3635      3.3715      3.3641      3.3715      3.3934      3.4294      3.4785    
  3.5395      3.6108      3.6907      3.7772      3.8676      3.9587      4.0471      4.1298      4.2037      4.2667    
  4.3170      4.3535      4.3755      4.3829      4.3755      4.3535      4.3170      4.2667      4.2037      4.1298    
  4.0471      3.9587      3.8676      3.7772      3.6907      3.6108      3.5395      3.4785      3.4294      3.3934    
  3.4092      3.3950      3.3950      3.4092      3.4373      3.4785      3.5320      3.5965      3.6703      3.7515    
  3.8371      3.9239      4.0083      4.0872      4.1577      4.2179      4.2663      4.3024      4.3262      4.3380    
  4.3380      4.3262      4.3024      4.2663      4.2179      4.1577      4.0872      4.0083      3.9239      3.8371    
  3.7515      3.6703      3.5965      3.5320      3.4785      3.4373      3.4604      3.4401      3.4333      3.4401    
  3.4604      3.4938      3.5395      3.5965      3.6634      3.7383      3.8181      3.8994      3.9783      4.0516    
  4.1163      4.1707      4.2137      4.2455      4.2670      4.2792      4.2831      4.2792      4.2670      4.2455    
  4.2137      4.1707      4.1163      4.0516      3.9783      3.8994      3.8181      3.7383      3.6634      3.5965    
  3.5395      3.4938      3.5237      3.4981      3.4852      3.4852      3.4981      3.5237      3.5615      3.6108    
  3.6703      3.7383      3.8117      3.8867      3.9593      4.0259      4.0833      4.1297      4.1644      4.1882    
  4.2030      4.2110      4.2144      4.2144      4.2110      4.2030      4.1882      4.1644      4.1297      4.0833    
  4.0259      3.9593      3.8867      3.8117      3.7383      3.6703      3.6108      3.5615      3.5974      3.5673    
  3.5491      3.5430      3.5491      3.5673      3.5974      3.6389      3.6907      3.7515      3.8181      3.8867    
  3.9528      4.0124      4.0619      4.0992      4.1239      4.1370      4.1414      4.1408      4.1386      4.1376    
  4.1386      4.1408      4.1414      4.1370      4.1239      4.0992      4.0619      4.0124      3.9528      3.8867    
  3.8181      3.7515      3.6907      3.6389      3.6797      3.6459      3.6231      3.6117      3.6117      3.6231    
  3.6459      3.6797      3.7239      3.7772      3.8371      3.8994      3.9593      4.0124      4.0545      4.0830    
  4.0972      4.0984      4.0901      4.0771      4.0647      4.0573      4.0573      4.0647      4.0771      4.0901    
  4.0984      4.0972      4.0830      4.0545      4.0124      3.9593      3.8994      3.8371      3.7772      3.7239    
  3.7686      3.7319      3.7054      3.6894      3.6841      3.6894      3.7054      3.7319      3.7686      3.8146    
  3.8676      3.9239      3.9783      4.0259      4.0619      4.0830      4.0879      4.0776      4.0560      4.0287    
  4.0026      3.9840      3.9772      3.9840      4.0026      4.0287      4.0560      4.0776      4.0879      4.0830    
  4.0619      4.0259      3.9783      3.9239      3.8676      3.8146      3.8620      3.8233      3.7938      3.7740    
  3.7641      3.7641      3.7740      3.7938      3.8233      3.8620      3.9083      3.9587      4.0083      4.0516    
  4.0833      4.0992      4.0972      4.0776      4.0440      4.0026      3.9612      3.9279      3.9095      3.9095    
  3.9279      3.9612      4.0026      4.0440      4.0776      4.0972      4.0992      4.0833      4.0516      4.0083    
  3.9587      3.9083      3.9573      3.9178      3.8861      3.8632      3.8495      3.8449      3.8495      3.8632    
  3.8861      3.9178      3.9573      4.0020      4.0471      4.0872      4.1163      4.1297      4.1239      4.0984    
  4.0560      4.0026      3.9466      3.8976      3.8641      3.8523      3.8641      3.8976      3.9466      4.0026    
  4.0560      4.0984      4.1239      4.1297      4.1163      4.0872      4.0471      4.0020      4.0516      4.0128    
  3.9799      3.9547      3.9380      3.9296      3.9296      3.9380      3.9547      3.9799      4.0128      4.0516    
  4.0924      4.1298      4.1577      4.1707      4.1644      4.1370      4.0901      4.0287      3.9612      3.8976    
  3.8482      3.8212      3.8212      3.8482      3.8976      3.9612      4.0287      4.0901      4.1370      4.1644    
  4.1707      4.1577      4.1298      4.0924      4.1416      4.1054      4.0726      4.0461      4.0271      4.0157    
  4.0120      4.0157      4.0271      4.0461      4.0726      4.1054      4.1416      4.1763      4.2037      4.2179    
  4.2137      4.1882      4.1414      4.0771      4.0026      3.9279      3.8641      3.8212      3.8060      3.8212    
  3.8641      3.9279      4.0026      4.0771      4.1414      4.1882      4.2137      4.2179      4.2037      4.1763    
  4.2241      4.1925      4.1613      4.1347      4.1143      4.1007      4.0940      4.0940      4.1007      4.1143    
  4.1347      4.1613      4.1925      4.2241      4.2508      4.2667      4.2663      4.2455      4.2030      4.1408    
  4.0647      3.9840      3.9095      3.8523      3.8212      3.8212      3.8523      3.9095      3.9840      4.0647    
  4.1408      4.2030      4.2455      4.2663      4.2667      4.2508      4.2961      4.2709      4.2432      4.2177    
  4.1970      4.1821      4.1732      4.1703      4.1732      4.1821      4.1970      4.2177      4.2432      4.2709    
  4.2961      4.3133      4.3170      4.3024      4.2670      4.2110      4.1386      4.0573      3.9772      3.9095    
  3.8641      3.8482      3.8641      3.9095      3.9772      4.0573      4.1386      4.2110      4.2670      4.3024    
  4.3170      4.3133      4.3550      4.3376      4.3151      4.2923      4.2726      4.2574      4.2473      4.2423    
  4.2423      4.2473      4.2574      4.2726      4.2923      4.3151      4.3376      4.3550      4.3619      4.3535    
  4.3262      4.2792      4.2144      4.1376      4.0573      3.9840      3.9279      3.8976      3.8976      3.9279    
  3.9840      4.0573      4.1376      4.2144      4.2792      4.3262      4.3535      4.3619      4.3986      4.3901    
  4.3743      4.3558      4.3385      4.3243      4.3140      4.3078      4.3058      4.3078      4.3140      4.3243    
  4.3385      4.3558      4.3743      4.3901      4.3986      4.3950      4.3755      4.3380      4.2831      4.2144    
  4.1386      4.0647      4.0026      3.9612      3.9466      3.9612      4.0026      4.0647      4.1386      4.2144    
  4.2831      4.3380      4.3755      4.3950      4.4254      4.4263      4.4184      4.4059      4.3925      4.3806    
  4.3713      4.3650      4.3619      4.3619      4.3650      4.3713      4.3806      4.3925      4.4059      4.4184    
  4.4263      4.4254      4.4118      4.3829      4.3380      4.2792      4.2110      4.1408      4.0771      4.0287    
  4.0026      4.0026      4.0287      4.0771      4.1408      4.2110      4.2792      4.3380      4.3829      4.4118    
  4.4344      4.4448      4.4456      4.4404      4.4326      4.4246      4.4176      4.4124      4.4093      4.4082    
  4.4093      4.4124      4.4176      4.4246      4.4326      4.4404      4.4456      4.4448      4.4344      4.4118    
  4.3755      4.3262      4.2670      4.2030      4.1414      4.0901      4.0560      4.0440      4.0560      4.0901    
  4.1414      4.2030      4.2670      4.3262      4.3755      4.4118      4.4254      4.4448      4.4548      4.4581    
  4.4573      4.4547      4.4516      4.4488      4.4468      4.4458      4.4458      4.4468      4.4488      4.4516    
  4.4547      4.4573      4.4581      4.4548      4.4448      4.4254      4.3950      4.3535      4.3024      4.2455    
  4.1882      4.1370      4.0984      4.0776      4.0776      4.0984      4.1370      4.1882      4.2455      4.3024    
  4.3535      4.3950      4.3986      4.4263      4.4456      4.4581      4.4656      4.4700      4.4724      4.4735    
  4.4740      4.4741      4.4741      4.4741      4.4740      4.4735      4.4724      4.4700      4.4656      4.4581    
  4.4456      4.4263      4.3986      4.3619      4.3170      4.2663      4.2137      4.1644      4.1239      4.0972    
  4.0879      4.0972      4.1239      4.1644      4.2137      4.2663      4.3170      4.3619      4.3550      4.3901    
  4.4184      4.4404      4.4573      4.4700      4.4794      4.4860      4.4903      4.4930      4.4942      4.4942    
  4.4930      4.4903      4.4860      4.4794      4.4700      4.4573      4.4404      4.4184      4.3901      4.3550    
  4.3133      4.2667      4.2179      4.1707      4.1297      4.0992      4.0830      4.0830      4.0992      4.1297    
  4.1707      4.2179      4.2667      4.3133      4.2961      4.3376      4.3743      4.4059      4.4326      4.4547    
  4.4724      4.4860      4.4958      4.5024      4.5061      4.5073      4.5061      4.5024      4.4958      4.4860    
  4.4724      4.4547      4.4326      4.4059      4.3743      4.3376      4.2961      4.2508      4.2037      4.1577    
  4.1163      4.0833      4.0619      4.0545      4.0619      4.0833      4.1163      4.1577      4.2037      4.2508    
  4.2241      4.2709      4.3151      4.3558      4.3925      4.4246      4.4516      4.4735      4.4903      4.5024    
  4.5101      4.5138      4.5138      4.5101      4.5024      4.4903      4.4735      4.4516      4.4246      4.3925    
  4.3558      4.3151      4.2709      4.2241      4.1763      4.1298      4.0872      4.0516      4.0259      4.0124    
  4.0124      4.0259      4.0516      4.0872      4.1298      4.1763      4.1416      4.1925      4.2432      4.2923    
  4.3385      4.3806      4.4176      4.4488      4.4740      4.4930      4.5061      4.5138      4.5164      4.5138    
  4.5061      4.4930      4.4740      4.4488      4.4176      4.3806      4.3385      4.2923      4.2432      4.1925    
  4.1416      4.0924      4.0471      4.0083      3.9783      3.9593      3.9528      3.9593      3.9783      4.0083    
  4.0471      4.0924      4.0516      4.1054      4.1613      4.2177      4.2726      4.3243      4.3713      4.4124    
  4.4468      4.4741      4.4942      4.5073      4.5138      4.5138      4.5073      4.4942      4.4741      4.4468    
  4.4124      4.3713      4.3243      4.2726      4.2177      4.1613      4.1054      4.0516      4.0020      3.9587    
  3.9239      3.8994      3.8867      3.8867      3.8994      3.9239      3.9587      4.0020      3.9573      4.0128    
  4.0726      4.1347      4.1970      4.2574      4.3140      4.3650      4.4093      4.4458      4.4741      4.4942    
  4.5061      4.5101      4.5061      4.4942      4.4741      4.4458      4.4093      4.3650      4.3140      4.2574    
  4.1970      4.1347      4.0726      4.0128      3.9573      3.9083      3.8676      3.8371      3.8181      3.8117    
  3.8181      3.8371      3.8676      3.9083      3.8620      3.9178      3.9799      4.0461      4.1143      4.1821    
  4.2473      4.3078      4.3619      4.4082      4.4458      4.4741      4.4930      4.5024      4.5024      4.4930    
  4.4741      4.4458      4.4082      4.3619      4.3078      4.2473      4.1821      4.1143      4.0461      3.9799    
  3.9178      3.8620      3.8146      3.7772      3.7515      3.7383      3.7383      3.7515      3.7772      3.8146    
  3.7686      3.8233      3.8861      3.9547      4.0271      4.1007      4.1732      4.2423      4.3058      4.3619    
  4.4093      4.4468      4.4740      4.4903      4.4958      4.4903      4.4740      4.4468      4.4093      4.3619    
  4.3058      4.2423      4.1732      4.1007      4.0271      3.9547      3.8861      3.8233      3.7686      3.7239    
  3.6907      3.6703      3.6634      3.6703      3.6907      3.7239      3.6797      3.7319      3.7938      3.8632    
  3.9380      4.0157      4.0940      4.1703      4.2423      4.3078      4.3650      4.4124      4.4488      4.4735    
  4.4860      4.4860      4.4735      4.4488      4.4124      4.3650      4.3078      4.2423      4.1703      4.0940    
  4.0157      3.9380      3.8632      3.7938      3.7319      3.6797      3.6389      3.6108      3.5965      3.5965    
  3.6108      3.6389      3.5974      3.6459      3.7054      3.7740      3.8495      3.9296      4.0120      4.0940    
  4.1732      4.2473      4.3140      4.3713      4.4176      4.4516      4.4724      4.4794      4.4724      4.4516    
  4.4176      4.3713      4.3140      4.2473      4.1732      4.0940      4.0120      3.9296      3.8495      3.7740    
  3.7054      3.6459      3.5974      3.5615      3.5395      3.5320      3.5395      3.5615      3.5237      3.5673    
  3.6231      3.6894      3.7641      3.8449      3.9296      4.0157      4.1007      4.1821      4.2574      4.3243    
  4.3806      4.4246      4.4547      4.4700      4.4700      4.4547      4.4246      4.3806      4.3243      4.2574    
  4.1821      4.1007      4.0157      3.9296      3.8449      3.7641      3.6894      3.6231      3.5673      3.5237    
  3.4938      3.4785      3.4785      3.4938      3.4604      3.4981      3.5491      3.6117      3.6841      3.7641    
  3.8495      3.9380      4.0271      4.1143      4.1970      4.2726      4.3385      4.3925      4.4326      4.4573    
  4.4656      4.4573      4.4326      4.3925      4.3385      4.2726      4.1970      4.1143      4.0271      3.9380    
  3.8495      3.7641      3.6841      3.6117      3.5491      3.4981      3.4604      3.4373      3.4294      3.4373    
  3.4092      3.4401      3.4852      3.5430      3.6117      3.6894      3.7740      3.8632      3.9547      4.0461    
  4.1347      4.2177      4.2923      4.3558      4.4059      4.4404      4.4581      4.4581      4.4404      4.4059    
  4.3558      4.2923      4.2177      4.1347      4.0461      3.9547      3.8632      3.7740      3.6894      3.6117    
  3.5430      3.4852      3.4401      3.4092      3.3934      3.3934      3.3715      3.3950      3.4333      3.4852    
  3.5491      3.6231      3.7054      3.7938      3.8861      3.9799      4.0726      4.1613      4.2432      4.3151    
  4.3743      4.4184      4.4456      4.4548      4.4456      4.4184      4.3743      4.3151      4.2432      4.1613    
  4.0726      3.9799      3.8861      3.7938      3.7054      3.6231      3.5491      3.4852      3.4333      3.3950    
  3.3715      3.3635      3.3483      3.3641      3.3950      3.4401      3.4981      3.5673      3.6459      3.7319    
  3.8233      3.9178      4.0128      4.1054      4.1925      4.2709      4.3376      4.3901      4.4263      4.4448    
  4.4448      4.4263      4.3901      4.3376      4.2709      4.1925      4.1054      4.0128      3.9178      3.8233    
  3.7319      3.6459      3.5673      3.4981      3.4401      3.3950      3.3641      3.3483      3.3186      3.3264    
  3.3498      3.3879      3.4396      3.5035      3.5780      3.6612      3.7512      3.8457      3.9421      4.0378    
  4.1295      4.2139      4.2878      4.3485      4.3936      4.4213      4.4307      4.4213      4.3936      4.3485    
  4.2878      4.2139      4.1295      4.0378      3.9421      3.8457      3.7512      3.6612      3.5780      3.5035    
  3.4396      3.3879      3.3498      3.3264      3.3264      3.3264      3.3419      3.3722      3.4167      3.4740    
  3.5426      3.6210      3.7071      3.7990      3.8942      3.9900      4.0831      4.1701      4.2480      4.3138    
  4.3653      4.4006      4.4185      4.4185      4.4006      4.3653      4.3138      4.2480      4.1701      4.0831    
  3.9900      3.8942      3.7990      3.7071      3.6210      3.5426      3.4740      3.4167      3.3722      3.3419    
  3.3498      3.3422      3.3498      3.3722      3.4090      3.4590      3.5209      3.5933      3.6745      3.7624    
  3.8547      3.9487      4.0410      4.1284      4.2077      4.2762      4.3316      4.3723      4.3971      4.4054    
  4.3971      4.3723      4.3316      4.2762      4.2077      4.1284      4.0410      3.9487      3.8547      3.7624    
  3.6745      3.5933      3.5209      3.4590      3.4090      3.3722      3.3879      3.3733      3.3733      3.3879    
  3.4167      3.4590      3.5136      3.5793      3.6545      3.7372      3.8253      3.9157      4.0053      4.0908    
  4.1691      4.2376      4.2942      4.3375      4.3667      4.3814      4.3814      4.3667      4.3375      4.2942    
  4.2376      4.1691      4.0908      4.0053      3.9157      3.8253      3.7372      3.6545      3.5793      3.5136    
  3.4590      3.4167      3.4396      3.4186      3.4116      3.4186      3.4396      3.4740      3.5209      3.5793    
  3.6477      3.7243      3.8070      3.8927      3.9781      4.0598      4.1349      4.2008      4.2558      4.2987    
  4.3293      4.3475      4.3535      4.3475      4.3293      4.2987      4.2558      4.2008      4.1349      4.0598    
  3.9781      3.8927      3.8070      3.7243      3.6477      3.5793      3.5209      3.4740      3.5035      3.4770    
  3.4635      3.4635      3.4770      3.5035      3.5426      3.5933      3.6545      3.7243      3.8008      3.8809    
  3.9609      4.0376      4.1079      4.1692      4.2200      4.2596      4.2882      4.3066      4.3155      4.3155    
  4.3066      4.2882      4.2596      4.2200      4.1692      4.1079      4.0376      3.9609      3.8809      3.8008    
  3.7243      3.6545      3.5933      3.5426      3.5780      3.5467      3.5276      3.5212      3.5276      3.5467    
  3.5780      3.6210      3.6745      3.7372      3.8070      3.8809      3.9551      4.0261      4.0905      4.1459    
  4.1907      4.2246      4.2483      4.2634      4.2715      4.2741      4.2715      4.2634      4.2483      4.2246    
  4.1907      4.1459      4.0905      4.0261      3.9551      3.8809      3.8070      3.7372      3.6745      3.6210    
  3.6612      3.6260      3.6021      3.5901      3.5901      3.6021      3.6260      3.6612      3.7071      3.7624    
  3.8253      3.8927      3.9609      4.0261      4.0845      4.1335      4.1714      4.1981      4.2147      4.2236    
  4.2274      4.2286      4.2286      4.2274      4.2236      4.2147      4.1981      4.1714      4.1335      4.0845    
  4.0261      3.9609      3.8927      3.8253      3.7624      3.7071      3.7512      3.7129      3.6850      3.6682    
  3.6625      3.6682      3.6850      3.7129      3.7512      3.7990      3.8547      3.9157      3.9781      4.0376    
  4.0905      4.1335      4.1647      4.1839      4.1923      4.1931      4.1897      4.1859      4.1843      4.1859    
  4.1897      4.1931      4.1923      4.1839      4.1647      4.1335      4.0905      4.0376      3.9781      3.9157    
  3.8547      3.7990      3.8457      3.8053      3.7743      3.7534      3.7428      3.7428      3.7534      3.7743    
  3.8053      3.8457      3.8942      3.9487      4.0053      4.0598      4.1079      4.1459      4.1714      4.1839    
  4.1845      4.1765      4.1643      4.1527      4.1457      4.1457      4.1527      4.1643      4.1765      4.1845    
  4.1839      4.1714      4.1459      4.1079      4.0598      4.0053      3.9487      3.8942      3.9421      3.9007    
  3.8675      3.8434      3.8288      3.8240      3.8288      3.8434      3.8675      3.9007      3.9421      3.9900    
  4.0410      4.0908      4.1349      4.1692      4.1907      4.1981      4.1923      4.1765      4.1553      4.1345    
  4.1195      4.1140      4.1195      4.1345      4.1553      4.1765      4.1923      4.1981      4.1907      4.1692    
  4.1349      4.0908      4.0410      3.9900      4.0378      3.9967      3.9623      3.9359      3.9181      3.9092    
  3.9092      3.9181      3.9359      3.9623      3.9967      4.0378      4.0831      4.1284      4.1691      4.2008    
  4.2200      4.2246      4.2147      4.1931      4.1643      4.1345      4.1102      4.0965      4.0965      4.1102    
  4.1345      4.1643      4.1931      4.2147      4.2246      4.2200      4.2008      4.1691      4.1284      4.0831    
  4.1295      4.0903      4.0559      4.0282      4.0082      3.9961      3.9920      3.9961      4.0082      4.0282    
  4.0559      4.0903      4.1295      4.1701      4.2077      4.2376      4.2558      4.2596      4.2483      4.2236    
  4.1897      4.1527      4.1195      4.0965      4.0883      4.0965      4.1195      4.1527      4.1897      4.2236    
  4.2483      4.2596      4.2558      4.2376      4.2077      4.1701      4.2139      4.1784      4.1455      4.1177    
  4.0964      4.0820      4.0748      4.0748      4.0820      4.0964      4.1177      4.1455      4.1784      4.2139    
  4.2480      4.2762      4.2942      4.2987      4.2882      4.2634      4.2274      4.1859      4.1457      4.1140    
  4.0965      4.0965      4.1140      4.1457      4.1859      4.2274      4.2634      4.2882      4.2987      4.2942    
  4.2762      4.2480      4.2878      4.2579      4.2280      4.2016      4.1801      4.1644      4.1550      4.1518    
  4.1550      4.1644      4.1801      4.2016      4.2280      4.2579      4.2878      4.3138      4.3316      4.3375    
  4.3293      4.3066      4.2715      4.2286      4.1843      4.1457      4.1195      4.1102      4.1195      4.1457    
  4.1843      4.2286      4.2715      4.3066      4.3293      4.3375      4.3316      4.3138      4.3485      4.3256    
  4.3006      4.2769      4.2566      4.2408      4.2302      4.2248      4.2248      4.2302      4.2408      4.2566    
  4.2769      4.3006      4.3256      4.3485      4.3653      4.3723      4.3667      4.3475      4.3155      4.2741    
  4.2286      4.1859      4.1527      4.1345      4.1345      4.1527      4.1859      4.2286      4.2741      4.3155    
  4.3475      4.3667      4.3723      4.3653      4.3936      4.3790      4.3603      4.3410      4.3234      4.3088    
  4.2981      4.2915      4.2893      4.2915      4.2981      4.3088      4.3234      4.3410      4.3603      4.3790    
  4.3936      4.4006      4.3971      4.3814      4.3535      4.3155      4.2715      4.2274      4.1897      4.1643    
  4.1553      4.1643      4.1897      4.2274      4.2715      4.3155      4.3535      4.3814      4.3971      4.4006    
  4.4213      4.4158      4.4049      4.3915      4.3781      4.3662      4.3566      4.3500      4.3466      4.3466    
  4.3500      4.3566      4.3662      4.3781      4.3915      4.4049      4.4158      4.4213      4.4185      4.4054    
  4.3814      4.3475      4.3066      4.2634      4.2236      4.1931      4.1765      4.1765      4.1931      4.2236    
  4.2634      4.3066      4.3475      4.3814      4.4054      4.4185      4.4307      4.4346      4.4324      4.4263    
  4.4187      4.4110      4.4040      4.3986      4.3952      4.3941      4.3952      4.3986      4.4040      4.4110    
  4.4187      4.4263      4.4324      4.4346      4.4307      4.4185      4.3971      4.3667      4.3293      4.2882    
  4.2483      4.2147      4.1923      4.1845      4.1923      4.2147      4.2483      4.2882      4.3293      4.3667    
  4.3971      4.4185      4.4213      4.4346      4.4417      4.4441      4.4438      4.4417      4.4389      4.4362    
  4.4340      4.4328      4.4328      4.4340      4.4362      4.4389      4.4417      4.4438      4.4441      4.4417    
  4.4346      4.4213      4.4006      4.3723      4.3375      4.2987      4.2596      4.2246      4.1981      4.1839    
  4.1839      4.1981      4.2246      4.2596      4.2987      4.3375      4.3723      4.4006      4.3936      4.4158    
  4.4324      4.4441      4.4522      4.4574      4.4603      4.4617      4.4621      4.4622      4.4621      4.4622    
  4.4621      4.4617      4.4603      4.4574      4.4522      4.4441      4.4324      4.4158      4.3936      4.3653    
  4.3316      4.2942      4.2558      4.2200      4.1907      4.1714      4.1647      4.1714      4.1907      4.2200    
  4.2558      4.2942      4.3316      4.3653      4.3485      4.3790      4.4049      4.4263      4.4438      4.4574    
  4.4675      4.4746      4.4792      4.4818      4.4830      4.4830      4.4818      4.4792      4.4746      4.4675    
  4.4574      4.4438      4.4263      4.4049      4.3790      4.3485      4.3138      4.2762      4.2376      4.2008    
  4.1692      4.1459      4.1335      4.1335      4.1459      4.1692      4.2008      4.2376      4.2762      4.3138    
  4.2878      4.3256      4.3603      4.3915      4.4187      4.4417      4.4603      4.4746      4.4849      4.4917    
  4.4955      4.4967      4.4955      4.4917      4.4849      4.4746      4.4603      4.4417      4.4187      4.3915    
  4.3603      4.3256      4.2878      4.2480      4.2077      4.1691      4.1349      4.1079      4.0905      4.0845    
  4.0905      4.1079      4.1349      4.1691      4.2077      4.2480      4.2139      4.2579      4.3006      4.3410    
  4.3781      4.4110      4.4389      4.4617      4.4792      4.4917      4.4996      4.5035      4.5035      4.4996    
  4.4917      4.4792      4.4617      4.4389      4.4110      4.3781      4.3410      4.3006      4.2579      4.2139    
  4.1701      4.1284      4.0908      4.0598      4.0376      4.0261      4.0261      4.0376      4.0598      4.0908    
  4.1284      4.1701      4.1295      4.1784      4.2280      4.2769      4.3234      4.3662      4.4040      4.4362    
  4.4621      4.4818      4.4955      4.5035      4.5061      4.5035      4.4955      4.4818      4.4621      4.4362    
  4.4040      4.3662      4.3234      4.2769      4.2280      4.1784      4.1295      4.0831      4.0410      4.0053    
  3.9781      3.9609      3.9551      3.9609      3.9781      4.0053      4.0410      4.0831      4.0378      4.0903    
  4.1455      4.2016      4.2566      4.3088      4.3566      4.3986      4.4340      4.4622      4.4830      4.4967    
  4.5035      4.5035      4.4967      4.4830      4.4622      4.4340      4.3986      4.3566      4.3088      4.2566    
  4.2016      4.1455      4.0903      4.0378      3.9900      3.9487      3.9157      3.8927      3.8809      3.8809    
  3.8927      3.9157      3.9487      3.9900      3.9421      3.9967      4.0559      4.1177      4.1801      4.2408    
  4.2981      4.3500      4.3952      4.4328      4.4621      4.4830      4.4955      4.4996      4.4955      4.4830    
  4.4621      4.4328      4.3952      4.3500      4.2981      4.2408      4.1801      4.1177      4.0559      3.9967    
  3.9421      3.8942      3.8547      3.8253      3.8070      3.8008      3.8070      3.8253      3.8547      3.8942    
  3.8457      3.9007      3.9623      4.0282      4.0964      4.1644      4.2302      4.2915      4.3466      4.3941    
  4.4328      4.4622      4.4818      4.4917      4.4917      4.4818      4.4622      4.4328      4.3941      4.3466    
  4.2915      4.2302      4.1644      4.0964      4.0282      3.9623      3.9007      3.8457      3.7990      3.7624    
  3.7372      3.7243      3.7243      3.7372      3.7624      3.7990      3.7512      3.8053      3.8675      3.9359    
  4.0082      4.0820      4.1550      4.2248      4.2893      4.3466      4.3952      4.4340      4.4621      4.4792    
  4.4849      4.4792      4.4621      4.4340      4.3952      4.3466      4.2893      4.2248      4.1550      4.0820    
  4.0082      3.9359      3.8675      3.8053      3.7512      3.7071      3.6745      3.6545      3.6477      3.6545    
  3.6745      3.7071      3.6612      3.7129      3.7743      3.8434      3.9181      3.9961      4.0748      4.1518    
  4.2248      4.2915      4.3500      4.3986      4.4362      4.4617      4.4746      4.4746      4.4617      4.4362    
  4.3986      4.3500      4.2915      4.2248      4.1518      4.0748      3.9961      3.9181      3.8434      3.7743    
  3.7129      3.6612      3.6210      3.5933      3.5793      3.5793      3.5933      3.6210      3.5780      3.6260    
  3.6850      3.7534      3.8288      3.9092      3.9920      4.0748      4.1550      4.2302      4.2981      4.3566    
  4.4040      4.4389      4.4603      4.4675      4.4603      4.4389      4.4040      4.3566      4.2981      4.2302    
  4.1550      4.0748      3.9920      3.9092      3.8288      3.7534      3.6850      3.6260      3.5780      3.5426    
  3.5209      3.5136      3.5209      3.5426      3.5035      3.5467      3.6021      3.6682      3.7428      3.8240    
  3.9092      3.9961      4.0820      4.1644      4.2408      4.3088      4.3662      4.4110      4.4417      4.4574    
  4.4574      4.4417      4.4110      4.3662      4.3088      4.2408      4.1644      4.0820      3.9961      3.9092    
  3.8240      3.7428      3.6682      3.6021      3.5467      3.5035      3.4740      3.4590      3.4590      3.4740    
  3.4396      3.4770      3.5276      3.5901      3.6625      3.7428      3.8288      3.9181      4.0082      4.0964    
  4.1801      4.2566      4.3234      4.3781      4.4187      4.4438      4.4522      4.4438      4.4187      4.3781    
  4.3234      4.2566      4.1801      4.0964      4.0082      3.9181      3.8288      3.7428      3.6625      3.5901    
  3.5276      3.4770      3.4396      3.4167      3.4090      3.4167      3.3879      3.4186      3.4635      3.5212    
  3.5901      3.6682      3.7534      3.8434      3.9359      4.0282      4.1177      4.2016      4.2769      4.3410    
  4.3915      4.4263      4.4441      4.4441      4.4263      4.3915      4.3410      4.2769      4.2016      4.1177    
  4.0282      3.9359      3.8434      3.7534      3.6682      3.5901      3.5212      3.4635      3.4186      3.3879    
  3.3722      3.3722      3.3498      3.3733      3.4116      3.4635      3.5276      3.6021      3.6850      3.7743    
  3.8675      3.9623      4.0559      4.1455      4.2280      4.3006      4.3603      4.4049      4.4324      4.4417    
  4.4324      4.4049      4.3603      4.3006      4.2280      4.1455      4.0559      3.9623      3.8675      3.7743    
  3.6850      3.6021      3.5276      3.4635      3.4116      3.3733      3.3498      3.3419      3.3264      3.3422    
  3.3733      3.4186      3.4770      3.5467      3.6260      3.7129      3.8053      3.9007      3.9967      4.0903    
  4.1784      4.2579      4.3256      4.3790      4.4158      4.4346      4.4346      4.4158      4.3790      4.3256    
  4.2579      4.1784      4.0903      3.9967      3.9007      3.8053      3.7129      3.6260      3.5467      3.4770    
  3.4186      3.3733      3.3422      3.3264      3.2986      3.3065      3.3301      3.3685      3.4207      3.4853    
  3.5607      3.6449      3.7360      3.8316      3.9291      4.0257      4.1183      4.2037      4.2787      4.3403    
  4.3861      4.4143      4.4239      4.4143      4.3861      4.3403      4.2787      4.2037      4.1183      4.0257    
  3.9291      3.8316      3.7360      3.6449      3.5607      3.4853      3.4207      3.3685      3.3301      3.3065    
  3.3065      3.3065      3.3222      3.3529      3.3979      3.4560      3.5256      3.6049      3.6922      3.7853    
  3.8817      3.9787      4.0734      4.1623      4.2421      4.3099      4.3631      4.3997      4.4183      4.4183    
  4.3997      4.3631      4.3099      4.2421      4.1623      4.0734      3.9787      3.8817      3.7853      3.6922    
  3.6049      3.5256      3.4560      3.3979      3.3529      3.3222      3.3301      3.3224      3.3301      3.3529    
  3.3903      3.4411      3.5041      3.5776      3.6599      3.7490      3.8427      3.9384      4.0331      4.1234    
  4.2061      4.2780      4.3367      4.3801      4.4067      4.4156      4.4067      4.3801      4.3367      4.2780    
  4.2061      4.1234      4.0331      3.9384      3.8427      3.7490      3.6599      3.5776      3.5041      3.4411    
  3.3903      3.3529      3.3685      3.3535      3.3535      3.3685      3.3979      3.4411      3.4968      3.5636    
  3.6400      3.7240      3.8136      3.9063      3.9992      4.0889      4.1722      4.2462      4.3082      4.3563    
  4.3892      4.4058      4.4058      4.3892      4.3563      4.3082      4.2462      4.1722      4.0889      3.9992    
  3.9063      3.8136      3.7240      3.6400      3.5636      3.4968      3.4411      3.3979      3.4207      3.3991    
  3.3919      3.3991      3.4207      3.4560      3.5041      3.5636      3.6333      3.7113      3.7956      3.8841    
  3.9735      4.0607      4.1426      4.2163      4.2794      4.3300      4.3668      4.3891      4.3966      4.3891    
  4.3668      4.3300      4.2794      4.2163      4.1426      4.0607      3.9735      3.8841      3.7956      3.7113    
  3.6333      3.5636      3.5041      3.4560      3.4853      3.4579      3.4440      3.4440      3.4579      3.4853    
  3.5256      3.5776      3.6400      3.7113      3.7896      3.8726      3.9574      4.0407      4.1195      4.1910    
  4.2528      4.3034      4.3417      4.3673      4.3801      4.3801      4.3673      4.3417      4.3034      4.2528    
  4.1910      4.1195      4.0407      3.9574      3.8726      3.7896      3.7113      3.6400      3.5776      3.5256    
  3.5607      3.5282      3.5084      3.5018      3.5084      3.5282      3.5607      3.6049      3.6599      3.7240    
  3.7956      3.8726      3.9519      4.0303      4.1048      4.1725      4.2312      4.2797      4.3170      4.3433    
  4.3588      4.3639      4.3588      4.3433      4.3170      4.2797      4.2312      4.1725      4.1048      4.0303    
  3.9519      3.8726      3.7956      3.7240      3.6599      3.6049      3.6449      3.6084      3.5835      3.5709    
  3.5709      3.5835      3.6084      3.6449      3.6922      3.7490      3.8136      3.8841      3.9574      4.0303    
  4.0997      4.1627      4.2171      4.2617      4.2960      4.3205      4.3360      4.3435      4.3435      4.3360    
  4.3205      4.2960      4.2617      4.2171      4.1627      4.0997      4.0303      3.9574      3.8841      3.8136    
  3.7490      3.6922      3.7360      3.6963      3.6672      3.6494      3.6435      3.6494      3.6672      3.6963    
  3.7360      3.7853      3.8427      3.9063      3.9735      4.0407      4.1048      4.1627      4.2122      4.2520    
  4.2819      4.3027      4.3158      4.3228      4.3250      4.3228      4.3158      4.3027      4.2819      4.2520    
  4.2122      4.1627      4.1048      4.0407      3.9735      3.9063      3.8427      3.7853      3.8316      3.7897    
  3.7574      3.7354      3.7242      3.7242      3.7354      3.7574      3.7897      3.8316      3.8817      3.9384    
  3.9992      4.0607      4.1195      4.1725      4.2171      4.2520      4.2770      4.2929      4.3019      4.3061    
  4.3076      4.3076      4.3061      4.3019      4.2929      4.2770      4.2520      4.2171      4.1725      4.1195    
  4.0607      3.9992      3.9384      3.8817      3.9291      3.8862      3.8516      3.8263      3.8109      3.8057    
  3.8109      3.8263      3.8516      3.8862      3.9291      3.9787      4.0331      4.0889      4.1426      4.1910    
  4.2312      4.2617      4.2819      4.2929      4.2969      4.2967      4.2952      4.2944      4.2952      4.2967    
  4.2969      4.2929      4.2819      4.2617      4.2312      4.1910      4.1426      4.0889      4.0331      3.9787    
  4.0257      3.9831      3.9474      3.9198      3.9010      3.8914      3.8914      3.9010      3.9198      3.9474    
  3.9831      4.0257      4.0734      4.1234      4.1722      4.2163      4.2528      4.2797      4.2960      4.3027    
  4.3019      4.2967      4.2907      4.2869      4.2869      4.2907      4.2967      4.3019      4.3027      4.2960    
  4.2797      4.2528      4.2163      4.1722      4.1234      4.0734      4.1183      4.0775      4.0420      4.0131    
  3.9920      3.9790      3.9747      3.9790      3.9920      4.0131      4.0420      4.0775      4.1183      4.1623    
  4.2061      4.2462      4.2794      4.3034      4.3170      4.3205      4.3158      4.3061      4.2952      4.2869    
  4.2838      4.2869      4.2952      4.3061      4.3158      4.3205      4.3170      4.3034      4.2794      4.2462    
  4.2061      4.1623      4.2037      4.1662      4.1323      4.1036      4.0812      4.0659      4.0581      4.0581    
  4.0659      4.0812      4.1036      4.1323      4.1662      4.2037      4.2421      4.2780      4.3082      4.3300    
  4.3417      4.3433      4.3360      4.3228      4.3076      4.2944      4.2869      4.2869      4.2944      4.3076    
  4.3228      4.3360      4.3433      4.3417      4.3300      4.3082      4.2780      4.2421      4.2787      4.2462    
  4.2154      4.1882      4.1659      4.1494      4.1392      4.1358      4.1392      4.1494      4.1659      4.1882    
  4.2154      4.2462      4.2787      4.3099      4.3367      4.3563      4.3668      4.3673      4.3588      4.3435    
  4.3250      4.3076      4.2952      4.2907      4.2952      4.3076      4.3250      4.3435      4.3588      4.3673    
  4.3668      4.3563      4.3367      4.3099      4.3403      4.3144      4.2883      4.2642      4.2433      4.2269    
  4.2155      4.2097      4.2097      4.2155      4.2269      4.2433      4.2642      4.2883      4.3144      4.3403    
  4.3631      4.3801      4.3892      4.3891      4.3801      4.3639      4.3435      4.3228      4.3061      4.2967    
  4.2967      4.3061      4.3228      4.3435      4.3639      4.3801      4.3891      4.3892      4.3801      4.3631    
  4.3861      4.3682      4.3483      4.3288      4.3110      4.2959      4.2846      4.2776      4.2752      4.2776    
  4.2846      4.2959      4.3110      4.3288      4.3483      4.3682      4.3861      4.3997      4.4067      4.4058    
  4.3966      4.3801      4.3588      4.3360      4.3158      4.3019      4.2969      4.3019      4.3158      4.3360    
  4.3588      4.3801      4.3966      4.4058      4.4067      4.3997      4.4143      4.4053      4.3930      4.3796    
  4.3664      4.3543      4.3444      4.3373      4.3337      4.3337      4.3373      4.3444      4.3543      4.3664    
  4.3796      4.3930      4.4053      4.4143      4.4183      4.4156      4.4058      4.3891      4.3673      4.3433    
  4.3205      4.3027      4.2929      4.2929      4.3027      4.3205      4.3433      4.3673      4.3891      4.4058    
  4.4156      4.4183      4.4239      4.4242      4.4206      4.4147      4.4075      4.4000      4.3930      4.3873    
  4.3836      4.3823      4.3836      4.3873      4.3930      4.4000      4.4075      4.4147      4.4206      4.4242    
  4.4239      4.4183      4.4067      4.3892      4.3668      4.3417      4.3170      4.2960      4.2819      4.2770    
  4.2819      4.2960      4.3170      4.3417      4.3668      4.3892      4.4067      4.4183      4.4143      4.4242    
  4.4300      4.4326      4.4329      4.4313      4.4288      4.4260      4.4237      4.4223      4.4223      4.4237    
  4.4260      4.4288      4.4313      4.4329      4.4326      4.4300      4.4242      4.4143      4.3997      4.3801    
  4.3563      4.3300      4.3034      4.2797      4.2617      4.2520      4.2520      4.2617      4.2797      4.3034    
  4.3300      4.3563      4.3801      4.3997      4.3861      4.4053      4.4206      4.4326      4.4414      4.4473    
  4.4508      4.4524      4.4529      4.4528      4.4528      4.4528      4.4529      4.4524      4.4508      4.4473    
  4.4414      4.4326      4.4206      4.4053      4.3861      4.3631      4.3367      4.3082      4.2794      4.2528    
  4.2312      4.2171      4.2122      4.2171      4.2312      4.2528      4.2794      4.3082      4.3367      4.3631    
  4.3403      4.3682      4.3930      4.4147      4.4329      4.4473      4.4582      4.4658      4.4706      4.4734    
  4.4746      4.4746      4.4734      4.4706      4.4658      4.4582      4.4473      4.4329      4.4147      4.3930    
  4.3682      4.3403      4.3099      4.2780      4.2462      4.2163      4.1910      4.1725      4.1627      4.1627    
  4.1725      4.1910      4.2163      4.2462      4.2780      4.3099      4.2787      4.3144      4.3483      4.3796    
  4.4075      4.4313      4.4508      4.4658      4.4766      4.4837      4.4877      4.4890      4.4877      4.4837    
  4.4766      4.4658      4.4508      4.4313      4.4075      4.3796      4.3483      4.3144      4.2787      4.2421    
  4.2061      4.1722      4.1426      4.1195      4.1048      4.0997      4.1048      4.1195      4.1426      4.1722    
  4.2061      4.2421      4.2037      4.2462      4.2883      4.3288      4.3664      4.4000      4.4288      4.4524    
  4.4706      4.4837      4.4921      4.4962      4.4962      4.4921      4.4837      4.4706      4.4524      4.4288    
  4.4000      4.3664      4.3288      4.2883      4.2462      4.2037      4.1623      4.1234      4.0889      4.0607    
  4.0407      4.0303      4.0303      4.0407      4.0607      4.0889      4.1234      4.1623      4.1183      4.1662    
  4.2154      4.2642      4.3110      4.3543      4.3930      4.4260      4.4529      4.4734      4.4877      4.4962    
  4.4989      4.4962      4.4877      4.4734      4.4529      4.4260      4.3930      4.3543      4.3110      4.2642    
  4.2154      4.1662      4.1183      4.0734      4.0331      3.9992      3.9735      3.9574      3.9519      3.9574    
  3.9735      3.9992      4.0331      4.0734      4.0257      4.0775      4.1323      4.1882      4.2433      4.2959    
  4.3444      4.3873      4.4237      4.4528      4.4746      4.4890      4.4962      4.4962      4.4890      4.4746    
  4.4528      4.4237      4.3873      4.3444      4.2959      4.2433      4.1882      4.1323      4.0775      4.0257    
  3.9787      3.9384      3.9063      3.8841      3.8726      3.8726      3.8841      3.9063      3.9384      3.9787    
  3.9291      3.9831      4.0420      4.1036      4.1659      4.2269      4.2846      4.3373      4.3836      4.4223    
  4.4528      4.4746      4.4877      4.4921      4.4877      4.4746      4.4528      4.4223      4.3836      4.3373    
  4.2846      4.2269      4.1659      4.1036      4.0420      3.9831      3.9291      3.8817      3.8427      3.8136    
  3.7956      3.7896      3.7956      3.8136      3.8427      3.8817      3.8316      3.8862      3.9474      4.0131    
  4.0812      4.1494      4.2155      4.2776      4.3337      4.3823      4.4223      4.4528      4.4734      4.4837    
  4.4837      4.4734      4.4528      4.4223      4.3823      4.3337      4.2776      4.2155      4.1494      4.0812    
  4.0131      3.9474      3.8862      3.8316      3.7853      3.7490      3.7240      3.7113      3.7113      3.7240    
  3.7490      3.7853      3.7360      3.7897      3.8516      3.9198      3.9920      4.0659      4.1392      4.2097    
  4.2752      4.3337      4.3836      4.4237      4.4529      4.4706      4.4766      4.4706      4.4529      4.4237    
  4.3836      4.3337      4.2752      4.2097      4.1392      4.0659      3.9920      3.9198      3.8516      3.7897    
  3.7360      3.6922      3.6599      3.6400      3.6333      3.6400      3.6599      3.6922      3.6449      3.6963    
  3.7574      3.8263      3.9010      3.9790      4.0581      4.1358      4.2097      4.2776      4.3373      4.3873    
  4.4260      4.4524      4.4658      4.4658      4.4524      4.4260      4.3873      4.3373      4.2776      4.2097    
  4.1358      4.0581      3.9790      3.9010      3.8263      3.7574      3.6963      3.6449      3.6049      3.5776    
  3.5636      3.5636      3.5776      3.6049      3.5607      3.6084      3.6672      3.7354      3.8109      3.8914    
  3.9747      4.0581      4.1392      4.2155      4.2846      4.3444      4.3930      4.4288      4.4508      4.4582    
  4.4508      4.4288      4.3930      4.3444      4.2846      4.2155      4.1392      4.0581      3.9747      3.8914    
  3.8109      3.7354      3.6672      3.6084      3.5607      3.5256      3.5041      3.4968      3.5041      3.5256    
  3.4853      3.5282      3.5835      3.6494      3.7242      3.8057      3.8914      3.9790      4.0659      4.1494    
  4.2269      4.2959      4.3543      4.4000      4.4313      4.4473      4.4473      4.4313      4.4000      4.3543    
  4.2959      4.2269      4.1494      4.0659      3.9790      3.8914      3.8057      3.7242      3.6494      3.5835    
  3.5282      3.4853      3.4560      3.4411      3.4411      3.4560      3.4207      3.4579      3.5084      3.5709    
  3.6435      3.7242      3.8109      3.9010      3.9920      4.0812      4.1659      4.2433      4.3110      4.3664    
  4.4075      4.4329      4.4414      4.4329      4.4075      4.3664      4.3110      4.2433      4.1659      4.0812    
  3.9920      3.9010      3.8109      3.7242      3.6435      3.5709      3.5084      3.4579      3.4207      3.3979    
  3.3903      3.3979      3.3685      3.3991      3.4440      3.5018      3.5709      3.6494      3.7354      3.8263    
  3.9198      4.0131      4.1036      4.1882      4.2642      4.3288      4.3796      4.4147      4.4326      4.4326    
  4.4147      4.3796      4.3288      4.2642      4.1882      4.1036      4.0131      3.9198      3.8263      3.7354    
  3.6494      3.5709      3.5018      3.4440      3.3991      3.3685      3.3529      3.3529      3.3301      3.3535    
  3.3919      3.4440      3.5084      3.5835      3.6672      3.7574      3.8516      3.9474      4.0420      4.1323    
  4.2154      4.2883      4.3483      4.3930      4.4206      4.4300      4.4206      4.3930      4.3483      4.2883    
  4.2154      4.1323      4.0420      3.9474      3.8516      3.7574      3.6672      3.5835      3.5084      3.4440    
  3.3919      3.3535      3.3301      3.3222      3.3065      3.3224      3.3535      3.3991      3.4579      3.5282    
  3.6084      3.6963      3.7897      3.8862      3.9831      4.0775      4.1662      4.2462      4.3144      4.3682    
  4.4053      4.4242      4.4242      4.4053      4.3682      4.3144      4.2462      4.1662      4.0775      3.9831    
  3.8862      3.7897      3.6963      3.6084      3.5282      3.4579      3.3991      3.3535      3.3224      3.3065    
  3.2817      3.2896      3.3133      3.3520      3.4048      3.4701      3.5463      3.6316      3.7237      3.8203    
  3.9188      4.0161      4.1093      4.1951      4.2703      4.3321      4.3781      4.4065      4.4161      4.4065    
  4.3781      4.3321      4.2703      4.1951      4.1093      4.0161      3.9188      3.8203      3.7237      3.6316    
  3.5463      3.4701      3.4048      3.3520      3.3133      3.2896      3.2896      3.2896      3.3054      3.3365    
  3.3821      3.4408      3.5113      3.5917      3.6800      3.7742      3.8716      3.9695      4.0649      4.1546    
  4.2353      4.3040      4.3579      4.3950      4.4140      4.4140      4.3950      4.3579      4.3040      4.2353    
  4.1546      4.0649      3.9695      3.8716      3.7742      3.6800      3.5917      3.5113      3.4408      3.3821    
  3.3365      3.3054      3.3133      3.3055      3.3133      3.3365      3.3744      3.4260      3.4898      3.5643    
  3.6477      3.7379      3.8327      3.9295      4.0253      4.1171      4.2015      4.2753      4.3357      4.3805    
  4.4081      4.4174      4.4081      4.3805      4.3357      4.2753      4.2015      4.1171      4.0253      3.9295    
  3.8327      3.7379      3.6477      3.5643      3.4898      3.4260      3.3744      3.3365      3.3520      3.3368    
  3.3368      3.3520      3.3821      3.4260      3.4826      3.5504      3.6278      3.7130      3.8037      3.8977    
  3.9922      4.0842      4.1703      4.2473      4.3125      4.3634      4.3983      4.4161      4.4161      4.3983    
  4.3634      4.3125      4.2473      4.1703      4.0842      3.9922      3.8977      3.8037      3.7130      3.6278    
  3.5504      3.4826      3.4260      3.3821      3.4048      3.3827      3.3753      3.3827      3.4048      3.4408    
  3.4898      3.5504      3.6211      3.7002      3.7858      3.8756      3.9671      4.0574      4.1433      4.2215    
  4.2895      4.3446      4.3853      4.4102      4.4185      4.4102      4.3853      4.3446      4.2895      4.2215    
  4.1433      4.0574      3.9671      3.8756      3.7858      3.7002      3.6211      3.5504      3.4898      3.4408    
  3.4701      3.4419      3.4276      3.4276      3.4419      3.4701      3.5113      3.5643      3.6278      3.7002    
  3.7797      3.8642      3.9515      4.0385      4.1223      4.1999      4.2685      4.3259      4.3703      4.4005    
  4.4158      4.4158      4.4005      4.3703      4.3259      4.2685      4.1999      4.1223      4.0385      3.9515    
  3.8642      3.7797      3.7002      3.6278      3.5643      3.5113      3.5463      3.5129      3.4924      3.4855    
  3.4924      3.5129      3.5463      3.5917      3.6477      3.7130      3.7858      3.8642      3.9462      4.0287    
  4.1090      4.1842      4.2516      4.3092      4.3552      4.3886      4.4089      4.4157      4.4089      4.3886    
  4.3552      4.3092      4.2516      4.1842      4.1090      4.0287      3.9462      3.8642      3.7858      3.7130    
  3.6477      3.5917      3.6316      3.5939      3.5681      3.5550      3.5550      3.5681      3.5939      3.6316    
  3.6800      3.7379      3.8037      3.8756      3.9515      4.0287      4.1045      4.1759      4.2406      4.2965    
  4.3422      4.3768      4.3999      4.4114      4.4114      4.3999      4.3768      4.3422      4.2965      4.2406    
  4.1759      4.1045      4.0287      3.9515      3.8756      3.8037      3.7379      3.6800      3.7237      3.6828    
  3.6526      3.6341      3.6278      3.6341      3.6526      3.6828      3.7237      3.7742      3.8327      3.8977    
  3.9671      4.0385      4.1090      4.1759      4.2368      4.2897      4.3334      4.3672      4.3911      4.4052    
  4.4098      4.4052      4.3911      4.3672      4.3334      4.2897      4.2368      4.1759      4.1090      4.0385    
  3.9671      3.8977      3.8327      3.7742      3.8203      3.7772      3.7437      3.7207      3.7090      3.7090    
  3.7207      3.7437      3.7772      3.8203      3.8716      3.9295      3.9922      4.0574      4.1223      4.1842    
  4.2406      4.2897      4.3303      4.3619      4.3847      4.3993      4.4064      4.4064      4.3993      4.3847    
  4.3619      4.3303      4.2897      4.2406      4.1842      4.1223      4.0574      3.9922      3.9295      3.8716    
  3.9188      3.8748      3.8389      3.8124      3.7962      3.7907      3.7962      3.8124      3.8389      3.8748    
  3.9188      3.9695      4.0253      4.0842      4.1433      4.1999      4.2516      4.2965      4.3334      4.3619    
  4.3823      4.3957      4.4032      4.4056      4.4032      4.3957      4.3823      4.3619      4.3334      4.2965    
  4.2516      4.1999      4.1433      4.0842      4.0253      3.9695      4.0161      3.9725      3.9357      3.9068    
  3.8870      3.8769      3.8769      3.8870      3.9068      3.9357      3.9725      4.0161      4.0649      4.1171    
  4.1703      4.2215      4.2685      4.3092      4.3422      4.3672      4.3847      4.3957      4.4019      4.4046    
  4.4046      4.4019      4.3957      4.3847      4.3672      4.3422      4.3092      4.2685      4.2215      4.1703    
  4.1171      4.0649      4.1093      4.0676      4.0310      4.0011      3.9788      3.9651      3.9604      3.9651    
  3.9788      4.0011      4.0310      4.0676      4.1093      4.1546      4.2015      4.2473      4.2895      4.3259    
  4.3552      4.3768      4.3911      4.3993      4.4032      4.4046      4.4049      4.4046      4.4032      4.3993    
  4.3911      4.3768      4.3552      4.3259      4.2895      4.2473      4.2015      4.1546      4.1951      4.1567    
  4.1220      4.0923      4.0689      4.0527      4.0444      4.0444      4.0527      4.0689      4.0923      4.1220    
  4.1567      4.1951      4.2353      4.2753      4.3125      4.3446      4.3703      4.3886      4.3999      4.4052    
  4.4064      4.4056      4.4046      4.4046      4.4056      4.4064      4.4052      4.3999      4.3886      4.3703    
  4.3446      4.3125      4.2753      4.2353      4.2703      4.2369      4.2056      4.1777      4.1545      4.1371    
  4.1263      4.1226      4.1263      4.1371      4.1545      4.1777      4.2056      4.2369      4.2703      4.3040    
  4.3357      4.3634      4.3853      4.4005      4.4089      4.4114      4.4098      4.4064      4.4032      4.4019    
  4.4032      4.4064      4.4098      4.4114      4.4089      4.4005      4.3853      4.3634      4.3357      4.3040    
  4.3321      4.3052      4.2788      4.2543      4.2328      4.2156      4.2035      4.1973      4.1973      4.2035    
  4.2156      4.2328      4.2543      4.2788      4.3052      4.3321      4.3579      4.3805      4.3983      4.4102    
  4.4158      4.4157      4.4114      4.4052      4.3993      4.3957      4.3957      4.3993      4.4052      4.4114    
  4.4157      4.4158      4.4102      4.3983      4.3805      4.3579      4.3781      4.3589      4.3389      4.3194    
  4.3013      4.2857      4.2738      4.2663      4.2637      4.2663      4.2738      4.2857      4.3013      4.3194    
  4.3389      4.3589      4.3781      4.3950      4.4081      4.4161      4.4185      4.4158      4.4089      4.3999    
  4.3911      4.3847      4.3823      4.3847      4.3911      4.3999      4.4089      4.4158      4.4185      4.4161    
  4.4081      4.3950      4.4065      4.3960      4.3837      4.3705      4.3573      4.3451      4.3348      4.3273    
  4.3234      4.3234      4.3273      4.3348      4.3451      4.3573      4.3705      4.3837      4.3960      4.4065    
  4.4140      4.4174      4.4161      4.4102      4.4005      4.3886      4.3768      4.3672      4.3619      4.3619    
  4.3672      4.3768      4.3886      4.4005      4.4102      4.4161      4.4174      4.4140      4.4161      4.4149    
  4.4113      4.4058      4.3990      4.3916      4.3845      4.3786      4.3747      4.3733      4.3747      4.3786    
  4.3845      4.3916      4.3990      4.4058      4.4113      4.4149      4.4161      4.4140      4.4081      4.3983    
  4.3853      4.3703      4.3552      4.3422      4.3334      4.3303      4.3334      4.3422      4.3552      4.3703    
  4.3853      4.3983      4.4081      4.4140      4.4065      4.4149      4.4206      4.4238      4.4246      4.4236    
  4.4213      4.4186      4.4161      4.4147      4.4147      4.4161      4.4186      4.4213      4.4236      4.4246    
  4.4238      4.4206      4.4149      4.4065      4.3950      4.3805      4.3634      4.3446      4.3259      4.3092    
  4.2965      4.2897      4.2897      4.2965      4.3092      4.3259      4.3446      4.3634      4.3805      4.3950    
  4.3781      4.3960      4.4113      4.4238      4.4333      4.4399      4.4439      4.4459      4.4465      4.4465    
  4.4465      4.4465      4.4465      4.4459      4.4439      4.4399      4.4333      4.4238      4.4113      4.3960    
  4.3781      4.3579      4.3357      4.3125      4.2895      4.2685      4.2516      4.2406      4.2368      4.2406    
  4.2516      4.2685      4.2895      4.3125      4.3357      4.3579      4.3321      4.3589      4.3837      4.4058    
  4.4246      4.4399      4.4516      4.4598      4.4651      4.4681      4.4694      4.4694      4.4681      4.4651    
  4.4598      4.4516      4.4399      4.4246      4.4058      4.3837      4.3589      4.3321      4.3040      4.2753    
  4.2473      4.2215      4.1999      4.1842      4.1759      4.1759      4.1842      4.1999      4.2215      4.2473    
  4.2753      4.3040      4.2703      4.3052      4.3389      4.3705      4.3990      4.4236      4.4439      4.4598    
  4.4713      4.4790      4.4833      4.4847      4.4833      4.4790      4.4713      4.4598      4.4439      4.4236    
  4.3990      4.3705      4.3389      4.3052      4.2703      4.2353      4.2015      4.1703      4.1433      4.1223    
  4.1090      4.1045      4.1090      4.1223      4.1433      4.1703      4.2015      4.2353      4.1951      4.2369    
  4.2788      4.3194      4.3573      4.3916      4.4213      4.4459      4.4651      4.4790      4.4879      4.4923    
  4.4923      4.4879      4.4790      4.4651      4.4459      4.4213      4.3916      4.3573      4.3194      4.2788    
  4.2369      4.1951      4.1546      4.1171      4.0842      4.0574      4.0385      4.0287      4.0287      4.0385    
  4.0574      4.0842      4.1171      4.1546      4.1093      4.1567      4.2056      4.2543      4.3013      4.3451    
  4.3845      4.4186      4.4465      4.4681      4.4833      4.4923      4.4953      4.4923      4.4833      4.4681    
  4.4465      4.4186      4.3845      4.3451      4.3013      4.2543      4.2056      4.1567      4.1093      4.0649    
  4.0253      3.9922      3.9671      3.9515      3.9462      3.9515      3.9671      3.9922      4.0253      4.0649    
  4.0161      4.0676      4.1220      4.1777      4.2328      4.2857      4.3348      4.3786      4.4161      4.4465    
  4.4694      4.4847      4.4923      4.4923      4.4847      4.4694      4.4465      4.4161      4.3786      4.3348    
  4.2857      4.2328      4.1777      4.1220      4.0676      4.0161      3.9695      3.9295      3.8977      3.8756    
  3.8642      3.8642      3.8756      3.8977      3.9295      3.9695      3.9188      3.9725      4.0310      4.0923    
  4.1545      4.2156      4.2738      4.3273      4.3747      4.4147      4.4465      4.4694      4.4833      4.4879    
  4.4833      4.4694      4.4465      4.4147      4.3747      4.3273      4.2738      4.2156      4.1545      4.0923    
  4.0310      3.9725      3.9188      3.8716      3.8327      3.8037      3.7858      3.7797      3.7858      3.8037    
  3.8327      3.8716      3.8203      3.8748      3.9357      4.0011      4.0689      4.1371      4.2035      4.2663    
  4.3234      4.3733      4.4147      4.4465      4.4681      4.4790      4.4790      4.4681      4.4465      4.4147    
  4.3733      4.3234      4.2663      4.2035      4.1371      4.0689      4.0011      3.9357      3.8748      3.8203    
  3.7742      3.7379      3.7130      3.7002      3.7002      3.7130      3.7379      3.7742      3.7237      3.7772    
  3.8389      3.9068      3.9788      4.0527      4.1263      4.1973      4.2637      4.3234      4.3747      4.4161    
  4.4465      4.4651      4.4713      4.4651      4.4465      4.4161      4.3747      4.3234      4.2637      4.1973    
  4.1263      4.0527      3.9788      3.9068      3.8389      3.7772      3.7237      3.6800      3.6477      3.6278    
  3.6211      3.6278      3.6477      3.6800      3.6316      3.6828      3.7437      3.8124      3.8870      3.9651    
  4.0444      4.1226      4.1973      4.2663      4.3273      4.3786      4.4186      4.4459      4.4598      4.4598    
  4.4459      4.4186      4.3786      4.3273      4.2663      4.1973      4.1226      4.0444      3.9651      3.8870    
  3.8124      3.7437      3.6828      3.6316      3.5917      3.5643      3.5504      3.5504      3.5643      3.5917    
  3.5463      3.5939      3.6526      3.7207      3.7962      3.8769      3.9604      4.0444      4.1263      4.2035    
  4.2738      4.3348      4.3845      4.4213      4.4439      4.4516      4.4439      4.4213      4.3845      4.3348    
  4.2738      4.2035      4.1263      4.0444      3.9604      3.8769      3.7962      3.7207      3.6526      3.5939    
  3.5463      3.5113      3.4898      3.4826      3.4898      3.5113      3.4701      3.5129      3.5681      3.6341    
  3.7090      3.7907      3.8769      3.9651      4.0527      4.1371      4.2156      4.2857      4.3451      4.3916    
  4.4236      4.4399      4.4399      4.4236      4.3916      4.3451      4.2857      4.2156      4.1371      4.0527    
  3.9651      3.8769      3.7907      3.7090      3.6341      3.5681      3.5129      3.4701      3.4408      3.4260    
  3.4260      3.4408      3.4048      3.4419      3.4924      3.5550      3.6278      3.7090      3.7962      3.8870    
  3.9788      4.0689      4.1545      4.2328      4.3013      4.3573      4.3990      4.4246      4.4333      4.4246    
  4.3990      4.3573      4.3013      4.2328      4.1545      4.0689      3.9788      3.8870      3.7962      3.7090    
  3.6278      3.5550      3.4924      3.4419      3.4048      3.3821      3.3744      3.3821      3.3520      3.3827    
  3.4276      3.4855      3.5550      3.6341      3.7207      3.8124      3.9068      4.0011      4.0923      4.1777    
  4.2543      4.3194      4.3705      4.4058      4.4238      4.4238      4.4058      4.3705      4.3194      4.2543    
  4.1777      4.0923      4.0011      3.9068      3.8124      3.7207      3.6341      3.5550      3.4855      3.4276    
  3.3827      3.3520      3.3365      3.3365      3.3133      3.3368      3.3753      3.4276      3.4924      3.5681    
  3.6526      3.7437      3.8389      3.9357      4.0310      4.1220      4.2056      4.2788      4.3389      4.3837    
  4.4113      4.4206      4.4113      4.3837      4.3389      4.2788      4.2056      4.1220      4.0310      3.9357    
  3.8389      3.7437      3.6526      3.5681      3.4924      3.4276      3.3753      3.3368      3.3133      3.3054    
  3.2896      3.3055      3.3368      3.3827      3.4419      3.5129      3.5939      3.6828      3.7772      3.8748    
  3.9725      4.0676      4.1567      4.2369      4.3052      4.3589      4.3960      4.4149      4.4149      4.3960    
  4.3589      4.3052      4.2369      4.1567      4.0676      3.9725      3.8748      3.7772      3.6828      3.5939    
  3.5129      3.4419      3.3827      3.3368      3.3055      3.2896      3.2687      3.2767      3.3005      3.3395    
  3.3927      3.4586      3.5355      3.6217      3.7147      3.8122      3.9115      4.0094      4.1029      4.1888    
  4.2640      4.3256      4.3715      4.3997      4.4093      4.3997      4.3715      4.3256      4.2640      4.1888    
  4.1029      4.0094      3.9115      3.8122      3.7147      3.6217      3.5355      3.4586      3.3927      3.3395    
  3.3005      3.2767      3.2767      3.2767      3.2926      3.3240      3.3699      3.4293      3.5005      3.5818    
  3.6711      3.7662      3.8644      3.9630      4.0588      4.1488      4.2296      4.2983      4.3523      4.3895    
  4.4085      4.4085      4.3895      4.3523      4.2983      4.2296      4.1488      4.0588      3.9630      3.8644    
  3.7662      3.6711      3.5818      3.5005      3.4293      3.3699      3.3240      3.2926      3.3005      3.2926    
  3.3005      3.3240      3.3623      3.4144      3.4790      3.5544      3.6387      3.7299      3.8256      3.9231    
  4.0195      4.1117      4.1966      4.2710      4.3320      4.3773      4.4052      4.4147      4.4052      4.3773    
  4.3320      4.2710      4.1966      4.1117      4.0195      3.9231      3.8256      3.7299      3.6387      3.5544    
  3.4790      3.4144      3.3623      3.3240      3.3395      3.3241      3.3241      3.3395      3.3699      3.4144    
  3.4718      3.5405      3.6188      3.7049      3.7965      3.8913      3.9865      4.0793      4.1664      4.2448    
  4.3113      4.3635      4.3995      4.4178      4.4178      4.3995      4.3635      4.3113      4.2448      4.1664    
  4.0793      3.9865      3.8913      3.7965      3.7049      3.6188      3.5405      3.4718      3.4144      3.3699    
  3.3927      3.3702      3.3627      3.3702      3.3927      3.4293      3.4790      3.5405      3.6121      3.6921    
  3.7785      3.8691      3.9616      4.0531      4.1406      4.2210      4.2913      4.3488      4.3914      4.4176    
  4.4265      4.4176      4.3914      4.3488      4.2913      4.2210      4.1406      4.0531      3.9616      3.8691    
  3.7785      3.6921      3.6121      3.5405      3.4790      3.4293      3.4586      3.4298      3.4152      3.4152    
  3.4298      3.4586      3.5005      3.5544      3.6188      3.6921      3.7724      3.8577      3.9460      4.0346    
  4.1207      4.2012      4.2733      4.3342      4.3819      4.4146      4.4312      4.4312      4.4146      4.3819    
  4.3342      4.2733      4.2012      4.1207      4.0346      3.9460      3.8577      3.7724      3.6921      3.6188    
  3.5544      3.5005      3.5355      3.5014      3.4804      3.4734      3.4804      3.5014      3.5355      3.5818    
  3.6387      3.7049      3.7785      3.8577      3.9407      4.0250      4.1080      4.1869      4.2589      4.3213    
  4.3721      4.4096      4.4325      4.4402      4.4325      4.4096      4.3721      4.3213      4.2589      4.1869    
  4.1080      4.0250      3.9407      3.8577      3.7785      3.7049      3.6387      3.5818      3.6217      3.5831    
  3.5566      3.5431      3.5431      3.5566      3.5831      3.6217      3.6711      3.7299      3.7965      3.8691    
  3.9460      4.0250      4.1037      4.1794      4.2495      4.3116      4.3636      4.4038      4.4313      4.4452    
  4.4452      4.4313      4.4038      4.3636      4.3116      4.2495      4.1794      4.1037      4.0250      3.9460    
  3.8691      3.7965      3.7299      3.6711      3.7147      3.6728      3.6417      3.6226      3.6161      3.6226    
  3.6417      3.6728      3.7147      3.7662      3.8256      3.8913      3.9616      4.0346      4.1080      4.1794    
  4.2463      4.3063      4.3577      4.3989      4.4290      4.4472      4.4533      4.4472      4.4290      4.3989    
  4.3577      4.3063      4.2463      4.1794      4.1080      4.0346      3.9616      3.8913      3.8256      3.7662    
  3.8122      3.7681      3.7335      3.7097      3.6975      3.6975      3.7097      3.7335      3.7681      3.8122    
  3.8644      3.9231      3.9865      4.0531      4.1207      4.1869      4.2495      4.3063      4.3556      4.3961    
  4.4269      4.4476      4.4579      4.4579      4.4476      4.4269      4.3961      4.3556      4.3063      4.2495    
  4.1869      4.1207      4.0531      3.9865      3.9231      3.8644      3.9115      3.8665      3.8296      3.8020    
  3.7851      3.7793      3.7851      3.8020      3.8296      3.8665      3.9115      3.9630      4.0195      4.0793    
  4.1406      4.2012      4.2589      4.3116      4.3577      4.3961      4.4261      4.4474      4.4601      4.4643    
  4.4601      4.4474      4.4261      4.3961      4.3577      4.3116      4.2589      4.2012      4.1406      4.0793    
  4.0195      3.9630      4.0094      3.9650      3.9271      3.8971      3.8764      3.8657      3.8657      3.8764    
  3.8971      3.9271      3.9650      4.0094      4.0588      4.1117      4.1664      4.2210      4.2733      4.3213    
  4.3636      4.3989      4.4269      4.4474      4.4607      4.4673      4.4673      4.4607      4.4474      4.4269    
  4.3989      4.3636      4.3213      4.2733      4.2210      4.1664      4.1117      4.0588      4.1029      4.0605    
  4.0231      3.9921      3.9688      3.9543      3.9494      3.9543      3.9688      3.9921      4.0231      4.0605    
  4.1029      4.1488      4.1966      4.2448      4.2913      4.3342      4.3721      4.4038      4.4290      4.4476    
  4.4601      4.4673      4.4696      4.4673      4.4601      4.4476      4.4290      4.4038      4.3721      4.3342    
  4.2913      4.2448      4.1966      4.1488      4.1888      4.1500      4.1146      4.0840      4.0596      4.0425    
  4.0338      4.0338      4.0425      4.0596      4.0840      4.1146      4.1500      4.1888      4.2296      4.2710    
  4.3113      4.3488      4.3819      4.4096      4.4313      4.4472      4.4579      4.4643      4.4673      4.4673    
  4.4643      4.4579      4.4472      4.4313      4.4096      4.3819      4.3488      4.3113      4.2710      4.2296    
  4.2640      4.2303      4.1986      4.1701      4.1460      4.1277      4.1163      4.1124      4.1163      4.1277    
  4.1460      4.1701      4.1986      4.2303      4.2640      4.2983      4.3320      4.3635      4.3914      4.4146    
  4.4325      4.4452      4.4533      4.4579      4.4601      4.4607      4.4601      4.4579      4.4533      4.4452    
  4.4325      4.4146      4.3914      4.3635      4.3320      4.2983      4.3256      4.2986      4.2720      4.2472    
  4.2252      4.2072      4.1945      4.1878      4.1878      4.1945      4.2072      4.2252      4.2472      4.2720    
  4.2986      4.3256      4.3523      4.3773      4.3995      4.4176      4.4312      4.4402      4.4452      4.4472    
  4.4476      4.4474      4.4474      4.4476      4.4472      4.4452      4.4402      4.4312      4.4176      4.3995    
  4.3773      4.3523      4.3715      4.3522      4.3323      4.3127      4.2943      4.2783      4.2658      4.2579    
  4.2551      4.2579      4.2658      4.2783      4.2943      4.3127      4.3323      4.3522      4.3715      4.3895    
  4.4052      4.4178      4.4265      4.4312      4.4325      4.4313      4.4290      4.4269      4.4261      4.4269    
  4.4290      4.4313      4.4325      4.4312      4.4265      4.4178      4.4052      4.3895      4.3997      4.3891    
  4.3771      4.3641      4.3510      4.3387      4.3281      4.3202      4.3161      4.3161      4.3202      4.3281    
  4.3387      4.3510      4.3641      4.3771      4.3891      4.3997      4.4085      4.4147      4.4178      4.4176    
  4.4146      4.4096      4.4038      4.3989      4.3961      4.3961      4.3989      4.4038      4.4096      4.4146    
  4.4176      4.4178      4.4147      4.4085      4.4093      4.4079      4.4046      4.3996      4.3932      4.3860    
  4.3790      4.3729      4.3689      4.3674      4.3689      4.3729      4.3790      4.3860      4.3932      4.3996    
  4.4046      4.4079      4.4093      4.4085      4.4052      4.3995      4.3914      4.3819      4.3721      4.3636    
  4.3577      4.3556      4.3577      4.3636      4.3721      4.3819      4.3914      4.3995      4.4052      4.4085    
  4.3997      4.4079      4.4140      4.4177      4.4192      4.4187      4.4167      4.4141      4.4117      4.4103    
  4.4103      4.4117      4.4141      4.4167      4.4187      4.4192      4.4177      4.4140      4.4079      4.3997    
  4.3895      4.3773      4.3635      4.3488      4.3342      4.3213      4.3116      4.3063      4.3063      4.3116    
  4.3213      4.3342      4.3488      4.3635      4.3773      4.3895      4.3715      4.3891      4.4046      4.4177    
  4.4279      4.4353      4.4399      4.4424      4.4434      4.4436      4.4436      4.4436      4.4434      4.4424    
  4.4399      4.4353      4.4279      4.4177      4.4046      4.3891      4.3715      4.3523      4.3320      4.3113    
  4.2913      4.2733      4.2589      4.2495      4.2463      4.2495      4.2589      4.2733      4.2913      4.3113    
  4.3320      4.3523      4.3256      4.3522      4.3771      4.3996      4.4192      4.4353      4.4478      4.4568    
  4.4628      4.4662      4.4678      4.4678      4.4662      4.4628      4.4568      4.4478      4.4353      4.4192    
  4.3996      4.3771      4.3522      4.3256      4.2983      4.2710      4.2448      4.2210      4.2012      4.1869    
  4.1794      4.1794      4.1869      4.2012      4.2210      4.2448      4.2710      4.2983      4.2640      4.2986    
  4.3323      4.3641      4.3932      4.4187      4.4399      4.4568      4.4693      4.4777      4.4826      4.4841    
  4.4826      4.4777      4.4693      4.4568      4.4399      4.4187      4.3932      4.3641      4.3323      4.2986    
  4.2640      4.2296      4.1966      4.1664      4.1406      4.1207      4.1080      4.1037      4.1080      4.1207    
  4.1406      4.1664      4.1966      4.2296      4.1888      4.2303      4.2720      4.3127      4.3510      4.3860    
  4.4167      4.4424      4.4628      4.4777      4.4875      4.4923      4.4923      4.4875      4.4777      4.4628    
  4.4424      4.4167      4.3860      4.3510      4.3127      4.2720      4.2303      4.1888      4.1488      4.1117    
  4.0793      4.0531      4.0346      4.0250      4.0250      4.0346      4.0531      4.0793      4.1117      4.1488    
  4.1029      4.1500      4.1986      4.2472      4.2943      4.3387      4.3790      4.4141      4.4434      4.4662    
  4.4826      4.4923      4.4955      4.4923      4.4826      4.4662      4.4434      4.4141      4.3790      4.3387    
  4.2943      4.2472      4.1986      4.1500      4.1029      4.0588      4.0195      3.9865      3.9616      3.9460    
  3.9407      3.9460      3.9616      3.9865      4.0195      4.0588      4.0094      4.0605      4.1146      4.1701    
  4.2252      4.2783      4.3281      4.3729      4.4117      4.4436      4.4678      4.4841      4.4923      4.4923    
  4.4841      4.4678      4.4436      4.4117      4.3729      4.3281      4.2783      4.2252      4.1701      4.1146    
  4.0605      4.0094      3.9630      3.9231      3.8913      3.8691      3.8577      3.8577      3.8691      3.8913    
  3.9231      3.9630      3.9115      3.9650      4.0231      4.0840      4.1460      4.2072      4.2658      4.3202    
  4.3689      4.4103      4.4436      4.4678      4.4826      4.4875      4.4826      4.4678      4.4436      4.4103    
  4.3689      4.3202      4.2658      4.2072      4.1460      4.0840      4.0231      3.9650      3.9115      3.8644    
  3.8256      3.7965      3.7785      3.7724      3.7785      3.7965      3.8256      3.8644      3.8122      3.8665    
  3.9271      3.9921      4.0596      4.1277      4.1945      4.2579      4.3161      4.3674      4.4103      4.4436    
  4.4662      4.4777      4.4777      4.4662      4.4436      4.4103      4.3674      4.3161      4.2579      4.1945    
  4.1277      4.0596      3.9921      3.9271      3.8665      3.8122      3.7662      3.7299      3.7049      3.6921    
  3.6921      3.7049      3.7299      3.7662      3.7147      3.7681      3.8296      3.8971      3.9688      4.0425    
  4.1163      4.1878      4.2551      4.3161      4.3689      4.4117      4.4434      4.4628      4.4693      4.4628    
  4.4434      4.4117      4.3689      4.3161      4.2551      4.1878      4.1163      4.0425      3.9688      3.8971    
  3.8296      3.7681      3.7147      3.6711      3.6387      3.6188      3.6121      3.6188      3.6387      3.6711    
  3.6217      3.6728      3.7335      3.8020      3.8764      3.9543      4.0338      4.1124      4.1878      4.2579    
  4.3202      4.3729      4.4141      4.4424      4.4568      4.4568      4.4424      4.4141      4.3729      4.3202    
  4.2579      4.1878      4.1124      4.0338      3.9543      3.8764      3.8020      3.7335      3.6728      3.6217    
  3.5818      3.5544      3.5405      3.5405      3.5544      3.5818      3.5355      3.5831      3.6417      3.7097    
  3.7851      3.8657      3.9494      4.0338      4.1163      4.1945      4.2658      4.3281      4.3790      4.4167    
  4.4399      4.4478      4.4399      4.4167      4.3790      4.3281      4.2658      4.1945      4.1163      4.0338    
  3.9494      3.8657      3.7851      3.7097      3.6417      3.5831      3.5355      3.5005      3.4790      3.4718    
  3.4790      3.5005      3.4586      3.5014      3.5566      3.6226      3.6975      3.7793      3.8657      3.9543    
  4.0425      4.1277      4.2072      4.2783      4.3387      4.3860      4.4187      4.4353      4.4353      4.4187    
  4.3860      4.3387      4.2783      4.2072      4.1277      4.0425      3.9543      3.8657      3.7793      3.6975    
  3.6226      3.5566      3.5014      3.4586      3.4293      3.4144      3.4144      3.4293      3.3927      3.4298    
  3.4804      3.5431      3.6161      3.6975      3.7851      3.8764      3.9688      4.0596      4.1460      4.2252    
  4.2943      4.3510      4.3932      4.4192      4.4279      4.4192      4.3932      4.3510      4.2943      4.2252    
  4.1460      4.0596      3.9688      3.8764      3.7851      3.6975      3.6161      3.5431      3.4804      3.4298    
  3.3927      3.3699      3.3623      3.3699      3.3395      3.3702      3.4152      3.4734      3.5431      3.6226    
  3.7097      3.8020      3.8971      3.9921      4.0840      4.1701      4.2472      4.3127      4.3641      4.3996    
  4.4177      4.4177      4.3996      4.3641      4.3127      4.2472      4.1701      4.0840      3.9921      3.8971    
  3.8020      3.7097      3.6226      3.5431      3.4734      3.4152      3.3702      3.3395      3.3240      3.3240    
  3.3005      3.3241      3.3627      3.4152      3.4804      3.5566      3.6417      3.7335      3.8296      3.9271    
  4.0231      4.1146      4.1986      4.2720      4.3323      4.3771      4.4046      4.4140      4.4046      4.3771    
  4.3323      4.2720      4.1986      4.1146      4.0231      3.9271      3.8296      3.7335      3.6417      3.5566    
  3.4804      3.4152      3.3627      3.3241      3.3005      3.2926      3.2767      3.2926      3.3241      3.3702    
  3.4298      3.5014      3.5831      3.6728      3.7681      3.8665      3.9650      4.0605      4.1500      4.2303    
  4.2986      4.3522      4.3891      4.4079      4.4079      4.3891      4.3522      4.2986      4.2303      4.1500    
  4.0605      3.9650      3.8665      3.7681      3.6728      3.5831      3.5014      3.4298      3.3702      3.3241    
  3.2926      3.2767      3.2605      3.2686      3.2925      3.3317      3.3851      3.4514      3.5289      3.6156    
  3.7093      3.8074      3.9071      4.0054      4.0991      4.1850      4.2601      4.3216      4.3673      4.3954    
  4.4049      4.3954      4.3673      4.3216      4.2601      4.1850      4.0991      4.0054      3.9071      3.8074    
  3.7093      3.6156      3.5289      3.4514      3.3851      3.3317      3.2925      3.2686      3.2686      3.2686    
  3.2846      3.3161      3.3623      3.4221      3.4938      3.5758      3.6658      3.7615      3.8603      3.9593    
  4.0554      4.1453      4.2260      4.2945      4.3483      4.3853      4.4042      4.4042      4.3853      4.3483    
  4.2945      4.2260      4.1453      4.0554      3.9593      3.8603      3.7615      3.6658      3.5758      3.4938    
  3.4221      3.3623      3.3161      3.2846      3.2925      3.2846      3.2925      3.3161      3.3547      3.4072    
  3.4723      3.5484      3.6334      3.7253      3.8216      3.9195      4.0162      4.1086      4.1934      4.2676    
  4.3285      4.3738      4.4017      4.4111      4.4017      4.3738      4.3285      4.2676      4.1934      4.1086    
  4.0162      3.9195      3.8216      3.7253      3.6334      3.5484      3.4723      3.4072      3.3547      3.3161    
  3.3317      3.3161      3.3161      3.3317      3.3623      3.4072      3.4651      3.5344      3.6135      3.7003    
  3.7925      3.8878      3.9834      4.0763      4.1636      4.2420      4.3087      4.3611      4.3973      4.4157    
  4.4157      4.3973      4.3611      4.3087      4.2420      4.1636      4.0763      3.9834      3.8878      3.7925    
  3.7003      3.6135      3.5344      3.4651      3.4072      3.3623      3.3851      3.3624      3.3548      3.3624    
  3.3851      3.4221      3.4723      3.5344      3.6068      3.6874      3.7745      3.8657      3.9585      4.0503    
  4.1381      4.2189      4.2898      4.3480      4.3913      4.4179      4.4269      4.4179      4.3913      4.3480    
  4.2898      4.2189      4.1381      4.0503      3.9585      3.8657      3.7745      3.6874      3.6068      3.5344    
  3.4723      3.4221      3.4514      3.4223      3.4075      3.4075      3.4223      3.4514      3.4938      3.5484    
  3.6135      3.6874      3.7684      3.8543      3.9429      4.0319      4.1184      4.1998      4.2730      4.3352    
  4.3841      4.4178      4.4350      4.4350      4.4178      4.3841      4.3352      4.2730      4.1998      4.1184    
  4.0319      3.9429      3.8543      3.7684      3.6874      3.6135      3.5484      3.4938      3.5289      3.4942    
  3.4729      3.4658      3.4729      3.4942      3.5289      3.5758      3.6334      3.7003      3.7745      3.8543    
  3.9376      4.0223      4.1060      4.1861      4.2596      4.3240      4.3767      4.4159      4.4400      4.4481    
  4.4400      4.4159      4.3767      4.3240      4.2596      4.1861      4.1060      4.0223      3.9376      3.8543    
  3.7745      3.7003      3.6334      3.5758      3.6156      3.5764      3.5494      3.5356      3.5356      3.5494    
  3.5764      3.6156      3.6658      3.7253      3.7925      3.8657      3.9429      4.0223      4.1018      4.1789    
  4.2510      4.3155      4.3702      4.4130      4.4424      4.4574      4.4574      4.4424      4.4130      4.3702    
  4.3155      4.2510      4.1789      4.1018      4.0223      3.9429      3.8657      3.7925      3.7253      3.6658    
  3.7093      3.6666      3.6348      3.6152      3.6086      3.6152      3.6348      3.6666      3.7093      3.7615    
  3.8216      3.8878      3.9585      4.0319      4.1060      4.1789      4.2480      4.3110      4.3657      4.4103    
  4.4432      4.4633      4.4701      4.4633      4.4432      4.4103      4.3657      4.3110      4.2480      4.1789    
  4.1060      4.0319      3.9585      3.8878      3.8216      3.7615      3.8074      3.7625      3.7271      3.7026    
  3.6900      3.6900      3.7026      3.7271      3.7625      3.8074      3.8603      3.9195      3.9834      4.0503    
  4.1184      4.1861      4.2510      4.3110      4.3641      4.4086      4.4432      4.4667      4.4786      4.4786    
  4.4667      4.4432      4.4086      4.3641      4.3110      4.2510      4.1861      4.1184      4.0503      3.9834    
  3.9195      3.8603      3.9071      3.8614      3.8236      3.7953      3.7777      3.7718      3.7777      3.7953    
  3.8236      3.8614      3.9071      3.9593      4.0162      4.0763      4.1381      4.1998      4.2596      4.3155    
  4.3657      4.4086      4.4431      4.4681      4.4834      4.4885      4.4834      4.4681      4.4431      4.4086    
  4.3657      4.3155      4.2596      4.1998      4.1381      4.0763      4.0162      3.9593      4.0054      3.9603    
  3.9215      3.8907      3.8692      3.8582      3.8582      3.8692      3.8907      3.9215      3.9603      4.0054    
  4.0554      4.1086      4.1636      4.2189      4.2730      4.3240      4.3702      4.4103      4.4432      4.4681    
  4.4849      4.4933      4.4933      4.4849      4.4681      4.4432      4.4103      4.3702      4.3240      4.2730    
  4.2189      4.1636      4.1086      4.0554      4.0991      4.0562      4.0180      3.9861      3.9620      3.9470    
  3.9419      3.9470      3.9620      3.9861      4.0180      4.0562      4.0991      4.1453      4.1934      4.2420    
  4.2898      4.3352      4.3767      4.4130      4.4432      4.4667      4.4834      4.4933      4.4966      4.4933    
  4.4834      4.4667      4.4432      4.4130      4.3767      4.3352      4.2898      4.2420      4.1934      4.1453    
  4.1850      4.1459      4.1100      4.0786      4.0534      4.0356      4.0265      4.0265      4.0356      4.0534    
  4.0786      4.1100      4.1459      4.1850      4.2260      4.2676      4.3087      4.3480      4.3841      4.4159    
  4.4424      4.4633      4.4786      4.4885      4.4933      4.4933      4.4885      4.4786      4.4633      4.4424    
  4.4159      4.3841      4.3480      4.3087      4.2676      4.2260      4.2601      4.2263      4.1943      4.1652    
  4.1404      4.1215      4.1095      4.1054      4.1095      4.1215      4.1404      4.1652      4.1943      4.2263    
  4.2601      4.2945      4.3285      4.3611      4.3913      4.4178      4.4400      4.4574      4.4701      4.4786    
  4.4834      4.4849      4.4834      4.4786      4.4701      4.4574      4.4400      4.4178      4.3913      4.3611    
  4.3285      4.2945      4.3216      4.2946      4.2680      4.2428      4.2203      4.2018      4.1885      4.1816    
  4.1816      4.1885      4.2018      4.2203      4.2428      4.2680      4.2946      4.3216      4.3483      4.3738    
  4.3973      4.4179      4.4350      4.4481      4.4574      4.4633      4.4667      4.4681      4.4681      4.4667    
  4.4633      4.4574      4.4481      4.4350      4.4179      4.3973      4.3738      4.3483      4.3673      4.3481    
  4.3284      4.3087      4.2902      4.2738      4.2610      4.2527      4.2499      4.2527      4.2610      4.2738    
  4.2902      4.3087      4.3284      4.3481      4.3673      4.3853      4.4017      4.4157      4.4269      4.4350    
  4.4400      4.4424      4.4432      4.4432      4.4431      4.4432      4.4432      4.4424      4.4400      4.4350    
  4.4269      4.4157      4.4017      4.3853      4.3954      4.3850      4.3732      4.3605      4.3475      4.3351    
  4.3243      4.3164      4.3121      4.3121      4.3164      4.3243      4.3351      4.3475      4.3605      4.3732    
  4.3850      4.3954      4.4042      4.4111      4.4157      4.4179      4.4178      4.4159      4.4130      4.4103    
  4.4086      4.4086      4.4103      4.4130      4.4159      4.4178      4.4179      4.4157      4.4111      4.4042    
  4.4049      4.4038      4.4008      4.3962      4.3902      4.3833      4.3763      4.3704      4.3663      4.3649    
  4.3663      4.3704      4.3763      4.3833      4.3902      4.3962      4.4008      4.4038      4.4049      4.4042    
  4.4017      4.3973      4.3913      4.3841      4.3767      4.3702      4.3657      4.3641      4.3657      4.3702    
  4.3767      4.3841      4.3913      4.3973      4.4017      4.4042      4.3954      4.4038      4.4102      4.4144    
  4.4165      4.4165      4.4150      4.4128      4.4106      4.4093      4.4093      4.4106      4.4128      4.4150    
  4.4165      4.4165      4.4144      4.4102      4.4038      4.3954      4.3853      4.3738      4.3611      4.3480    
  4.3352      4.3240      4.3155      4.3110      4.3110      4.3155      4.3240      4.3352      4.3480      4.3611    
  4.3738      4.3853      4.3673      4.3850      4.4008      4.4144      4.4253      4.4335      4.4389      4.4420    
  4.4435      4.4440      4.4441      4.4440      4.4435      4.4420      4.4389      4.4335      4.4253      4.4144    
  4.4008      4.3850      4.3673      4.3483      4.3285      4.3087      4.2898      4.2730      4.2596      4.2510    
  4.2480      4.2510      4.2596      4.2730      4.2898      4.3087      4.3285      4.3483      4.3216      4.3481    
  4.3732      4.3962      4.4165      4.4335      4.4469      4.4569      4.4637      4.4677      4.4696      4.4696    
  4.4677      4.4637      4.4569      4.4469      4.4335      4.4165      4.3962      4.3732      4.3481      4.3216    
  4.2945      4.2676      4.2420      4.2189      4.1998      4.1861      4.1789      4.1789      4.1861      4.1998    
  4.2189      4.2420      4.2676      4.2945      4.2601      4.2946      4.3284      4.3605      4.3902      4.4165    
  4.4389      4.4569      4.4705      4.4798      4.4852      4.4869      4.4852      4.4798      4.4705      4.4569    
  4.4389      4.4165      4.3902      4.3605      4.3284      4.2946      4.2601      4.2260      4.1934      4.1636    
  4.1381      4.1184      4.1060      4.1018      4.1060      4.1184      4.1381      4.1636      4.1934      4.2260    
  4.1850      4.2263      4.2680      4.3087      4.3475      4.3833      4.4150      4.4420      4.4637      4.4798    
  4.4904      4.4957      4.4957      4.4904      4.4798      4.4637      4.4420      4.4150      4.3833      4.3475    
  4.3087      4.2680      4.2263      4.1850      4.1453      4.1086      4.0763      4.0503      4.0319      4.0223    
  4.0223      4.0319      4.0503      4.0763      4.1086      4.1453      4.0991      4.1459      4.1943      4.2428    
  4.2902      4.3351      4.3763      4.4128      4.4435      4.4677      4.4852      4.4957      4.4992      4.4957    
  4.4852      4.4677      4.4435      4.4128      4.3763      4.3351      4.2902      4.2428      4.1943      4.1459    
  4.0991      4.0554      4.0162      3.9834      3.9585      3.9429      3.9376      3.9429      3.9585      3.9834    
  4.0162      4.0554      4.0054      4.0562      4.1100      4.1652      4.2203      4.2738      4.3243      4.3704    
  4.4106      4.4440      4.4696      4.4869      4.4957      4.4957      4.4869      4.4696      4.4440      4.4106    
  4.3704      4.3243      4.2738      4.2203      4.1652      4.1100      4.0562      4.0054      3.9593      3.9195    
  3.8878      3.8657      3.8543      3.8543      3.8657      3.8878      3.9195      3.9593      3.9071      3.9603    
  4.0180      4.0786      4.1404      4.2018      4.2610      4.3164      4.3663      4.4093      4.4441      4.4696    
  4.4852      4.4904      4.4852      4.4696      4.4441      4.4093      4.3663      4.3164      4.2610      4.2018    
  4.1404      4.0786      4.0180      3.9603      3.9071      3.8603      3.8216      3.7925      3.7745      3.7684    
  3.7745      3.7925      3.8216      3.8603      3.8074      3.8614      3.9215      3.9861      4.0534      4.1215    
  4.1885      4.2527      4.3121      4.3649      4.4093      4.4440      4.4677      4.4798      4.4798      4.4677    
  4.4440      4.4093      4.3649      4.3121      4.2527      4.1885      4.1215      4.0534      3.9861      3.9215    
  3.8614      3.8074      3.7615      3.7253      3.7003      3.6874      3.6874      3.7003      3.7253      3.7615    
  3.7093      3.7625      3.8236      3.8907      3.9620      4.0356      4.1095      4.1816      4.2499      4.3121    
  4.3663      4.4106      4.4435      4.4637      4.4705      4.4637      4.4435      4.4106      4.3663      4.3121    
  4.2499      4.1816      4.1095      4.0356      3.9620      3.8907      3.8236      3.7625      3.7093      3.6658    
  3.6334      3.6135      3.6068      3.6135      3.6334      3.6658      3.6156      3.6666      3.7271      3.7953    
  3.8692      3.9470      4.0265      4.1054      4.1816      4.2527      4.3164      4.3704      4.4128      4.4420    
  4.4569      4.4569      4.4420      4.4128      4.3704      4.3164      4.2527      4.1816      4.1054      4.0265    
  3.9470      3.8692      3.7953      3.7271      3.6666      3.6156      3.5758      3.5484      3.5344      3.5344    
  3.5484      3.5758      3.5289      3.5764      3.6348      3.7026      3.7777      3.8582      3.9419      4.0265    
  4.1095      4.1885      4.2610      4.3243      4.3763      4.4150      4.4389      4.4469      4.4389      4.4150    
  4.3763      4.3243      4.2610      4.1885      4.1095      4.0265      3.9419      3.8582      3.7777      3.7026    
  3.6348      3.5764      3.5289      3.4938      3.4723      3.4651      3.4723      3.4938      3.4514      3.4942    
  3.5494      3.6152      3.6900      3.7718      3.8582      3.9470      4.0356      4.1215      4.2018      4.2738    
  4.3351      4.3833      4.4165      4.4335      4.4335      4.4165      4.3833      4.3351      4.2738      4.2018    
  4.1215      4.0356      3.9470      3.8582      3.7718      3.6900      3.6152      3.5494      3.4942      3.4514    
  3.4221      3.4072      3.4072      3.4221      3.3851      3.4223      3.4729      3.5356      3.6086      3.6900    
  3.7777      3.8692      3.9620      4.0534      4.1404      4.2203      4.2902      4.3475      4.3902      4.4165    
  4.4253      4.4165      4.3902      4.3475      4.2902      4.2203      4.1404      4.0534      3.9620      3.8692    
  3.7777      3.6900      3.6086      3.5356      3.4729      3.4223      3.3851      3.3623      3.3547      3.3623    
  3.3317      3.3624      3.4075      3.4658      3.5356      3.6152      3.7026      3.7953      3.8907      3.9861    
  4.0786      4.1652      4.2428      4.3087      4.3605      4.3962      4.4144      4.4144      4.3962      4.3605    
  4.3087      4.2428      4.1652      4.0786      3.9861      3.8907      3.7953      3.7026      3.6152      3.5356    
  3.4658      3.4075      3.3624      3.3317      3.3161      3.3161      3.2925      3.3161      3.3548      3.4075    
  3.4729      3.5494      3.6348      3.7271      3.8236      3.9215      4.0180      4.1100      4.1943      4.2680    
  4.3284      4.3732      4.4008      4.4102      4.4008      4.3732      4.3284      4.2680      4.1943      4.1100    
  4.0180      3.9215      3.8236      3.7271      3.6348      3.5494      3.4729      3.4075      3.3548      3.3161    
  3.2925      3.2846      3.2686      3.2846      3.3161      3.3624      3.4223      3.4942      3.5764      3.6666    
  3.7625      3.8614      3.9603      4.0562      4.1459      4.2263      4.2946      4.3481      4.3850      4.4038    
  4.4038      4.3850      4.3481      4.2946      4.2263      4.1459      4.0562      3.9603      3.8614      3.7625    
  3.6666      3.5764      3.4942      3.4223      3.3624      3.3161      3.2846      3.2686      3.2578      3.2658    
  3.2898      3.3290      3.3825      3.4490      3.5266      3.6136      3.7075      3.8058      3.9057      4.0041    
  4.0979      4.1838      4.2588      4.3203      4.3659      4.3940      4.4034      4.3940      4.3659      4.3203    
  4.2588      4.1838      4.0979      4.0041      3.9057      3.8058      3.7075      3.6136      3.5266      3.4490    
  3.3825      3.3290      3.2898      3.2658      3.2658      3.2658      3.2818      3.3134      3.3598      3.4197    
  3.4917      3.5739      3.6643      3.7603      3.8593      3.9584      4.0545      4.1444      4.2249      4.2932    
  4.3469      4.3838      4.4026      4.4026      4.3838      4.3469      4.2932      4.2249      4.1444      4.0545    
  3.9584      3.8593      3.7603      3.6643      3.5739      3.4917      3.4197      3.3598      3.3134      3.2818    
  3.2898      3.2818      3.2898      3.3134      3.3521      3.4048      3.4702      3.5466      3.6321      3.7243    
  3.8209      3.9190      4.0157      4.1080      4.1925      4.2665      4.3271      4.3722      4.3999      4.4093    
  4.3999      4.3722      4.3271      4.2665      4.1925      4.1080      4.0157      3.9190      3.8209      3.7243    
  3.6321      3.5466      3.4702      3.4048      3.3521      3.3134      3.3290      3.3134      3.3134      3.3290    
  3.3598      3.4048      3.4630      3.5327      3.6122      3.6995      3.7921      3.8876      3.9832      4.0761    
  4.1630      4.2411      4.3075      4.3596      4.3956      4.4139      4.4139      4.3956      4.3596      4.3075    
  4.2411      4.1630      4.0761      3.9832      3.8876      3.7921      3.6995      3.6122      3.5327      3.4630    
  3.4048      3.3598      3.3825      3.3598      3.3521      3.3598      3.3825      3.4197      3.4702      3.5327    
  3.6055      3.6867      3.7742      3.8657      3.9586      4.0503      4.1378      4.2183      4.2888      4.3467    
  4.3898      4.4164      4.4254      4.4164      4.3898      4.3467      4.2888      4.2183      4.1378      4.0503    
  3.9586      3.8657      3.7742      3.6867      3.6055      3.5327      3.4702      3.4197      3.4490      3.4197    
  3.4048      3.4048      3.4197      3.4490      3.4917      3.5466      3.6122      3.6867      3.7681      3.8544    
  3.9432      4.0321      4.1184      4.1994      4.2723      4.3343      4.3832      4.4169      4.4341      4.4341    
  4.4169      4.3832      4.3343      4.2723      4.1994      4.1184      4.0321      3.9432      3.8544      3.7681    
  3.6867      3.6122      3.5466      3.4917      3.5266      3.4917      3.4702      3.4630      3.4702      3.4917    
  3.5266      3.5739      3.6321      3.6995      3.7742      3.8544      3.9379      4.0227      4.1061      4.1859    
  4.2592      4.3235      4.3764      4.4157      4.4400      4.4482      4.4400      4.4157      4.3764      4.3235    
  4.2592      4.1859      4.1061      4.0227      3.9379      3.8544      3.7742      3.6995      3.6321      3.5739    
  3.6136      3.5739      3.5466      3.5327      3.5327      3.5466      3.5739      3.6136      3.6643      3.7243    
  3.7921      3.8657      3.9432      4.0227      4.1020      4.1788      4.2508      4.3155      4.3705      4.4137    
  4.4435      4.4587      4.4587      4.4435      4.4137      4.3705      4.3155      4.2508      4.1788      4.1020    
  4.0227      3.9432      3.8657      3.7921      3.7243      3.6643      3.7075      3.6643      3.6321      3.6122    
  3.6055      3.6122      3.6321      3.6643      3.7075      3.7603      3.8209      3.8876      3.9586      4.0321    
  4.1061      4.1788      4.2479      4.3112      4.3664      4.4116      4.4452      4.4658      4.4727      4.4658    
  4.4452      4.4116      4.3664      4.3112      4.2479      4.1788      4.1061      4.0321      3.9586      3.8876    
  3.8209      3.7603      3.8058      3.7603      3.7243      3.6995      3.6867      3.6867      3.6995      3.7243    
  3.7603      3.8058      3.8593      3.9190      3.9832      4.0503      4.1184      4.1859      4.2508      4.3112    
  4.3650      4.4104      4.4458      4.4700      4.4824      4.4824      4.4700      4.4458      4.4104      4.3650    
  4.3112      4.2508      4.1859      4.1184      4.0503      3.9832      3.9190      3.8593      3.9057      3.8593    
  3.8209      3.7921      3.7742      3.7681      3.7742      3.7921      3.8209      3.8593      3.9057      3.9584    
  4.0157      4.0761      4.1378      4.1994      4.2592      4.3155      4.3664      4.4104      4.4459      4.4720    
  4.4879      4.4933      4.4879      4.4720      4.4459      4.4104      4.3664      4.3155      4.2592      4.1994    
  4.1378      4.0761      4.0157      3.9584      4.0041      3.9584      3.9190      3.8876      3.8657      3.8544    
  3.8544      3.8657      3.8876      3.9190      3.9584      4.0041      4.0545      4.1080      4.1630      4.2183    
  4.2723      4.3235      4.3705      4.4116      4.4458      4.4720      4.4898      4.4987      4.4987      4.4898    
  4.4720      4.4458      4.4116      4.3705      4.3235      4.2723      4.2183      4.1630      4.1080      4.0545    
  4.0979      4.0545      4.0157      3.9832      3.9586      3.9432      3.9379      3.9432      3.9586      3.9832    
  4.0157      4.0545      4.0979      4.1444      4.1925      4.2411      4.2888      4.3343      4.3764      4.4137    
  4.4452      4.4700      4.4879      4.4987      4.5023      4.4987      4.4879      4.4700      4.4452      4.4137    
  4.3764      4.3343      4.2888      4.2411      4.1925      4.1444      4.1838      4.1444      4.1080      4.0761    
  4.0503      4.0321      4.0227      4.0227      4.0321      4.0503      4.0761      4.1080      4.1444      4.1838    
  4.2249      4.2665      4.3075      4.3467      4.3832      4.4157      4.4435      4.4658      4.4824      4.4933    
  4.4987      4.4987      4.4933      4.4824      4.4658      4.4435      4.4157      4.3832      4.3467      4.3075    
  4.2665      4.2249      4.2588      4.2249      4.1925      4.1630      4.1378      4.1184      4.1061      4.1020    
  4.1061      4.1184      4.1378      4.1630      4.1925      4.2249      4.2588      4.2932      4.3271      4.3596    
  4.3898      4.4169      4.4400      4.4587      4.4727      4.4824      4.4879      4.4898      4.4879      4.4824    
  4.4727      4.4587      4.4400      4.4169      4.3898      4.3596      4.3271      4.2932      4.3203      4.2932    
  4.2665      4.2411      4.2183      4.1994      4.1859      4.1788      4.1788      4.1859      4.1994      4.2183    
  4.2411      4.2665      4.2932      4.3203      4.3469      4.3722      4.3956      4.4164      4.4341      4.4482    
  4.4587      4.4658      4.4700      4.4720      4.4720      4.4700      4.4658      4.4587      4.4482      4.4341    
  4.4164      4.3956      4.3722      4.3469      4.3659      4.3469      4.3271      4.3075      4.2888      4.2723    
  4.2592      4.2508      4.2479      4.2508      4.2592      4.2723      4.2888      4.3075      4.3271      4.3469    
  4.3659      4.3838      4.3999      4.4139      4.4254      4.4341      4.4400      4.4435      4.4452      4.4458    
  4.4459      4.4458      4.4452      4.4435      4.4400      4.4341      4.4254      4.4139      4.3999      4.3838    
  4.3940      4.3838      4.3722      4.3596      4.3467      4.3343      4.3235      4.3155      4.3112      4.3112    
  4.3155      4.3235      4.3343      4.3467      4.3596      4.3722      4.3838      4.3940      4.4026      4.4093    
  4.4139      4.4164      4.4169      4.4157      4.4137      4.4116      4.4104      4.4104      4.4116      4.4137    
  4.4157      4.4169      4.4164      4.4139      4.4093      4.4026      4.4034      4.4026      4.3999      4.3956    
  4.3898      4.3832      4.3764      4.3705      4.3664      4.3650      4.3664      4.3705      4.3764      4.3832    
  4.3898      4.3956      4.3999      4.4026      4.4034      4.4026      4.3999      4.3956      4.3898      4.3832    
  4.3764      4.3705      4.3664      4.3650      4.3664      4.3705      4.3764      4.3832      4.3898      4.3956    
  4.3999      4.4026      4.3940      4.4026      4.4093      4.4139      4.4164      4.4169      4.4157      4.4137    
  4.4116      4.4104      4.4104      4.4116      4.4137      4.4157      4.4169      4.4164      4.4139      4.4093    
  4.4026      4.3940      4.3838      4.3722      4.3596      4.3467      4.3343      4.3235      4.3155      4.3112    
  4.3112      4.3155      4.3235      4.3343      4.3467      4.3596      4.3722      4.3838      4.3659      4.3838    
  4.3999      4.4139      4.4254      4.4341      4.4400      4.4435      4.4452      4.4458      4.4459      4.4458    
  4.4452      4.4435      4.4400      4.4341      4.4254      4.4139      4.3999      4.3838      4.3659      4.3469    
  4.3271      4.3075      4.2888      4.2723      4.2592      4.2508      4.2479      4.2508      4.2592      4.2723    
  4.2888      4.3075      4.3271      4.3469      4.3203      4.3469      4.3722      4.3956      4.4164      4.4341    
  4.4482      4.4587      4.4658      4.4700      4.4720      4.4720      4.4700      4.4658      4.4587      4.4482    
  4.4341      4.4164      4.3956      4.3722      4.3469      4.3203      4.2932      4.2665      4.2411      4.2183    
  4.1994      4.1859      4.1788      4.1788      4.1859      4.1994      4.2183      4.2411      4.2665      4.2932    
  4.2588      4.2932      4.3271      4.3596      4.3898      4.4169      4.4400      4.4587      4.4727      4.4824    
  4.4879      4.4898      4.4879      4.4824      4.4727      4.4587      4.4400      4.4169      4.3898      4.3596    
  4.3271      4.2932      4.2588      4.2249      4.1925      4.1630      4.1378      4.1184      4.1061      4.1020    
  4.1061      4.1184      4.1378      4.1630      4.1925      4.2249      4.1838      4.2249      4.2665      4.3075    
  4.3467      4.3832      4.4157      4.4435      4.4658      4.4824      4.4933      4.4987      4.4987      4.4933    
  4.4824      4.4658      4.4435      4.4157      4.3832      4.3467      4.3075      4.2665      4.2249      4.1838    
  4.1444      4.1080      4.0761      4.0503      4.0321      4.0227      4.0227      4.0321      4.0503      4.0761    
  4.1080      4.1444      4.0979      4.1444      4.1925      4.2411      4.2888      4.3343      4.3764      4.4137    
  4.4452      4.4700      4.4879      4.4987      4.5023      4.4987      4.4879      4.4700      4.4452      4.4137    
  4.3764      4.3343      4.2888      4.2411      4.1925      4.1444      4.0979      4.0545      4.0157      3.9832    
  3.9586      3.9432      3.9379      3.9432      3.9586      3.9832      4.0157      4.0545      4.0041      4.0545    
  4.1080      4.1630      4.2183      4.2723      4.3235      4.3705      4.4116      4.4458      4.4720      4.4898    
  4.4987      4.4987      4.4898      4.4720      4.4458      4.4116      4.3705      4.3235      4.2723      4.2183    
  4.1630      4.1080      4.0545      4.0041      3.9584      3.9190      3.8876      3.8657      3.8544      3.8544    
  3.8657      3.8876      3.9190      3.9584      3.9057      3.9584      4.0157      4.0761      4.1378      4.1994    
  4.2592      4.3155      4.3664      4.4104      4.4459      4.4720      4.4879      4.4933      4.4879      4.4720    
  4.4459      4.4104      4.3664      4.3155      4.2592      4.1994      4.1378      4.0761      4.0157      3.9584    
  3.9057      3.8593      3.8209      3.7921      3.7742      3.7681      3.7742      3.7921      3.8209      3.8593    
  3.8058      3.8593      3.9190      3.9832      4.0503      4.1184      4.1859      4.2508      4.3112      4.3650    
  4.4104      4.4458      4.4700      4.4824      4.4824      4.4700      4.4458      4.4104      4.3650      4.3112    
  4.2508      4.1859      4.1184      4.0503      3.9832      3.9190      3.8593      3.8058      3.7603      3.7243    
  3.6995      3.6867      3.6867      3.6995      3.7243      3.7603      3.7075      3.7603      3.8209      3.8876    
  3.9586      4.0321      4.1061      4.1788      4.2479      4.3112      4.3664      4.4116      4.4452      4.4658    
  4.4727      4.4658      4.4452      4.4116      4.3664      4.3112      4.2479      4.1788      4.1061      4.0321    
  3.9586      3.8876      3.8209      3.7603      3.7075      3.6643      3.6321      3.6122      3.6055      3.6122    
  3.6321      3.6643      3.6136      3.6643      3.7243      3.7921      3.8657      3.9432      4.0227      4.1020    
  4.1788      4.2508      4.3155      4.3705      4.4137      4.4435      4.4587      4.4587      4.4435      4.4137    
  4.3705      4.3155      4.2508      4.1788      4.1020      4.0227      3.9432      3.8657      3.7921      3.7243    
  3.6643      3.6136      3.5739      3.5466      3.5327      3.5327      3.5466      3.5739      3.5266      3.5739    
  3.6321      3.6995      3.7742      3.8544      3.9379      4.0227      4.1061      4.1859      4.2592      4.3235    
  4.3764      4.4157      4.4400      4.4482      4.4400      4.4157      4.3764      4.3235      4.2592      4.1859    
  4.1061      4.0227      3.9379      3.8544      3.7742      3.6995      3.6321      3.5739      3.5266      3.4917    
  3.4702      3.4630      3.4702      3.4917      3.4490      3.4917      3.5466      3.6122      3.6867      3.7681    
  3.8544      3.9432      4.0321      4.1184      4.1994      4.2723      4.3343      4.3832      4.4169      4.4341    
  4.4341      4.4169      4.3832      4.3343      4.2723      4.1994      4.1184      4.0321      3.9432      3.8544    
  3.7681      3.6867      3.6122      3.5466      3.4917      3.4490      3.4197      3.4048      3.4048      3.4197    
  3.3825      3.4197      3.4702      3.5327      3.6055      3.6867      3.7742      3.8657      3.9586      4.0503    
  4.1378      4.2183      4.2888      4.3467      4.3898      4.4164      4.4254      4.4164      4.3898      4.3467    
  4.2888      4.2183      4.1378      4.0503      3.9586      3.8657      3.7742      3.6867      3.6055      3.5327    
  3.4702      3.4197      3.3825      3.3598      3.3521      3.3598      3.3290      3.3598      3.4048      3.4630    
  3.5327      3.6122      3.6995      3.7921      3.8876      3.9832      4.0761      4.1630      4.2411      4.3075    
  4.3596      4.3956      4.4139      4.4139      4.3956      4.3596      4.3075      4.2411      4.1630      4.0761    
  3.9832      3.8876      3.7921      3.6995      3.6122      3.5327      3.4630      3.4048      3.3598      3.3290    
  3.3134      3.3134      3.2898      3.3134      3.3521      3.4048      3.4702      3.5466      3.6321      3.7243    
  3.8209      3.9190      4.0157      4.1080      4.1925      4.2665      4.3271      4.3722      4.3999      4.4093    
  4.3999      4.3722      4.3271      4.2665      4.1925      4.1080      4.0157      3.9190      3.8209      3.7243    
  3.6321      3.5466      3.4702      3.4048      3.3521      3.3134      3.2898      3.2818      3.2658      3.2818    
  3.3134      3.3598      3.4197      3.4917      3.5739      3.6643      3.7603      3.8593      3.9584      4.0545    
  4.1444      4.2249      4.2932      4.3469      4.3838      4.4026      4.4026      4.3838      4.3469      4.2932    
  4.2249      4.1444      4.0545      3.9584      3.8593      3.7603      3.6643      3.5739      3.4917      3.4197    
  3.3598      3.3134      3.2818      3.2658      3.2605      3.2686      3.2925      3.3317      3.3851      3.4514    
  3.5289      3.6156      3.7093      3.8074      3.9071      4.0054      4.0991      4.1850      4.2601      4.3216    
  4.3673      4.3954      4.4049      4.3954      4.3673      4.3216      4.2601      4.1850      4.0991      4.0054    
  3.9071      3.8074      3.7093      3.6156      3.5289      3.4514      3.3851      3.3317      3.2925      3.2686    
  3.2686      3.2686      3.2846      3.3161      3.3624      3.4223      3.4942      3.5764      3.6666      3.7625    
  3.8614      3.9603      4.0562      4.1459      4.2263      4.2946      4.3481      4.3850      4.4038      4.4038    
  4.3850      4.3481      4.2946      4.2263      4.1459      4.0562      3.9603      3.8614      3.7625      3.6666    
  3.5764      3.4942      3.4223      3.3624      3.3161      3.2846      3.2925      3.2846      3.2925      3.3161    
  3.3548      3.4075      3.4729      3.5494      3.6348      3.7271      3.8236      3.9215      4.0180      4.1100    
  4.1943      4.2680      4.3284      4.3732      4.4008      4.4102      4.4008      4.3732      4.3284      4.2680    
  4.1943      4.1100      4.0180      3.9215      3.8236      3.7271      3.6348      3.5494      3.4729      3.4075    
  3.3548      3.3161      3.3317      3.3161      3.3161      3.3317      3.3624      3.4075      3.4658      3.5356    
  3.6152      3.7026      3.7953      3.8907      3.9861      4.0786      4.1652      4.2428      4.3087      4.3605    
  4.3962      4.4144      4.4144      4.3962      4.3605      4.3087      4.2428      4.1652      4.0786      3.9861    
  3.8907      3.7953      3.7026      3.6152      3.5356      3.4658      3.4075      3.3624      3.3851      3.3623    
  3.3547      3.3623      3.3851      3.4223      3.4729      3.5356      3.6086      3.6900      3.7777      3.8692    
  3.9620      4.0534      4.1404      4.2203      4.2902      4.3475      4.3902      4.4165      4.4253      4.4165    
  4.3902      4.3475      4.2902      4.2203      4.1404      4.0534      3.9620      3.8692      3.7777      3.6900    
  3.6086      3.5356      3.4729      3.4223      3.4514      3.4221      3.4072      3.4072      3.4221      3.4514    
  3.4942      3.5494      3.6152      3.6900      3.7718      3.8582      3.9470      4.0356      4.1215      4.2018    
  4.2738      4.3351      4.3833      4.4165      4.4335      4.4335      4.4165      4.3833      4.3351      4.2738    
  4.2018      4.1215      4.0356      3.9470      3.8582      3.7718      3.6900      3.6152      3.5494      3.4942    
  3.5289      3.4938      3.4723      3.4651      3.4723      3.4938      3.5289      3.5764      3.6348      3.7026    
  3.7777      3.8582      3.9419      4.0265      4.1095      4.1885      4.2610      4.3243      4.3763      4.4150    
  4.4389      4.4469      4.4389      4.4150      4.3763      4.3243      4.2610      4.1885      4.1095      4.0265    
  3.9419      3.8582      3.7777      3.7026      3.6348      3.5764      3.6156      3.5758      3.5484      3.5344    
  3.5344      3.5484      3.5758      3.6156      3.6666      3.7271      3.7953      3.8692      3.9470      4.0265    
  4.1054      4.1816      4.2527      4.3164      4.3704      4.4128      4.4420      4.4569      4.4569      4.4420    
  4.4128      4.3704      4.3164      4.2527      4.1816      4.1054      4.0265      3.9470      3.8692      3.7953    
  3.7271      3.6666      3.7093      3.6658      3.6334      3.6135      3.6068      3.6135      3.6334      3.6658    
  3.7093      3.7625      3.8236      3.8907      3.9620      4.0356      4.1095      4.1816      4.2499      4.3121    
  4.3663      4.4106      4.4435      4.4637      4.4705      4.4637      4.4435      4.4106      4.3663      4.3121    
  4.2499      4.1816      4.1095      4.0356      3.9620      3.8907      3.8236      3.7625      3.8074      3.7615    
  3.7253      3.7003      3.6874      3.6874      3.7003      3.7253      3.7615      3.8074      3.8614      3.9215    
  3.9861      4.0534      4.1215      4.1885      4.2527      4.3121      4.3649      4.4093      4.4440      4.4677    
  4.4798      4.4798      4.4677      4.4440      4.4093      4.3649      4.3121      4.2527      4.1885      4.1215    
  4.0534      3.9861      3.9215      3.8614      3.9071      3.8603      3.8216      3.7925      3.7745      3.7684    
  3.7745      3.7925      3.8216      3.8603      3.9071      3.9603      4.0180      4.0786      4.1404      4.2018    
  4.2610      4.3164      4.3663      4.4093      4.4441      4.4696      4.4852      4.4904      4.4852      4.4696    
  4.4441      4.4093      4.3663      4.3164      4.2610      4.2018      4.1404      4.0786      4.0180      3.9603    
  4.0054      3.9593      3.9195      3.8878      3.8657      3.8543      3.8543      3.8657      3.8878      3.9195    
  3.9593      4.0054      4.0562      4.1100      4.1652      4.2203      4.2738      4.3243      4.3704      4.4106    
  4.4440      4.4696      4.4869      4.4957      4.4957      4.4869      4.4696      4.4440      4.4106      4.3704    
  4.3243      4.2738      4.2203      4.1652      4.1100      4.0562      4.0991      4.0554      4.0162      3.9834    
  3.9585      3.9429      3.9376      3.9429      3.9585      3.9834      4.0162      4.0554      4.0991      4.1459    
  4.1943      4.2428      4.2902      4.3351      4.3763      4.4128      4.4435      4.4677      4.4852      4.4957    
  4.4992      4.4957      4.4852      4.4677      4.4435      4.4128      4.3763      4.3351      4.2902      4.2428    
  4.1943      4.1459      4.1850      4.1453      4.1086      4.0763      4.0503      4.0319      4.0223      4.0223    
  4.0319      4.0503      4.0763      4.1086      4.1453      4.1850      4.2263      4.2680      4.3087      4.3475    
  4.3833      4.4150      4.4420      4.4637      4.4798      4.4904      4.4957      4.4957      4.4904      4.4798    
  4.4637      4.4420      4.4150      4.3833      4.3475      4.3087      4.2680      4.2263      4.2601      4.2260    
  4.1934      4.1636      4.1381      4.1184      4.1060      4.1018      4.1060      4.1184      4.1381      4.1636    
  4.1934      4.2260      4.2601      4.2946      4.3284      4.3605      4.3902      4.4165      4.4389      4.4569    
  4.4705      4.4798      4.4852      4.4869      4.4852      4.4798      4.4705      4.4569      4.4389      4.4165    
  4.3902      4.3605      4.3284      4.2946      4.3216      4.2945      4.2676      4.2420      4.2189      4.1998    
  4.1861      4.1789      4.1789      4.1861      4.1998      4.2189      4.2420      4.2676      4.2945      4.3216    
  4.3481      4.3732      4.3962      4.4165      4.4335      4.4469      4.4569      4.4637      4.4677      4.4696    
  4.4696      4.4677      4.4637      4.4569      4.4469      4.4335      4.4165      4.3962      4.3732      4.3481    
  4.3673      4.3483      4.3285      4.3087      4.2898      4.2730      4.2596      4.2510      4.2480      4.2510    
  4.2596      4.2730      4.2898      4.3087      4.3285      4.3483      4.3673      4.3850      4.4008      4.4144    
  4.4253      4.4335      4.4389      4.4420      4.4435      4.4440      4.4441      4.4440      4.4435      4.4420    
  4.4389      4.4335      4.4253      4.4144      4.4008      4.3850      4.3954      4.3853      4.3738      4.3611    
  4.3480      4.3352      4.3240      4.3155      4.3110      4.3110      4.3155      4.3240      4.3352      4.3480    
  4.3611      4.3738      4.3853      4.3954      4.4038      4.4102      4.4144      4.4165      4.4165      4.4150    
  4.4128      4.4106      4.4093      4.4093      4.4106      4.4128      4.4150      4.4165      4.4165      4.4144    
  4.4102      4.4038      4.4049      4.4042      4.4017      4.3973      4.3913      4.3841      4.3767      4.3702    
  4.3657      4.3641      4.3657      4.3702      4.3767      4.3841      4.3913      4.3973      4.4017      4.4042    
  4.4049      4.4038      4.4008      4.3962      4.3902      4.3833      4.3763      4.3704      4.3663      4.3649    
  4.3663      4.3704      4.3763      4.3833      4.3902      4.3962      4.4008      4.4038      4.3954      4.4042    
  4.4111      4.4157      4.4179      4.4178      4.4159      4.4130      4.4103      4.4086      4.4086      4.4103    
  4.4130      4.4159      4.4178      4.4179      4.4157      4.4111      4.4042      4.3954      4.3850      4.3732    
  4.3605      4.3475      4.3351      4.3243      4.3164      4.3121      4.3121      4.3164      4.3243      4.3351    
  4.3475      4.3605      4.3732      4.3850      4.3673      4.3853      4.4017      4.4157      4.4269      4.4350    
  4.4400      4.4424      4.4432      4.4432      4.4431      4.4432      4.4432      4.4424      4.4400      4.4350    
  4.4269      4.4157      4.4017      4.3853      4.3673      4.3481      4.3284      4.3087      4.2902      4.2738    
  4.2610      4.2527      4.2499      4.2527      4.2610      4.2738      4.2902      4.3087      4.3284      4.3481    
  4.3216      4.3483      4.3738      4.3973      4.4179      4.4350      4.4481      4.4574      4.4633      4.4667    
  4.4681      4.4681      4.4667      4.4633      4.4574      4.4481      4.4350      4.4179      4.3973      4.3738    
  4.3483      4.3216      4.2946      4.2680      4.2428      4.2203      4.2018      4.1885      4.1816      4.1816    
  4.1885      4.2018      4.2203      4.2428      4.2680      4.2946      4.2601      4.2945      4.3285      4.3611    
  4.3913      4.4178      4.4400      4.4574      4.4701      4.4786      4.4834      4.4849      4.4834      4.4786    
  4.4701      4.4574      4.4400      4.4178      4.3913      4.3611      4.3285      4.2945      4.2601      4.2263    
  4.1943      4.1652      4.1404      4.1215      4.1095      4.1054      4.1095      4.1215      4.1404      4.1652    
  4.1943      4.2263      4.1850      4.2260      4.2676      4.3087      4.3480      4.3841      4.4159      4.4424    
  4.4633      4.4786      4.4885      4.4933      4.4933      4.4885      4.4786      4.4633      4.4424      4.4159    
  4.3841      4.3480      4.3087      4.2676      4.2260      4.1850      4.1459      4.1100      4.0786      4.0534    
  4.0356      4.0265      4.0265      4.0356      4.0534      4.0786      4.1100      4.1459      4.0991      4.1453    
  4.1934      4.2420      4.2898      4.3352      4.3767      4.4130      4.4432      4.4667      4.4834      4.4933    
  4.4966      4.4933      4.4834      4.4667      4.4432      4.4130      4.3767      4.3352      4.2898      4.2420    
  4.1934      4.1453      4.0991      4.0562      4.0180      3.9861      3.9620      3.9470      3.9419      3.9470    
  3.9620      3.9861      4.0180      4.0562      4.0054      4.0554      4.1086      4.1636      4.2189      4.2730    
  4.3240      4.3702      4.4103      4.4432      4.4681      4.4849      4.4933      4.4933      4.4849      4.4681    
  4.4432      4.4103      4.3702      4.3240      4.2730      4.2189      4.1636      4.1086      4.0554      4.0054    
  3.9603      3.9215      3.8907      3.8692      3.8582      3.8582      3.8692      3.8907      3.9215      3.9603    
  3.9071      3.9593      4.0162      4.0763      4.1381      4.1998      4.2596      4.3155      4.3657      4.4086    
  4.4431      4.4681      4.4834      4.4885      4.4834      4.4681      4.4431      4.4086      4.3657      4.3155    
  4.2596      4.1998      4.1381      4.0763      4.0162      3.9593      3.9071      3.8614      3.8236      3.7953    
  3.7777      3.7718      3.7777      3.7953      3.8236      3.8614      3.8074      3.8603      3.9195      3.9834    
  4.0503      4.1184      4.1861      4.2510      4.3110      4.3641      4.4086      4.4432      4.4667      4.4786    
  4.4786      4.4667      4.4432      4.4086      4.3641      4.3110      4.2510      4.1861      4.1184      4.0503    
  3.9834      3.9195      3.8603      3.8074      3.7625      3.7271      3.7026      3.6900      3.6900      3.7026    
  3.7271      3.7625      3.7093      3.7615      3.8216      3.8878      3.9585      4.0319      4.1060      4.1789    
  4.2480      4.3110      4.3657      4.4103      4.4432      4.4633      4.4701      4.4633      4.4432      4.4103    
  4.3657      4.3110      4.2480      4.1789      4.1060      4.0319      3.9585      3.8878      3.8216      3.7615    
  3.7093      3.6666      3.6348      3.6152      3.6086      3.6152      3.6348      3.6666      3.6156      3.6658    
  3.7253      3.7925      3.8657      3.9429      4.0223      4.1018      4.1789      4.2510      4.3155      4.3702    
  4.4130      4.4424      4.4574      4.4574      4.4424      4.4130      4.3702      4.3155      4.2510      4.1789    
  4.1018      4.0223      3.9429      3.8657      3.7925      3.7253      3.6658      3.6156      3.5764      3.5494    
  3.5356      3.5356      3.5494      3.5764      3.5289      3.5758      3.6334      3.7003      3.7745      3.8543    
  3.9376      4.0223      4.1060      4.1861      4.2596      4.3240      4.3767      4.4159      4.4400      4.4481    
  4.4400      4.4159      4.3767      4.3240      4.2596      4.1861      4.1060      4.0223      3.9376      3.8543    
  3.7745      3.7003      3.6334      3.5758      3.5289      3.4942      3.4729      3.4658      3.4729      3.4942    
  3.4514      3.4938      3.5484      3.6135      3.6874      3.7684      3.8543      3.9429      4.0319      4.1184    
  4.1998      4.2730      4.3352      4.3841      4.4178      4.4350      4.4350      4.4178      4.3841      4.3352    
  4.2730      4.1998      4.1184      4.0319      3.9429      3.8543      3.7684      3.6874      3.6135      3.5484    
  3.4938      3.4514      3.4223      3.4075      3.4075      3.4223      3.3851      3.4221      3.4723      3.5344    
  3.6068      3.6874      3.7745      3.8657      3.9585      4.0503      4.1381      4.2189      4.2898      4.3480    
  4.3913      4.4179      4.4269      4.4179      4.3913      4.3480      4.2898      4.2189      4.1381      4.0503    
  3.9585      3.8657      3.7745      3.6874      3.6068      3.5344      3.4723      3.4221      3.3851      3.3624    
  3.3548      3.3624      3.3317      3.3623      3.4072      3.4651      3.5344      3.6135      3.7003      3.7925    
  3.8878      3.9834      4.0763      4.1636      4.2420      4.3087      4.3611      4.3973      4.4157      4.4157    
  4.3973      4.3611      4.3087      4.2420      4.1636      4.0763      3.9834      3.8878      3.7925      3.7003    
  3.6135      3.5344      3.4651      3.4072      3.3623      3.3317      3.3161      3.3161      3.2925      3.3161    
  3.3547      3.4072      3.4723      3.5484      3.6334      3.7253      3.8216      3.9195      4.0162      4.1086    
  4.1934      4.2676      4.3285      4.3738      4.4017      4.4111      4.4017      4.3738      4.3285      4.2676    
  4.1934      4.1086      4.0162      3.9195      3.8216      3.7253      3.6334      3.5484      3.4723      3.4072    
  3.3547      3.3161      3.2925      3.2846      3.2686      3.2846      3.3161      3.3623      3.4221      3.4938    
  3.5758      3.6658      3.7615      3.8603      3.9593      4.0554      4.1453      4.2260      4.2945      4.3483    
  4.3853      4.4042      4.4042      4.3853      4.3483      4.2945      4.2260      4.1453      4.0554      3.9593    
  3.8603      3.7615      3.6658      3.5758      3.4938      3.4221      3.3623      3.3161      3.2846      3.2686    
  3.2687      3.2767      3.3005      3.3395      3.3927      3.4586      3.5355      3.6217      3.7147      3.8122    
  3.9115      4.0094      4.1029      4.1888      4.2640      4.3256      4.3715      4.3997      4.4093      4.3997    
  4.3715      4.3256      4.2640      4.1888      4.1029      4.0094      3.9115      3.8122      3.7147      3.6217    
  3.5355      3.4586      3.3927      3.3395      3.3005      3.2767      3.2767      3.2767      3.2926      3.3241    
  3.3702      3.4298      3.5014      3.5831      3.6728      3.7681      3.8665      3.9650      4.0605      4.1500    
  4.2303      4.2986      4.3522      4.3891      4.4079      4.4079      4.3891      4.3522      4.2986      4.2303    
  4.1500      4.0605      3.9650      3.8665      3.7681      3.6728      3.5831      3.5014      3.4298      3.3702    
  3.3241      3.2926      3.3005      3.2926      3.3005      3.3241      3.3627      3.4152      3.4804      3.5566    
  3.6417      3.7335      3.8296      3.9271      4.0231      4.1146      4.1986      4.2720      4.3323      4.3771    
  4.4046      4.4140      4.4046      4.3771      4.3323      4.2720      4.1986      4.1146      4.0231      3.9271    
  3.8296      3.7335      3.6417      3.5566      3.4804      3.4152      3.3627      3.3241      3.3395      3.3240    
  3.3240      3.3395      3.3702      3.4152      3.4734      3.5431      3.6226      3.7097      3.8020      3.8971    
  3.9921      4.0840      4.1701      4.2472      4.3127      4.3641      4.3996      4.4177      4.4177      4.3996    
  4.3641      4.3127      4.2472      4.1701      4.0840      3.9921      3.8971      3.8020      3.7097      3.6226    
  3.5431      3.4734      3.4152      3.3702      3.3927      3.3699      3.3623      3.3699      3.3927      3.4298    
  3.4804      3.5431      3.6161      3.6975      3.7851      3.8764      3.9688      4.0596      4.1460      4.2252    
  4.2943      4.3510      4.3932      4.4192      4.4279      4.4192      4.3932      4.3510      4.2943      4.2252    
  4.1460      4.0596      3.9688      3.8764      3.7851      3.6975      3.6161      3.5431      3.4804      3.4298    
  3.4586      3.4293      3.4144      3.4144      3.4293      3.4586      3.5014      3.5566      3.6226      3.6975    
  3.7793      3.8657      3.9543      4.0425      4.1277      4.2072      4.2783      4.3387      4.3860      4.4187    
  4.4353      4.4353      4.4187      4.3860      4.3387      4.2783      4.2072      4.1277      4.0425      3.9543    
  3.8657      3.7793      3.6975      3.6226      3.5566      3.5014      3.5355      3.5005      3.4790      3.4718    
  3.4790      3.5005      3.5355      3.5831      3.6417      3.7097      3.7851      3.8657      3.9494      4.0338    
  4.1163      4.1945      4.2658      4.3281      4.3790      4.4167      4.4399      4.4478      4.4399      4.4167    
  4.3790      4.3281      4.2658      4.1945      4.1163      4.0338      3.9494      3.8657      3.7851      3.7097    
  3.6417      3.5831      3.6217      3.5818      3.5544      3.5405      3.5405      3.5544      3.5818      3.6217    
  3.6728      3.7335      3.8020      3.8764      3.9543      4.0338      4.1124      4.1878      4.2579      4.3202    
  4.3729      4.4141      4.4424      4.4568      4.4568      4.4424      4.4141      4.3729      4.3202      4.2579    
  4.1878      4.1124      4.0338      3.9543      3.8764      3.8020      3.7335      3.6728      3.7147      3.6711    
  3.6387      3.6188      3.6121      3.6188      3.6387      3.6711      3.7147      3.7681      3.8296      3.8971    
  3.9688      4.0425      4.1163      4.1878      4.2551      4.3161      4.3689      4.4117      4.4434      4.4628    
  4.4693      4.4628      4.4434      4.4117      4.3689      4.3161      4.2551      4.1878      4.1163      4.0425    
  3.9688      3.8971      3.8296      3.7681      3.8122      3.7662      3.7299      3.7049      3.6921      3.6921    
  3.7049      3.7299      3.7662      3.8122      3.8665      3.9271      3.9921      4.0596      4.1277      4.1945    
  4.2579      4.3161      4.3674      4.4103      4.4436      4.4662      4.4777      4.4777      4.4662      4.4436    
  4.4103      4.3674      4.3161      4.2579      4.1945      4.1277      4.0596      3.9921      3.9271      3.8665    
  3.9115      3.8644      3.8256      3.7965      3.7785      3.7724      3.7785      3.7965      3.8256      3.8644    
  3.9115      3.9650      4.0231      4.0840      4.1460      4.2072      4.2658      4.3202      4.3689      4.4103    
  4.4436      4.4678      4.4826      4.4875      4.4826      4.4678      4.4436      4.4103      4.3689      4.3202    
  4.2658      4.2072      4.1460      4.0840      4.0231      3.9650      4.0094      3.9630      3.9231      3.8913    
  3.8691      3.8577      3.8577      3.8691      3.8913      3.9231      3.9630      4.0094      4.0605      4.1146    
  4.1701      4.2252      4.2783      4.3281      4.3729      4.4117      4.4436      4.4678      4.4841      4.4923    
  4.4923      4.4841      4.4678      4.4436      4.4117      4.3729      4.3281      4.2783      4.2252      4.1701    
  4.1146      4.0605      4.1029      4.0588      4.0195      3.9865      3.9616      3.9460      3.9407      3.9460    
  3.9616      3.9865      4.0195      4.0588      4.1029      4.1500      4.1986      4.2472      4.2943      4.3387    
  4.3790      4.4141      4.4434      4.4662      4.4826      4.4923      4.4955      4.4923      4.4826      4.4662    
  4.4434      4.4141      4.3790      4.3387      4.2943      4.2472      4.1986      4.1500      4.1888      4.1488    
  4.1117      4.0793      4.0531      4.0346      4.0250      4.0250      4.0346      4.0531      4.0793      4.1117    
  4.1488      4.1888      4.2303      4.2720      4.3127      4.3510      4.3860      4.4167      4.4424      4.4628    
  4.4777      4.4875      4.4923      4.4923      4.4875      4.4777      4.4628      4.4424      4.4167      4.3860    
  4.3510      4.3127      4.2720      4.2303      4.2640      4.2296      4.1966      4.1664      4.1406      4.1207    
  4.1080      4.1037      4.1080      4.1207      4.1406      4.1664      4.1966      4.2296      4.2640      4.2986    
  4.3323      4.3641      4.3932      4.4187      4.4399      4.4568      4.4693      4.4777      4.4826      4.4841    
  4.4826      4.4777      4.4693      4.4568      4.4399      4.4187      4.3932      4.3641      4.3323      4.2986    
  4.3256      4.2983      4.2710      4.2448      4.2210      4.2012      4.1869      4.1794      4.1794      4.1869    
  4.2012      4.2210      4.2448      4.2710      4.2983      4.3256      4.3522      4.3771      4.3996      4.4192    
  4.4353      4.4478      4.4568      4.4628      4.4662      4.4678      4.4678      4.4662      4.4628      4.4568    
  4.4478      4.4353      4.4192      4.3996      4.3771      4.3522      4.3715      4.3523      4.3320      4.3113    
  4.2913      4.2733      4.2589      4.2495      4.2463      4.2495      4.2589      4.2733      4.2913      4.3113    
  4.3320      4.3523      4.3715      4.3891      4.4046      4.4177      4.4279      4.4353      4.4399      4.4424    
  4.4434      4.4436      4.4436      4.4436      4.4434      4.4424      4.4399      4.4353      4.4279      4.4177    
  4.4046      4.3891      4.3997      4.3895      4.3773      4.3635      4.3488      4.3342      4.3213      4.3116    
  4.3063      4.3063      4.3116      4.3213      4.3342      4.3488      4.3635      4.3773      4.3895      4.3997    
  4.4079      4.4140      4.4177      4.4192      4.4187      4.4167      4.4141      4.4117      4.4103      4.4103    
  4.4117      4.4141      4.4167      4.4187      4.4192      4.4177      4.4140      4.4079      4.4093      4.4085    
  4.4052      4.3995      4.3914      4.3819      4.3721      4.3636      4.3577      4.3556      4.3577      4.3636    
  4.3721      4.3819      4.3914      4.3995      4.4052      4.4085      4.4093      4.4079      4.4046      4.3996    
  4.3932      4.3860      4.3790      4.3729      4.3689      4.3674      4.3689      4.3729      4.3790      4.3860    
  4.3932      4.3996      4.4046      4.4079      4.3997      4.4085      4.4147      4.4178      4.4176      4.4146    
  4.4096      4.4038      4.3989      4.3961      4.3961      4.3989      4.4038      4.4096      4.4146      4.4176    
  4.4178      4.4147      4.4085      4.3997      4.3891      4.3771      4.3641      4.3510      4.3387      4.3281    
  4.3202      4.3161      4.3161      4.3202      4.3281      4.3387      4.3510      4.3641      4.3771      4.3891    
  4.3715      4.3895      4.4052      4.4178      4.4265      4.4312      4.4325      4.4313      4.4290      4.4269    
  4.4261      4.4269      4.4290      4.4313      4.4325      4.4312      4.4265      4.4178      4.4052      4.3895    
  4.3715      4.3522      4.3323      4.3127      4.2943      4.2783      4.2658      4.2579      4.2551      4.2579    
  4.2658      4.2783      4.2943      4.3127      4.3323      4.3522      4.3256      4.3523      4.3773      4.3995    
  4.4176      4.4312      4.4402      4.4452      4.4472      4.4476      4.4474      4.4474      4.4476      4.4472    
  4.4452      4.4402      4.4312      4.4176      4.3995      4.3773      4.3523      4.3256      4.2986      4.2720    
  4.2472      4.2252      4.2072      4.1945      4.1878      4.1878      4.1945      4.2072      4.2252      4.2472    
  4.2720      4.2986      4.2640      4.2983      4.3320      4.3635      4.3914      4.4146      4.4325      4.4452    
  4.4533      4.4579      4.4601      4.4607      4.4601      4.4579      4.4533      4.4452      4.4325      4.4146    
  4.3914      4.3635      4.3320      4.2983      4.2640      4.2303      4.1986      4.1701      4.1460      4.1277    
  4.1163      4.1124      4.1163      4.1277      4.1460      4.1701      4.1986      4.2303      4.1888      4.2296    
  4.2710      4.3113      4.3488      4.3819      4.4096      4.4313      4.4472      4.4579      4.4643      4.4673    
  4.4673      4.4643      4.4579      4.4472      4.4313      4.4096      4.3819      4.3488      4.3113      4.2710    
  4.2296      4.1888      4.1500      4.1146      4.0840      4.0596      4.0425      4.0338      4.0338      4.0425    
  4.0596      4.0840      4.1146      4.1500      4.1029      4.1488      4.1966      4.2448      4.2913      4.3342    
  4.3721      4.4038      4.4290      4.4476      4.4601      4.4673      4.4696      4.4673      4.4601      4.4476    
  4.4290      4.4038      4.3721      4.3342      4.2913      4.2448      4.1966      4.1488      4.1029      4.0605    
  4.0231      3.9921      3.9688      3.9543      3.9494      3.9543      3.9688      3.9921      4.0231      4.0605    
  4.0094      4.0588      4.1117      4.1664      4.2210      4.2733      4.3213      4.3636      4.3989      4.4269    
  4.4474      4.4607      4.4673      4.4673      4.4607      4.4474      4.4269      4.3989      4.3636      4.3213    
  4.2733      4.2210      4.1664      4.1117      4.0588      4.0094      3.9650      3.9271      3.8971      3.8764    
  3.8657      3.8657      3.8764      3.8971      3.9271      3.9650      3.9115      3.9630      4.0195      4.0793    
  4.1406      4.2012      4.2589      4.3116      4.3577      4.3961      4.4261      4.4474      4.4601      4.4643    
  4.4601      4.4474      4.4261      4.3961      4.3577      4.3116      4.2589      4.2012      4.1406      4.0793    
  4.0195      3.9630      3.9115      3.8665      3.8296      3.8020      3.7851      3.7793      3.7851      3.8020    
  3.8296      3.8665      3.8122      3.8644      3.9231      3.9865      4.0531      4.1207      4.1869      4.2495    
  4.3063      4.3556      4.3961      4.4269      4.4476      4.4579      4.4579      4.4476      4.4269      4.3961    
  4.3556      4.3063      4.2495      4.1869      4.1207      4.0531      3.9865      3.9231      3.8644      3.8122    
  3.7681      3.7335      3.7097      3.6975      3.6975      3.7097      3.7335      3.7681      3.7147      3.7662    
  3.8256      3.8913      3.9616      4.0346      4.1080      4.1794      4.2463      4.3063      4.3577      4.3989    
  4.4290      4.4472      4.4533      4.4472      4.4290      4.3989      4.3577      4.3063      4.2463      4.1794    
  4.1080      4.0346      3.9616      3.8913      3.8256      3.7662      3.7147      3.6728      3.6417      3.6226    
  3.6161      3.6226      3.6417      3.6728      3.6217      3.6711      3.7299      3.7965      3.8691      3.9460    
  4.0250      4.1037      4.1794      4.2495      4.3116      4.3636      4.4038      4.4313      4.4452      4.4452    
  4.4313      4.4038      4.3636      4.3116      4.2495      4.1794      4.1037      4.0250      3.9460      3.8691    
  3.7965      3.7299      3.6711      3.6217      3.5831      3.5566      3.5431      3.5431      3.5566      3.5831    
  3.5355      3.5818      3.6387      3.7049      3.7785      3.8577      3.9407      4.0250      4.1080      4.1869    
  4.2589      4.3213      4.3721      4.4096      4.4325      4.4402      4.4325      4.4096      4.3721      4.3213    
  4.2589      4.1869      4.1080      4.0250      3.9407      3.8577      3.7785      3.7049      3.6387      3.5818    
  3.5355      3.5014      3.4804      3.4734      3.4804      3.5014      3.4586      3.5005      3.5544      3.6188    
  3.6921      3.7724      3.8577      3.9460      4.0346      4.1207      4.2012      4.2733      4.3342      4.3819    
  4.4146      4.4312      4.4312      4.4146      4.3819      4.3342      4.2733      4.2012      4.1207      4.0346    
  3.9460      3.8577      3.7724      3.6921      3.6188      3.5544      3.5005      3.4586      3.4298      3.4152    
  3.4152      3.4298      3.3927      3.4293      3.4790      3.5405      3.6121      3.6921      3.7785      3.8691    
  3.9616      4.0531      4.1406      4.2210      4.2913      4.3488      4.3914      4.4176      4.4265      4.4176    
  4.3914      4.3488      4.2913      4.2210      4.1406      4.0531      3.9616      3.8691      3.7785      3.6921    
  3.6121      3.5405      3.4790      3.4293      3.3927      3.3702      3.3627      3.3702      3.3395      3.3699    
  3.4144      3.4718      3.5405      3.6188      3.7049      3.7965      3.8913      3.9865      4.0793      4.1664    
  4.2448      4.3113      4.3635      4.3995      4.4178      4.4178      4.3995      4.3635      4.3113      4.2448    
  4.1664      4.0793      3.9865      3.8913      3.7965      3.7049      3.6188      3.5405      3.4718      3.4144    
  3.3699      3.3395      3.3241      3.3241      3.3005      3.3240      3.3623      3.4144      3.4790      3.5544    
  3.6387      3.7299      3.8256      3.9231      4.0195      4.1117      4.1966      4.2710      4.3320      4.3773    
  4.4052      4.4147      4.4052      4.3773      4.3320      4.2710      4.1966      4.1117      4.0195      3.9231    
  3.8256      3.7299      3.6387      3.5544      3.4790      3.4144      3.3623      3.3240      3.3005      3.2926    
  3.2767      3.2926      3.3240      3.3699      3.4293      3.5005      3.5818      3.6711      3.7662      3.8644    
  3.9630      4.0588      4.1488      4.2296      4.2983      4.3523      4.3895      4.4085      4.4085      4.3895    
  4.3523      4.2983      4.2296      4.1488      4.0588      3.9630      3.8644      3.7662      3.6711      3.5818    
  3.5005      3.4293      3.3699      3.3240      3.2926      3.2767      3.2817      3.2896      3.3133      3.3520    
  3.4048      3.4701      3.5463      3.6316      3.7237      3.8203      3.9188      4.0161      4.1093      4.1951    
  4.2703      4.3321      4.3781      4.4065      4.4161      4.4065      4.3781      4.3321      4.2703      4.1951    
  4.1093      4.0161      3.9188      3.8203      3.7237      3.6316      3.5463      3.4701      3.4048      3.3520    
  3.3133      3.2896      3.2896      3.2896      3.3055      3.3368      3.3827      3.4419      3.5129      3.5939    
  3.6828      3.7772      3.8748      3.9725      4.0676      4.1567      4.2369      4.3052      4.3589      4.3960    
  4.4149      4.4149      4.3960      4.3589      4.3052      4.2369      4.1567      4.0676      3.9725      3.8748    
  3.7772      3.6828      3.5939      3.5129      3.4419      3.3827      3.3368      3.3055      3.3133      3.3054    
  3.3133      3.3368      3.3753      3.4276      3.4924      3.5681      3.6526      3.7437      3.8389      3.9357    
  4.0310      4.1220      4.2056      4.2788      4.3389      4.3837      4.4113      4.4206      4.4113      4.3837    
  4.3389      4.2788      4.2056      4.1220      4.0310      3.9357      3.8389      3.7437      3.6526      3.5681    
  3.4924      3.4276      3.3753      3.3368      3.3520      3.3365      3.3365      3.3520      3.3827      3.4276    
  3.4855      3.5550      3.6341      3.7207      3.8124      3.9068      4.0011      4.0923      4.1777      4.2543    
  4.3194      4.3705      4.4058      4.4238      4.4238      4.4058      4.3705      4.3194      4.2543      4.1777    
  4.0923      4.0011      3.9068      3.8124      3.7207      3.6341      3.5550      3.4855      3.4276      3.3827    
  3.4048      3.3821      3.3744      3.3821      3.4048      3.4419      3.4924      3.5550      3.6278      3.7090    
  3.7962      3.8870      3.9788      4.0689      4.1545      4.2328      4.3013      4.3573      4.3990      4.4246    
  4.4333      4.4246      4.3990      4.3573      4.3013      4.2328      4.1545      4.0689      3.9788      3.8870    
  3.7962      3.7090      3.6278      3.5550      3.4924      3.4419      3.4701      3.4408      3.4260      3.4260    
  3.4408      3.4701      3.5129      3.5681      3.6341      3.7090      3.7907      3.8769      3.9651      4.0527    
  4.1371      4.2156      4.2857      4.3451      4.3916      4.4236      4.4399      4.4399      4.4236      4.3916    
  4.3451      4.2857      4.2156      4.1371      4.0527      3.9651      3.8769      3.7907      3.7090      3.6341    
  3.5681      3.5129      3.5463      3.5113      3.4898      3.4826      3.4898      3.5113      3.5463      3.5939    
  3.6526      3.7207      3.7962      3.8769      3.9604      4.0444      4.1263      4.2035      4.2738      4.3348    
  4.3845      4.4213      4.4439      4.4516      4.4439      4.4213      4.3845      4.3348      4.2738      4.2035    
  4.1263      4.0444      3.9604      3.8769      3.7962      3.7207      3.6526      3.5939      3.6316      3.5917    
  3.5643      3.5504      3.5504      3.5643      3.5917      3.6316      3.6828      3.7437      3.8124      3.8870    
  3.9651      4.0444      4.1226      4.1973      4.2663      4.3273      4.3786      4.4186      4.4459      4.4598    
  4.4598      4.4459      4.4186      4.3786      4.3273      4.2663      4.1973      4.1226      4.0444      3.9651    
  3.8870      3.8124      3.7437      3.6828      3.7237      3.6800      3.6477      3.6278      3.6211      3.6278    
  3.6477      3.6800      3.7237      3.7772      3.8389      3.9068      3.9788      4.0527      4.1263      4.1973    
  4.2637      4.3234      4.3747      4.4161      4.4465      4.4651      4.4713      4.4651      4.4465      4.4161    
  4.3747      4.3234      4.2637      4.1973      4.1263      4.0527      3.9788      3.9068      3.8389      3.7772    
  3.8203      3.7742      3.7379      3.7130      3.7002      3.7002      3.7130      3.7379      3.7742      3.8203    
  3.8748      3.9357      4.0011      4.0689      4.1371      4.2035      4.2663      4.3234      4.3733      4.4147    
  4.4465      4.4681      4.4790      4.4790      4.4681      4.4465      4.4147      4.3733      4.3234      4.2663    
  4.2035      4.1371      4.0689      4.0011      3.9357      3.8748      3.9188      3.8716      3.8327      3.8037    
  3.7858      3.7797      3.7858      3.8037      3.8327      3.8716      3.9188      3.9725      4.0310      4.0923    
  4.1545      4.2156      4.2738      4.3273      4.3747      4.4147      4.4465      4.4694      4.4833      4.4879    
  4.4833      4.4694      4.4465      4.4147      4.3747      4.3273      4.2738      4.2156      4.1545      4.0923    
  4.0310      3.9725      4.0161      3.9695      3.9295      3.8977      3.8756      3.8642      3.8642      3.8756    
  3.8977      3.9295      3.9695      4.0161      4.0676      4.1220      4.1777      4.2328      4.2857      4.3348    
  4.3786      4.4161      4.4465      4.4694      4.4847      4.4923      4.4923      4.4847      4.4694      4.4465    
  4.4161      4.3786      4.3348      4.2857      4.2328      4.1777      4.1220      4.0676      4.1093      4.0649    
  4.0253      3.9922      3.9671      3.9515      3.9462      3.9515      3.9671      3.9922      4.0253      4.0649    
  4.1093      4.1567      4.2056      4.2543      4.3013      4.3451      4.3845      4.4186      4.4465      4.4681    
  4.4833      4.4923      4.4953      4.4923      4.4833      4.4681      4.4465      4.4186      4.3845      4.3451    
  4.3013      4.2543      4.2056      4.1567      4.1951      4.1546      4.1171      4.0842      4.0574      4.0385    
  4.0287      4.0287      4.0385      4.0574      4.0842      4.1171      4.1546      4.1951      4.2369      4.2788    
  4.3194      4.3573      4.3916      4.4213      4.4459      4.4651      4.4790      4.4879      4.4923      4.4923    
  4.4879      4.4790      4.4651      4.4459      4.4213      4.3916      4.3573      4.3194      4.2788      4.2369    
  4.2703      4.2353      4.2015      4.1703      4.1433      4.1223      4.1090      4.1045      4.1090      4.1223    
  4.1433      4.1703      4.2015      4.2353      4.2703      4.3052      4.3389      4.3705      4.3990      4.4236    
  4.4439      4.4598      4.4713      4.4790      4.4833      4.4847      4.4833      4.4790      4.4713      4.4598    
  4.4439      4.4236      4.3990      4.3705      4.3389      4.3052      4.3321      4.3040      4.2753      4.2473    
  4.2215      4.1999      4.1842      4.1759      4.1759      4.1842      4.1999      4.2215      4.2473      4.2753    
  4.3040      4.3321      4.3589      4.3837      4.4058      4.4246      4.4399      4.4516      4.4598      4.4651    
  4.4681      4.4694      4.4694      4.4681      4.4651      4.4598      4.4516      4.4399      4.4246      4.4058    
  4.3837      4.3589      4.3781      4.3579      4.3357      4.3125      4.2895      4.2685      4.2516      4.2406    
  4.2368      4.2406      4.2516      4.2685      4.2895      4.3125      4.3357      4.3579      4.3781      4.3960    
  4.4113      4.4238      4.4333      4.4399      4.4439      4.4459      4.4465      4.4465      4.4465      4.4465    
  4.4465      4.4459      4.4439      4.4399      4.4333      4.4238      4.4113      4.3960      4.4065      4.3950    
  4.3805      4.3634      4.3446      4.3259      4.3092      4.2965      4.2897      4.2897      4.2965      4.3092    
  4.3259      4.3446      4.3634      4.3805      4.3950      4.4065      4.4149      4.4206      4.4238      4.4246    
  4.4236      4.4213      4.4186      4.4161      4.4147      4.4147      4.4161      4.4186      4.4213      4.4236    
  4.4246      4.4238      4.4206      4.4149      4.4161      4.4140      4.4081      4.3983      4.3853      4.3703    
  4.3552      4.3422      4.3334      4.3303      4.3334      4.3422      4.3552      4.3703      4.3853      4.3983    
  4.4081      4.4140      4.4161      4.4149      4.4113      4.4058      4.3990      4.3916      4.3845      4.3786    
  4.3747      4.3733      4.3747      4.3786      4.3845      4.3916      4.3990      4.4058      4.4113      4.4149    
  4.4065      4.4140      4.4174      4.4161      4.4102      4.4005      4.3886      4.3768      4.3672      4.3619    
  4.3619      4.3672      4.3768      4.3886      4.4005      4.4102      4.4161      4.4174      4.4140      4.4065    
  4.3960      4.3837      4.3705      4.3573      4.3451      4.3348      4.3273      4.3234      4.3234      4.3273    
  4.3348      4.3451      4.3573      4.3705      4.3837      4.3960      4.3781      4.3950      4.4081      4.4161    
  4.4185      4.4158      4.4089      4.3999      4.3911      4.3847      4.3823      4.3847      4.3911      4.3999    
  4.4089      4.4158      4.4185      4.4161      4.4081      4.3950      4.3781      4.3589      4.3389      4.3194    
  4.3013      4.2857      4.2738      4.2663      4.2637      4.2663      4.2738      4.2857      4.3013      4.3194    
  4.3389      4.3589      4.3321      4.3579      4.3805      4.3983      4.4102      4.4158      4.4157      4.4114    
  4.4052      4.3993      4.3957      4.3957      4.3993      4.4052      4.4114      4.4157      4.4158      4.4102    
  4.3983      4.3805      4.3579      4.3321      4.3052      4.2788      4.2543      4.2328      4.2156      4.2035    
  4.1973      4.1973      4.2035      4.2156      4.2328      4.2543      4.2788      4.3052      4.2703      4.3040    
  4.3357      4.3634      4.3853      4.4005      4.4089      4.4114      4.4098      4.4064      4.4032      4.4019    
  4.4032      4.4064      4.4098      4.4114      4.4089      4.4005      4.3853      4.3634      4.3357      4.3040    
  4.2703      4.2369      4.2056      4.1777      4.1545      4.1371      4.1263      4.1226      4.1263      4.1371    
  4.1545      4.1777      4.2056      4.2369      4.1951      4.2353      4.2753      4.3125      4.3446      4.3703    
  4.3886      4.3999      4.4052      4.4064      4.4056      4.4046      4.4046      4.4056      4.4064      4.4052    
  4.3999      4.3886      4.3703      4.3446      4.3125      4.2753      4.2353      4.1951      4.1567      4.1220    
  4.0923      4.0689      4.0527      4.0444      4.0444      4.0527      4.0689      4.0923      4.1220      4.1567    
  4.1093      4.1546      4.2015      4.2473      4.2895      4.3259      4.3552      4.3768      4.3911      4.3993    
  4.4032      4.4046      4.4049      4.4046      4.4032      4.3993      4.3911      4.3768      4.3552      4.3259    
  4.2895      4.2473      4.2015      4.1546      4.1093      4.0676      4.0310      4.0011      3.9788      3.9651    
  3.9604      3.9651      3.9788      4.0011      4.0310      4.0676      4.0161      4.0649      4.1171      4.1703    
  4.2215      4.2685      4.3092      4.3422      4.3672      4.3847      4.3957      4.4019      4.4046      4.4046    
  4.4019      4.3957      4.3847      4.3672      4.3422      4.3092      4.2685      4.2215      4.1703      4.1171    
  4.0649      4.0161      3.9725      3.9357      3.9068      3.8870      3.8769      3.8769      3.8870      3.9068    
  3.9357      3.9725      3.9188      3.9695      4.0253      4.0842      4.1433      4.1999      4.2516      4.2965    
  4.3334      4.3619      4.3823      4.3957      4.4032      4.4056      4.4032      4.3957      4.3823      4.3619    
  4.3334      4.2965      4.2516      4.1999      4.1433      4.0842      4.0253      3.9695      3.9188      3.8748    
  3.8389      3.8124      3.7962      3.7907      3.7962      3.8124      3.8389      3.8748      3.8203      3.8716    
  3.9295      3.9922      4.0574      4.1223      4.1842      4.2406      4.2897      4.3303      4.3619      4.3847    
  4.3993      4.4064      4.4064      4.3993      4.3847      4.3619      4.3303      4.2897      4.2406      4.1842    
  4.1223      4.0574      3.9922      3.9295      3.8716      3.8203      3.7772      3.7437      3.7207      3.7090    
  3.7090      3.7207      3.7437      3.7772      3.7237      3.7742      3.8327      3.8977      3.9671      4.0385    
  4.1090      4.1759      4.2368      4.2897      4.3334      4.3672      4.3911      4.4052      4.4098      4.4052    
  4.3911      4.3672      4.3334      4.2897      4.2368      4.1759      4.1090      4.0385      3.9671      3.8977    
  3.8327      3.7742      3.7237      3.6828      3.6526      3.6341      3.6278      3.6341      3.6526      3.6828    
  3.6316      3.6800      3.7379      3.8037      3.8756      3.9515      4.0287      4.1045      4.1759      4.2406    
  4.2965      4.3422      4.3768      4.3999      4.4114      4.4114      4.3999      4.3768      4.3422      4.2965    
  4.2406      4.1759      4.1045      4.0287      3.9515      3.8756      3.8037      3.7379      3.6800      3.6316    
  3.5939      3.5681      3.5550      3.5550      3.5681      3.5939      3.5463      3.5917      3.6477      3.7130    
  3.7858      3.8642      3.9462      4.0287      4.1090      4.1842      4.2516      4.3092      4.3552      4.3886    
  4.4089      4.4157      4.4089      4.3886      4.3552      4.3092      4.2516      4.1842      4.1090      4.0287    
  3.9462      3.8642      3.7858      3.7130      3.6477      3.5917      3.5463      3.5129      3.4924      3.4855    
  3.4924      3.5129      3.4701      3.5113      3.5643      3.6278      3.7002      3.7797      3.8642      3.9515    
  4.0385      4.1223      4.1999      4.2685      4.3259      4.3703      4.4005      4.4158      4.4158      4.4005    
  4.3703      4.3259      4.2685      4.1999      4.1223      4.0385      3.9515      3.8642      3.7797      3.7002    
  3.6278      3.5643      3.5113      3.4701      3.4419      3.4276      3.4276      3.4419      3.4048      3.4408    
  3.4898      3.5504      3.6211      3.7002      3.7858      3.8756      3.9671      4.0574      4.1433      4.2215    
  4.2895      4.3446      4.3853      4.4102      4.4185      4.4102      4.3853      4.3446      4.2895      4.2215    
  4.1433      4.0574      3.9671      3.8756      3.7858      3.7002      3.6211      3.5504      3.4898      3.4408    
  3.4048      3.3827      3.3753      3.3827      3.3520      3.3821      3.4260      3.4826      3.5504      3.6278    
  3.7130      3.8037      3.8977      3.9922      4.0842      4.1703      4.2473      4.3125      4.3634      4.3983    
  4.4161      4.4161      4.3983      4.3634      4.3125      4.2473      4.1703      4.0842      3.9922      3.8977    
  3.8037      3.7130      3.6278      3.5504      3.4826      3.4260      3.3821      3.3520      3.3368      3.3368    
  3.3133      3.3365      3.3744      3.4260      3.4898      3.5643      3.6477      3.7379      3.8327      3.9295    
  4.0253      4.1171      4.2015      4.2753      4.3357      4.3805      4.4081      4.4174      4.4081      4.3805    
  4.3357      4.2753      4.2015      4.1171      4.0253      3.9295      3.8327      3.7379      3.6477      3.5643    
  3.4898      3.4260      3.3744      3.3365      3.3133      3.3055      3.2896      3.3054      3.3365      3.3821    
  3.4408      3.5113      3.5917      3.6800      3.7742      3.8716      3.9695      4.0649      4.1546      4.2353    
  4.3040      4.3579      4.3950      4.4140      4.4140      4.3950      4.3579      4.3040      4.2353      4.1546    
  4.0649      3.9695      3.8716      3.7742      3.6800      3.5917      3.5113      3.4408      3.3821      3.3365    
  3.3054      3.2896      3.2986      3.3065      3.3301      3.3685      3.4207      3.4853      3.5607      3.6449    
  3.7360      3.8316      3.9291      4.0257      4.1183      4.2037      4.2787      4.3403      4.3861      4.4143    
  4.4239      4.4143      4.3861      4.3403      4.2787      4.2037      4.1183      4.0257      3.9291      3.8316    
  3.7360      3.6449      3.5607      3.4853      3.4207      3.3685      3.3301      3.3065      3.3065      3.3065    
  3.3224      3.3535      3.3991      3.4579      3.5282      3.6084      3.6963      3.7897      3.8862      3.9831    
  4.0775      4.1662      4.2462      4.3144      4.3682      4.4053      4.4242      4.4242      4.4053      4.3682    
  4.3144      4.2462      4.1662      4.0775      3.9831      3.8862      3.7897      3.6963      3.6084      3.5282    
  3.4579      3.3991      3.3535      3.3224      3.3301      3.3222      3.3301      3.3535      3.3919      3.4440    
  3.5084      3.5835      3.6672      3.7574      3.8516      3.9474      4.0420      4.1323      4.2154      4.2883    
  4.3483      4.3930      4.4206      4.4300      4.4206      4.3930      4.3483      4.2883      4.2154      4.1323    
  4.0420      3.9474      3.8516      3.7574      3.6672      3.5835      3.5084      3.4440      3.3919      3.3535    
  3.3685      3.3529      3.3529      3.3685      3.3991      3.4440      3.5018      3.5709      3.6494      3.7354    
  3.8263      3.9198      4.0131      4.1036      4.1882      4.2642      4.3288      4.3796      4.4147      4.4326    
  4.4326      4.4147      4.3796      4.3288      4.2642      4.1882      4.1036      4.0131      3.9198      3.8263    
  3.7354      3.6494      3.5709      3.5018      3.4440      3.3991      3.4207      3.3979      3.3903      3.3979    
  3.4207      3.4579      3.5084      3.5709      3.6435      3.7242      3.8109      3.9010      3.9920      4.0812    
  4.1659      4.2433      4.3110      4.3664      4.4075      4.4329      4.4414      4.4329      4.4075      4.3664    
  4.3110      4.2433      4.1659      4.0812      3.9920      3.9010      3.8109      3.7242      3.6435      3.5709    
  3.5084      3.4579      3.4853      3.4560      3.4411      3.4411      3.4560      3.4853      3.5282      3.5835    
  3.6494      3.7242      3.8057      3.8914      3.9790      4.0659      4.1494      4.2269      4.2959      4.3543    
  4.4000      4.4313      4.4473      4.4473      4.4313      4.4000      4.3543      4.2959      4.2269      4.1494    
  4.0659      3.9790      3.8914      3.8057      3.7242      3.6494      3.5835      3.5282      3.5607      3.5256    
  3.5041      3.4968      3.5041      3.5256      3.5607      3.6084      3.6672      3.7354      3.8109      3.8914    
  3.9747      4.0581      4.1392      4.2155      4.2846      4.3444      4.3930      4.4288      4.4508      4.4582    
  4.4508      4.4288      4.3930      4.3444      4.2846      4.2155      4.1392      4.0581      3.9747      3.8914    
  3.8109      3.7354      3.6672      3.6084      3.6449      3.6049      3.5776      3.5636      3.5636      3.5776    
  3.6049      3.6449      3.6963      3.7574      3.8263      3.9010      3.9790      4.0581      4.1358      4.2097    
  4.2776      4.3373      4.3873      4.4260      4.4524      4.4658      4.4658      4.4524      4.4260      4.3873    
  4.3373      4.2776      4.2097      4.1358      4.0581      3.9790      3.9010      3.8263      3.7574      3.6963    
  3.7360      3.6922      3.6599      3.6400      3.6333      3.6400      3.6599      3.6922      3.7360      3.7897    
  3.8516      3.9198      3.9920      4.0659      4.1392      4.2097      4.2752      4.3337      4.3836      4.4237    
  4.4529      4.4706      4.4766      4.4706      4.4529      4.4237      4.3836      4.3337      4.2752      4.2097    
  4.1392      4.0659      3.9920      3.9198      3.8516      3.7897      3.8316      3.7853      3.7490      3.7240    
  3.7113      3.7113      3.7240      3.7490      3.7853      3.8316      3.8862      3.9474      4.0131      4.0812    
  4.1494      4.2155      4.2776      4.3337      4.3823      4.4223      4.4528      4.4734      4.4837      4.4837    
  4.4734      4.4528      4.4223      4.3823      4.3337      4.2776      4.2155      4.1494      4.0812      4.0131    
  3.9474      3.8862      3.9291      3.8817      3.8427      3.8136      3.7956      3.7896      3.7956      3.8136    
  3.8427      3.8817      3.9291      3.9831      4.0420      4.1036      4.1659      4.2269      4.2846      4.3373    
  4.3836      4.4223      4.4528      4.4746      4.4877      4.4921      4.4877      4.4746      4.4528      4.4223    
  4.3836      4.3373      4.2846      4.2269      4.1659      4.1036      4.0420      3.9831      4.0257      3.9787    
  3.9384      3.9063      3.8841      3.8726      3.8726      3.8841      3.9063      3.9384      3.9787      4.0257    
  4.0775      4.1323      4.1882      4.2433      4.2959      4.3444      4.3873      4.4237      4.4528      4.4746    
  4.4890      4.4962      4.4962      4.4890      4.4746      4.4528      4.4237      4.3873      4.3444      4.2959    
  4.2433      4.1882      4.1323      4.0775      4.1183      4.0734      4.0331      3.9992      3.9735      3.9574    
  3.9519      3.9574      3.9735      3.9992      4.0331      4.0734      4.1183      4.1662      4.2154      4.2642    
  4.3110      4.3543      4.3930      4.4260      4.4529      4.4734      4.4877      4.4962      4.4989      4.4962    
  4.4877      4.4734      4.4529      4.4260      4.3930      4.3543      4.3110      4.2642      4.2154      4.1662    
  4.2037      4.1623      4.1234      4.0889      4.0607      4.0407      4.0303      4.0303      4.0407      4.0607    
  4.0889      4.1234      4.1623      4.2037      4.2462      4.2883      4.3288      4.3664      4.4000      4.4288    
  4.4524      4.4706      4.4837      4.4921      4.4962      4.4962      4.4921      4.4837      4.4706      4.4524    
  4.4288      4.4000      4.3664      4.3288      4.2883      4.2462      4.2787      4.2421      4.2061      4.1722    
  4.1426      4.1195      4.1048      4.0997      4.1048      4.1195      4.1426      4.1722      4.2061      4.2421    
  4.2787      4.3144      4.3483      4.3796      4.4075      4.4313      4.4508      4.4658      4.4766      4.4837    
  4.4877      4.4890      4.4877      4.4837      4.4766      4.4658      4.4508      4.4313      4.4075      4.3796    
  4.3483      4.3144      4.3403      4.3099      4.2780      4.2462      4.2163      4.1910      4.1725      4.1627    
  4.1627      4.1725      4.1910      4.2163      4.2462      4.2780      4.3099      4.3403      4.3682      4.3930    
  4.4147      4.4329      4.4473      4.4582      4.4658      4.4706      4.4734      4.4746      4.4746      4.4734    
  4.4706      4.4658      4.4582      4.4473      4.4329      4.4147      4.3930      4.3682      4.3861      4.3631    
  4.3367      4.3082      4.2794      4.2528      4.2312      4.2171      4.2122      4.2171      4.2312      4.2528    
  4.2794      4.3082      4.3367      4.3631      4.3861      4.4053      4.4206      4.4326      4.4414      4.4473    
  4.4508      4.4524      4.4529      4.4528      4.4528      4.4528      4.4529      4.4524      4.4508      4.4473    
  4.4414      4.4326      4.4206      4.4053      4.4143      4.3997      4.3801      4.3563      4.3300      4.3034    
  4.2797      4.2617      4.2520      4.2520      4.2617      4.2797      4.3034      4.3300      4.3563      4.3801    
  4.3997      4.4143      4.4242      4.4300      4.4326      4.4329      4.4313      4.4288      4.4260      4.4237    
  4.4223      4.4223      4.4237      4.4260      4.4288      4.4313      4.4329      4.4326      4.4300      4.4242    
  4.4239      4.4183      4.4067      4.3892      4.3668      4.3417      4.3170      4.2960      4.2819      4.2770    
  4.2819      4.2960      4.3170      4.3417      4.3668      4.3892      4.4067      4.4183      4.4239      4.4242    
  4.4206      4.4147      4.4075      4.4000      4.3930      4.3873      4.3836      4.3823      4.3836      4.3873    
  4.3930      4.4000      4.4075      4.4147      4.4206      4.4242      4.4143      4.4183      4.4156      4.4058    
  4.3891      4.3673      4.3433      4.3205      4.3027      4.2929      4.2929      4.3027      4.3205      4.3433    
  4.3673      4.3891      4.4058      4.4156      4.4183      4.4143      4.4053      4.3930      4.3796      4.3664    
  4.3543      4.3444      4.3373      4.3337      4.3337      4.3373      4.3444      4.3543      4.3664      4.3796    
  4.3930      4.4053      4.3861      4.3997      4.4067      4.4058      4.3966      4.3801      4.3588      4.3360    
  4.3158      4.3019      4.2969      4.3019      4.3158      4.3360      4.3588      4.3801      4.3966      4.4058    
  4.4067      4.3997      4.3861      4.3682      4.3483      4.3288      4.3110      4.2959      4.2846      4.2776    
  4.2752      4.2776      4.2846      4.2959      4.3110      4.3288      4.3483      4.3682      4.3403      4.3631    
  4.3801      4.3892      4.3891      4.3801      4.3639      4.3435      4.3228      4.3061      4.2967      4.2967    
  4.3061      4.3228      4.3435      4.3639      4.3801      4.3891      4.3892      4.3801      4.3631      4.3403    
  4.3144      4.2883      4.2642      4.2433      4.2269      4.2155      4.2097      4.2097      4.2155      4.2269    
  4.2433      4.2642      4.2883      4.3144      4.2787      4.3099      4.3367      4.3563      4.3668      4.3673    
  4.3588      4.3435      4.3250      4.3076      4.2952      4.2907      4.2952      4.3076      4.3250      4.3435    
  4.3588      4.3673      4.3668      4.3563      4.3367      4.3099      4.2787      4.2462      4.2154      4.1882    
  4.1659      4.1494      4.1392      4.1358      4.1392      4.1494      4.1659      4.1882      4.2154      4.2462    
  4.2037      4.2421      4.2780      4.3082      4.3300      4.3417      4.3433      4.3360      4.3228      4.3076    
  4.2944      4.2869      4.2869      4.2944      4.3076      4.3228      4.3360      4.3433      4.3417      4.3300    
  4.3082      4.2780      4.2421      4.2037      4.1662      4.1323      4.1036      4.0812      4.0659      4.0581    
  4.0581      4.0659      4.0812      4.1036      4.1323      4.1662      4.1183      4.1623      4.2061      4.2462    
  4.2794      4.3034      4.3170      4.3205      4.3158      4.3061      4.2952      4.2869      4.2838      4.2869    
  4.2952      4.3061      4.3158      4.3205      4.3170      4.3034      4.2794      4.2462      4.2061      4.1623    
  4.1183      4.0775      4.0420      4.0131      3.9920      3.9790      3.9747      3.9790      3.9920      4.0131    
  4.0420      4.0775      4.0257      4.0734      4.1234      4.1722      4.2163      4.2528      4.2797      4.2960    
  4.3027      4.3019      4.2967      4.2907      4.2869      4.2869      4.2907      4.2967      4.3019      4.3027    
  4.2960      4.2797      4.2528      4.2163      4.1722      4.1234      4.0734      4.0257      3.9831      3.9474    
  3.9198      3.9010      3.8914      3.8914      3.9010      3.9198      3.9474      3.9831      3.9291      3.9787    
  4.0331      4.0889      4.1426      4.1910      4.2312      4.2617      4.2819      4.2929      4.2969      4.2967    
  4.2952      4.2944      4.2952      4.2967      4.2969      4.2929      4.2819      4.2617      4.2312      4.1910    
  4.1426      4.0889      4.0331      3.9787      3.9291      3.8862      3.8516      3.8263      3.8109      3.8057    
  3.8109      3.8263      3.8516      3.8862      3.8316      3.8817      3.9384      3.9992      4.0607      4.1195    
  4.1725      4.2171      4.2520      4.2770      4.2929      4.3019      4.3061      4.3076      4.3076      4.3061    
  4.3019      4.2929      4.2770      4.2520      4.2171      4.1725      4.1195      4.0607      3.9992      3.9384    
  3.8817      3.8316      3.7897      3.7574      3.7354      3.7242      3.7242      3.7354      3.7574      3.7897    
  3.7360      3.7853      3.8427      3.9063      3.9735      4.0407      4.1048      4.1627      4.2122      4.2520    
  4.2819      4.3027      4.3158      4.3228      4.3250      4.3228      4.3158      4.3027      4.2819      4.2520    
  4.2122      4.1627      4.1048      4.0407      3.9735      3.9063      3.8427      3.7853      3.7360      3.6963    
  3.6672      3.6494      3.6435      3.6494      3.6672      3.6963      3.6449      3.6922      3.7490      3.8136    
  3.8841      3.9574      4.0303      4.0997      4.1627      4.2171      4.2617      4.2960      4.3205      4.3360    
  4.3435      4.3435      4.3360      4.3205      4.2960      4.2617      4.2171      4.1627      4.0997      4.0303    
  3.9574      3.8841      3.8136      3.7490      3.6922      3.6449      3.6084      3.5835      3.5709      3.5709    
  3.5835      3.6084      3.5607      3.6049      3.6599      3.7240      3.7956      3.8726      3.9519      4.0303    
  4.1048      4.1725      4.2312      4.2797      4.3170      4.3433      4.3588      4.3639      4.3588      4.3433    
  4.3170      4.2797      4.2312      4.1725      4.1048      4.0303      3.9519      3.8726      3.7956      3.7240    
  3.6599      3.6049      3.5607      3.5282      3.5084      3.5018      3.5084      3.5282      3.4853      3.5256    
  3.5776      3.6400      3.7113      3.7896      3.8726      3.9574      4.0407      4.1195      4.1910      4.2528    
  4.3034      4.3417      4.3673      4.3801      4.3801      4.3673      4.3417      4.3034      4.2528      4.1910    
  4.1195      4.0407      3.9574      3.8726      3.7896      3.7113      3.6400      3.5776      3.5256      3.4853    
  3.4579      3.4440      3.4440      3.4579      3.4207      3.4560      3.5041      3.5636      3.6333      3.7113    
  3.7956      3.8841      3.9735      4.0607      4.1426      4.2163      4.2794      4.3300      4.3668      4.3891    
  4.3966      4.3891      4.3668      4.3300      4.2794      4.2163      4.1426      4.0607      3.9735      3.8841    
  3.7956      3.7113      3.6333      3.5636      3.5041      3.4560      3.4207      3.3991      3.3919      3.3991    
  3.3685      3.3979      3.4411      3.4968      3.5636      3.6400      3.7240      3.8136      3.9063      3.9992    
  4.0889      4.1722      4.2462      4.3082      4.3563      4.3892      4.4058      4.4058      4.3892      4.3563    
  4.3082      4.2462      4.1722      4.0889      3.9992      3.9063      3.8136      3.7240      3.6400      3.5636    
  3.4968      3.4411      3.3979      3.3685      3.3535      3.3535      3.3301      3.3529      3.3903      3.4411    
  3.5041      3.5776      3.6599      3.7490      3.8427      3.9384      4.0331      4.1234      4.2061      4.2780    
  4.3367      4.3801      4.4067      4.4156      4.4067      4.3801      4.3367      4.2780      4.2061      4.1234    
  4.0331      3.9384      3.8427      3.7490      3.6599      3.5776      3.5041      3.4411      3.3903      3.3529    
  3.3301      3.3224      3.3065      3.3222      3.3529      3.3979      3.4560      3.5256      3.6049      3.6922    
  3.7853      3.8817      3.9787      4.0734      4.1623      4.2421      4.3099      4.3631      4.3997      4.4183    
  4.4183      4.3997      4.3631      4.3099      4.2421      4.1623      4.0734      3.9787      3.8817      3.7853    
  3.6922      3.6049      3.5256      3.4560      3.3979      3.3529      3.3222      3.3065      3.3186      3.3264    
  3.3498      3.3879      3.4396      3.5035      3.5780      3.6612      3.7512      3.8457      3.9421      4.0378    
  4.1295      4.2139      4.2878      4.3485      4.3936      4.4213      4.4307      4.4213      4.3936      4.3485    
  4.2878      4.2139      4.1295      4.0378      3.9421      3.8457      3.7512      3.6612      3.5780      3.5035    
  3.4396      3.3879      3.3498      3.3264      3.3264      3.3264      3.3422      3.3733      3.4186      3.4770    
  3.5467      3.6260      3.7129      3.8053      3.9007      3.9967      4.0903      4.1784      4.2579      4.3256    
  4.3790      4.4158      4.4346      4.4346      4.4158      4.3790      4.3256      4.2579      4.1784      4.0903    
  3.9967      3.9007      3.8053      3.7129      3.6260      3.5467      3.4770      3.4186      3.3733      3.3422    
  3.3498      3.3419      3.3498      3.3733      3.4116      3.4635      3.5276      3.6021      3.6850      3.7743    
  3.8675      3.9623      4.0559      4.1455      4.2280      4.3006      4.3603      4.4049      4.4324      4.4417    
  4.4324      4.4049      4.3603      4.3006      4.2280      4.1455      4.0559      3.9623      3.8675      3.7743    
  3.6850      3.6021      3.5276      3.4635      3.4116      3.3733      3.3879      3.3722      3.3722      3.3879    
  3.4186      3.4635      3.5212      3.5901      3.6682      3.7534      3.8434      3.9359      4.0282      4.1177    
  4.2016      4.2769      4.3410      4.3915      4.4263      4.4441      4.4441      4.4263      4.3915      4.3410    
  4.2769      4.2016      4.1177      4.0282      3.9359      3.8434      3.7534      3.6682      3.5901      3.5212    
  3.4635      3.4186      3.4396      3.4167      3.4090      3.4167      3.4396      3.4770      3.5276      3.5901    
  3.6625      3.7428      3.8288      3.9181      4.0082      4.0964      4.1801      4.2566      4.3234      4.3781    
  4.4187      4.4438      4.4522      4.4438      4.4187      4.3781      4.3234      4.2566      4.1801      4.0964    
  4.0082      3.9181      3.8288      3.7428      3.6625      3.5901      3.5276      3.4770      3.5035      3.4740    
  3.4590      3.4590      3.4740      3.5035      3.5467      3.6021      3.6682      3.7428      3.8240      3.9092    
  3.9961      4.0820      4.1644      4.2408      4.3088      4.3662      4.4110      4.4417      4.4574      4.4574    
  4.4417      4.4110      4.3662      4.3088      4.2408      4.1644      4.0820      3.9961      3.9092      3.8240    
  3.7428      3.6682      3.6021      3.5467      3.5780      3.5426      3.5209      3.5136      3.5209      3.5426    
  3.5780      3.6260      3.6850      3.7534      3.8288      3.9092      3.9920      4.0748      4.1550      4.2302    
  4.2981      4.3566      4.4040      4.4389      4.4603      4.4675      4.4603      4.4389      4.4040      4.3566    
  4.2981      4.2302      4.1550      4.0748      3.9920      3.9092      3.8288      3.7534      3.6850      3.6260    
  3.6612      3.6210      3.5933      3.5793      3.5793      3.5933      3.6210      3.6612      3.7129      3.7743    
  3.8434      3.9181      3.9961      4.0748      4.1518      4.2248      4.2915      4.3500      4.3986      4.4362    
  4.4617      4.4746      4.4746      4.4617      4.4362      4.3986      4.3500      4.2915      4.2248      4.1518    
  4.0748      3.9961      3.9181      3.8434      3.7743      3.7129      3.7512      3.7071      3.6745      3.6545    
  3.6477      3.6545      3.6745      3.7071      3.7512      3.8053      3.8675      3.9359      4.0082      4.0820    
  4.1550      4.2248      4.2893      4.3466      4.3952      4.4340      4.4621      4.4792      4.4849      4.4792    
  4.4621      4.4340      4.3952      4.3466      4.2893      4.2248      4.1550      4.0820      4.0082      3.9359    
  3.8675      3.8053      3.8457      3.7990      3.7624      3.7372      3.7243      3.7243      3.7372      3.7624    
  3.7990      3.8457      3.9007      3.9623      4.0282      4.0964      4.1644      4.2302      4.2915      4.3466    
  4.3941      4.4328      4.4622      4.4818      4.4917      4.4917      4.4818      4.4622      4.4328      4.3941    
  4.3466      4.2915      4.2302      4.1644      4.0964      4.0282      3.9623      3.9007      3.9421      3.8942    
  3.8547      3.8253      3.8070      3.8008      3.8070      3.8253      3.8547      3.8942      3.9421      3.9967    
  4.0559      4.1177      4.1801      4.2408      4.2981      4.3500      4.3952      4.4328      4.4621      4.4830    
  4.4955      4.4996      4.4955      4.4830      4.4621      4.4328      4.3952      4.3500      4.2981      4.2408    
  4.1801      4.1177      4.0559      3.9967      4.0378      3.9900      3.9487      3.9157      3.8927      3.8809    
  3.8809      3.8927      3.9157      3.9487      3.9900      4.0378      4.0903      4.1455      4.2016      4.2566    
  4.3088      4.3566      4.3986      4.4340      4.4622      4.4830      4.4967      4.5035      4.5035      4.4967    
  4.4830      4.4622      4.4340      4.3986      4.3566      4.3088      4.2566      4.2016      4.1455      4.0903    
  4.1295      4.0831      4.0410      4.0053      3.9781      3.9609      3.9551      3.9609      3.9781      4.0053    
  4.0410      4.0831      4.1295      4.1784      4.2280      4.2769      4.3234      4.3662      4.4040      4.4362    
  4.4621      4.4818      4.4955      4.5035      4.5061      4.5035      4.4955      4.4818      4.4621      4.4362    
  4.4040      4.3662      4.3234      4.2769      4.2280      4.1784      4.2139      4.1701      4.1284      4.0908    
  4.0598      4.0376      4.0261      4.0261      4.0376      4.0598      4.0908      4.1284      4.1701      4.2139    
  4.2579      4.3006      4.3410      4.3781      4.4110      4.4389      4.4617      4.4792      4.4917      4.4996    
  4.5035      4.5035      4.4996      4.4917      4.4792      4.4617      4.4389      4.4110      4.3781      4.3410    
  4.3006      4.2579      4.2878      4.2480      4.2077      4.1691      4.1349      4.1079      4.0905      4.0845    
  4.0905      4.1079      4.1349      4.1691      4.2077      4.2480      4.2878      4.3256      4.3603      4.3915    
  4.4187      4.4417      4.4603      4.4746      4.4849      4.4917      4.4955      4.4967      4.4955      4.4917    
  4.4849      4.4746      4.4603      4.4417      4.4187      4.3915      4.3603      4.3256      4.3485      4.3138    
  4.2762      4.2376      4.2008      4.1692      4.1459      4.1335      4.1335      4.1459      4.1692      4.2008    
  4.2376      4.2762      4.3138      4.3485      4.3790      4.4049      4.4263      4.4438      4.4574      4.4675    
  4.4746      4.4792      4.4818      4.4830      4.4830      4.4818      4.4792      4.4746      4.4675      4.4574    
  4.4438      4.4263      4.4049      4.3790      4.3936      4.3653      4.3316      4.2942      4.2558      4.2200    
  4.1907      4.1714      4.1647      4.1714      4.1907      4.2200      4.2558      4.2942      4.3316      4.3653    
  4.3936      4.4158      4.4324      4.4441      4.4522      4.4574      4.4603      4.4617      4.4621      4.4622    
  4.4621      4.4622      4.4621      4.4617      4.4603      4.4574      4.4522      4.4441      4.4324      4.4158    
  4.4213      4.4006      4.3723      4.3375      4.2987      4.2596      4.2246      4.1981      4.1839      4.1839    
  4.1981      4.2246      4.2596      4.2987      4.3375      4.3723      4.4006      4.4213      4.4346      4.4417    
  4.4441      4.4438      4.4417      4.4389      4.4362      4.4340      4.4328      4.4328      4.4340      4.4362    
  4.4389      4.4417      4.4438      4.4441      4.4417      4.4346      4.4307      4.4185      4.3971      4.3667    
  4.3293      4.2882      4.2483      4.2147      4.1923      4.1845      4.1923      4.2147      4.2483      4.2882    
  4.3293      4.3667      4.3971      4.4185      4.4307      4.4346      4.4324      4.4263      4.4187      4.4110    
  4.4040      4.3986      4.3952      4.3941      4.3952      4.3986      4.4040      4.4110      4.4187      4.4263    
  4.4324      4.4346      4.4213      4.4185      4.4054      4.3814      4.3475      4.3066      4.2634      4.2236    
  4.1931      4.1765      4.1765      4.1931      4.2236      4.2634      4.3066      4.3475      4.3814      4.4054    
  4.4185      4.4213      4.4158      4.4049      4.3915      4.3781      4.3662      4.3566      4.3500      4.3466    
  4.3466      4.3500      4.3566      4.3662      4.3781      4.3915      4.4049      4.4158      4.3936      4.4006    
  4.3971      4.3814      4.3535      4.3155      4.2715      4.2274      4.1897      4.1643      4.1553      4.1643    
  4.1897      4.2274      4.2715      4.3155      4.3535      4.3814      4.3971      4.4006      4.3936      4.3790    
  4.3603      4.3410      4.3234      4.3088      4.2981      4.2915      4.2893      4.2915      4.2981      4.3088    
  4.3234      4.3410      4.3603      4.3790      4.3485      4.3653      4.3723      4.3667      4.3475      4.3155    
  4.2741      4.2286      4.1859      4.1527      4.1345      4.1345      4.1527      4.1859      4.2286      4.2741    
  4.3155      4.3475      4.3667      4.3723      4.3653      4.3485      4.3256      4.3006      4.2769      4.2566    
  4.2408      4.2302      4.2248      4.2248      4.2302      4.2408      4.2566      4.2769      4.3006      4.3256    
  4.2878      4.3138      4.3316      4.3375      4.3293      4.3066      4.2715      4.2286      4.1843      4.1457    
  4.1195      4.1102      4.1195      4.1457      4.1843      4.2286      4.2715      4.3066      4.3293      4.3375    
  4.3316      4.3138      4.2878      4.2579      4.2280      4.2016      4.1801      4.1644      4.1550      4.1518    
  4.1550      4.1644      4.1801      4.2016      4.2280      4.2579      4.2139      4.2480      4.2762      4.2942    
  4.2987      4.2882      4.2634      4.2274      4.1859      4.1457      4.1140      4.0965      4.0965      4.1140    
  4.1457      4.1859      4.2274      4.2634      4.2882      4.2987      4.2942      4.2762      4.2480      4.2139    
  4.1784      4.1455      4.1177      4.0964      4.0820      4.0748      4.0748      4.0820      4.0964      4.1177    
  4.1455      4.1784      4.1295      4.1701      4.2077      4.2376      4.2558      4.2596      4.2483      4.2236    
  4.1897      4.1527      4.1195      4.0965      4.0883      4.0965      4.1195      4.1527      4.1897      4.2236    
  4.2483      4.2596      4.2558      4.2376      4.2077      4.1701      4.1295      4.0903      4.0559      4.0282    
  4.0082      3.9961      3.9920      3.9961      4.0082      4.0282      4.0559      4.0903      4.0378      4.0831    
  4.1284      4.1691      4.2008      4.2200      4.2246      4.2147      4.1931      4.1643      4.1345      4.1102    
  4.0965      4.0965      4.1102      4.1345      4.1643      4.1931      4.2147      4.2246      4.2200      4.2008    
  4.1691      4.1284      4.0831      4.0378      3.9967      3.9623      3.9359      3.9181      3.9092      3.9092    
  3.9181      3.9359      3.9623      3.9967      3.9421      3.9900      4.0410      4.0908      4.1349      4.1692    
  4.1907      4.1981      4.1923      4.1765      4.1553      4.1345      4.1195      4.1140      4.1195      4.1345    
  4.1553      4.1765      4.1923      4.1981      4.1907      4.1692      4.1349      4.0908      4.0410      3.9900    
  3.9421      3.9007      3.8675      3.8434      3.8288      3.8240      3.8288      3.8434      3.8675      3.9007    
  3.8457      3.8942      3.9487      4.0053      4.0598      4.1079      4.1459      4.1714      4.1839      4.1845    
  4.1765      4.1643      4.1527      4.1457      4.1457      4.1527      4.1643      4.1765      4.1845      4.1839    
  4.1714      4.1459      4.1079      4.0598      4.0053      3.9487      3.8942      3.8457      3.8053      3.7743    
  3.7534      3.7428      3.7428      3.7534      3.7743      3.8053      3.7512      3.7990      3.8547      3.9157    
  3.9781      4.0376      4.0905      4.1335      4.1647      4.1839      4.1923      4.1931      4.1897      4.1859    
  4.1843      4.1859      4.1897      4.1931      4.1923      4.1839      4.1647      4.1335      4.0905      4.0376    
  3.9781      3.9157      3.8547      3.7990      3.7512      3.7129      3.6850      3.6682      3.6625      3.6682    
  3.6850      3.7129      3.6612      3.7071      3.7624      3.8253      3.8927      3.9609      4.0261      4.0845    
  4.1335      4.1714      4.1981      4.2147      4.2236      4.2274      4.2286      4.2286      4.2274      4.2236    
  4.2147      4.1981      4.1714      4.1335      4.0845      4.0261      3.9609      3.8927      3.8253      3.7624    
  3.7071      3.6612      3.6260      3.6021      3.5901      3.5901      3.6021      3.6260      3.5780      3.6210    
  3.6745      3.7372      3.8070      3.8809      3.9551      4.0261      4.0905      4.1459      4.1907      4.2246    
  4.2483      4.2634      4.2715      4.2741      4.2715      4.2634      4.2483      4.2246      4.1907      4.1459    
  4.0905      4.0261      3.9551      3.8809      3.8070      3.7372      3.6745      3.6210      3.5780      3.5467    
  3.5276      3.5212      3.5276      3.5467      3.5035      3.5426      3.5933      3.6545      3.7243      3.8008    
  3.8809      3.9609      4.0376      4.1079      4.1692      4.2200      4.2596      4.2882      4.3066      4.3155    
  4.3155      4.3066      4.2882      4.2596      4.2200      4.1692      4.1079      4.0376      3.9609      3.8809    
  3.8008      3.7243      3.6545      3.5933      3.5426      3.5035      3.4770      3.4635      3.4635      3.4770    
  3.4396      3.4740      3.5209      3.5793      3.6477      3.7243      3.8070      3.8927      3.9781      4.0598    
  4.1349      4.2008      4.2558      4.2987      4.3293      4.3475      4.3535      4.3475      4.3293      4.2987    
  4.2558      4.2008      4.1349      4.0598      3.9781      3.8927      3.8070      3.7243      3.6477      3.5793    
  3.5209      3.4740      3.4396      3.4186      3.4116      3.4186      3.3879      3.4167      3.4590      3.5136    
  3.5793      3.6545      3.7372      3.8253      3.9157      4.0053      4.0908      4.1691      4.2376      4.2942    
  4.3375      4.3667      4.3814      4.3814      4.3667      4.3375      4.2942      4.2376      4.1691      4.0908    
  4.0053      3.9157      3.8253      3.7372      3.6545      3.5793      3.5136      3.4590      3.4167      3.3879    
  3.3733      3.3733      3.3498      3.3722      3.4090      3.4590      3.5209      3.5933      3.6745      3.7624    
  3.8547      3.9487      4.0410      4.1284      4.2077      4.2762      4.3316      4.3723      4.3971      4.4054    
  4.3971      4.3723      4.3316      4.2762      4.2077      4.1284      4.0410      3.9487      3.8547      3.7624    
  3.6745      3.5933      3.5209      3.4590      3.4090      3.3722      3.3498      3.3422      3.3264      3.3419    
  3.3722      3.4167      3.4740      3.5426      3.6210      3.7071      3.7990      3.8942      3.9900      4.0831    
  4.1701      4.2480      4.3138      4.3653      4.4006      4.4185      4.4185      4.4006      4.3653      4.3138    
  4.2480      4.1701      4.0831      3.9900      3.8942      3.7990      3.7071      3.6210      3.5426      3.4740    
  3.4167      3.3722      3.3419      3.3264      3.3405      3.3483      3.3715      3.4092      3.4604      3.5237    
  3.5974      3.6797      3.7686      3.8620      3.9573      4.0516      4.1416      4.2241      4.2961      4.3550    
  4.3986      4.4254      4.4344      4.4254      4.3986      4.3550      4.2961      4.2241      4.1416      4.0516    
  3.9573      3.8620      3.7686      3.6797      3.5974      3.5237      3.4604      3.4092      3.3715      3.3483    
  3.3483      3.3483      3.3641      3.3950      3.4401      3.4981      3.5673      3.6459      3.7319      3.8233    
  3.9178      4.0128      4.1054      4.1925      4.2709      4.3376      4.3901      4.4263      4.4448      4.4448    
  4.4263      4.3901      4.3376      4.2709      4.1925      4.1054      4.0128      3.9178      3.8233      3.7319    
  3.6459      3.5673      3.4981      3.4401      3.3950      3.3641      3.3715      3.3635      3.3715      3.3950    
  3.4333      3.4852      3.5491      3.6231      3.7054      3.7938      3.8861      3.9799      4.0726      4.1613    
  4.2432      4.3151      4.3743      4.4184      4.4456      4.4548      4.4456      4.4184      4.3743      4.3151    
  4.2432      4.1613      4.0726      3.9799      3.8861      3.7938      3.7054      3.6231      3.5491      3.4852    
  3.4333      3.3950      3.4092      3.3934      3.3934      3.4092      3.4401      3.4852      3.5430      3.6117    
  3.6894      3.7740      3.8632      3.9547      4.0461      4.1347      4.2177      4.2923      4.3558      4.4059    
  4.4404      4.4581      4.4581      4.4404      4.4059      4.3558      4.2923      4.2177      4.1347      4.0461    
  3.9547      3.8632      3.7740      3.6894      3.6117      3.5430      3.4852      3.4401      3.4604      3.4373    
  3.4294      3.4373      3.4604      3.4981      3.5491      3.6117      3.6841      3.7641      3.8495      3.9380    
  4.0271      4.1143      4.1970      4.2726      4.3385      4.3925      4.4326      4.4573      4.4656      4.4573    
  4.4326      4.3925      4.3385      4.2726      4.1970      4.1143      4.0271      3.9380      3.8495      3.7641    
  3.6841      3.6117      3.5491      3.4981      3.5237      3.4938      3.4785      3.4785      3.4938      3.5237    
  3.5673      3.6231      3.6894      3.7641      3.8449      3.9296      4.0157      4.1007      4.1821      4.2574    
  4.3243      4.3806      4.4246      4.4547      4.4700      4.4700      4.4547      4.4246      4.3806      4.3243    
  4.2574      4.1821      4.1007      4.0157      3.9296      3.8449      3.7641      3.6894      3.6231      3.5673    
  3.5974      3.5615      3.5395      3.5320      3.5395      3.5615      3.5974      3.6459      3.7054      3.7740    
  3.8495      3.9296      4.0120      4.0940      4.1732      4.2473      4.3140      4.3713      4.4176      4.4516    
  4.4724      4.4794      4.4724      4.4516      4.4176      4.3713      4.3140      4.2473      4.1732      4.0940    
  4.0120      3.9296      3.8495      3.7740      3.7054      3.6459      3.6797      3.6389      3.6108      3.5965    
  3.5965      3.6108      3.6389      3.6797      3.7319      3.7938      3.8632      3.9380      4.0157      4.0940    
  4.1703      4.2423      4.3078      4.3650      4.4124      4.4488      4.4735      4.4860      4.4860      4.4735    
  4.4488      4.4124      4.3650      4.3078      4.2423      4.1703      4.0940      4.0157      3.9380      3.8632    
  3.7938      3.7319      3.7686      3.7239      3.6907      3.6703      3.6634      3.6703      3.6907      3.7239    
  3.7686      3.8233      3.8861      3.9547      4.0271      4.1007      4.1732      4.2423      4.3058      4.3619    
  4.4093      4.4468      4.4740      4.4903      4.4958      4.4903      4.4740      4.4468      4.4093      4.3619    
  4.3058      4.2423      4.1732      4.1007      4.0271      3.9547      3.8861      3.8233      3.8620      3.8146    
  3.7772      3.7515      3.7383      3.7383      3.7515      3.7772      3.8146      3.8620      3.9178      3.9799    
  4.0461      4.1143      4.1821      4.2473      4.3078      4.3619      4.4082      4.4458      4.4741      4.4930    
  4.5024      4.5024      4.4930      4.4741      4.4458      4.4082      4.3619      4.3078      4.2473      4.1821    
  4.1143      4.0461      3.9799      3.9178      3.9573      3.9083      3.8676      3.8371      3.8181      3.8117    
  3.8181      3.8371      3.8676      3.9083      3.9573      4.0128      4.0726      4.1347      4.1970      4.2574    
  4.3140      4.3650      4.4093      4.4458      4.4741      4.4942      4.5061      4.5101      4.5061      4.4942    
  4.4741      4.4458      4.4093      4.3650      4.3140      4.2574      4.1970      4.1347      4.0726      4.0128    
  4.0516      4.0020      3.9587      3.9239      3.8994      3.8867      3.8867      3.8994      3.9239      3.9587    
  4.0020      4.0516      4.1054      4.1613      4.2177      4.2726      4.3243      4.3713      4.4124      4.4468    
  4.4741      4.4942      4.5073      4.5138      4.5138      4.5073      4.4942      4.4741      4.4468      4.4124    
  4.3713      4.3243      4.2726      4.2177      4.1613      4.1054      4.1416      4.0924      4.0471      4.0083    
  3.9783      3.9593      3.9528      3.9593      3.9783      4.0083      4.0471      4.0924      4.1416      4.1925    
  4.2432      4.2923      4.3385      4.3806      4.4176      4.4488      4.4740      4.4930      4.5061      4.5138    
  4.5164      4.5138      4.5061      4.4930      4.4740      4.4488      4.4176      4.3806      4.3385      4.2923    
  4.2432      4.1925      4.2241      4.1763      4.1298      4.0872      4.0516      4.0259      4.0124      4.0124    
  4.0259      4.0516      4.0872      4.1298      4.1763      4.2241      4.2709      4.3151      4.3558      4.3925    
  4.4246      4.4516      4.4735      4.4903      4.5024      4.5101      4.5138      4.5138      4.5101      4.5024    
  4.4903      4.4735      4.4516      4.4246      4.3925      4.3558      4.3151      4.2709      4.2961      4.2508    
  4.2037      4.1577      4.1163      4.0833      4.0619      4.0545      4.0619      4.0833      4.1163      4.1577    
  4.2037      4.2508      4.2961      4.3376      4.3743      4.4059      4.4326      4.4547      4.4724      4.4860    
  4.4958      4.5024      4.5061      4.5073      4.5061      4.5024      4.4958      4.4860      4.4724      4.4547    
  4.4326      4.4059      4.3743      4.3376      4.3550      4.3133      4.2667      4.2179      4.1707      4.1297    
  4.0992      4.0830      4.0830      4.0992      4.1297      4.1707      4.2179      4.2667      4.3133      4.3550    
  4.3901      4.4184      4.4404      4.4573      4.4700      4.4794      4.4860      4.4903      4.4930      4.4942    
  4.4942      4.4930      4.4903      4.4860      4.4794      4.4700      4.4573      4.4404      4.4184      4.3901    
  4.3986      4.3619      4.3170      4.2663      4.2137      4.1644      4.1239      4.0972      4.0879      4.0972    
  4.1239      4.1644      4.2137      4.2663      4.3170      4.3619      4.3986      4.4263      4.4456      4.4581    
  4.4656      4.4700      4.4724      4.4735      4.4740      4.4741      4.4741      4.4741      4.4740      4.4735    
  4.4724      4.4700      4.4656      4.4581      4.4456      4.4263      4.4254      4.3950      4.3535      4.3024    
  4.2455      4.1882      4.1370      4.0984      4.0776      4.0776      4.0984      4.1370      4.1882      4.2455    
  4.3024      4.3535      4.3950      4.4254      4.4448      4.4548      4.4581      4.4573      4.4547      4.4516    
  4.4488      4.4468      4.4458      4.4458      4.4468      4.4488      4.4516      4.4547      4.4573      4.4581    
  4.4548      4.4448      4.4344      4.4118      4.3755      4.3262      4.2670      4.2030      4.1414      4.0901    
  4.0560      4.0440      4.0560      4.0901      4.1414      4.2030      4.2670      4.3262      4.3755      4.4118    
  4.4344      4.4448      4.4456      4.4404      4.4326      4.4246      4.4176      4.4124      4.4093      4.4082    
  4.4093      4.4124      4.4176      4.4246      4.4326      4.4404      4.4456      4.4448      4.4254      4.4118    
  4.3829      4.3380      4.2792      4.2110      4.1408      4.0771      4.0287      4.0026      4.0026      4.0287    
  4.0771      4.1408      4.2110      4.2792      4.3380      4.3829      4.4118      4.4254      4.4263      4.4184    
  4.4059      4.3925      4.3806      4.3713      4.3650      4.3619      4.3619      4.3650      4.3713      4.3806    
  4.3925      4.4059      4.4184      4.4263      4.3986      4.3950      4.3755      4.3380      4.2831      4.2144    
  4.1386      4.0647      4.0026      3.9612      3.9466      3.9612      4.0026      4.0647      4.1386      4.2144    
  4.2831      4.3380      4.3755      4.3950      4.3986      4.3901      4.3743      4.3558      4.3385      4.3243    
  4.3140      4.3078      4.3058      4.3078      4.3140      4.3243      4.3385      4.3558      4.3743      4.3901    
  4.3550      4.3619      4.3535      4.3262      4.2792      4.2144      4.1376      4.0573      3.9840      3.9279    
  3.8976      3.8976      3.9279      3.9840      4.0573      4.1376      4.2144      4.2792      4.3262      4.3535    
  4.3619      4.3550      4.3376      4.3151      4.2923      4.2726      4.2574      4.2473      4.2423      4.2423    
  4.2473      4.2574      4.2726      4.2923      4.3151      4.3376      4.2961      4.3133      4.3170      4.3024    
  4.2670      4.2110      4.1386      4.0573      3.9772      3.9095      3.8641      3.8482      3.8641      3.9095    
  3.9772      4.0573      4.1386      4.2110      4.2670      4.3024      4.3170      4.3133      4.2961      4.2709    
  4.2432      4.2177      4.1970      4.1821      4.1732      4.1703      4.1732      4.1821      4.1970      4.2177    
  4.2432      4.2709      4.2241      4.2508      4.2667      4.2663      4.2455      4.2030      4.1408      4.0647    
  3.9840      3.9095      3.8523      3.8212      3.8212      3.8523      3.9095      3.9840      4.0647      4.1408    
  4.2030      4.2455      4.2663      4.2667      4.2508      4.2241      4.1925      4.1613      4.1347      4.1143    
  4.1007      4.0940      4.0940      4.1007      4.1143      4.1347      4.1613      4.1925      4.1416      4.1763    
  4.2037      4.2179      4.2137      4.1882      4.1414      4.0771      4.0026      3.9279      3.8641      3.8212    
  3.8060      3.8212      3.8641      3.9279      4.0026      4.0771      4.1414      4.1882      4.2137      4.2179    
  4.2037      4.1763      4.1416      4.1054      4.0726      4.0461      4.0271      4.0157      4.0120      4.0157    
  4.0271      4.0461      4.0726      4.1054      4.0516      4.0924      4.1298      4.1577      4.1707      4.1644    
  4.1370      4.0901      4.0287      3.9612      3.8976      3.8482      3.8212      3.8212      3.8482      3.8976    
  3.9612      4.0287      4.0901      4.1370      4.1644      4.1707      4.1577      4.1298      4.0924      4.0516    
  4.0128      3.9799      3.9547      3.9380      3.9296      3.9296      3.9380      3.9547      3.9799      4.0128    
  3.9573      4.0020      4.0471      4.0872      4.1163      4.1297      4.1239      4.0984      4.0560      4.0026    
  3.9466      3.8976      3.8641      3.8523      3.8641      3.8976      3.9466      4.0026      4.0560      4.0984    
  4.1239      4.1297      4.1163      4.0872      4.0471      4.0020      3.9573      3.9178      3.8861      3.8632    
  3.8495      3.8449      3.8495      3.8632      3.8861      3.9178      3.8620      3.9083      3.9587      4.0083    
  4.0516      4.0833      4.0992      4.0972      4.0776      4.0440      4.0026      3.9612      3.9279      3.9095    
  3.9095      3.9279      3.9612      4.0026      4.0440      4.0776      4.0972      4.0992      4.0833      4.0516    
  4.0083      3.9587      3.9083      3.8620      3.8233      3.7938      3.7740      3.7641      3.7641      3.7740    
  3.7938      3.8233      3.7686      3.8146      3.8676      3.9239      3.9783      4.0259      4.0619      4.0830    
  4.0879      4.0776      4.0560      4.0287      4.0026      3.9840      3.9772      3.9840      4.0026      4.0287    
  4.0560      4.0776      4.0879      4.0830      4.0619      4.0259      3.9783      3.9239      3.8676      3.8146    
  3.7686      3.7319      3.7054      3.6894      3.6841      3.6894      3.7054      3.7319      3.6797      3.7239    
  3.7772      3.8371      3.8994      3.9593      4.0124      4.0545      4.0830      4.0972      4.0984      4.0901    
  4.0771      4.0647      4.0573      4.0573      4.0647      4.0771      4.0901      4.0984      4.0972      4.0830    
  4.0545      4.0124      3.9593      3.8994      3.8371      3.7772      3.7239      3.6797      3.6459      3.6231    
  3.6117      3.6117      3.6231      3.6459      3.5974      3.6389      3.6907      3.7515      3.8181      3.8867    
  3.9528      4.0124      4.0619      4.0992      4.1239      4.1370      4.1414      4.1408      4.1386      4.1376    
  4.1386      4.1408      4.1414      4.1370      4.1239      4.0992      4.0619      4.0124      3.9528      3.8867    
  3.8181      3.7515      3.6907      3.6389      3.5974      3.5673      3.5491      3.5430      3.5491      3.5673    
  3.5237      3.5615      3.6108      3.6703      3.7383      3.8117      3.8867      3.9593      4.0259      4.0833    
  4.1297      4.1644      4.1882      4.2030      4.2110      4.2144      4.2144      4.2110      4.2030      4.1882    
  4.1644      4.1297      4.0833      4.0259      3.9593      3.8867      3.8117      3.7383      3.6703      3.6108    
  3.5615      3.5237      3.4981      3.4852      3.4852      3.4981      3.4604      3.4938      3.5395      3.5965    
  3.6634      3.7383      3.8181      3.8994      3.9783      4.0516      4.1163      4.1707      4.2137      4.2455    
  4.2670      4.2792      4.2831      4.2792      4.2670      4.2455      4.2137      4.1707      4.1163      4.0516    
  3.9783      3.8994      3.8181      3.7383      3.6634      3.5965      3.5395      3.4938      3.4604      3.4401    
  3.4333      3.4401      3.4092      3.4373      3.4785      3.5320      3.5965      3.6703      3.7515      3.8371    
  3.9239      4.0083      4.0872      4.1577      4.2179      4.2663      4.3024      4.3262      4.3380      4.3380    
  4.3262      4.3024      4.2663      4.2179      4.1577      4.0872      4.0083      3.9239      3.8371      3.7515    
  3.6703      3.5965      3.5320      3.4785      3.4373      3.4092      3.3950      3.3950      3.3715      3.3934    
  3.4294      3.4785      3.5395      3.6108      3.6907      3.7772      3.8676      3.9587      4.0471      4.1298    
  4.2037      4.2667      4.3170      4.3535      4.3755      4.3829      4.3755      4.3535      4.3170      4.2667    
  4.2037      4.1298      4.0471      3.9587      3.8676      3.7772      3.6907      3.6108      3.5395      3.4785    
  3.4294      3.3934      3.3715      3.3641      3.3483      3.3635      3.3934      3.4373      3.4938      3.5615    
  3.6389      3.7239      3.8146      3.9083      4.0020      4.0924      4.1763      4.2508      4.3133      4.3619    
  4.3950      4.4118      4.4118      4.3950      4.3619      4.3133      4.2508      4.1763      4.0924      4.0020    
  3.9083      3.8146      3.7239      3.6389      3.5615      3.4938      3.4373      3.3934      3.3635      3.3483    
  3.3634      3.3711      3.3940      3.4314      3.4821      3.5448      3.6178      3.6993      3.7873      3.8796    
  3.9735      4.0657      4.1532      4.2328      4.3019      4.3580      4.3994      4.4247      4.4332      4.4247    
  4.3994      4.3580      4.3019      4.2328      4.1532      4.0657      3.9735      3.8796      3.7873      3.6993    
  3.6178      3.5448      3.4821      3.4314      3.3940      3.3711      3.3711      3.3711      3.3868      3.4176    
  3.4626      3.5203      3.5890      3.6670      3.7524      3.8429      3.9365      4.0305      4.1218      4.2073    
  4.2840      4.3491      4.4001      4.4352      4.4531      4.4531      4.4352      4.4001      4.3491      4.2840    
  4.2073      4.1218      4.0305      3.9365      3.8429      3.7524      3.6670      3.5890      3.5203      3.4626    
  3.4176      3.3868      3.3940      3.3860      3.3940      3.4176      3.4561      3.5080      3.5717      3.6454    
  3.7272      3.8149      3.9064      3.9994      4.0913      4.1792      4.2601      4.3310      4.3893      4.4326    
  4.4593      4.4683      4.4593      4.4326      4.3893      4.3310      4.2601      4.1792      4.0913      3.9994    
  3.9064      3.8149      3.7272      3.6454      3.5717      3.5080      3.4561      3.4176      3.4314      3.4155    
  3.4155      3.4314      3.4626      3.5080      3.5659      3.6346      3.7121      3.7962      3.8848      3.9756    
  4.0661      4.1539      4.2361      4.3100      4.3728      4.4222      4.4563      4.4737      4.4737      4.4563    
  4.4222      4.3728      4.3100      4.2361      4.1539      4.0661      3.9756      3.8848      3.7962      3.7121    
  3.6346      3.5659      3.5080      3.4626      3.4821      3.4586      3.4507      3.4586      3.4821      3.5203    
  3.5717      3.6346      3.7071      3.7869      3.8719      3.9597      4.0481      4.1344      4.2162      4.2909    
  4.3560      4.4093      4.4488      4.4731      4.4813      4.4731      4.4488      4.4093      4.3560      4.2909    
  4.2162      4.1344      4.0481      3.9597      3.8719      3.7869      3.7071      3.6346      3.5717      3.5203    
  3.5448      3.5144      3.4988      3.4988      3.5144      3.5448      3.5890      3.6454      3.7121      3.7869    
  3.8676      3.9519      4.0373      4.1215      4.2019      4.2762      4.3421      4.3974      4.4406      4.4701    
  4.4851      4.4851      4.4701      4.4406      4.3974      4.3421      4.2762      4.2019      4.1215      4.0373    
  3.9519      3.8676      3.7869      3.7121      3.6454      3.5890      3.6178      3.5813      3.5587      3.5511    
  3.5587      3.5813      3.6178      3.6670      3.7272      3.7962      3.8719      3.9519      4.0338      4.1151    
  4.1935      4.2665      4.3321      4.3882      4.4335      4.4667      4.4869      4.4937      4.4869      4.4667    
  4.4335      4.3882      4.3321      4.2665      4.1935      4.1151      4.0338      3.9519      3.8719      3.7962    
  3.7272      3.6670      3.6993      3.6576      3.6289      3.6143      3.6143      3.6289      3.6576      3.6993    
  3.7524      3.8149      3.8848      3.9597      4.0373      4.1151      4.1907      4.2617      4.3262      4.3822    
  4.4284      4.4638      4.4877      4.4997      4.4997      4.4877      4.4638      4.4284      4.3822      4.3262    
  4.2617      4.1907      4.1151      4.0373      3.9597      3.8848      3.8149      3.7524      3.7873      3.7416    
  3.7076      3.6866      3.6794      3.6866      3.7076      3.7416      3.7873      3.8429      3.9064      3.9756    
  4.0481      4.1215      4.1935      4.2617      4.3242      4.3792      4.4254      4.4619      4.4881      4.5039    
  4.5092      4.5039      4.4881      4.4619      4.4254      4.3792      4.3242      4.2617      4.1935      4.1215    
  4.0481      3.9756      3.9064      3.8429      3.8796      3.8309      3.7923      3.7655      3.7517      3.7517    
  3.7655      3.7923      3.8309      3.8796      3.9365      3.9994      4.0661      4.1344      4.2019      4.2665    
  4.3262      4.3792      4.4244      4.4609      4.4883      4.5065      4.5155      4.5155      4.5065      4.4883    
  4.4609      4.4244      4.3792      4.3262      4.2665      4.2019      4.1344      4.0661      3.9994      3.9365    
  3.9735      3.9225      3.8798      3.8475      3.8273      3.8205      3.8273      3.8475      3.8798      3.9225    
  3.9735      4.0305      4.0913      4.1539      4.2162      4.2762      4.3321      4.3822      4.4254      4.4609    
  4.4884      4.5077      4.5192      4.5230      4.5192      4.5077      4.4884      4.4609      4.4254      4.3822    
  4.3321      4.2762      4.2162      4.1539      4.0913      4.0305      4.0657      4.0132      3.9667      3.9289    
  3.9021      3.8882      3.8882      3.9021      3.9289      3.9667      4.0132      4.0657      4.1218      4.1792    
  4.2361      4.2909      4.3421      4.3882      4.4284      4.4619      4.4883      4.5077      4.5204      4.5267    
  4.5267      4.5204      4.5077      4.4883      4.4619      4.4284      4.3882      4.3421      4.2909      4.2361    
  4.1792      4.1218      4.1532      4.0997      4.0497      4.0061      3.9721      3.9504      3.9430      3.9504    
  3.9721      4.0061      4.0497      4.0997      4.1532      4.2073      4.2601      4.3100      4.3560      4.3974    
  4.4335      4.4638      4.4881      4.5065      4.5192      4.5267      4.5292      4.5267      4.5192      4.5065    
  4.4881      4.4638      4.4335      4.3974      4.3560      4.3100      4.2601      4.2073      4.2328      4.1791    
  4.1256      4.0759      4.0337      4.0031      3.9869      3.9869      4.0031      4.0337      4.0759      4.1256    
  4.1791      4.2328      4.2840      4.3310      4.3728      4.4093      4.4406      4.4667      4.4877      4.5039    
  4.5155      4.5230      4.5267      4.5267      4.5230      4.5155      4.5039      4.4877      4.4667      4.4406    
  4.4093      4.3728      4.3310      4.2840      4.3019      4.2487      4.1921      4.1358      4.0845      4.0432    
  4.0163      4.0069      4.0163      4.0432      4.0845      4.1358      4.1921      4.2487      4.3019      4.3491    
  4.3893      4.4222      4.4488      4.4701      4.4869      4.4998      4.5092      4.5155      4.5192      4.5204    
  4.5192      4.5155      4.5092      4.4997      4.4869      4.4701      4.4488      4.4222      4.3893      4.3491    
  4.3580      4.3064      4.2474      4.1846      4.1233      4.0696      4.0296      4.0082      4.0082      4.0296    
  4.0696      4.1233      4.1846      4.2474      4.3064      4.3580      4.4001      4.4326      4.4563      4.4731    
  4.4851      4.4937      4.4998      4.5039      4.5065      4.5077      4.5077      4.5065      4.5039      4.4997    
  4.4937      4.4851      4.4731      4.4563      4.4326      4.4001      4.3994      4.3508      4.2905      4.2219    
  4.1503      4.0830      4.0276      3.9911      3.9783      3.9911      4.0276      4.0830      4.1503      4.2219    
  4.2905      4.3508      4.3994      4.4352      4.4593      4.4737      4.4813      4.4851      4.4869      4.4877    
  4.4881      4.4883      4.4884      4.4883      4.4881      4.4877      4.4869      4.4851      4.4813      4.4737    
  4.4593      4.4352      4.4247      4.3807      4.3211      4.2482      4.1673      4.0861      4.0136      3.9591    
  3.9298      3.9298      3.9591      4.0136      4.0861      4.1673      4.2482      4.3211      4.3807      4.4247    
  4.4531      4.4683      4.4737      4.4731      4.4701      4.4667      4.4638      4.4619      4.4609      4.4609    
  4.4619      4.4638      4.4667      4.4701      4.4731      4.4737      4.4683      4.4531      4.4332      4.3958    
  4.3393      4.2648      4.1767      4.0827      3.9930      3.9186      3.8694      3.8521      3.8694      3.9186    
  3.9930      4.0827      4.1767      4.2648      4.3393      4.3958      4.4332      4.4531      4.4593      4.4563    
  4.4488      4.4406      4.4335      4.4284      4.4254      4.4244      4.4254      4.4284      4.4335      4.4406    
  4.4488      4.4563      4.4593      4.4531      4.4247      4.3958      4.3454      4.2727      4.1810      4.0773    
  3.9720      3.8777      3.8064      3.7681      3.7681      3.8064      3.8777      3.9720      4.0773      4.1810    
  4.2727      4.3454      4.3958      4.4247      4.4352      4.4326      4.4222      4.4093      4.3974      4.3882    
  4.3822      4.3792      4.3792      4.3822      4.3882      4.3974      4.4093      4.4222      4.4326      4.4352    
  4.3994      4.3807      4.3393      4.2727      4.1822      4.0735      3.9566      3.8446      3.7514      3.6897    
  3.6681      3.6897      3.7514      3.8446      3.9566      4.0735      4.1822      4.2727      4.3393      4.3807    
  4.3994      4.4001      4.3893      4.3728      4.3560      4.3421      4.3321      4.3262      4.3242      4.3262    
  4.3321      4.3421      4.3560      4.3728      4.3893      4.4001      4.3580      4.3508      4.3211      4.2648    
  4.1810      4.0735      3.9510      3.8261      3.7140      3.6292      3.5836      3.5836      3.6292      3.7140    
  3.8261      3.9510      4.0735      4.1810      4.2648      4.3211      4.3508      4.3580      4.3491      4.3310    
  4.3100      4.2909      4.2762      4.2665      4.2617      4.2617      4.2665      4.2762      4.2909      4.3100    
  4.3310      4.3491      4.3019      4.3064      4.2905      4.2482      4.1767      4.0773      3.9566      3.8261    
  3.7007      3.5962      3.5270      3.5027      3.5270      3.5962      3.7007      3.8261      3.9566      4.0773    
  4.1767      4.2482      4.2905      4.3064      4.3019      4.2840      4.2601      4.2361      4.2162      4.2019    
  4.1935      4.1907      4.1935      4.2019      4.2162      4.2361      4.2601      4.2840      4.2328      4.2487    
  4.2474      4.2219      4.1673      4.0827      3.9720      3.8446      3.7140      3.5962      3.5071      3.4591    
  3.4591      3.5071      3.5962      3.7140      3.8446      3.9720      4.0827      4.1673      4.2219      4.2474    
  4.2487      4.2328      4.2073      4.1792      4.1539      4.1344      4.1215      4.1151      4.1151      4.1215    
  4.1344      4.1539      4.1792      4.2073      4.1532      4.1791      4.1921      4.1846      4.1503      4.0861    
  3.9930      3.8777      3.7514      3.6292      3.5270      3.4591      3.4352      3.4591      3.5270      3.6292    
  3.7514      3.8777      3.9930      4.0861      4.1503      4.1846      4.1921      4.1791      4.1532      4.1218    
  4.0913      4.0661      4.0481      4.0373      4.0338      4.0373      4.0481      4.0661      4.0913      4.1218    
  4.0657      4.0997      4.1256      4.1358      4.1233      4.0830      4.0136      3.9186      3.8064      3.6897    
  3.5836      3.5027      3.4591      3.4591      3.5027      3.5836      3.6897      3.8064      3.9186      4.0136    
  4.0830      4.1233      4.1358      4.1256      4.0997      4.0657      4.0305      3.9994      3.9756      3.9597    
  3.9519      3.9519      3.9597      3.9756      3.9994      4.0305      3.9735      4.0132      4.0497      4.0759    
  4.0845      4.0696      4.0276      3.9591      3.8694      3.7681      3.6681      3.5836      3.5270      3.5071    
  3.5270      3.5836      3.6681      3.7681      3.8694      3.9591      4.0276      4.0696      4.0845      4.0759    
  4.0497      4.0132      3.9735      3.9365      3.9064      3.8848      3.8719      3.8676      3.8719      3.8848    
  3.9064      3.9365      3.8796      3.9225      3.9667      4.0061      4.0337      4.0432      4.0296      3.9911    
  3.9298      3.8521      3.7681      3.6897      3.6292      3.5962      3.5962      3.6292      3.6897      3.7681    
  3.8521      3.9298      3.9911      4.0296      4.0432      4.0337      4.0061      3.9667      3.9225      3.8796    
  3.8429      3.8149      3.7962      3.7869      3.7869      3.7962      3.8149      3.8429      3.7873      3.8309    
  3.8798      3.9289      3.9721      4.0031      4.0163      4.0082      3.9783      3.9298      3.8694      3.8064    
  3.7514      3.7140      3.7007      3.7140      3.7514      3.8064      3.8694      3.9298      3.9783      4.0082    
  4.0163      4.0031      3.9721      3.9289      3.8798      3.8309      3.7873      3.7524      3.7272      3.7121    
  3.7071      3.7121      3.7272      3.7524      3.6993      3.7416      3.7923      3.8475      3.9021      3.9504    
  3.9869      4.0069      4.0082      3.9911      3.9591      3.9186      3.8777      3.8446      3.8261      3.8261    
  3.8446      3.8777      3.9186      3.9591      3.9911      4.0082      4.0069      3.9869      3.9504      3.9021    
  3.8475      3.7923      3.7416      3.6993      3.6670      3.6454      3.6346      3.6346      3.6454      3.6670    
  3.6178      3.6576      3.7076      3.7655      3.8273      3.8882      3.9430      3.9869      4.0163      4.0296    
  4.0276      4.0136      3.9930      3.9720      3.9566      3.9510      3.9566      3.9720      3.9930      4.0136    
  4.0276      4.0296      4.0163      3.9869      3.9430      3.8882      3.8273      3.7655      3.7076      3.6576    
  3.6178      3.5890      3.5717      3.5659      3.5717      3.5890      3.5448      3.5813      3.6289      3.6866    
  3.7517      3.8205      3.8882      3.9504      4.0031      4.0432      4.0696      4.0830      4.0861      4.0827    
  4.0773      4.0735      4.0735      4.0773      4.0827      4.0861      4.0830      4.0696      4.0432      4.0031    
  3.9504      3.8882      3.8205      3.7517      3.6866      3.6289      3.5813      3.5448      3.5203      3.5080    
  3.5080      3.5203      3.4821      3.5144      3.5587      3.6143      3.6794      3.7517      3.8273      3.9021    
  3.9721      4.0337      4.0845      4.1233      4.1503      4.1673      4.1767      4.1810      4.1822      4.1810    
  4.1767      4.1673      4.1503      4.1233      4.0845      4.0337      3.9721      3.9021      3.8273      3.7517    
  3.6794      3.6143      3.5587      3.5144      3.4821      3.4626      3.4561      3.4626      3.4314      3.4586    
  3.4988      3.5511      3.6143      3.6866      3.7655      3.8475      3.9289      4.0061      4.0759      4.1358    
  4.1846      4.2219      4.2482      4.2648      4.2727      4.2727      4.2648      4.2482      4.2219      4.1846    
  4.1358      4.0759      4.0061      3.9289      3.8475      3.7655      3.6866      3.6143      3.5511      3.4988    
  3.4586      3.4314      3.4176      3.4176      3.3940      3.4155      3.4507      3.4988      3.5587      3.6289    
  3.7076      3.7923      3.8798      3.9667      4.0497      4.1256      4.1921      4.2474      4.2905      4.3211    
  4.3393      4.3454      4.3393      4.3211      4.2905      4.2474      4.1921      4.1256      4.0497      3.9667    
  3.8798      3.7923      3.7076      3.6289      3.5587      3.4988      3.4507      3.4155      3.3940      3.3868    
  3.3711      3.3860      3.4155      3.4586      3.5144      3.5813      3.6576      3.7416      3.8309      3.9225    
  4.0132      4.0997      4.1791      4.2487      4.3064      4.3508      4.3807      4.3958      4.3958      4.3807    
  4.3508      4.3064      4.2487      4.1791      4.0997      4.0132      3.9225      3.8309      3.7416      3.6576    
  3.5813      3.5144      3.4586      3.4155      3.3860      3.3711      3.3862      3.3938      3.4164      3.4534    
  3.5037      3.5658      3.6382      3.7190      3.8061      3.8972      3.9891      4.0787      4.1628      4.2387    
  4.3039      4.3564      4.3947      4.4181      4.4259      4.4181      4.3947      4.3564      4.3039      4.2387    
  4.1628      4.0787      3.9891      3.8972      3.8061      3.7190      3.6382      3.5658      3.5037      3.4534    
  3.4164      3.3938      3.3938      3.3938      3.4094      3.4401      3.4849      3.5423      3.6107      3.6883    
  3.7731      3.8630      3.9557      4.0484      4.1380      4.2215      4.2960      4.3588      4.4078      4.4414    
  4.4585      4.4585      4.4414      4.4078      4.3588      4.2960      4.2215      4.1380      4.0484      3.9557    
  3.8630      3.7731      3.6883      3.6107      3.5423      3.4849      3.4401      3.4094      3.4164      3.4084    
  3.4164      3.4401      3.4786      3.5305      3.5942      3.6678      3.7492      3.8365      3.9275      4.0198    
  4.1109      4.1977      4.2774      4.3470      4.4039      4.4462      4.4722      4.4810      4.4722      4.4462    
  4.4039      4.3470      4.2774      4.1977      4.1109      4.0198      3.9275      3.8365      3.7492      3.6678    
  3.5942      3.5305      3.4786      3.4401      3.4534      3.4374      3.4374      3.4534      3.4849      3.5305    
  3.5887      3.6576      3.7350      3.8188      3.9070      3.9973      4.0872      4.1743      4.2558      4.3288    
  4.3908      4.4395      4.4730      4.4900      4.4900      4.4730      4.4395      4.3908      4.3288      4.2558    
  4.1743      4.0872      3.9973      3.9070      3.8188      3.7350      3.6576      3.5887      3.5305      3.4849    
  3.5037      3.4798      3.4718      3.4798      3.5037      3.5423      3.5942      3.6576      3.7303      3.8101    
  3.8949      3.9823      4.0700      4.1557      4.2368      4.3107      4.3751      4.4277      4.4667      4.4906    
  4.4987      4.4906      4.4667      4.4277      4.3751      4.3107      4.2368      4.1557      4.0700      3.9823    
  3.8949      3.8101      3.7303      3.6576      3.5942      3.5423      3.5658      3.5348      3.5189      3.5189    
  3.5348      3.5658      3.6107      3.6678      3.7350      3.8101      3.8908      3.9749      4.0598      4.1434    
  4.2230      4.2965      4.3615      4.4160      4.4584      4.4874      4.5022      4.5022      4.4874      4.4584    
  4.4160      4.3615      4.2965      4.2230      4.1434      4.0598      3.9749      3.8908      3.8101      3.7350    
  3.6678      3.6107      3.6382      3.6008      3.5778      3.5700      3.5778      3.6008      3.6382      3.6883    
  3.7492      3.8188      3.8949      3.9749      4.0565      4.1373      4.2149      4.2871      4.3517      4.4069    
  4.4513      4.4837      4.5034      4.5100      4.5034      4.4837      4.4513      4.4069      4.3517      4.2871    
  4.2149      4.1373      4.0565      3.9749      3.8949      3.8188      3.7492      3.6883      3.7190      3.6763    
  3.6468      3.6317      3.6317      3.6468      3.6763      3.7190      3.7731      3.8365      3.9070      3.9823    
  4.0598      4.1373      4.2123      4.2825      4.3459      4.4009      4.4462      4.4807      4.5039      4.5156    
  4.5156      4.5039      4.4807      4.4462      4.4009      4.3459      4.2825      4.2123      4.1373      4.0598    
  3.9823      3.9070      3.8365      3.7731      3.8061      3.7591      3.7239      3.7021      3.6947      3.7021    
  3.7239      3.7591      3.8061      3.8630      3.9275      3.9973      4.0700      4.1434      4.2149      4.2825    
  4.3441      4.3981      4.4432      4.4787      4.5042      4.5194      4.5245      4.5194      4.5042      4.4787    
  4.4432      4.3981      4.3441      4.2825      4.2149      4.1434      4.0700      3.9973      3.9275      3.8630    
  3.8972      3.8466      3.8062      3.7780      3.7634      3.7634      3.7780      3.8062      3.8466      3.8972    
  3.9557      4.0198      4.0872      4.1557      4.2230      4.2871      4.3459      4.3981      4.4423      4.4778    
  4.5044      4.5220      4.5307      4.5307      4.5220      4.5044      4.4778      4.4423      4.3981      4.3459    
  4.2871      4.2230      4.1557      4.0872      4.0198      3.9557      3.9891      3.9354      3.8900      3.8552    
  3.8335      3.8260      3.8335      3.8552      3.8900      3.9354      3.9891      4.0484      4.1109      4.1743    
  4.2368      4.2965      4.3517      4.4009      4.4432      4.4778      4.5045      4.5232      4.5344      4.5380    
  4.5344      4.5232      4.5045      4.4778      4.4432      4.4009      4.3517      4.2965      4.2368      4.1743    
  4.1109      4.0484      4.0787      4.0222      3.9715      3.9298      3.9000      3.8844      3.8844      3.9000    
  3.9298      3.9715      4.0222      4.0787      4.1380      4.1977      4.2558      4.3107      4.3615      4.4069    
  4.4462      4.4787      4.5044      4.5232      4.5356      4.5416      4.5416      4.5356      4.5232      4.5044    
  4.4787      4.4462      4.4069      4.3615      4.3107      4.2558      4.1977      4.1380      4.1628      4.1037    
  4.0474      3.9977      3.9585      3.9334      3.9248      3.9334      3.9585      3.9977      4.0474      4.1037    
  4.1628      4.2215      4.2774      4.3288      4.3751      4.4160      4.4513      4.4807      4.5042      4.5220    
  4.5344      4.5416      4.5440      4.5416      4.5344      4.5220      4.5042      4.4807      4.4513      4.4160    
  4.3751      4.3288      4.2774      4.2215      4.2387      4.1772      4.1148      4.0559      4.0056      3.9686    
  3.9491      3.9491      3.9686      4.0056      4.0559      4.1148      4.1772      4.2387      4.2960      4.3470    
  4.3908      4.4277      4.4584      4.4837      4.5039      4.5194      4.5307      4.5380      4.5416      4.5416    
  4.5380      4.5307      4.5194      4.5039      4.4837      4.4584      4.4277      4.3908      4.3470      4.2960    
  4.3039      4.2405      4.1718      4.1026      4.0389      3.9873      3.9536      3.9419      3.9536      3.9873    
  4.0389      4.1026      4.1718      4.2405      4.3039      4.3588      4.4039      4.4395      4.4667      4.4874    
  4.5034      4.5156      4.5245      4.5307      4.5344      4.5356      4.5344      4.5307      4.5245      4.5156    
  4.5034      4.4874      4.4667      4.4395      4.4039      4.3588      4.3564      4.2921      4.2174      4.1372    
  4.0584      3.9892      3.9375      3.9099      3.9099      3.9375      3.9892      4.0584      4.1372      4.2174    
  4.2921      4.3564      4.4078      4.4462      4.4730      4.4906      4.5022      4.5100      4.5156      4.5194    
  4.5220      4.5232      4.5232      4.5220      4.5194      4.5156      4.5100      4.5022      4.4906      4.4730    
  4.4462      4.4078      4.3947      4.3309      4.2514      4.1606      4.0659      3.9766      3.9033      3.8549    
  3.8380      3.8549      3.9032      3.9766      4.0659      4.1606      4.2514      4.3309      4.3947      4.4414    
  4.4722      4.4900      4.4987      4.5022      4.5034      4.5039      4.5042      4.5044      4.5045      4.5044    
  4.5042      4.5039      4.5034      4.5022      4.4987      4.4900      4.4722      4.4414      4.4181      4.3568    
  4.2747      4.1749      4.0647      3.9546      3.8567      3.7832      3.7437      3.7437      3.7832      3.8567    
  3.9546      4.0647      4.1749      4.2747      4.3568      4.4181      4.4585      4.4810      4.4900      4.4906    
  4.4874      4.4837      4.4807      4.4787      4.4778      4.4778      4.4787      4.4807      4.4837      4.4874    
  4.4906      4.4900      4.4810      4.4585      4.4259      4.3698      4.2880      4.1825      4.0594      3.9294    
  3.8061      3.7043      3.6372      3.6137      3.6372      3.7043      3.8061      3.9294      4.0594      4.1825    
  4.2880      4.3698      4.4259      4.4585      4.4722      4.4730      4.4667      4.4584      4.4513      4.4462    
  4.4432      4.4423      4.4432      4.4462      4.4513      4.4584      4.4667      4.4730      4.4722      4.4585    
  4.4181      4.3698      4.2924      4.1856      4.0541      3.9078      3.7610      3.6303      3.5321      3.4795    
  3.4795      3.5321      3.6303      3.7610      3.9078      4.0541      4.1856      4.2924      4.3698      4.4181    
  4.4414      4.4462      4.4395      4.4277      4.4160      4.4069      4.4009      4.3981      4.3981      4.4009    
  4.4069      4.4160      4.4277      4.4395      4.4462      4.4414      4.3947      4.3568      4.2880      4.1856    
  4.0520      3.8954      3.7298      3.5729      3.4433      3.3579      3.3281      3.3579      3.4433      3.5729    
  3.7298      3.8954      4.0520      4.1856      4.2880      4.3568      4.3947      4.4078      4.4039      4.3908    
  4.3751      4.3615      4.3517      4.3459      4.3441      4.3459      4.3517      4.3615      4.3751      4.3908    
  4.4039      4.4078      4.3564      4.3309      4.2747      4.1825      4.0541      3.8954      3.7187      3.5415    
  3.3839      3.2657      3.2023      3.2023      3.2657      3.3839      3.5415      3.7187      3.8954      4.0541    
  4.1825      4.2747      4.3309      4.3564      4.3588      4.3470      4.3288      4.3107      4.2965      4.2871    
  4.2825      4.2825      4.2871      4.2965      4.3107      4.3288      4.3470      4.3588      4.3039      4.2921    
  4.2514      4.1749      4.0594      3.9078      3.7298      3.5415      3.3631      3.2160      3.1191      3.0852    
  3.1191      3.2160      3.3631      3.5415      3.7298      3.9078      4.0594      4.1749      4.2514      4.2921    
  4.3039      4.2960      4.2774      4.2558      4.2368      4.2230      4.2149      4.2123      4.2149      4.2230    
  4.2368      4.2558      4.2774      4.2960      4.2387      4.2405      4.2174      4.1606      4.0647      3.9294    
  3.7610      3.5729      3.3839      3.2160      3.0899      3.0224      3.0224      3.0899      3.2160      3.3839    
  3.5729      3.7610      3.9294      4.0647      4.1606      4.2174      4.2405      4.2387      4.2215      4.1977    
  4.1743      4.1557      4.1434      4.1373      4.1373      4.1434      4.1557      4.1743      4.1977      4.2215    
  4.1628      4.1772      4.1718      4.1372      4.0659      3.9546      3.8061      3.6303      3.4433      3.2657    
  3.1191      3.0224      2.9886      3.0224      3.1191      3.2657      3.4433      3.6303      3.8061      3.9546    
  4.0659      4.1372      4.1718      4.1772      4.1628      4.1380      4.1109      4.0872      4.0700      4.0598    
  4.0565      4.0598      4.0700      4.0872      4.1109      4.1380      4.0787      4.1037      4.1148      4.1026    
  4.0584      3.9766      3.8567      3.7043      3.5321      3.3579      3.2023      3.0852      3.0224      3.0224    
  3.0852      3.2023      3.3579      3.5321      3.7043      3.8567      3.9766      4.0584      4.1026      4.1148    
  4.1037      4.0787      4.0484      4.0198      3.9973      3.9823      3.9749      3.9749      3.9823      3.9973    
  4.0198      4.0484      3.9891      4.0222      4.0474      4.0559      4.0389      3.9892      3.9032      3.7832    
  3.6372      3.4795      3.3281      3.2023      3.1191      3.0899      3.1191      3.2023      3.3281      3.4795    
  3.6372      3.7832      3.9032      3.9892      4.0389      4.0559      4.0474      4.0222      3.9891      3.9557    
  3.9275      3.9070      3.8949      3.8908      3.8949      3.9070      3.9275      3.9557      3.8972      3.9354    
  3.9715      3.9977      4.0056      3.9873      3.9375      3.8549      3.7437      3.6137      3.4795      3.3579    
  3.2657      3.2160      3.2160      3.2657      3.3579      3.4795      3.6137      3.7437      3.8549      3.9375    
  3.9873      4.0056      3.9977      3.9715      3.9354      3.8972      3.8630      3.8365      3.8188      3.8101    
  3.8101      3.8188      3.8365      3.8630      3.8061      3.8466      3.8900      3.9298      3.9585      3.9686    
  3.9536      3.9099      3.8380      3.7437      3.6372      3.5321      3.4433      3.3839      3.3631      3.3839    
  3.4433      3.5321      3.6372      3.7437      3.8380      3.9099      3.9536      3.9686      3.9585      3.9298    
  3.8900      3.8466      3.8061      3.7731      3.7492      3.7350      3.7303      3.7350      3.7492      3.7731    
  3.7190      3.7591      3.8062      3.8552      3.9000      3.9334      3.9491      3.9419      3.9099      3.8549    
  3.7832      3.7043      3.6303      3.5729      3.5415      3.5415      3.5729      3.6303      3.7043      3.7832    
  3.8549      3.9099      3.9419      3.9491      3.9334      3.9000      3.8552      3.8062      3.7591      3.7190    
  3.6883      3.6678      3.6576      3.6576      3.6678      3.6883      3.6382      3.6763      3.7239      3.7780    
  3.8335      3.8844      3.9248      3.9491      3.9536      3.9375      3.9032      3.8567      3.8061      3.7610    
  3.7298      3.7187      3.7298      3.7610      3.8061      3.8567      3.9033      3.9375      3.9536      3.9491    
  3.9248      3.8844      3.8335      3.7780      3.7239      3.6763      3.6382      3.6107      3.5942      3.5887    
  3.5942      3.6107      3.5658      3.6008      3.6468      3.7021      3.7634      3.8260      3.8844      3.9334    
  3.9686      3.9873      3.9892      3.9766      3.9546      3.9294      3.9078      3.8954      3.8954      3.9078    
  3.9294      3.9546      3.9766      3.9892      3.9873      3.9686      3.9334      3.8844      3.8260      3.7634    
  3.7021      3.6468      3.6008      3.5658      3.5423      3.5305      3.5305      3.5423      3.5037      3.5348    
  3.5778      3.6317      3.6947      3.7634      3.8335      3.9000      3.9585      4.0056      4.0389      4.0584    
  4.0659      4.0647      4.0594      4.0541      4.0520      4.0541      4.0594      4.0647      4.0659      4.0584    
  4.0389      4.0056      3.9585      3.9000      3.8335      3.7634      3.6947      3.6317      3.5778      3.5348    
  3.5037      3.4849      3.4786      3.4849      3.4534      3.4798      3.5189      3.5700      3.6317      3.7021    
  3.7780      3.8552      3.9298      3.9977      4.0559      4.1026      4.1372      4.1606      4.1749      4.1825    
  4.1856      4.1856      4.1825      4.1749      4.1606      4.1372      4.1026      4.0559      3.9977      3.9298    
  3.8552      3.7780      3.7021      3.6317      3.5700      3.5189      3.4798      3.4534      3.4401      3.4401    
  3.4164      3.4374      3.4718      3.5189      3.5778      3.6468      3.7239      3.8062      3.8900      3.9715    
  4.0474      4.1148      4.1718      4.2174      4.2514      4.2747      4.2880      4.2924      4.2880      4.2747    
  4.2514      4.2174      4.1718      4.1148      4.0474      3.9715      3.8900      3.8062      3.7239      3.6468    
  3.5778      3.5189      3.4718      3.4374      3.4164      3.4094      3.3938      3.4084      3.4374      3.4798    
  3.5348      3.6008      3.6763      3.7591      3.8466      3.9354      4.0222      4.1037      4.1772      4.2405    
  4.2921      4.3309      4.3568      4.3698      4.3698      4.3568      4.3309      4.2921      4.2405      4.1772    
  4.1037      4.0222      3.9354      3.8466      3.7591      3.6763      3.6008      3.5348      3.4798      3.4374    
  3.4084      3.3938      3.4078      3.4154      3.4377      3.4743      3.5240      3.5856      3.6574      3.7375    
  3.8238      3.9134      4.0030      4.0894      4.1697      4.2411      4.3016      4.3498      4.3845      4.4055    
  4.4126      4.4055      4.3845      4.3498      4.3016      4.2411      4.1697      4.0894      4.0030      3.9134    
  3.8238      3.7375      3.6574      3.5856      3.5240      3.4743      3.4377      3.4154      3.4154      3.4154    
  3.4309      3.4614      3.5060      3.5631      3.6312      3.7084      3.7928      3.8821      3.9740      4.0652    
  4.1529      4.2339      4.3057      4.3658      4.4124      4.4441      4.4602      4.4602      4.4441      4.4124    
  4.3658      4.3057      4.2339      4.1529      4.0652      3.9740      3.8821      3.7928      3.7084      3.6312    
  3.5631      3.5060      3.4614      3.4309      3.4377      3.4297      3.4377      3.4614      3.5000      3.5519    
  3.6155      3.6889      3.7702      3.8572      3.9478      4.0396      4.1299      4.2155      4.2937      4.3618    
  4.4172      4.4582      4.4833      4.4918      4.4833      4.4582      4.4172      4.3618      4.2937      4.2155    
  4.1299      4.0396      3.9478      3.8572      3.7702      3.6889      3.6155      3.5519      3.5000      3.4614    
  3.4743      3.4581      3.4581      3.4743      3.5060      3.5519      3.6103      3.6793      3.7567      3.8405    
  3.9285      4.0185      4.1080      4.1946      4.2754      4.3475      4.4086      4.4564      4.4892      4.5059    
  4.5059      4.4892      4.4564      4.4086      4.3475      4.2754      4.1946      4.1080      4.0185      3.9285    
  3.8405      3.7567      3.6793      3.6103      3.5519      3.5060      3.5240      3.4999      3.4917      3.4999    
  3.5240      3.5631      3.6155      3.6793      3.7523      3.8322      3.9170      4.0042      4.0917      4.1769    
  4.2575      4.3309      4.3947      4.4467      4.4851      4.5086      4.5165      4.5086      4.4851      4.4467    
  4.3947      4.3309      4.2575      4.1769      4.0917      4.0042      3.9170      3.8322      3.7523      3.6793    
  3.6155      3.5631      3.5856      3.5540      3.5379      3.5379      3.5540      3.5856      3.6312      3.6889    
  3.7567      3.8322      3.9132      3.9972      4.0819      4.1651      4.2443      4.3171      4.3815      4.4354    
  4.4772      4.5058      4.5203      4.5203      4.5058      4.4772      4.4354      4.3815      4.3171      4.2443    
  4.1651      4.0819      3.9972      3.9132      3.8322      3.7567      3.6889      3.6312      3.6574      3.6192    
  3.5956      3.5876      3.5956      3.6192      3.6574      3.7084      3.7702      3.8405      3.9170      3.9972    
  4.0787      4.1592      4.2364      4.3079      4.3718      4.4263      4.4700      4.5018      4.5211      4.5276    
  4.5211      4.5018      4.4700      4.4263      4.3718      4.3079      4.2364      4.1592      4.0787      3.9972    
  3.9170      3.8405      3.7702      3.7084      3.7375      3.6938      3.6634      3.6478      3.6478      3.6634    
  3.6937      3.7375      3.7928      3.8572      3.9285      4.0042      4.0819      4.1592      4.2338      4.3034    
  4.3662      4.4204      4.4648      4.4986      4.5213      4.5327      4.5327      4.5213      4.4986      4.4648    
  4.4204      4.3662      4.3034      4.2338      4.1592      4.0819      4.0042      3.9285      3.8572      3.7928    
  3.8238      3.7753      3.7387      3.7160      3.7082      3.7160      3.7387      3.7753      3.8238      3.8821    
  3.9478      4.0185      4.0917      4.1651      4.2364      4.3034      4.3643      4.4175      4.4619      4.4966    
  4.5214      4.5363      4.5412      4.5363      4.5214      4.4966      4.4619      4.4175      4.3643      4.3034    
  4.2364      4.1651      4.0917      4.0185      3.9478      3.8821      3.9134      3.8606      3.8180      3.7881    
  3.7727      3.7727      3.7881      3.8180      3.8606      3.9134      3.9740      4.0396      4.1080      4.1769    
  4.2443      4.3079      4.3662      4.4175      4.4609      4.4957      4.5216      4.5387      4.5472      4.5472    
  4.5387      4.5216      4.4957      4.4609      4.4175      4.3662      4.3079      4.2443      4.1769      4.1080    
  4.0396      3.9740      4.0030      3.9460      3.8972      3.8597      3.8360      3.8279      3.8360      3.8597    
  3.8972      3.9460      4.0030      4.0652      4.1299      4.1946      4.2575      4.3171      4.3718      4.4204    
  4.4619      4.4957      4.5217      4.5400      4.5508      4.5544      4.5508      4.5400      4.5217      4.4957    
  4.4619      4.4204      4.3718      4.3171      4.2575      4.1946      4.1299      4.0652      4.0894      4.0281    
  3.9724      3.9261      3.8928      3.8754      3.8754      3.8928      3.9261      3.9724      4.0281      4.0894    
  4.1529      4.2155      4.2754      4.3309      4.3815      4.4263      4.4648      4.4966      4.5216      4.5400    
  4.5520      4.5579      4.5579      4.5520      4.5400      4.5216      4.4966      4.4648      4.4263      4.3815    
  4.3309      4.2754      4.2155      4.1529      4.1697      4.1038      4.0401      3.9833      3.9382      3.9091    
  3.8991      3.9091      3.9382      3.9833      4.0401      4.1038      4.1697      4.2339      4.2937      4.3475    
  4.3947      4.4354      4.4700      4.4986      4.5214      4.5387      4.5508      4.5579      4.5603      4.5579    
  4.5508      4.5387      4.5214      4.4986      4.4700      4.4354      4.3947      4.3475      4.2937      4.2339    
  4.2411      4.1704      4.0977      4.0282      3.9684      3.9244      3.9010      3.9010      3.9244      3.9684    
  4.0282      4.0977      4.1704      4.2411      4.3057      4.3618      4.4086      4.4467      4.4772      4.5018    
  4.5213      4.5363      4.5472      4.5544      4.5579      4.5579      4.5544      4.5472      4.5363      4.5213    
  4.5018      4.4772      4.4467      4.4086      4.3618      4.3057      4.3016      4.2263      4.1436      4.0596    
  3.9819      3.9187      3.8773      3.8629      3.8773      3.9187      3.9819      4.0596      4.1436      4.2263    
  4.3016      4.3658      4.4172      4.4564      4.4851      4.5058      4.5211      4.5327      4.5412      4.5472    
  4.5508      4.5520      4.5508      4.5472      4.5412      4.5327      4.5211      4.5058      4.4851      4.4564    
  4.4172      4.3658      4.3498      4.2706      4.1779      4.0780      3.9795      3.8928      3.8281      3.7935    
  3.7935      3.8281      3.8928      3.9795      4.0780      4.1779      4.2706      4.3498      4.4124      4.4582    
  4.4892      4.5086      4.5203      4.5276      4.5327      4.5363      4.5387      4.5400      4.5400      4.5387    
  4.5363      4.5327      4.5276      4.5203      4.5086      4.4892      4.4582      4.4124      4.3845      4.3031    
  4.2015      4.0856      3.9648      3.8512      3.7578      3.6964      3.6749      3.6964      3.7578      3.8512    
  3.9648      4.0856      4.2015      4.3031      4.3845      4.4441      4.4833      4.5059      4.5165      4.5203    
  4.5211      4.5213      4.5214      4.5216      4.5217      4.5216      4.5214      4.5213      4.5211      4.5203    
  4.5165      4.5059      4.4833      4.4441      4.4055      4.3242      4.2163      4.0862      3.9433      3.8010    
  3.6751      3.5806      3.5300      3.5300      3.5806      3.6751      3.8010      3.9433      4.0862      4.2163    
  4.3242      4.4055      4.4602      4.4918      4.5059      4.5086      4.5058      4.5018      4.4986      4.4966    
  4.4957      4.4957      4.4966      4.4986      4.5018      4.5058      4.5086      4.5059      4.4918      4.4602    
  4.4126      4.3346      4.2241      4.0836      3.9215      3.7516      3.5915      3.4598      3.3731      3.3429    
  3.3731      3.4598      3.5915      3.7516      3.9215      4.0836      4.2241      4.3346      4.4126      4.4602    
  4.4833      4.4892      4.4851      4.4772      4.4700      4.4648      4.4619      4.4609      4.4619      4.4648    
  4.4700      4.4772      4.4851      4.4892      4.4833      4.4602      4.4055      4.3346      4.2265      4.0813    
  3.9055      3.7122      3.5198      3.3496      3.2223      3.1541      3.1541      3.2223      3.3496      3.5198    
  3.7122      3.9055      4.0813      4.2265      4.3346      4.4055      4.4441      4.4582      4.4564      4.4467    
  4.4354      4.4263      4.4204      4.4175      4.4175      4.4204      4.4263      4.4354      4.4467      4.4564    
  4.4582      4.4441      4.3845      4.3242      4.2241      4.0813      3.8997      3.6904      3.4715      3.2657    
  3.0969      2.9860      2.9474      2.9860      3.0969      3.2657      3.4715      3.6904      3.8997      4.0813    
  4.2241      4.3242      4.3845      4.4124      4.4172      4.4086      4.3947      4.3815      4.3718      4.3662    
  4.3643      4.3662      4.3718      4.3815      4.3947      4.4086      4.4172      4.4124      4.3498      4.3031    
  4.2163      4.0836      3.9055      3.6904      3.4544      3.2203      3.0139      2.8598      2.7775      2.7775    
  2.8598      3.0139      3.2203      3.4544      3.6904      3.9055      4.0836      4.2163      4.3031      4.3498    
  4.3658      4.3618      4.3475      4.3309      4.3171      4.3079      4.3034      4.3034      4.3079      4.3171    
  4.3309      4.3475      4.3618      4.3658      4.3016      4.2706      4.2015      4.0862      3.9215      3.7122    
  3.4715      3.2203      2.9849      2.7921      2.6658      2.6217      2.6658      2.7921      2.9849      3.2203    
  3.4715      3.7122      3.9215      4.0862      4.2015      4.2706      4.3016      4.3057      4.2937      4.2754    
  4.2575      4.2443      4.2364      4.2338      4.2364      4.2443      4.2575      4.2754      4.2937      4.3057    
  4.2411      4.2263      4.1779      4.0856      3.9433      3.7516      3.5198      3.2657      3.0139      2.7921    
  2.6268      2.5385      2.5385      2.6268      2.7921      3.0139      3.2657      3.5198      3.7516      3.9433    
  4.0856      4.1779      4.2263      4.2411      4.2339      4.2155      4.1946      4.1769      4.1651      4.1592    
  4.1592      4.1651      4.1769      4.1946      4.2155      4.2339      4.1697      4.1704      4.1436      4.0780    
  3.9648      3.8010      3.5915      3.3496      3.0969      2.8598      2.6658      2.5385      2.4942      2.5385    
  2.6658      2.8598      3.0969      3.3496      3.5915      3.8010      3.9648      4.0780      4.1436      4.1704    
  4.1697      4.1529      4.1299      4.1080      4.0917      4.0819      4.0787      4.0819      4.0917      4.1080    
  4.1299      4.1529      4.0894      4.1038      4.0977      4.0596      3.9795      3.8512      3.6751      3.4598    
  3.2223      2.9860      2.7775      2.6217      2.5385      2.5385      2.6217      2.7775      2.9860      3.2223    
  3.4598      3.6751      3.8512      3.9795      4.0596      4.0977      4.1038      4.0894      4.0652      4.0396    
  4.0185      4.0042      3.9972      3.9972      4.0042      4.0185      4.0396      4.0652      4.0030      4.0281    
  4.0401      4.0282      3.9819      3.8928      3.7578      3.5806      3.3731      3.1541      2.9474      2.7775    
  2.6658      2.6268      2.6658      2.7775      2.9474      3.1541      3.3731      3.5806      3.7578      3.8928    
  3.9819      4.0282      4.0401      4.0281      4.0030      3.9740      3.9478      3.9285      3.9170      3.9132    
  3.9170      3.9285      3.9478      3.9740      3.9134      3.9460      3.9724      3.9833      3.9684      3.9187    
  3.8281      3.6964      3.5300      3.3429      3.1541      2.9860      2.8598      2.7921      2.7921      2.8598    
  2.9860      3.1541      3.3429      3.5300      3.6964      3.8281      3.9187      3.9684      3.9833      3.9724    
  3.9460      3.9134      3.8821      3.8572      3.8405      3.8322      3.8322      3.8405      3.8572      3.8821    
  3.8238      3.8606      3.8972      3.9261      3.9382      3.9244      3.8773      3.7935      3.6749      3.5300    
  3.3731      3.2223      3.0969      3.0139      2.9849      3.0139      3.0969      3.2223      3.3731      3.5300    
  3.6749      3.7935      3.8773      3.9244      3.9382      3.9261      3.8972      3.8606      3.8238      3.7928    
  3.7702      3.7567      3.7523      3.7567      3.7702      3.7928      3.7375      3.7753      3.8180      3.8597    
  3.8928      3.9091      3.9010      3.8629      3.7935      3.6964      3.5806      3.4598      3.3496      3.2657    
  3.2203      3.2203      3.2657      3.3496      3.4598      3.5806      3.6964      3.7935      3.8629      3.9010    
  3.9091      3.8928      3.8597      3.8180      3.7753      3.7375      3.7084      3.6889      3.6793      3.6793    
  3.6889      3.7084      3.6574      3.6937      3.7387      3.7881      3.8360      3.8754      3.8991      3.9010    
  3.8773      3.8281      3.7578      3.6751      3.5915      3.5198      3.4715      3.4544      3.4715      3.5198    
  3.5915      3.6751      3.7578      3.8281      3.8773      3.9010      3.8991      3.8754      3.8360      3.7881    
  3.7387      3.6937      3.6574      3.6312      3.6155      3.6103      3.6155      3.6312      3.5856      3.6192    
  3.6634      3.7160      3.7727      3.8279      3.8754      3.9091      3.9244      3.9187      3.8928      3.8512    
  3.8010      3.7516      3.7122      3.6904      3.6904      3.7122      3.7516      3.8010      3.8512      3.8928    
  3.9187      3.9244      3.9091      3.8754      3.8279      3.7727      3.7160      3.6634      3.6192      3.5856    
  3.5631      3.5519      3.5519      3.5631      3.5240      3.5540      3.5956      3.6478      3.7082      3.7727    
  3.8360      3.8928      3.9382      3.9684      3.9819      3.9795      3.9648      3.9433      3.9215      3.9055    
  3.8997      3.9055      3.9215      3.9433      3.9648      3.9795      3.9819      3.9684      3.9382      3.8928    
  3.8360      3.7727      3.7082      3.6478      3.5956      3.5540      3.5240      3.5060      3.5000      3.5060    
  3.4743      3.4999      3.5379      3.5876      3.6478      3.7160      3.7881      3.8597      3.9261      3.9833    
  4.0282      4.0596      4.0780      4.0856      4.0862      4.0836      4.0813      4.0813      4.0836      4.0862    
  4.0856      4.0780      4.0596      4.0282      3.9833      3.9261      3.8597      3.7881      3.7160      3.6478    
  3.5876      3.5379      3.4999      3.4743      3.4614      3.4614      3.4377      3.4581      3.4917      3.5379    
  3.5956      3.6634      3.7387      3.8180      3.8972      3.9724      4.0401      4.0977      4.1436      4.1779    
  4.2015      4.2163      4.2241      4.2265      4.2241      4.2163      4.2015      4.1779      4.1436      4.0977    
  4.0401      3.9724      3.8972      3.8180      3.7387      3.6634      3.5956      3.5379      3.4917      3.4581    
  3.4377      3.4309      3.4154      3.4297      3.4581      3.4999      3.5540      3.6192      3.6937      3.7753    
  3.8606      3.9460      4.0281      4.1038      4.1704      4.2263      4.2706      4.3031      4.3242      4.3346    
  4.3346      4.3242      4.3031      4.2706      4.2263      4.1704      4.1038      4.0281      3.9460      3.8606    
  3.7753      3.6938      3.6192      3.5540      3.4999      3.4581      3.4297      3.4154      3.4274      3.4349    
  3.4569      3.4930      3.5422      3.6032      3.6745      3.7540      3.8393      3.9272      4.0143      4.0973    
  4.1734      4.2400      4.2956      4.3390      4.3700      4.3884      4.3946      4.3884      4.3700      4.3390    
  4.2956      4.2400      4.1734      4.0973      4.0143      3.9272      3.8393      3.7540      3.6745      3.6032    
  3.5422      3.4930      3.4569      3.4349      3.4349      3.4349      3.4503      3.4806      3.5248      3.5817    
  3.6494      3.7263      3.8103      3.8992      3.9900      4.0797      4.1652      4.2437      4.3125      4.3697    
  4.4137      4.4435      4.4585      4.4585      4.4435      4.4137      4.3697      4.3125      4.2437      4.1652    
  4.0797      3.9900      3.8992      3.8103      3.7263      3.6494      3.5817      3.5248      3.4806      3.4503    
  3.4569      3.4489      3.4569      3.4806      3.5191      3.5709      3.6345      3.7078      3.7889      3.8758    
  3.9661      4.0575      4.1469      4.2313      4.3080      4.3744      4.4282      4.4678      4.4921      4.5002    
  4.4921      4.4678      4.4282      4.3744      4.3080      4.2313      4.1469      4.0575      3.9661      3.8758    
  3.7889      3.7078      3.6345      3.5709      3.5191      3.4806      3.4930      3.4768      3.4768      3.4930    
  3.5248      3.5709      3.6295      3.6986      3.7761      3.8599      3.9479      4.0377      4.1271      4.2133    
  4.2934      4.3647      4.4248      4.4717      4.5038      4.5201      4.5201      4.5038      4.4717      4.4248    
  4.3647      4.2934      4.2133      4.1271      4.0377      3.9479      3.8599      3.7761      3.6986      3.6295    
  3.5709      3.5248      3.5422      3.5178      3.5096      3.5178      3.5422      3.5817      3.6345      3.6986    
  3.7719      3.8520      3.9369      4.0242      4.1115      4.1967      4.2770      4.3500      4.4133      4.4647    
  4.5025      4.5257      4.5335      4.5257      4.5025      4.4647      4.4133      4.3500      4.2770      4.1967    
  4.1115      4.0242      3.9369      3.8520      3.7719      3.6986      3.6345      3.5817      3.6032      3.5712    
  3.5548      3.5548      3.5712      3.6032      3.6494      3.7078      3.7761      3.8520      3.9332      4.0174    
  4.1022      4.1852      4.2642      4.3367      4.4007      4.4542      4.4956      4.5238      4.5381      4.5381    
  4.5238      4.4956      4.4542      4.4007      4.3367      4.2642      4.1852      4.1022      4.0174      3.9332    
  3.8520      3.7761      3.7078      3.6494      3.6745      3.6356      3.6115      3.6033      3.6115      3.6356    
  3.6745      3.7263      3.7889      3.8599      3.9369      4.0174      4.0990      4.1795      4.2565      4.3277    
  4.3912      4.4452      4.4884      4.5198      4.5388      4.5452      4.5388      4.5198      4.4884      4.4452    
  4.3912      4.3277      4.2565      4.1795      4.0990      4.0174      3.9369      3.8599      3.7889      3.7263    
  3.7540      3.7092      3.6779      3.6619      3.6619      3.6779      3.7092      3.7540      3.8103      3.8758    
  3.9479      4.0242      4.1022      4.1795      4.2539      4.3233      4.3856      4.4393      4.4831      4.5164    
  4.5387      4.5499      4.5499      4.5387      4.5164      4.4831      4.4393      4.3856      4.3233      4.2539    
  4.1795      4.1022      4.0242      3.9479      3.8758      3.8103      3.8393      3.7892      3.7512      3.7275    
  3.7194      3.7275      3.7512      3.7892      3.8393      3.8992      3.9661      4.0377      4.1115      4.1852    
  4.2565      4.3233      4.3837      4.4364      4.4801      4.5143      4.5387      4.5533      4.5581      4.5533    
  4.5387      4.5143      4.4801      4.4364      4.3837      4.3233      4.2565      4.1852      4.1115      4.0377    
  3.9661      3.8992      3.9272      3.8720      3.8272      3.7956      3.7792      3.7792      3.7956      3.8272    
  3.8720      3.9272      3.9900      4.0575      4.1271      4.1967      4.2642      4.3277      4.3856      4.4364    
  4.4792      4.5134      4.5389      4.5556      4.5640      4.5640      4.5556      4.5389      4.5134      4.4792    
  4.4364      4.3856      4.3277      4.2642      4.1967      4.1271      4.0575      3.9900      4.0143      3.9538    
  3.9015      3.8610      3.8354      3.8266      3.8354      3.8610      3.9015      3.9538      4.0143      4.0797    
  4.1469      4.2133      4.2770      4.3367      4.3912      4.4393      4.4801      4.5134      4.5389      4.5569    
  4.5675      4.5710      4.5675      4.5569      4.5389      4.5134      4.4801      4.4393      4.3912      4.3367    
  4.2770      4.2133      4.1469      4.0797      4.0973      4.0309      3.9699      3.9188      3.8819      3.8625    
  3.8625      3.8819      3.9188      3.9699      4.0309      4.0973      4.1652      4.2313      4.2934      4.3500    
  4.4007      4.4452      4.4831      4.5143      4.5389      4.5569      4.5687      4.5745      4.5745      4.5687    
  4.5569      4.5389      4.5143      4.4831      4.4452      4.4007      4.3500      4.2934      4.2313      4.1652    
  4.1734      4.1002      4.0288      3.9645      3.9133      3.8801      3.8686      3.8801      3.9133      3.9645    
  4.0288      4.1002      4.1734      4.2437      4.3080      4.3647      4.4133      4.4542      4.4884      4.5164    
  4.5387      4.5556      4.5675      4.5745      4.5768      4.5745      4.5675      4.5556      4.5387      4.5164    
  4.4884      4.4542      4.4133      4.3647      4.3080      4.2437      4.2400      4.1595      4.0759      3.9955    
  3.9259      3.8744      3.8471      3.8471      3.8744      3.9259      3.9955      4.0759      4.1595      4.2400    
  4.3125      4.3744      4.4248      4.4647      4.4956      4.5198      4.5387      4.5533      4.5640      4.5710    
  4.5745      4.5745      4.5710      4.5640      4.5533      4.5387      4.5198      4.4956      4.4647      4.4248    
  4.3744      4.3125      4.2956      4.2076      4.1102      4.0108      3.9186      3.8434      3.7942      3.7770    
  3.7942      3.8434      3.9186      4.0108      4.1102      4.2076      4.2956      4.3697      4.4282      4.4717    
  4.5025      4.5238      4.5388      4.5499      4.5581      4.5640      4.5675      4.5687      4.5675      4.5640    
  4.5581      4.5499      4.5388      4.5238      4.5025      4.4717      4.4282      4.3697      4.3390      4.2441    
  4.1326      4.0122      3.8935      3.7890      3.7109      3.6691      3.6691      3.7109      3.7890      3.8935    
  4.0122      4.1326      4.2441      4.3390      4.4137      4.4678      4.5038      4.5257      4.5381      4.5452    
  4.5499      4.5533      4.5556      4.5569      4.5569      4.5556      4.5533      4.5499      4.5452      4.5381    
  4.5257      4.5038      4.4678      4.4137      4.3700      4.2698      4.1453      4.0034      3.8559      3.7174    
  3.6037      3.5290      3.5030      3.5290      3.6037      3.7174      3.8559      4.0034      4.1453      4.2698    
  4.3700      4.4435      4.4921      4.5201      4.5335      4.5381      4.5388      4.5387      4.5387      4.5389    
  4.5389      4.5389      4.5387      4.5387      4.5388      4.5381      4.5335      4.5201      4.4921      4.4435    
  4.3884      4.2859      4.1511      3.9897      3.8134      3.6386      3.4842      3.3687      3.3069      3.3069    
  3.3687      3.4842      3.6386      3.8134      3.9897      4.1511      4.2859      4.3884      4.4585      4.5002    
  4.5201      4.5257      4.5238      4.5198      4.5164      4.5143      4.5134      4.5134      4.5143      4.5164    
  4.5198      4.5238      4.5257      4.5201      4.5002      4.4585      4.3946      4.2936      4.1531      3.9766    
  3.7747      3.5644      3.3671      3.2055      3.0993      3.0623      3.0993      3.2055      3.3671      3.5644    
  3.7747      3.9766      4.1531      4.2936      4.3946      4.4585      4.4921      4.5038      4.5025      4.4956    
  4.4884      4.4831      4.4801      4.4792      4.4801      4.4831      4.4884      4.4956      4.5025      4.5038    
  4.4921      4.4585      4.3884      4.2936      4.1535      3.9687      3.7478      3.5069      3.2687      3.0591    
  2.9028      2.8193      2.8193      2.9028      3.0591      3.2687      3.5069      3.7478      3.9687      4.1535    
  4.2936      4.3884      4.4435      4.4678      4.4717      4.4647      4.4542      4.4452      4.4393      4.4364    
  4.4364      4.4393      4.4452      4.4542      4.4647      4.4717      4.4678      4.4435      4.3700      4.2859    
  4.1531      3.9687      3.7381      3.4755      3.2031      2.9488      2.7411      2.6051      2.5577      2.6051    
  2.7411      2.9488      3.2031      3.4755      3.7381      3.9687      4.1531      4.2859      4.3700      4.4137    
  4.4282      4.4248      4.4133      4.4007      4.3912      4.3856      4.3837      4.3856      4.3912      4.4007    
  4.4133      4.4248      4.4282      4.4137      4.3390      4.2698      4.1511      3.9766      3.7478      3.4755    
  3.1801      2.8895      2.6347      2.4453      2.3443      2.3443      2.4453      2.6347      2.8895      3.1801    
  3.4755      3.7478      3.9766      4.1511      4.2698      4.3390      4.3697      4.3744      4.3647      4.3500    
  4.3367      4.3277      4.3233      4.3233      4.3277      4.3367      4.3500      4.3647      4.3744      4.3697    
  4.2956      4.2441      4.1453      3.9897      3.7747      3.5069      3.2031      2.8895      2.5976      2.3600    
  2.2048      2.1508      2.2048      2.3600      2.5976      2.8895      3.2031      3.5069      3.7747      3.9897    
  4.1453      4.2441      4.2956      4.3125      4.3080      4.2934      4.2770      4.2642      4.2565      4.2539    
  4.2565      4.2642      4.2770      4.2934      4.3080      4.3125      4.2400      4.2076      4.1326      4.0034    
  3.8134      3.5644      3.2687      2.9488      2.6347      2.3600      2.1562      2.0477      2.0477      2.1562    
  2.3600      2.6347      2.9488      3.2687      3.5644      3.8134      4.0034      4.1326      4.2076      4.2400    
  4.2437      4.2313      4.2133      4.1967      4.1852      4.1795      4.1795      4.1852      4.1967      4.2133    
  4.2313      4.2437      4.1734      4.1595      4.1102      4.0122      3.8559      3.6386      3.3671      3.0591    
  2.7411      2.4453      2.2048      2.0477      1.9931      2.0477      2.2048      2.4453      2.7411      3.0591    
  3.3671      3.6386      3.8559      4.0122      4.1102      4.1595      4.1734      4.1652      4.1469      4.1271    
  4.1115      4.1022      4.0990      4.1022      4.1115      4.1271      4.1469      4.1652      4.0973      4.1002    
  4.0759      4.0108      3.8935      3.7174      3.4842      3.2055      2.9028      2.6051      2.3443      2.1508    
  2.0477      2.0477      2.1508      2.3443      2.6051      2.9028      3.2055      3.4842      3.7174      3.8935    
  4.0108      4.0759      4.1002      4.0973      4.0797      4.0575      4.0377      4.0242      4.0174      4.0174    
  4.0242      4.0377      4.0575      4.0797      4.0143      4.0309      4.0288      3.9955      3.9186      3.7890    
  3.6037      3.3687      3.0993      2.8193      2.5577      2.3443      2.2048      2.1562      2.2048      2.3443    
  2.5577      2.8193      3.0993      3.3687      3.6037      3.7890      3.9186      3.9955      4.0288      4.0309    
  4.0143      3.9900      3.9661      3.9479      3.9369      3.9332      3.9369      3.9479      3.9661      3.9900    
  3.9272      3.9538      3.9699      3.9645      3.9259      3.8434      3.7109      3.5290      3.3069      3.0623    
  2.8193      2.6051      2.4453      2.3600      2.3600      2.4453      2.6051      2.8193      3.0623      3.3069    
  3.5290      3.7109      3.8434      3.9259      3.9645      3.9699      3.9538      3.9272      3.8992      3.8758    
  3.8599      3.8520      3.8520      3.8599      3.8758      3.8992      3.8393      3.8720      3.9015      3.9188    
  3.9133      3.8744      3.7942      3.6691      3.5030      3.3069      3.0993      2.9028      2.7411      2.6347    
  2.5976      2.6347      2.7411      2.9028      3.0993      3.3069      3.5030      3.6691      3.7942      3.8744    
  3.9133      3.9188      3.9015      3.8720      3.8393      3.8103      3.7889      3.7761      3.7719      3.7761    
  3.7889      3.8103      3.7540      3.7892      3.8272      3.8610      3.8819      3.8801      3.8471      3.7770    
  3.6691      3.5290      3.3687      3.2055      3.0591      2.9488      2.8895      2.8895      2.9488      3.0591    
  3.2055      3.3687      3.5290      3.6691      3.7770      3.8471      3.8801      3.8819      3.8610      3.8272    
  3.7892      3.7540      3.7263      3.7078      3.6986      3.6986      3.7078      3.7263      3.6745      3.7092    
  3.7512      3.7956      3.8354      3.8625      3.8686      3.8471      3.7942      3.7109      3.6037      3.4842    
  3.3671      3.2687      3.2031      3.1801      3.2031      3.2687      3.3671      3.4842      3.6037      3.7109    
  3.7942      3.8471      3.8686      3.8625      3.8354      3.7956      3.7512      3.7092      3.6745      3.6494    
  3.6345      3.6295      3.6345      3.6494      3.6032      3.6356      3.6779      3.7275      3.7792      3.8266    
  3.8625      3.8801      3.8744      3.8434      3.7890      3.7174      3.6386      3.5644      3.5069      3.4755    
  3.4755      3.5069      3.5644      3.6386      3.7174      3.7890      3.8434      3.8744      3.8801      3.8625    
  3.8266      3.7792      3.7275      3.6779      3.6356      3.6032      3.5817      3.5709      3.5709      3.5817    
  3.5422      3.5712      3.6115      3.6619      3.7194      3.7792      3.8354      3.8819      3.9133      3.9259    
  3.9186      3.8935      3.8559      3.8134      3.7747      3.7478      3.7381      3.7478      3.7747      3.8134    
  3.8559      3.8935      3.9186      3.9259      3.9133      3.8819      3.8354      3.7792      3.7194      3.6619    
  3.6115      3.5712      3.5422      3.5248      3.5191      3.5248      3.4930      3.5178      3.5548      3.6033    
  3.6619      3.7275      3.7956      3.8610      3.9188      3.9645      3.9955      4.0108      4.0122      4.0034    
  3.9897      3.9766      3.9687      3.9687      3.9766      3.9897      4.0034      4.0122      4.0108      3.9955    
  3.9645      3.9188      3.8610      3.7956      3.7275      3.6619      3.6033      3.5548      3.5178      3.4930    
  3.4806      3.4806      3.4569      3.4768      3.5096      3.5548      3.6115      3.6779      3.7512      3.8272    
  3.9015      3.9699      4.0288      4.0759      4.1102      4.1326      4.1453      4.1511      4.1531      4.1535    
  4.1531      4.1511      4.1453      4.1326      4.1102      4.0759      4.0288      3.9699      3.9015      3.8272    
  3.7512      3.6779      3.6115      3.5548      3.5096      3.4768      3.4569      3.4503      3.4349      3.4489    
  3.4768      3.5178      3.5712      3.6356      3.7092      3.7892      3.8720      3.9538      4.0309      4.1002    
  4.1595      4.2076      4.2441      4.2698      4.2859      4.2936      4.2936      4.2859      4.2698      4.2441    
  4.2076      4.1595      4.1002      4.0309      3.9538      3.8720      3.7892      3.7092      3.6356      3.5712    
  3.5178      3.4768      3.4489      3.4349      3.4440      3.4513      3.4731      3.5087      3.5574      3.6179    
  3.6886      3.7675      3.8518      3.9380      4.0227      4.1024      4.1744      4.2364      4.2872      4.3261    
  4.3534      4.3695      4.3747      4.3695      4.3534      4.3261      4.2872      4.2364      4.1744      4.1024    
  4.0227      3.9380      3.8518      3.7675      3.6886      3.6179      3.5574      3.5087      3.4731      3.4513    
  3.4513      3.4513      3.4666      3.4967      3.5406      3.5971      3.6645      3.7411      3.8248      3.9131    
  4.0030      4.0912      4.1746      4.2505      4.3166      4.3710      4.4124      4.4403      4.4544      4.4544    
  4.4403      4.4124      4.3710      4.3166      4.2505      4.1746      4.0912      4.0030      3.9131      3.8248    
  3.7411      3.6645      3.5971      3.5406      3.4967      3.4666      3.4731      3.4651      3.4731      3.4967    
  3.5350      3.5867      3.6501      3.7233      3.8044      3.8911      3.9813      4.0722      4.1608      4.2441    
  4.3194      4.3842      4.4365      4.4748      4.4981      4.5060      4.4981      4.4748      4.4365      4.3842    
  4.3194      4.2441      4.1608      4.0722      3.9813      3.8911      3.8044      3.7233      3.6501      3.5867    
  3.5350      3.4967      3.5087      3.4925      3.4925      3.5087      3.5406      3.5867      3.6454      3.7145    
  3.7921      3.8760      3.9640      4.0539      4.1431      4.2290      4.3085      4.3791      4.4384      4.4845    
  4.5160      4.5319      4.5319      4.5160      4.4845      4.4384      4.3791      4.3085      4.2290      4.1431    
  4.0539      3.9640      3.8760      3.7921      3.7145      3.6454      3.5867      3.5406      3.5574      3.5329    
  3.5246      3.5329      3.5574      3.5971      3.6501      3.7145      3.7880      3.8684      3.9534      4.0408    
  4.1283      4.2135      4.2937      4.3665      4.4294      4.4803      4.5177      4.5406      4.5483      4.5406    
  4.5177      4.4803      4.4294      4.3665      4.2937      4.2135      4.1283      4.0408      3.9534      3.8684    
  3.7880      3.7145      3.6501      3.5971      3.6179      3.5855      3.5689      3.5689      3.5855      3.6179    
  3.6645      3.7233      3.7921      3.8684      3.9499      4.0343      4.1192      4.2024      4.2813      4.3538    
  4.4176      4.4709      4.5120      4.5399      4.5540      4.5540      4.5399      4.5120      4.4709      4.4176    
  4.3538      4.2813      4.2024      4.1192      4.0343      3.9499      3.8684      3.7921      3.7233      3.6645    
  3.6886      3.6491      3.6246      3.6163      3.6246      3.6491      3.6886      3.7411      3.8044      3.8760    
  3.9534      4.0343      4.1162      4.1968      4.2738      4.3449      4.4082      4.4620      4.5049      4.5361    
  4.5549      4.5612      4.5549      4.5361      4.5049      4.4620      4.4082      4.3449      4.2738      4.1968    
  4.1162      4.0343      3.9534      3.8760      3.8044      3.7411      3.7675      3.7217      3.6898      3.6733    
  3.6733      3.6898      3.7217      3.7675      3.8248      3.8911      3.9640      4.0408      4.1192      4.1968    
  4.2713      4.3405      4.4026      4.4561      4.4996      4.5326      4.5547      4.5657      4.5657      4.5547    
  4.5326      4.4996      4.4561      4.4026      4.3405      4.2713      4.1968      4.1192      4.0408      3.9640    
  3.8911      3.8248      3.8518      3.8002      3.7610      3.7364      3.7281      3.7364      3.7610      3.8002    
  3.8518      3.9131      3.9813      4.0539      4.1283      4.2024      4.2738      4.3405      4.4008      4.4532    
  4.4966      4.5305      4.5546      4.5689      4.5737      4.5689      4.5546      4.5305      4.4966      4.4532    
  4.4008      4.3405      4.2738      4.2024      4.1283      4.0539      3.9813      3.9131      3.9380      3.8806    
  3.8337      3.8005      3.7833      3.7833      3.8005      3.8337      3.8806      3.9380      4.0030      4.0722    
  4.1431      4.2135      4.2813      4.3449      4.4026      4.4532      4.4956      4.5295      4.5547      4.5712    
  4.5794      4.5794      4.5712      4.5547      4.5295      4.4956      4.4532      4.4026      4.3449      4.2813    
  4.2135      4.1431      4.0722      4.0030      4.0227      3.9588      3.9032      3.8600      3.8325      3.8231    
  3.8325      3.8600      3.9032      3.9588      4.0227      4.0912      4.1608      4.2290      4.2937      4.3538    
  4.4082      4.4561      4.4966      4.5295      4.5547      4.5724      4.5829      4.5864      4.5829      4.5724    
  4.5547      4.5295      4.4966      4.4561      4.4082      4.3538      4.2937      4.2290      4.1608      4.0912    
  4.1024      4.0310      3.9651      3.9095      3.8692      3.8479      3.8479      3.8692      3.9095      3.9651    
  4.0310      4.1024      4.1746      4.2441      4.3085      4.3665      4.4176      4.4620      4.4996      4.5305    
  4.5547      4.5724      4.5841      4.5898      4.5898      4.5841      4.5724      4.5547      4.5305      4.4996    
  4.4620      4.4176      4.3665      4.3085      4.2441      4.1746      4.1744      4.0943      4.0156      3.9444    
  3.8873      3.8503      3.8375      3.8503      3.8873      3.9444      4.0156      4.0943      4.1744      4.2505    
  4.3194      4.3791      4.4294      4.4709      4.5049      4.5326      4.5546      4.5712      4.5829      4.5898    
  4.5921      4.5898      4.5829      4.5712      4.5546      4.5326      4.5049      4.4709      4.4294      4.3791    
  4.3194      4.2505      4.2364      4.1466      4.0526      3.9620      3.8832      3.8250      3.7939      3.7939    
  3.8250      3.8832      3.9620      4.0526      4.1466      4.2364      4.3166      4.3842      4.4384      4.4803    
  4.5120      4.5361      4.5547      4.5689      4.5794      4.5864      4.5898      4.5898      4.5864      4.5794    
  4.5689      4.5547      4.5361      4.5120      4.4803      4.4384      4.3842      4.3166      4.2872      4.1871    
  4.0759      3.9621      3.8564      3.7702      3.7137      3.6940      3.7137      3.7702      3.8564      3.9621    
  4.0759      4.1871      4.2872      4.3710      4.4365      4.4845      4.5177      4.5399      4.5549      4.5657    
  4.5737      4.5794      4.5829      4.5841      4.5829      4.5794      4.5737      4.5657      4.5549      4.5399    
  4.5177      4.4845      4.4365      4.3710      4.3261      4.2162      4.0871      3.9475      3.8100      3.6890    
  3.5987      3.5504      3.5504      3.5987      3.6890      3.8100      3.9475      4.0871      4.2162      4.3261    
  4.4124      4.4748      4.5160      4.5406      4.5540      4.5612      4.5657      4.5689      4.5712      4.5724    
  4.5724      4.5712      4.5689      4.5657      4.5612      4.5540      4.5406      4.5160      4.4748      4.4124    
  4.3534      4.2354      4.0893      3.9233      3.7510      3.5896      3.4574      3.3706      3.3403      3.3706    
  3.4574      3.5896      3.7510      3.9233      4.0893      4.2354      4.3534      4.4403      4.4981      4.5319    
  4.5483      4.5540      4.5549      4.5547      4.5546      4.5547      4.5547      4.5547      4.5546      4.5547    
  4.5549      4.5540      4.5483      4.5319      4.4981      4.4403      4.3695      4.2467      4.0867      3.8963    
  3.6891      3.4843      3.3039      3.1693      3.0973      3.0973      3.1693      3.3039      3.4843      3.6891    
  3.8963      4.0867      4.2467      4.3695      4.4544      4.5060      4.5319      4.5406      4.5399      4.5361    
  4.5326      4.5305      4.5295      4.5295      4.5305      4.5326      4.5361      4.5399      4.5406      4.5319    
  4.5060      4.4544      4.3747      4.2519      4.0832      3.8733      3.6347      3.3874      3.1562      2.9673    
  2.8435      2.8004      2.8435      2.9673      3.1562      3.3874      3.6347      3.8733      4.0832      4.2519    
  4.3747      4.4544      4.4981      4.5160      4.5177      4.5120      4.5049      4.4996      4.4966      4.4956    
  4.4966      4.4996      4.5049      4.5120      4.5177      4.5160      4.4981      4.4544      4.3695      4.2519    
  4.0817      3.8602      3.5976      3.3132      3.0334      2.7880      2.6056      2.5083      2.5083      2.6056    
  2.7880      3.0334      3.3132      3.5976      3.8602      4.0817      4.2519      4.3695      4.4403      4.4748    
  4.4845      4.4803      4.4709      4.4620      4.4561      4.4532      4.4532      4.4561      4.4620      4.4709    
  4.4803      4.4845      4.4748      4.4403      4.3534      4.2467      4.0832      3.8602      3.5844      3.2730    
  2.9520      2.6537      2.4111      2.2525      2.1974      2.2525      2.4111      2.6537      2.9520      3.2730    
  3.5844      3.8602      4.0832      4.2467      4.3534      4.4124      4.4365      4.4384      4.4294      4.4176    
  4.4082      4.4026      4.4008      4.4026      4.4082      4.4176      4.4294      4.4384      4.4365      4.4124    
  4.3261      4.2354      4.0867      3.8733      3.5976      3.2730      2.9236      2.5819      2.2837      2.0628    
  1.9452      1.9452      2.0628      2.2837      2.5819      2.9236      3.2730      3.5976      3.8733      4.0867    
  4.2354      4.3261      4.3710      4.3842      4.3791      4.3665      4.3538      4.3449      4.3405      4.3405    
  4.3449      4.3538      4.3665      4.3791      4.3842      4.3710      4.2872      4.2162      4.0893      3.8963    
  3.6347      3.3132      2.9520      2.5819      2.2393      1.9617      1.7808      1.7180      1.7808      1.9617    
  2.2393      2.5819      2.9520      3.3132      3.6347      3.8963      4.0893      4.2162      4.2872      4.3166    
  4.3194      4.3085      4.2937      4.2813      4.2738      4.2713      4.2738      4.2813      4.2937      4.3085    
  4.3194      4.3166      4.2364      4.1871      4.0871      3.9233      3.6891      3.3874      3.0334      2.6537    
  2.2837      1.9617      1.7237      1.5973      1.5973      1.7237      1.9617      2.2837      2.6537      3.0334    
  3.3874      3.6891      3.9233      4.0871      4.1871      4.2364      4.2505      4.2441      4.2290      4.2135    
  4.2024      4.1968      4.1968      4.2024      4.2135      4.2290      4.2441      4.2505      4.1744      4.1466    
  4.0759      3.9475      3.7510      3.4843      3.1562      2.7880      2.4111      2.0628      1.7808      1.5973    
  1.5336      1.5973      1.7808      2.0628      2.4111      2.7880      3.1562      3.4843      3.7510      3.9475    
  4.0759      4.1466      4.1744      4.1746      4.1608      4.1431      4.1283      4.1192      4.1162      4.1192    
  4.1283      4.1431      4.1608      4.1746      4.1024      4.0943      4.0526      3.9621      3.8100      3.5896    
  3.3039      2.9673      2.6056      2.2525      1.9452      1.7180      1.5973      1.5973      1.7180      1.9452    
  2.2525      2.6056      2.9673      3.3039      3.5896      3.8100      3.9621      4.0526      4.0943      4.1024    
  4.0912      4.0722      4.0539      4.0408      4.0343      4.0343      4.0408      4.0539      4.0722      4.0912    
  4.0227      4.0310      4.0156      3.9620      3.8564      3.6890      3.4574      3.1693      2.8435      2.5083    
  2.1974      1.9452      1.7808      1.7237      1.7808      1.9452      2.1974      2.5083      2.8435      3.1693    
  3.4574      3.6890      3.8564      3.9620      4.0156      4.0310      4.0227      4.0030      3.9813      3.9640    
  3.9534      3.9499      3.9534      3.9640      3.9813      4.0030      3.9380      3.9588      3.9651      3.9444    
  3.8832      3.7702      3.5987      3.3706      3.0973      2.8004      2.5083      2.2525      2.0628      1.9617    
  1.9617      2.0628      2.2525      2.5083      2.8004      3.0973      3.3706      3.5987      3.7702      3.8832    
  3.9444      3.9651      3.9588      3.9380      3.9131      3.8911      3.8760      3.8684      3.8684      3.8760    
  3.8911      3.9131      3.8518      3.8806      3.9032      3.9095      3.8873      3.8250      3.7137      3.5504    
  3.3403      3.0973      2.8435      2.6056      2.4111      2.2837      2.2393      2.2837      2.4111      2.6056    
  2.8435      3.0973      3.3403      3.5504      3.7137      3.8250      3.8873      3.9095      3.9032      3.8806    
  3.8518      3.8248      3.8044      3.7921      3.7880      3.7921      3.8044      3.8248      3.7675      3.8002    
  3.8337      3.8600      3.8692      3.8503      3.7939      3.6940      3.5504      3.3706      3.1693      2.9673    
  2.7880      2.6537      2.5819      2.5819      2.6537      2.7880      2.9673      3.1693      3.3706      3.5504    
  3.6940      3.7939      3.8503      3.8692      3.8600      3.8337      3.8002      3.7675      3.7411      3.7233    
  3.7145      3.7145      3.7233      3.7411      3.6886      3.7217      3.7610      3.8005      3.8325      3.8479    
  3.8375      3.7939      3.7137      3.5987      3.4574      3.3039      3.1562      3.0334      2.9520      2.9236    
  2.9520      3.0334      3.1562      3.3039      3.4574      3.5987      3.7137      3.7939      3.8375      3.8479    
  3.8325      3.8005      3.7610      3.7217      3.6886      3.6645      3.6501      3.6454      3.6501      3.6645    
  3.6179      3.6491      3.6898      3.7364      3.7833      3.8231      3.8479      3.8503      3.8250      3.7702    
  3.6890      3.5896      3.4843      3.3874      3.3132      3.2730      3.2730      3.3132      3.3874      3.4843    
  3.5896      3.6890      3.7702      3.8250      3.8503      3.8479      3.8231      3.7833      3.7364      3.6898    
  3.6491      3.6179      3.5971      3.5867      3.5867      3.5971      3.5574      3.5855      3.6246      3.6733    
  3.7281      3.7833      3.8325      3.8692      3.8873      3.8832      3.8564      3.8100      3.7510      3.6891    
  3.6347      3.5976      3.5844      3.5976      3.6347      3.6891      3.7510      3.8100      3.8564      3.8832    
  3.8873      3.8692      3.8325      3.7833      3.7281      3.6733      3.6246      3.5855      3.5574      3.5406    
  3.5350      3.5406      3.5087      3.5329      3.5689      3.6163      3.6733      3.7364      3.8005      3.8600    
  3.9095      3.9444      3.9620      3.9621      3.9475      3.9233      3.8963      3.8733      3.8602      3.8602    
  3.8733      3.8963      3.9233      3.9475      3.9621      3.9620      3.9444      3.9095      3.8600      3.8005    
  3.7364      3.6733      3.6163      3.5689      3.5329      3.5087      3.4967      3.4967      3.4731      3.4925    
  3.5246      3.5689      3.6246      3.6898      3.7610      3.8337      3.9032      3.9651      4.0156      4.0526    
  4.0759      4.0871      4.0893      4.0867      4.0832      4.0817      4.0832      4.0867      4.0893      4.0871    
  4.0759      4.0526      4.0156      3.9651      3.9032      3.8337      3.7610      3.6898      3.6246      3.5689    
  3.5246      3.4925      3.4731      3.4666      3.4513      3.4651      3.4925      3.5329      3.5855      3.6491    
  3.7217      3.8002      3.8806      3.9588      4.0310      4.0943      4.1466      4.1871      4.2162      4.2354    
  4.2467      4.2519      4.2519      4.2467      4.2354      4.2162      4.1871      4.1466      4.0943      4.0310    
  3.9588      3.8806      3.8002      3.7217      3.6491      3.5855      3.5329      3.4925      3.4651      3.4513    
  3.4566      3.4639      3.4853      3.5206      3.5689      3.6289      3.6991      3.7774      3.8608      3.9456    
  4.0282      4.1051      4.1737      4.2319      4.2787      4.3139      4.3381      4.3521      4.3567      4.3521    
  4.3381      4.3139      4.2786      4.2319      4.1737      4.1051      4.0282      3.9456      3.8608      3.7774    
  3.6991      3.6289      3.5689      3.5206      3.4853      3.4639      3.4639      3.4639      3.4790      3.5088    
  3.5525      3.6086      3.6758      3.7521      3.8355      3.9233      4.0123      4.0992      4.1810      4.2548    
  4.3185      4.3705      4.4099      4.4362      4.4494      4.4494      4.4362      4.4099      4.3705      4.3185    
  4.2548      4.1810      4.0992      4.0123      3.9233      3.8355      3.7521      3.6758      3.6086      3.5525    
  3.5088      3.4790      3.4853      3.4774      3.4853      3.5088      3.5470      3.5986      3.6618      3.7349    
  3.8159      3.9025      3.9926      4.0831      4.1710      4.2534      4.3275      4.3910      4.4420      4.4792    
  4.5019      4.5095      4.5019      4.4792      4.4420      4.3910      4.3275      4.2534      4.1710      4.0831    
  3.9926      3.9025      3.8159      3.7349      3.6618      3.5986      3.5470      3.5088      3.5206      3.5043    
  3.5043      3.5206      3.5525      3.5986      3.6572      3.7264      3.8040      3.8879      3.9760      4.0659    
  4.1552      4.2408      4.3199      4.3899      4.4485      4.4940      4.5249      4.5406      4.5406      4.5249    
  4.4940      4.4485      4.3899      4.3199      4.2408      4.1552      4.0659      3.9760      3.8879      3.8040    
  3.7264      3.6572      3.5986      3.5525      3.5689      3.5442      3.5359      3.5442      3.5689      3.6086    
  3.6618      3.7264      3.8000      3.8806      3.9658      4.0533      4.1410      4.2262      4.3065      4.3792    
  4.4418      4.4923      4.5295      4.5521      4.5597      4.5521      4.5295      4.4923      4.4418      4.3792    
  4.3065      4.2262      4.1410      4.0533      3.9658      3.8806      3.8000      3.7264      3.6618      3.6086    
  3.6289      3.5963      3.5796      3.5796      3.5963      3.6289      3.6758      3.7349      3.8040      3.8806    
  3.9623      4.0469      4.1321      4.2154      4.2945      4.3671      4.4308      4.4839      4.5249      4.5526    
  4.5667      4.5667      4.5526      4.5249      4.4839      4.4308      4.3671      4.2945      4.2154      4.1321    
  4.0469      3.9623      3.8806      3.8040      3.7349      3.6758      3.6991      3.6592      3.6344      3.6260    
  3.6344      3.6592      3.6991      3.7521      3.8159      3.8879      3.9658      4.0469      4.1291      4.2099    
  4.2870      4.3583      4.4216      4.4753      4.5181      4.5491      4.5678      4.5741      4.5678      4.5491    
  4.5181      4.4753      4.4216      4.3583      4.2870      4.2099      4.1291      4.0469      3.9658      3.8879    
  3.8159      3.7521      3.7774      3.7310      3.6985      3.6817      3.6817      3.6985      3.7310      3.7774    
  3.8355      3.9025      3.9760      4.0533      4.1321      4.2099      4.2846      4.3539      4.4160      4.4693    
  4.5128      4.5456      4.5675      4.5785      4.5785      4.5675      4.5456      4.5128      4.4693      4.4160    
  4.3539      4.2846      4.2099      4.1321      4.0533      3.9760      3.9025      3.8355      3.8608      3.8081    
  3.7679      3.7427      3.7341      3.7427      3.7679      3.8081      3.8608      3.9233      3.9926      4.0659    
  4.1410      4.2154      4.2870      4.3539      4.4142      4.4664      4.5097      4.5434      4.5673      4.5816    
  4.5864      4.5816      4.5673      4.5434      4.5097      4.4664      4.4142      4.3539      4.2870      4.2154    
  4.1410      4.0659      3.9926      3.9233      3.9456      3.8863      3.8379      3.8034      3.7855      3.7855    
  3.8034      3.8379      3.8863      3.9456      4.0123      4.0831      4.1552      4.2262      4.2945      4.3583    
  4.4160      4.4664      4.5087      4.5424      4.5674      4.5838      4.5920      4.5920      4.5838      4.5674    
  4.5424      4.5087      4.4664      4.4160      4.3583      4.2945      4.2262      4.1552      4.0831      4.0123    
  4.0282      3.9615      3.9034      3.8579      3.8290      3.8190      3.8290      3.8579      3.9034      3.9615    
  4.0282      4.0992      4.1710      4.2408      4.3065      4.3671      4.4216      4.4693      4.5097      4.5424    
  4.5675      4.5851      4.5954      4.5989      4.5954      4.5851      4.5675      4.5424      4.5097      4.4693    
  4.4216      4.3671      4.3065      4.2408      4.1710      4.0992      4.1051      4.0297      3.9597      3.9005    
  3.8574      3.8347      3.8347      3.8574      3.9005      3.9597      4.0297      4.1051      4.1810      4.2534    
  4.3199      4.3792      4.4308      4.4753      4.5128      4.5434      4.5674      4.5851      4.5966      4.6023    
  4.6023      4.5966      4.5851      4.5674      4.5434      4.5128      4.4753      4.4308      4.3792      4.3199    
  4.2534      4.1810      4.1737      4.0880      4.0032      3.9263      3.8645      3.8245      3.8106      3.8245    
  3.8646      3.9263      4.0032      4.0880      4.1737      4.2548      4.3275      4.3899      4.4418      4.4839    
  4.5181      4.5456      4.5673      4.5838      4.5954      4.6023      4.6046      4.6023      4.5954      4.5838    
  4.5673      4.5456      4.5181      4.4839      4.4418      4.3899      4.3275      4.2548      4.2319      4.1344    
  4.0319      3.9329      3.8467      3.7829      3.7489      3.7489      3.7829      3.8467      3.9329      4.0319    
  4.1344      4.2319      4.3185      4.3910      4.4485      4.4923      4.5249      4.5491      4.5675      4.5816    
  4.5920      4.5989      4.6023      4.6023      4.5989      4.5920      4.5816      4.5675      4.5491      4.5249    
  4.4923      4.4485      4.3910      4.3185      4.2786      4.1685      4.0460      3.9205      3.8038      3.7086    
  3.6463      3.6245      3.6463      3.7086      3.8038      3.9205      4.0460      4.1685      4.2787      4.3705    
  4.4420      4.4940      4.5295      4.5526      4.5678      4.5785      4.5864      4.5920      4.5954      4.5966    
  4.5954      4.5920      4.5864      4.5785      4.5678      4.5526      4.5295      4.4940      4.4420      4.3705    
  4.3139      4.1915      4.0479      3.8928      3.7400      3.6057      3.5055      3.4519      3.4519      3.5055    
  3.6057      3.7400      3.8928      4.0479      4.1915      4.3139      4.4099      4.4792      4.5249      4.5521    
  4.5667      4.5741      4.5785      4.5816      4.5838      4.5851      4.5851      4.5838      4.5816      4.5785    
  4.5741      4.5667      4.5521      4.5249      4.4792      4.4099      4.3381      4.2054      4.0416      3.8559    
  3.6636      3.4836      3.3364      3.2398      3.2062      3.2398      3.3364      3.4836      3.6635      3.8559    
  4.0416      4.2054      4.3381      4.4362      4.5019      4.5406      4.5597      4.5667      4.5678      4.5675    
  4.5673      4.5674      4.5675      4.5674      4.5673      4.5675      4.5678      4.5667      4.5597      4.5406    
  4.5019      4.4362      4.3521      4.2127      4.0320      3.8179      3.5857      3.3567      3.1555      3.0056    
  2.9255      2.9255      3.0056      3.1555      3.3567      3.5857      3.8179      4.0320      4.2127      4.3521    
  4.4494      4.5095      4.5406      4.5521      4.5526      4.5491      4.5456      4.5434      4.5424      4.5424    
  4.5434      4.5456      4.5491      4.5526      4.5521      4.5406      4.5095      4.4494      4.3567      4.2157    
  4.0240      3.7869      3.5186      3.2414      2.9831      2.7725      2.6347      2.5867      2.6347      2.7725    
  2.9831      3.2414      3.5186      3.7869      4.0240      4.2157      4.3567      4.4494      4.5019      4.5249    
  4.5295      4.5249      4.5181      4.5128      4.5097      4.5087      4.5097      4.5128      4.5181      4.5249    
  4.5295      4.5249      4.5019      4.4494      4.3521      4.2157      4.0209      3.7695      3.4732      3.1538    
  2.8407      2.5669      2.3637      2.2554      2.2554      2.3637      2.5669      2.8407      3.1538      3.4732    
  3.7695      4.0209      4.2157      4.3521      4.4362      4.4792      4.4940      4.4923      4.4839      4.4753    
  4.4693      4.4664      4.4664      4.4693      4.4753      4.4839      4.4923      4.4940      4.4792      4.4362    
  4.3381      4.2127      4.0240      3.7695      3.4572      3.1065      2.7467      2.4135      2.1431      1.9668    
  1.9056      1.9668      2.1431      2.4135      2.7467      3.1065      3.4572      3.7695      4.0240      4.2127    
  4.3381      4.4099      4.4420      4.4485      4.4418      4.4308      4.4216      4.4160      4.4142      4.4160    
  4.4216      4.4308      4.4418      4.4485      4.4420      4.4099      4.3139      4.2054      4.0320      3.7869    
  3.4732      3.1065      2.7139      2.3316      1.9991      1.7533      1.6227      1.6227      1.7533      1.9991    
  2.3316      2.7139      3.1065      3.4732      3.7869      4.0320      4.2054      4.3139      4.3705      4.3910    
  4.3899      4.3792      4.3671      4.3583      4.3539      4.3539      4.3583      4.3671      4.3792      4.3899    
  4.3910      4.3705      4.2787      4.1915      4.0416      3.8179      3.5186      3.1538      2.7467      2.3316    
  1.9490      1.6398      1.4388      1.3691      1.4388      1.6398      1.9490      2.3316      2.7467      3.1538    
  3.5186      3.8179      4.0416      4.1915      4.2787      4.3185      4.3275      4.3199      4.3065      4.2945    
  4.2870      4.2846      4.2870      4.2945      4.3065      4.3199      4.3275      4.3185      4.2319      4.1685    
  4.0479      3.8559      3.5857      3.2414      2.8407      2.4135      1.9991      1.6398      1.3750      1.2345    
  1.2345      1.3750      1.6398      1.9991      2.4135      2.8407      3.2414      3.5857      3.8559      4.0479    
  4.1685      4.2319      4.2548      4.2534      4.2408      4.2262      4.2154      4.2099      4.2099      4.2154    
  4.2262      4.2408      4.2534      4.2548      4.1737      4.1344      4.0460      3.8928      3.6635      3.3567    
  2.9831      2.5669      2.1431      1.7533      1.4388      1.2345      1.1637      1.2345      1.4388      1.7533    
  2.1431      2.5669      2.9831      3.3567      3.6635      3.8928      4.0460      4.1344      4.1737      4.1810    
  4.1710      4.1552      4.1410      4.1321      4.1291      4.1321      4.1410      4.1552      4.1710      4.1810    
  4.1051      4.0880      4.0319      3.9205      3.7400      3.4836      3.1555      2.7725      2.3637      1.9668    
  1.6227      1.3691      1.2345      1.2345      1.3691      1.6227      1.9668      2.3637      2.7725      3.1555    
  3.4836      3.7400      3.9205      4.0319      4.0880      4.1051      4.0992      4.0831      4.0659      4.0533    
  4.0469      4.0469      4.0533      4.0659      4.0831      4.0992      4.0282      4.0297      4.0032      3.9329    
  3.8038      3.6057      3.3364      3.0056      2.6347      2.2554      1.9056      1.6227      1.4388      1.3750    
  1.4388      1.6227      1.9056      2.2554      2.6347      3.0056      3.3364      3.6057      3.8038      3.9329    
  4.0032      4.0297      4.0282      4.0123      3.9926      3.9760      3.9658      3.9623      3.9658      3.9760    
  3.9926      4.0123      3.9456      3.9615      3.9597      3.9263      3.8467      3.7086      3.5055      3.2398    
  2.9255      2.5867      2.2554      1.9668      1.7533      1.6398      1.6398      1.7533      1.9668      2.2554    
  2.5867      2.9255      3.2398      3.5055      3.7086      3.8467      3.9263      3.9597      3.9615      3.9456    
  3.9233      3.9025      3.8879      3.8806      3.8806      3.8879      3.9025      3.9233      3.8608      3.8863    
  3.9034      3.9005      3.8646      3.7829      3.6463      3.4519      3.2062      2.9255      2.6347      2.3637    
  2.1431      1.9991      1.9490      1.9991      2.1431      2.3637      2.6347      2.9255      3.2062      3.4519    
  3.6463      3.7829      3.8646      3.9005      3.9034      3.8863      3.8608      3.8355      3.8159      3.8040    
  3.8000      3.8040      3.8159      3.8355      3.7774      3.8081      3.8379      3.8579      3.8574      3.8245    
  3.7489      3.6245      3.4519      3.2398      3.0056      2.7725      2.5669      2.4135      2.3316      2.3316    
  2.4135      2.5669      2.7725      3.0056      3.2398      3.4519      3.6245      3.7489      3.8245      3.8574    
  3.8579      3.8379      3.8081      3.7774      3.7521      3.7349      3.7264      3.7264      3.7349      3.7521    
  3.6991      3.7310      3.7679      3.8034      3.8290      3.8347      3.8106      3.7489      3.6463      3.5055    
  3.3364      3.1555      2.9831      2.8407      2.7467      2.7139      2.7467      2.8407      2.9831      3.1555    
  3.3364      3.5055      3.6463      3.7489      3.8106      3.8347      3.8290      3.8034      3.7679      3.7310    
  3.6991      3.6758      3.6618      3.6572      3.6618      3.6758      3.6289      3.6592      3.6985      3.7427    
  3.7855      3.8190      3.8347      3.8245      3.7829      3.7086      3.6057      3.4836      3.3567      3.2414    
  3.1538      3.1065      3.1065      3.1538      3.2414      3.3567      3.4836      3.6057      3.7086      3.7829    
  3.8245      3.8347      3.8190      3.7855      3.7427      3.6985      3.6592      3.6289      3.6086      3.5986    
  3.5986      3.6086      3.5689      3.5963      3.6344      3.6817      3.7341      3.7855      3.8290      3.8574    
  3.8646      3.8467      3.8038      3.7400      3.6635      3.5857      3.5186      3.4732      3.4572      3.4732    
  3.5186      3.5857      3.6636      3.7400      3.8038      3.8467      3.8645      3.8574      3.8290      3.7855    
  3.7341      3.6817      3.6344      3.5963      3.5689      3.5525      3.5470      3.5525      3.5206      3.5442    
  3.5796      3.6260      3.6817      3.7427      3.8034      3.8579      3.9005      3.9263      3.9329      3.9205    
  3.8928      3.8559      3.8179      3.7869      3.7695      3.7695      3.7869      3.8179      3.8559      3.8928    
  3.9205      3.9329      3.9263      3.9005      3.8579      3.8034      3.7427      3.6817      3.6260      3.5796    
  3.5442      3.5206      3.5088      3.5088      3.4853      3.5043      3.5359      3.5796      3.6344      3.6985    
  3.7679      3.8379      3.9034      3.9597      4.0032      4.0319      4.0460      4.0479      4.0416      4.0320    
  4.0240      4.0209      4.0240      4.0320      4.0416      4.0479      4.0460      4.0319      4.0032      3.9597    
  3.9034      3.8379      3.7679      3.6985      3.6344      3.5796      3.5359      3.5043      3.4853      3.4790    
  3.4639      3.4774      3.5043      3.5442      3.5963      3.6592      3.7310      3.8081      3.8863      3.9615    
  4.0297      4.0880      4.1344      4.1685      4.1915      4.2054      4.2127      4.2157      4.2157      4.2127    
  4.2054      4.1915      4.1685      4.1344      4.0880      4.0297      3.9615      3.8863      3.8081      3.7310    
  3.6592      3.5963      3.5442      3.5043      3.4774      3.4639      3.4646      3.4717      3.4930      3.5280    
  3.5760      3.6357      3.7056      3.7835      3.8663      3.9501      4.0312      4.1063      4.1726      4.2282    
  4.2723      4.3051      4.3272      4.3399      4.3440      4.3399      4.3272      4.3051      4.2723      4.2282    
  4.1726      4.1063      4.0312      3.9501      3.8663      3.7835      3.7056      3.6357      3.5760      3.5280    
  3.4930      3.4717      3.4717      3.4717      3.4868      3.5164      3.5598      3.6158      3.6827      3.7588    
  3.8420      3.9295      4.0179      4.1040      4.1846      4.2570      4.3192      4.3696      4.4076      4.4329    
  4.4454      4.4454      4.4329      4.4076      4.3696      4.3192      4.2570      4.1846      4.1040      4.0179    
  3.9295      3.8420      3.7588      3.6827      3.6158      3.5598      3.5164      3.4868      3.4930      3.4851    
  3.4930      3.5164      3.5545      3.6059      3.6690      3.7420      3.8229      3.9095      3.9995      4.0897    
  4.1772      4.2590      4.3323      4.3949      4.4451      4.4816      4.5038      4.5112      4.5038      4.4816    
  4.4451      4.3949      4.3323      4.2590      4.1772      4.0897      3.9995      3.9095      3.8229      3.7420    
  3.6690      3.6059      3.5545      3.5164      3.5280      3.5118      3.5118      3.5280      3.5598      3.6059    
  3.6645      3.7336      3.8112      3.8952      3.9834      4.0734      4.1626      4.2480      4.3269      4.3965    
  4.4547      4.4998      4.5304      4.5459      4.5459      4.5304      4.4998      4.4547      4.3965      4.3269    
  4.2480      4.1626      4.0734      3.9834      3.8952      3.8112      3.7336      3.6645      3.6059      3.5598    
  3.5760      3.5513      3.5430      3.5513      3.5760      3.6158      3.6690      3.7336      3.8074      3.8880    
  3.9733      4.0610      4.1488      4.2342      4.3145      4.3871      4.4495      4.4999      4.5368      4.5593    
  4.5669      4.5593      4.5368      4.4999      4.4495      4.3871      4.3145      4.2342      4.1488      4.0610    
  3.9733      3.8880      3.8074      3.7336      3.6690      3.6158      3.6357      3.6030      3.5862      3.5862    
  3.6030      3.6357      3.6827      3.7420      3.8112      3.8880      3.9700      4.0547      4.1401      4.2235    
  4.3028      4.3754      4.4392      4.4923      4.5331      4.5608      4.5748      4.5748      4.5608      4.5331    
  4.4923      4.4392      4.3754      4.3028      4.2235      4.1401      4.0547      3.9700      3.8880      3.8112    
  3.7420      3.6827      3.7056      3.6655      3.6405      3.6320      3.6405      3.6655      3.7056      3.7588    
  3.8229      3.8952      3.9733      4.0547      4.1371      4.2181      4.2954      4.3667      4.4301      4.4838    
  4.5265      4.5575      4.5762      4.5824      4.5762      4.5575      4.5265      4.4838      4.4301      4.3667    
  4.2954      4.2181      4.1371      4.0547      3.9733      3.8952      3.8229      3.7588      3.7835      3.7366    
  3.7038      3.6869      3.6869      3.7038      3.7366      3.7835      3.8420      3.9095      3.9834      4.0610    
  4.1401      4.2181      4.2929      4.3623      4.4245      4.4778      4.5212      4.5540      4.5759      4.5868    
  4.5868      4.5759      4.5540      4.5212      4.4778      4.4245      4.3623      4.2929      4.2181      4.1401    
  4.0610      3.9834      3.9095      3.8420      3.8663      3.8128      3.7720      3.7463      3.7376      3.7463    
  3.7720      3.8128      3.8663      3.9295      3.9995      4.0734      4.1488      4.2235      4.2954      4.3623    
  4.4227      4.4749      4.5182      4.5518      4.5757      4.5899      4.5946      4.5899      4.5757      4.5518    
  4.5182      4.4749      4.4227      4.3623      4.2954      4.2235      4.1488      4.0734      3.9995      3.9295    
  3.9501      3.8896      3.8401      3.8048      3.7864      3.7864      3.8048      3.8401      3.8896      3.9501    
  4.0179      4.0897      4.1626      4.2342      4.3028      4.3667      4.4245      4.4749      4.5172      4.5508    
  4.5757      4.5921      4.6002      4.6002      4.5921      4.5757      4.5508      4.5172      4.4749      4.4245    
  4.3667      4.3028      4.2342      4.1626      4.0897      4.0179      4.0312      3.9628      3.9029      3.8560    
  3.8261      3.8158      3.8261      3.8560      3.9029      3.9628      4.0312      4.1040      4.1772      4.2480    
  4.3145      4.3754      4.4301      4.4778      4.5182      4.5508      4.5758      4.5933      4.6036      4.6071    
  4.6036      4.5933      4.5758      4.5508      4.5182      4.4778      4.4301      4.3754      4.3145      4.2480    
  4.1772      4.1040      4.1063      4.0283      3.9555      3.8939      3.8491      3.8254      3.8254      3.8491    
  3.8939      3.9555      4.0283      4.1063      4.1846      4.2590      4.3269      4.3871      4.4392      4.4838    
  4.5212      4.5518      4.5757      4.5933      4.6048      4.6105      4.6105      4.6048      4.5933      4.5757    
  4.5518      4.5212      4.4838      4.4392      4.3871      4.3269      4.2590      4.1846      4.1726      4.0831    
  3.9944      3.9138      3.8490      3.8069      3.7923      3.8069      3.8490      3.9138      3.9944      4.0831    
  4.1726      4.2570      4.3323      4.3965      4.4495      4.4923      4.5265      4.5540      4.5757      4.5921    
  4.6036      4.6105      4.6128      4.6105      4.6036      4.5921      4.5757      4.5540      4.5265      4.4923    
  4.4495      4.3965      4.3323      4.2570      4.2282      4.1256      4.0176      3.9131      3.8221      3.7547    
  3.7187      3.7187      3.7547      3.8221      3.9131      4.0176      4.1256      4.2282      4.3192      4.3949    
  4.4547      4.4999      4.5331      4.5575      4.5759      4.5899      4.6002      4.6071      4.6105      4.6105    
  4.6071      4.6002      4.5899      4.5759      4.5575      4.5331      4.4999      4.4547      4.3949      4.3192    
  4.2723      4.1556      4.0257      3.8925      3.7686      3.6676      3.6014      3.5783      3.6014      3.6676    
  3.7686      3.8925      4.0257      4.1556      4.2723      4.3696      4.4451      4.4998      4.5368      4.5608    
  4.5762      4.5868      4.5946      4.6002      4.6036      4.6048      4.6036      4.6002      4.5946      4.5868    
  4.5762      4.5608      4.5368      4.4998      4.4451      4.3696      4.3051      4.1745      4.0214      3.8560    
  3.6933      3.5503      3.4437      3.3867      3.3867      3.4437      3.5503      3.6933      3.8560      4.0214    
  4.1745      4.3051      4.4076      4.4816      4.5304      4.5593      4.5748      4.5824      4.5868      4.5899    
  4.5921      4.5933      4.5933      4.5921      4.5899      4.5868      4.5824      4.5748      4.5593      4.5304    
  4.4816      4.4076      4.3272      4.1849      4.0094      3.8108      3.6054      3.4135      3.2566      3.1537    
  3.1178      3.1537      3.2566      3.4135      3.6054      3.8108      4.0094      4.1849      4.3272      4.4329    
  4.5038      4.5459      4.5669      4.5748      4.5762      4.5759      4.5757      4.5757      4.5758      4.5757    
  4.5757      4.5759      4.5762      4.5748      4.5669      4.5459      4.5038      4.4329      4.3399      4.1895    
  3.9952      3.7656      3.5171      3.2725      3.0578      2.8980      2.8127      2.8127      2.8980      3.0578    
  3.2725      3.5171      3.7656      3.9952      4.1895      4.3399      4.4454      4.5112      4.5459      4.5593    
  4.5608      4.5575      4.5540      4.5518      4.5508      4.5508      4.5518      4.5540      4.5575      4.5608    
  4.5593      4.5459      4.5112      4.4454      4.3440      4.1911      3.9843      3.7293      3.4417      3.1452    
  2.8694      2.6448      2.4979      2.4468      2.4979      2.6448      2.8694      3.1452      3.4417      3.7293    
  3.9843      4.1911      4.3440      4.4454      4.5038      4.5304      4.5368      4.5331      4.5265      4.5212    
  4.5182      4.5172      4.5182      4.5212      4.5265      4.5331      4.5368      4.5304      4.5038      4.4454    
  4.3399      4.1911      3.9801      3.7092      3.3910      3.0489      2.7142      2.4222      2.2056      2.0904    
  2.0904      2.2056      2.4222      2.7142      3.0489      3.3909      3.7092      3.9801      4.1911      4.3399    
  4.4329      4.4816      4.4998      4.4999      4.4923      4.4838      4.4778      4.4749      4.4749      4.4778    
  4.4838      4.4923      4.4999      4.4998      4.4816      4.4329      4.3272      4.1895      3.9843      3.7092    
  3.3731      2.9969      2.6121      2.2565      1.9683      1.7806      1.7155      1.7806      1.9683      2.2565    
  2.6121      2.9969      3.3731      3.7092      3.9843      4.1895      4.3272      4.4076      4.4451      4.4547    
  4.4495      4.4392      4.4301      4.4245      4.4227      4.4245      4.4301      4.4392      4.4495      4.4547    
  4.4451      4.4076      4.3051      4.1849      3.9952      3.7293      3.3909      2.9969      2.5765      2.1681    
  1.8136      1.5519      1.4130      1.4130      1.5519      1.8136      2.1681      2.5765      2.9969      3.3909    
  3.7293      3.9952      4.1849      4.3051      4.3696      4.3949      4.3965      4.3871      4.3754      4.3667    
  4.3623      4.3623      4.3667      4.3754      4.3871      4.3965      4.3949      4.3696      4.2723      4.1745    
  4.0094      3.7656      3.4417      3.0488      2.6121      2.1681      1.7598      1.4305      1.2167      1.1425    
  1.2167      1.4305      1.7598      2.1681      2.6121      3.0489      3.4417      3.7656      4.0094      4.1745    
  4.2723      4.3192      4.3323      4.3269      4.3145      4.3028      4.2954      4.2929      4.2954      4.3028    
  4.3145      4.3269      4.3323      4.3192      4.2282      4.1556      4.0214      3.8108      3.5171      3.1452    
  2.7142      2.2565      1.8136      1.4305      1.1486     0.99919     0.99919      1.1486      1.4305      1.8136    
  2.2565      2.7142      3.1452      3.5171      3.8108      4.0214      4.1556      4.2282      4.2570      4.2590    
  4.2480      4.2342      4.2235      4.2181      4.2181      4.2235      4.2342      4.2480      4.2590      4.2570    
  4.1726      4.1256      4.0257      3.8560      3.6054      3.2725      2.8694      2.4222      1.9683      1.5519    
  1.2167     0.99919     0.92387     0.99919      1.2167      1.5519      1.9683      2.4222      2.8694      3.2725    
  3.6054      3.8560      4.0257      4.1256      4.1726      4.1846      4.1772      4.1626      4.1488      4.1401    
  4.1371      4.1401      4.1488      4.1626      4.1772      4.1846      4.1063      4.0831      4.0176      3.8925    
  3.6933      3.4135      3.0578      2.6448      2.2056      1.7806      1.4130      1.1425     0.99919     0.99919    
  1.1425      1.4130      1.7806      2.2056      2.6448      3.0578      3.4135      3.6933      3.8925      4.0176    
  4.0831      4.1063      4.1040      4.0897      4.0734      4.0610      4.0547      4.0547      4.0610      4.0734    
  4.0897      4.1040      4.0312      4.0283      3.9944      3.9131      3.7686      3.5503      3.2566      2.8980    
  2.4979      2.0904      1.7155      1.4130      1.2167      1.1486      1.2167      1.4130      1.7155      2.0904    
  2.4979      2.8980      3.2566      3.5503      3.7686      3.9131      3.9944      4.0283      4.0312      4.0179    
  3.9995      3.9834      3.9733      3.9700      3.9733      3.9834      3.9995      4.0179      3.9501      3.9628    
  3.9555      3.9138      3.8221      3.6676      3.4437      3.1537      2.8127      2.4468      2.0904      1.7806    
  1.5519      1.4305      1.4305      1.5519      1.7806      2.0904      2.4468      2.8127      3.1537      3.4437    
  3.6676      3.8221      3.9138      3.9555      3.9628      3.9501      3.9295      3.9095      3.8952      3.8880    
  3.8880      3.8952      3.9095      3.9295      3.8663      3.8896      3.9029      3.8939      3.8490      3.7547    
  3.6014      3.3867      3.1178      2.8127      2.4979      2.2056      1.9683      1.8136      1.7598      1.8136    
  1.9683      2.2056      2.4979      2.8127      3.1178      3.3867      3.6014      3.7547      3.8490      3.8939    
  3.9029      3.8896      3.8663      3.8420      3.8229      3.8112      3.8074      3.8112      3.8229      3.8420    
  3.7835      3.8128      3.8401      3.8560      3.8491      3.8069      3.7187      3.5783      3.3867      3.1537    
  2.8980      2.6448      2.4222      2.2565      2.1681      2.1681      2.2565      2.4222      2.6448      2.8980    
  3.1537      3.3867      3.5783      3.7187      3.8069      3.8491      3.8560      3.8401      3.8128      3.7835    
  3.7588      3.7420      3.7336      3.7336      3.7420      3.7588      3.7056      3.7366      3.7720      3.8048    
  3.8261      3.8254      3.7923      3.7187      3.6014      3.4437      3.2566      3.0578      2.8694      2.7142    
  2.6121      2.5765      2.6121      2.7142      2.8694      3.0578      3.2566      3.4437      3.6014      3.7187    
  3.7923      3.8254      3.8261      3.8048      3.7720      3.7366      3.7056      3.6827      3.6690      3.6645    
  3.6690      3.6827      3.6357      3.6655      3.7038      3.7463      3.7864      3.8158      3.8254      3.8069    
  3.7547      3.6676      3.5503      3.4135      3.2725      3.1452      3.0488      2.9969      2.9969      3.0489    
  3.1452      3.2725      3.4135      3.5503      3.6676      3.7547      3.8069      3.8254      3.8158      3.7864    
  3.7463      3.7038      3.6655      3.6357      3.6158      3.6059      3.6059      3.6158      3.5760      3.6030    
  3.6405      3.6869      3.7376      3.7864      3.8261      3.8491      3.8490      3.8221      3.7686      3.6933    
  3.6054      3.5171      3.4417      3.3909      3.3731      3.3910      3.4417      3.5171      3.6054      3.6933    
  3.7686      3.8221      3.8490      3.8491      3.8261      3.7864      3.7376      3.6869      3.6405      3.6030    
  3.5760      3.5598      3.5545      3.5598      3.5280      3.5513      3.5862      3.6320      3.6869      3.7463    
  3.8048      3.8560      3.8939      3.9138      3.9131      3.8925      3.8560      3.8108      3.7656      3.7293    
  3.7092      3.7092      3.7293      3.7656      3.8108      3.8560      3.8925      3.9131      3.9138      3.8939    
  3.8560      3.8048      3.7463      3.6869      3.6320      3.5862      3.5513      3.5280      3.5164      3.5164    
  3.4930      3.5118      3.5430      3.5862      3.6405      3.7038      3.7720      3.8401      3.9029      3.9555    
  3.9944      4.0176      4.0257      4.0214      4.0094      3.9952      3.9843      3.9801      3.9843      3.9952    
  4.0094      4.0214      4.0257      4.0176      3.9944      3.9555      3.9029      3.8401      3.7720      3.7038    
  3.6405      3.5862      3.5430      3.5118      3.4930      3.4868      3.4717      3.4851      3.5118      3.5513    
  3.6030      3.6655      3.7366      3.8128      3.8896      3.9628      4.0283      4.0831      4.1256      4.1556    
  4.1745      4.1849      4.1895      4.1911      4.1911      4.1895      4.1849      4.1745      4.1556      4.1256    
  4.0831      4.0283      3.9628      3.8896      3.8128      3.7366      3.6655      3.6030      3.5513      3.5118    
  3.4851      3.4717      3.4673      3.4744      3.4956      3.5305      3.5784      3.6380      3.7077      3.7856    
  3.8681      3.9516      4.0322      4.1066      4.1721      4.2268      4.2700      4.3019      4.3233      4.3355    
  4.3395      4.3355      4.3233      4.3019      4.2700      4.2268      4.1721      4.1066      4.0322      3.9516    
  3.8681      3.7856      3.7077      3.6380      3.5784      3.5305      3.4956      3.4744      3.4744      3.4744    
  3.4894      3.5190      3.5623      3.6182      3.6850      3.7611      3.8442      3.9316      4.0198      4.1055    
  4.1857      4.2577      4.3193      4.3692      4.4067      4.4316      4.4440      4.4440      4.4316      4.4067    
  4.3692      4.3193      4.2577      4.1857      4.1055      4.0198      3.9316      3.8442      3.7611      3.6850    
  3.6182      3.5623      3.5190      3.4894      3.4956      3.4877      3.4956      3.5190      3.5570      3.6084    
  3.6714      3.7444      3.8253      3.9119      4.0018      4.0919      4.1793      4.2608      4.3339      4.3962    
  4.4461      4.4824      4.5043      4.5117      4.5043      4.4824      4.4461      4.3962      4.3339      4.2608    
  4.1793      4.0919      4.0018      3.9119      3.8253      3.7444      3.6714      3.6084      3.5570      3.5190    
  3.5305      3.5143      3.5143      3.5305      3.5623      3.6084      3.6669      3.7361      3.8137      3.8977    
  3.9859      4.0759      4.1651      4.2505      4.3293      4.3988      4.4568      4.5017      4.5322      4.5476    
  4.5476      4.5322      4.5017      4.4568      4.3988      4.3293      4.2505      4.1651      4.0759      3.9859    
  3.8977      3.8137      3.7361      3.6669      3.6084      3.5623      3.5784      3.5537      3.5454      3.5537    
  3.5784      3.6182      3.6714      3.7361      3.8098      3.8905      3.9759      4.0636      4.1515      4.2369    
  4.3172      4.3898      4.4522      4.5025      4.5394      4.5618      4.5693      4.5618      4.5394      4.5025    
  4.4522      4.3898      4.3172      4.2369      4.1515      4.0636      3.9759      3.8905      3.8098      3.7361    
  3.6714      3.6182      3.6380      3.6052      3.5884      3.5884      3.6052      3.6380      3.6850      3.7444    
  3.8137      3.8905      3.9725      4.0574      4.1428      4.2263      4.3056      4.3783      4.4421      4.4951    
  4.5359      4.5636      4.5775      4.5775      4.5636      4.5359      4.4951      4.4421      4.3783      4.3056    
  4.2263      4.1428      4.0574      3.9725      3.8905      3.8137      3.7444      3.6850      3.7077      3.6676    
  3.6426      3.6341      3.6426      3.6676      3.7077      3.7611      3.8253      3.8977      3.9759      4.0574    
  4.1398      4.2209      4.2982      4.3696      4.4330      4.4867      4.5294      4.5604      4.5791      4.5853    
  4.5791      4.5604      4.5294      4.4867      4.4330      4.3696      4.2982      4.2209      4.1398      4.0574    
  3.9759      3.8977      3.8253      3.7611      3.7856      3.7385      3.7056      3.6886      3.6886      3.7056    
  3.7385      3.7856      3.8442      3.9119      3.9859      4.0636      4.1428      4.2209      4.2957      4.3652    
  4.4274      4.4808      4.5241      4.5569      4.5788      4.5897      4.5897      4.5788      4.5569      4.5241    
  4.4808      4.4274      4.3652      4.2957      4.2209      4.1428      4.0636      3.9859      3.9119      3.8442    
  3.8681      3.8144      3.7733      3.7475      3.7387      3.7475      3.7733      3.8144      3.8681      3.9316    
  4.0018      4.0759      4.1515      4.2263      4.2982      4.3652      4.4256      4.4779      4.5211      4.5547    
  4.5786      4.5928      4.5975      4.5928      4.5786      4.5547      4.5211      4.4778      4.4256      4.3652    
  4.2982      4.2263      4.1515      4.0759      4.0018      3.9316      3.9516      3.8907      3.8408      3.8052    
  3.7867      3.7867      3.8052      3.8408      3.8907      3.9516      4.0198      4.0919      4.1651      4.2369    
  4.3056      4.3696      4.4274      4.4779      4.5201      4.5537      4.5786      4.5950      4.6031      4.6031    
  4.5950      4.5786      4.5537      4.5201      4.4778      4.4274      4.3696      4.3056      4.2369      4.1651    
  4.0919      4.0198      4.0322      3.9631      3.9026      3.8553      3.8250      3.8146      3.8250      3.8553    
  3.9026      3.9631      4.0322      4.1055      4.1793      4.2505      4.3172      4.3783      4.4330      4.4808    
  4.5211      4.5537      4.5787      4.5962      4.6065      4.6099      4.6065      4.5962      4.5787      4.5537    
  4.5211      4.4808      4.4330      4.3783      4.3172      4.2505      4.1793      4.1055      4.1066      4.0277    
  3.9540      3.8916      3.8461      3.8221      3.8221      3.8461      3.8916      3.9540      4.0277      4.1066    
  4.1857      4.2608      4.3293      4.3898      4.4421      4.4867      4.5241      4.5547      4.5786      4.5962    
  4.6077      4.6134      4.6134      4.6077      4.5962      4.5786      4.5547      4.5241      4.4867      4.4421    
  4.3898      4.3293      4.2608      4.1857      4.1721      4.0813      3.9912      3.9093      3.8434      3.8007    
  3.7858      3.8007      3.8434      3.9093      3.9912      4.0813      4.1721      4.2577      4.3339      4.3988    
  4.4522      4.4951      4.5294      4.5569      4.5786      4.5950      4.6065      4.6134      4.6157      4.6134    
  4.6065      4.5950      4.5786      4.5569      4.5294      4.4951      4.4522      4.3988      4.3339      4.2577    
  4.2268      4.1224      4.0125      3.9060      3.8134      3.7447      3.7081      3.7081      3.7447      3.8134    
  3.9060      4.0125      4.1224      4.2268      4.3193      4.3962      4.4568      4.5025      4.5359      4.5604    
  4.5788      4.5928      4.6031      4.6099      4.6134      4.6134      4.6099      4.6031      4.5928      4.5788    
  4.5604      4.5359      4.5025      4.4568      4.3962      4.3193      4.2700      4.1510      4.0184      3.8825    
  3.7562      3.6532      3.5856      3.5621      3.5856      3.6532      3.7562      3.8825      4.0184      4.1510    
  4.2700      4.3692      4.4461      4.5017      4.5394      4.5636      4.5791      4.5897      4.5975      4.6031    
  4.6065      4.6077      4.6065      4.6031      4.5975      4.5897      4.5791      4.5636      4.5394      4.5017    
  4.4461      4.3692      4.3019      4.1685      4.0120      3.8431      3.6769      3.5309      3.4221      3.3639    
  3.3639      3.4221      3.5309      3.6769      3.8431      4.0120      4.1685      4.3019      4.4067      4.4824    
  4.5322      4.5618      4.5775      4.5853      4.5897      4.5928      4.5950      4.5962      4.5962      4.5950    
  4.5928      4.5897      4.5853      4.5775      4.5618      4.5322      4.4824      4.4067      4.3233      4.1776    
  3.9980      3.7950      3.5850      3.3890      3.2287      3.1236      3.0870      3.1236      3.2287      3.3890    
  3.5850      3.7950      3.9980      4.1776      4.3233      4.4316      4.5043      4.5476      4.5693      4.5775    
  4.5791      4.5788      4.5786      4.5786      4.5787      4.5786      4.5786      4.5788      4.5791      4.5775    
  4.5693      4.5476      4.5043      4.4316      4.3355      4.1813      3.9823      3.7473      3.4931      3.2431    
  3.0237      2.8605      2.7733      2.7733      2.8605      3.0237      3.2431      3.4931      3.7473      3.9823    
  4.1813      4.3355      4.4440      4.5117      4.5476      4.5618      4.5636      4.5604      4.5569      4.5547    
  4.5537      4.5537      4.5547      4.5569      4.5604      4.5636      4.5618      4.5476      4.5117      4.4440    
  4.3395      4.1824      3.9703      3.7091      3.4148      3.1117      2.8298      2.6003      2.4503      2.3981    
  2.4503      2.6003      2.8298      3.1117      3.4148      3.7091      3.9702      4.1824      4.3395      4.4440    
  4.5043      4.5322      4.5394      4.5359      4.5294      4.5241      4.5211      4.5201      4.5211      4.5241    
  4.5294      4.5359      4.5394      4.5322      4.5043      4.4440      4.3355      4.1824      3.9658      3.6880    
  3.3622      3.0122      2.6702      2.3718      2.1507      2.0330      2.0330      2.1507      2.3718      2.6702    
  3.0122      3.3622      3.6880      3.9658      4.1824      4.3355      4.4316      4.4824      4.5017      4.5025    
  4.4951      4.4867      4.4808      4.4779      4.4779      4.4808      4.4867      4.4951      4.5025      4.5017    
  4.4824      4.4316      4.3233      4.1813      3.9703      3.6880      3.3437      2.9587      2.5653      2.2019    
  1.9076      1.7160      1.6495      1.7160      1.9076      2.2019      2.5653      2.9587      3.3437      3.6880    
  3.9702      4.1813      4.3233      4.4067      4.4461      4.4568      4.4522      4.4421      4.4330      4.4274    
  4.4256      4.4274      4.4330      4.4421      4.4522      4.4568      4.4461      4.4067      4.3019      4.1776    
  3.9823      3.7091      3.3622      2.9587      2.5287      2.1113      1.7492      1.4821      1.3403      1.3403    
  1.4821      1.7492      2.1113      2.5287      2.9587      3.3622      3.7091      3.9823      4.1776      4.3019    
  4.3692      4.3962      4.3988      4.3898      4.3783      4.3696      4.3652      4.3652      4.3696      4.3783    
  4.3898      4.3988      4.3962      4.3692      4.2700      4.1685      3.9980      3.7473      3.4148      3.0122    
  2.5653      2.1113      1.6942      1.3579      1.1397      1.0640      1.1397      1.3579      1.6942      2.1113    
  2.5653      3.0122      3.4148      3.7473      3.9980      4.1685      4.2700      4.3193      4.3339      4.3293    
  4.3172      4.3056      4.2982      4.2957      4.2982      4.3056      4.3172      4.3293      4.3339      4.3193    
  4.2268      4.1510      4.0120      3.7950      3.4931      3.1117      2.6702      2.2019      1.7492      1.3579    
  1.0701     0.91768     0.91768      1.0701      1.3579      1.7492      2.2019      2.6702      3.1117      3.4931    
  3.7950      4.0120      4.1510      4.2268      4.2577      4.2608      4.2505      4.2369      4.2263      4.2209    
  4.2209      4.2263      4.2369      4.2505      4.2608      4.2577      4.1721      4.1224      4.0184      3.8431    
  3.5850      3.2431      2.8298      2.3718      1.9076      1.4821      1.1397     0.91768     0.84081     0.91768    
  1.1397      1.4821      1.9076      2.3718      2.8298      3.2431      3.5850      3.8431      4.0184      4.1224    
  4.1721      4.1857      4.1793      4.1651      4.1515      4.1428      4.1398      4.1428      4.1515      4.1651    
  4.1793      4.1857      4.1066      4.0813      4.0125      3.8825      3.6769      3.3890      3.0237      2.6003    
  2.1507      1.7160      1.3403      1.0640     0.91768     0.91768      1.0640      1.3403      1.7160      2.1507    
  2.6003      3.0237      3.3890      3.6769      3.8825      4.0125      4.0813      4.1066      4.1055      4.0919    
  4.0759      4.0636      4.0574      4.0574      4.0636      4.0759      4.0919      4.1055      4.0322      4.0277    
  3.9912      3.9060      3.7562      3.5309      3.2287      2.8605      2.4503      2.0330      1.6495      1.3403    
  1.1397      1.0701      1.1397      1.3403      1.6495      2.0330      2.4503      2.8605      3.2287      3.5309    
  3.7562      3.9060      3.9912      4.0277      4.0322      4.0198      4.0018      3.9859      3.9759      3.9725    
  3.9759      3.9859      4.0018      4.0198      3.9516      3.9631      3.9540      3.9093      3.8134      3.6532    
  3.4221      3.1236      2.7733      2.3981      2.0330      1.7160      1.4821      1.3579      1.3579      1.4821    
  1.7160      2.0330      2.3981      2.7733      3.1236      3.4221      3.6532      3.8134      3.9093      3.9540    
  3.9631      3.9516      3.9316      3.9119      3.8977      3.8905      3.8905      3.8977      3.9119      3.9316    
  3.8681      3.8907      3.9026      3.8916      3.8434      3.7447      3.5856      3.3639      3.0870      2.7733    
  2.4503      2.1507      1.9076      1.7492      1.6942      1.7492      1.9076      2.1507      2.4503      2.7733    
  3.0870      3.3639      3.5856      3.7447      3.8434      3.8916      3.9026      3.8907      3.8681      3.8442    
  3.8253      3.8137      3.8098      3.8137      3.8253      3.8442      3.7856      3.8144      3.8408      3.8553    
  3.8461      3.8007      3.7081      3.5621      3.3639      3.1236      2.8605      2.6003      2.3718      2.2019    
  2.1113      2.1113      2.2019      2.3718      2.6003      2.8605      3.1236      3.3639      3.5621      3.7081    
  3.8007      3.8461      3.8553      3.8408      3.8144      3.7856      3.7611      3.7444      3.7361      3.7361    
  3.7444      3.7611      3.7077      3.7385      3.7733      3.8052      3.8250      3.8221      3.7858      3.7081    
  3.5856      3.4221      3.2287      3.0237      2.8298      2.6702      2.5653      2.5287      2.5653      2.6702    
  2.8298      3.0237      3.2287      3.4221      3.5856      3.7081      3.7858      3.8221      3.8250      3.8052    
  3.7733      3.7385      3.7077      3.6850      3.6714      3.6669      3.6714      3.6850      3.6380      3.6676    
  3.7056      3.7475      3.7867      3.8146      3.8221      3.8007      3.7447      3.6532      3.5309      3.3890    
  3.2431      3.1117      3.0122      2.9587      2.9587      3.0122      3.1117      3.2431      3.3890      3.5309    
  3.6532      3.7447      3.8007      3.8221      3.8146      3.7867      3.7475      3.7056      3.6676      3.6380    
  3.6182      3.6084      3.6084      3.6182      3.5784      3.6052      3.6426      3.6886      3.7387      3.7867    
  3.8250      3.8461      3.8434      3.8134      3.7562      3.6769      3.5850      3.4931      3.4148      3.3622    
  3.3437      3.3622      3.4148      3.4931      3.5850      3.6769      3.7562      3.8134      3.8434      3.8461    
  3.8250      3.7867      3.7387      3.6886      3.6426      3.6052      3.5784      3.5623      3.5570      3.5623    
  3.5305      3.5537      3.5884      3.6341      3.6886      3.7475      3.8052      3.8553      3.8916      3.9093    
  3.9060      3.8825      3.8431      3.7950      3.7473      3.7091      3.6880      3.6880      3.7091      3.7473    
  3.7950      3.8431      3.8825      3.9060      3.9093      3.8916      3.8553      3.8052      3.7475      3.6886    
  3.6341      3.5884      3.5537      3.5305      3.5190      3.5190      3.4956      3.5143      3.5454      3.5884    
  3.6426      3.7056      3.7733      3.8408      3.9026      3.9540      3.9912      4.0125      4.0184      4.0120    
  3.9980      3.9823      3.9703      3.9658      3.9703      3.9823      3.9980      4.0120      4.0184      4.0125    
  3.9912      3.9540      3.9026      3.8408      3.7733      3.7056      3.6426      3.5884      3.5454      3.5143    
  3.4956      3.4894      3.4744      3.4877      3.5143      3.5537      3.6052      3.6676      3.7385      3.8144    
  3.8907      3.9631      4.0277      4.0813      4.1224      4.1510      4.1685      4.1776      4.1813      4.1824    
  4.1824      4.1813      4.1776      4.1685      4.1510      4.1224      4.0813      4.0277      3.9631      3.8907    
  3.8144      3.7385      3.6676      3.6052      3.5537      3.5143      3.4877      3.4744      3.4646      3.4717    
  3.4930      3.5280      3.5760      3.6357      3.7056      3.7835      3.8663      3.9501      4.0312      4.1063    
  4.1726      4.2282      4.2723      4.3051      4.3272      4.3399      4.3440      4.3399      4.3272      4.3051    
  4.2723      4.2282      4.1726      4.1063      4.0312      3.9501      3.8663      3.7835      3.7056      3.6357    
  3.5760      3.5280      3.4930      3.4717      3.4717      3.4717      3.4868      3.5164      3.5598      3.6158    
  3.6827      3.7588      3.8420      3.9295      4.0179      4.1040      4.1846      4.2570      4.3192      4.3696    
  4.4076      4.4329      4.4454      4.4454      4.4329      4.4076      4.3696      4.3192      4.2570      4.1846    
  4.1040      4.0179      3.9295      3.8420      3.7588      3.6827      3.6158      3.5598      3.5164      3.4868    
  3.4930      3.4851      3.4930      3.5164      3.5545      3.6059      3.6690      3.7420      3.8229      3.9095    
  3.9995      4.0897      4.1772      4.2590      4.3323      4.3949      4.4451      4.4816      4.5038      4.5112    
  4.5038      4.4816      4.4451      4.3949      4.3323      4.2590      4.1772      4.0897      3.9995      3.9095    
  3.8229      3.7420      3.6690      3.6059      3.5545      3.5164      3.5280      3.5118      3.5118      3.5280    
  3.5598      3.6059      3.6645      3.7336      3.8112      3.8952      3.9834      4.0734      4.1626      4.2480    
  4.3269      4.3965      4.4547      4.4998      4.5304      4.5459      4.5459      4.5304      4.4998      4.4547    
  4.3965      4.3269      4.2480      4.1626      4.0734      3.9834      3.8952      3.8112      3.7336      3.6645    
  3.6059      3.5598      3.5760      3.5513      3.5430      3.5513      3.5760      3.6158      3.6690      3.7336    
  3.8074      3.8880      3.9733      4.0610      4.1488      4.2342      4.3145      4.3871      4.4495      4.4999    
  4.5368      4.5593      4.5669      4.5593      4.5368      4.4999      4.4495      4.3871      4.3145      4.2342    
  4.1488      4.0610      3.9733      3.8880      3.8074      3.7336      3.6690      3.6158      3.6357      3.6030    
  3.5862      3.5862      3.6030      3.6357      3.6827      3.7420      3.8112      3.8880      3.9700      4.0547    
  4.1401      4.2235      4.3028      4.3754      4.4392      4.4923      4.5331      4.5608      4.5748      4.5748    
  4.5608      4.5331      4.4923      4.4392      4.3754      4.3028      4.2235      4.1401      4.0547      3.9700    
  3.8880      3.8112      3.7420      3.6827      3.7056      3.6655      3.6405      3.6320      3.6405      3.6655    
  3.7056      3.7588      3.8229      3.8952      3.9733      4.0547      4.1371      4.2181      4.2954      4.3667    
  4.4301      4.4838      4.5265      4.5575      4.5762      4.5824      4.5762      4.5575      4.5265      4.4838    
  4.4301      4.3667      4.2954      4.2181      4.1371      4.0547      3.9733      3.8952      3.8229      3.7588    
  3.7835      3.7366      3.7038      3.6869      3.6869      3.7038      3.7366      3.7835      3.8420      3.9095    
  3.9834      4.0610      4.1401      4.2181      4.2929      4.3623      4.4245      4.4778      4.5212      4.5540    
  4.5759      4.5868      4.5868      4.5759      4.5540      4.5212      4.4778      4.4245      4.3623      4.2929    
  4.2181      4.1401      4.0610      3.9834      3.9095      3.8420      3.8663      3.8128      3.7720      3.7463    
  3.7376      3.7463      3.7720      3.8128      3.8663      3.9295      3.9995      4.0734      4.1488      4.2235    
  4.2954      4.3623      4.4227      4.4749      4.5182      4.5518      4.5757      4.5899      4.5946      4.5899    
  4.5757      4.5518      4.5182      4.4749      4.4227      4.3623      4.2954      4.2235      4.1488      4.0734    
  3.9995      3.9295      3.9501      3.8896      3.8401      3.8048      3.7864      3.7864      3.8048      3.8401    
  3.8896      3.9501      4.0179      4.0897      4.1626      4.2342      4.3028      4.3667      4.4245      4.4749    
  4.5172      4.5508      4.5757      4.5921      4.6002      4.6002      4.5921      4.5757      4.5508      4.5172    
  4.4749      4.4245      4.3667      4.3028      4.2342      4.1626      4.0897      4.0179      4.0312      3.9628    
  3.9029      3.8560      3.8261      3.8158      3.8261      3.8560      3.9029      3.9628      4.0312      4.1040    
  4.1772      4.2480      4.3145      4.3754      4.4301      4.4778      4.5182      4.5508      4.5758      4.5933    
  4.6036      4.6071      4.6036      4.5933      4.5758      4.5508      4.5182      4.4778      4.4301      4.3754    
  4.3145      4.2480      4.1772      4.1040      4.1063      4.0283      3.9555      3.8939      3.8491      3.8254    
  3.8254      3.8491      3.8939      3.9555      4.0283      4.1063      4.1846      4.2590      4.3269      4.3871    
  4.4392      4.4838      4.5212      4.5518      4.5757      4.5933      4.6048      4.6105      4.6105      4.6048    
  4.5933      4.5757      4.5518      4.5212      4.4838      4.4392      4.3871      4.3269      4.2590      4.1846    
  4.1726      4.0831      3.9944      3.9138      3.8490      3.8069      3.7923      3.8069      3.8490      3.9138    
  3.9944      4.0831      4.1726      4.2570      4.3323      4.3965      4.4495      4.4923      4.5265      4.5540    
  4.5757      4.5921      4.6036      4.6105      4.6128      4.6105      4.6036      4.5921      4.5757      4.5540    
  4.5265      4.4923      4.4495      4.3965      4.3323      4.2570      4.2282      4.1256      4.0176      3.9131    
  3.8221      3.7547      3.7187      3.7187      3.7547      3.8221      3.9131      4.0176      4.1256      4.2282    
  4.3192      4.3949      4.4547      4.4999      4.5331      4.5575      4.5759      4.5899      4.6002      4.6071    
  4.6105      4.6105      4.6071      4.6002      4.5899      4.5759      4.5575      4.5331      4.4999      4.4547    
  4.3949      4.3192      4.2723      4.1556      4.0257      3.8925      3.7686      3.6676      3.6014      3.5783    
  3.6014      3.6676      3.7686      3.8925      4.0257      4.1556      4.2723      4.3696      4.4451      4.4998    
  4.5368      4.5608      4.5762      4.5868      4.5946      4.6002      4.6036      4.6048      4.6036      4.6002    
  4.5946      4.5868      4.5762      4.5608      4.5368      4.4998      4.4451      4.3696      4.3051      4.1745    
  4.0214      3.8560      3.6933      3.5503      3.4437      3.3867      3.3867      3.4437      3.5503      3.6933    
  3.8560      4.0214      4.1745      4.3051      4.4076      4.4816      4.5304      4.5593      4.5748      4.5824    
  4.5868      4.5899      4.5921      4.5933      4.5933      4.5921      4.5899      4.5868      4.5824      4.5748    
  4.5593      4.5304      4.4816      4.4076      4.3272      4.1849      4.0094      3.8108      3.6054      3.4135    
  3.2566      3.1537      3.1178      3.1537      3.2566      3.4135      3.6054      3.8108      4.0094      4.1849    
  4.3272      4.4329      4.5038      4.5459      4.5669      4.5748      4.5762      4.5759      4.5757      4.5757    
  4.5758      4.5757      4.5757      4.5759      4.5762      4.5748      4.5669      4.5459      4.5038      4.4329    
  4.3399      4.1895      3.9952      3.7656      3.5171      3.2725      3.0578      2.8980      2.8127      2.8127    
  2.8980      3.0578      3.2725      3.5171      3.7656      3.9952      4.1895      4.3399      4.4454      4.5112    
  4.5459      4.5593      4.5608      4.5575      4.5540      4.5518      4.5508      4.5508      4.5518      4.5540    
  4.5575      4.5608      4.5593      4.5459      4.5112      4.4454      4.3440      4.1911      3.9843      3.7293    
  3.4417      3.1452      2.8694      2.6448      2.4979      2.4468      2.4979      2.6448      2.8694      3.1452    
  3.4417      3.7293      3.9843      4.1911      4.3440      4.4454      4.5038      4.5304      4.5368      4.5331    
  4.5265      4.5212      4.5182      4.5172      4.5182      4.5212      4.5265      4.5331      4.5368      4.5304    
  4.5038      4.4454      4.3399      4.1911      3.9801      3.7092      3.3910      3.0489      2.7142      2.4222    
  2.2056      2.0904      2.0904      2.2056      2.4222      2.7142      3.0489      3.3909      3.7092      3.9801    
  4.1911      4.3399      4.4329      4.4816      4.4998      4.4999      4.4923      4.4838      4.4778      4.4749    
  4.4749      4.4778      4.4838      4.4923      4.4999      4.4998      4.4816      4.4329      4.3272      4.1895    
  3.9843      3.7092      3.3731      2.9969      2.6121      2.2565      1.9683      1.7806      1.7155      1.7806    
  1.9683      2.2565      2.6121      2.9969      3.3731      3.7092      3.9843      4.1895      4.3272      4.4076    
  4.4451      4.4547      4.4495      4.4392      4.4301      4.4245      4.4227      4.4245      4.4301      4.4392    
  4.4495      4.4547      4.4451      4.4076      4.3051      4.1849      3.9952      3.7293      3.3909      2.9969    
  2.5765      2.1681      1.8136      1.5519      1.4130      1.4130      1.5519      1.8136      2.1681      2.5765    
  2.9969      3.3909      3.7293      3.9952      4.1849      4.3051      4.3696      4.3949      4.3965      4.3871    
  4.3754      4.3667      4.3623      4.3623      4.3667      4.3754      4.3871      4.3965      4.3949      4.3696    
  4.2723      4.1745      4.0094      3.7656      3.4417      3.0488      2.6121      2.1681      1.7598      1.4305    
  1.2167      1.1425      1.2167      1.4305      1.7598      2.1681      2.6121      3.0489      3.4417      3.7656    
  4.0094      4.1745      4.2723      4.3192      4.3323      4.3269      4.3145      4.3028      4.2954      4.2929    
  4.2954      4.3028      4.3145      4.3269      4.3323      4.3192      4.2282      4.1556      4.0214      3.8108    
  3.5171      3.1452      2.7142      2.2565      1.8136      1.4305      1.1486     0.99919     0.99919      1.1486    
  1.4305      1.8136      2.2565      2.7142      3.1452      3.5171      3.8108      4.0214      4.1556      4.2282    
  4.2570      4.2590      4.2480      4.2342      4.2235      4.2181      4.2181      4.2235      4.2342      4.2480    
  4.2590      4.2570      4.1726      4.1256      4.0257      3.8560      3.6054      3.2725      2.8694      2.4222    
  1.9683      1.5519      1.2167     0.99919     0.92387     0.99919      1.2167      1.5519      1.9683      2.4222    
  2.8694      3.2725      3.6054      3.8560      4.0257      4.1256      4.1726      4.1846      4.1772      4.1626    
  4.1488      4.1401      4.1371      4.1401      4.1488      4.1626      4.1772      4.1846      4.1063      4.0831    
  4.0176      3.8925      3.6933      3.4135      3.0578      2.6448      2.2056      1.7806      1.4130      1.1425    
 0.99919     0.99919      1.1425      1.4130      1.7806      2.2056      2.6448      3.0578      3.4135      3.6933    
  3.8925      4.0176      4.0831      4.1063      4.1040      4.0897      4.0734      4.0610      4.0547      4.0547    
  4.0610      4.0734      4.0897      4.1040      4.0312      4.0283      3.9944      3.9131      3.7686      3.5503    
  3.2566      2.8980      2.4979      2.0904      1.7155      1.4130      1.2167      1.1486      1.2167      1.4130    
  1.7155      2.0904      2.4979      2.8980      3.2566      3.5503      3.7686      3.9131      3.9944      4.0283    
  4.0312      4.0179      3.9995      3.9834      3.9733      3.9700      3.9733      3.9834      3.9995      4.0179    
  3.9501      3.9628      3.9555      3.9138      3.8221      3.6676      3.4437      3.1537      2.8127      2.4468    
  2.0904      1.7806      1.5519      1.4305      1.4305      1.5519      1.7806      2.0904      2.4468      2.8127    
  3.1537      3.4437      3.6676      3.8221      3.9138      3.9555      3.9628      3.9501      3.9295      3.9095    
  3.8952      3.8880      3.8880      3.8952      3.9095      3.9295      3.8663      3.8896      3.9029      3.8939    
  3.8490      3.7547      3.6014      3.3867      3.1178      2.8127      2.4979      2.2056      1.9683      1.8136    
  1.7598      1.8136      1.9683      2.2056      2.4979      2.8127      3.1178      3.3867      3.6014      3.7547    
  3.8490      3.8939      3.9029      3.8896      3.8663      3.8420      3.8229      3.8112      3.8074      3.8112    
  3.8229      3.8420      3.7835      3.8128      3.8401      3.8560      3.8491      3.8069      3.7187      3.5783    
  3.3867      3.1537      2.8980      2.6448      2.4222      2.2565      2.1681      2.1681      2.2565      2.4222    
  2.6448      2.8980      3.1537      3.3867      3.5783      3.7187      3.8069      3.8491      3.8560      3.8401    
  3.8128      3.7835      3.7588      3.7420      3.7336      3.7336      3.7420      3.7588      3.7056      3.7366    
  3.7720      3.8048      3.8261      3.8254      3.7923      3.7187      3.6014      3.4437      3.2566      3.0578    
  2.8694      2.7142      2.6121      2.5765      2.6121      2.7142      2.8694      3.0578      3.2566      3.4437    
  3.6014      3.7187      3.7923      3.8254      3.8261      3.8048      3.7720      3.7366      3.7056      3.6827    
  3.6690      3.6645      3.6690      3.6827      3.6357      3.6655      3.7038      3.7463      3.7864      3.8158    
  3.8254      3.8069      3.7547      3.6676      3.5503      3.4135      3.2725      3.1452      3.0488      2.9969    
  2.9969      3.0489      3.1452      3.2725      3.4135      3.5503      3.6676      3.7547      3.8069      3.8254    
  3.8158      3.7864      3.7463      3.7038      3.6655      3.6357      3.6158      3.6059      3.6059      3.6158    
  3.5760      3.6030      3.6405      3.6869      3.7376      3.7864      3.8261      3.8491      3.8490      3.8221    
  3.7686      3.6933      3.6054      3.5171      3.4417      3.3909      3.3731      3.3910      3.4417      3.5171    
  3.6054      3.6933      3.7686      3.8221      3.8490      3.8491      3.8261      3.7864      3.7376      3.6869    
  3.6405      3.6030      3.5760      3.5598      3.5545      3.5598      3.5280      3.5513      3.5862      3.6320    
  3.6869      3.7463      3.8048      3.8560      3.8939      3.9138      3.9131      3.8925      3.8560      3.8108    
  3.7656      3.7293      3.7092      3.7092      3.7293      3.7656      3.8108      3.8560      3.8925      3.9131    
  3.9138      3.8939      3.8560      3.8048      3.7463      3.6869      3.6320      3.5862      3.5513      3.5280    
  3.5164      3.5164      3.4930      3.5118      3.5430      3.5862      3.6405      3.7038      3.7720      3.8401    
  3.9029      3.9555      3.9944      4.0176      4.0257      4.0214      4.0094      3.9952      3.9843      3.9801    
  3.9843      3.9952      4.0094      4.0214      4.0257      4.0176      3.9944      3.9555      3.9029      3.8401    
  3.7720      3.7038      3.6405      3.5862      3.5430      3.5118      3.4930      3.4868      3.4717      3.4851    
  3.5118      3.5513      3.6030      3.6655      3.7366      3.8128      3.8896      3.9628      4.0283      4.0831    
  4.1256      4.1556      4.1745      4.1849      4.1895      4.1911      4.1911      4.1895      4.1849      4.1745    
  4.1556      4.1256      4.0831      4.0283      3.9628      3.8896      3.8128      3.7366      3.6655      3.6030    
  3.5513      3.5118      3.4851      3.4717      3.4566      3.4639      3.4853      3.5206      3.5689      3.6289    
  3.6991      3.7774      3.8608      3.9456      4.0282      4.1051      4.1737      4.2319      4.2787      4.3139    
  4.3381      4.3521      4.3567      4.3521      4.3381      4.3139      4.2786      4.2319      4.1737      4.1051    
  4.0282      3.9456      3.8608      3.7774      3.6991      3.6289      3.5689      3.5206      3.4853      3.4639    
  3.4639      3.4639      3.4790      3.5088      3.5525      3.6086      3.6758      3.7521      3.8355      3.9233    
  4.0123      4.0992      4.1810      4.2548      4.3185      4.3705      4.4099      4.4362      4.4494      4.4494    
  4.4362      4.4099      4.3705      4.3185      4.2548      4.1810      4.0992      4.0123      3.9233      3.8355    
  3.7521      3.6758      3.6086      3.5525      3.5088      3.4790      3.4853      3.4774      3.4853      3.5088    
  3.5470      3.5986      3.6618      3.7349      3.8159      3.9025      3.9926      4.0831      4.1710      4.2534    
  4.3275      4.3910      4.4420      4.4792      4.5019      4.5095      4.5019      4.4792      4.4420      4.3910    
  4.3275      4.2534      4.1710      4.0831      3.9926      3.9025      3.8159      3.7349      3.6618      3.5986    
  3.5470      3.5088      3.5206      3.5043      3.5043      3.5206      3.5525      3.5986      3.6572      3.7264    
  3.8040      3.8879      3.9760      4.0659      4.1552      4.2408      4.3199      4.3899      4.4485      4.4940    
  4.5249      4.5406      4.5406      4.5249      4.4940      4.4485      4.3899      4.3199      4.2408      4.1552    
  4.0659      3.9760      3.8879      3.8040      3.7264      3.6572      3.5986      3.5525      3.5689      3.5442    
  3.5359      3.5442      3.5689      3.6086      3.6618      3.7264      3.8000      3.8806      3.9658      4.0533    
  4.1410      4.2262      4.3065      4.3792      4.4418      4.4923      4.5295      4.5521      4.5597      4.5521    
  4.5295      4.4923      4.4418      4.3792      4.3065      4.2262      4.1410      4.0533      3.9658      3.8806    
  3.8000      3.7264      3.6618      3.6086      3.6289      3.5963      3.5796      3.5796      3.5963      3.6289    
  3.6758      3.7349      3.8040      3.8806      3.9623      4.0469      4.1321      4.2154      4.2945      4.3671    
  4.4308      4.4839      4.5249      4.5526      4.5667      4.5667      4.5526      4.5249      4.4839      4.4308    
  4.3671      4.2945      4.2154      4.1321      4.0469      3.9623      3.8806      3.8040      3.7349      3.6758    
  3.6991      3.6592      3.6344      3.6260      3.6344      3.6592      3.6991      3.7521      3.8159      3.8879    
  3.9658      4.0469      4.1291      4.2099      4.2870      4.3583      4.4216      4.4753      4.5181      4.5491    
  4.5678      4.5741      4.5678      4.5491      4.5181      4.4753      4.4216      4.3583      4.2870      4.2099    
  4.1291      4.0469      3.9658      3.8879      3.8159      3.7521      3.7774      3.7310      3.6985      3.6817    
  3.6817      3.6985      3.7310      3.7774      3.8355      3.9025      3.9760      4.0533      4.1321      4.2099    
  4.2846      4.3539      4.4160      4.4693      4.5128      4.5456      4.5675      4.5785      4.5785      4.5675    
  4.5456      4.5128      4.4693      4.4160      4.3539      4.2846      4.2099      4.1321      4.0533      3.9760    
  3.9025      3.8355      3.8608      3.8081      3.7679      3.7427      3.7341      3.7427      3.7679      3.8081    
  3.8608      3.9233      3.9926      4.0659      4.1410      4.2154      4.2870      4.3539      4.4142      4.4664    
  4.5097      4.5434      4.5673      4.5816      4.5864      4.5816      4.5673      4.5434      4.5097      4.4664    
  4.4142      4.3539      4.2870      4.2154      4.1410      4.0659      3.9926      3.9233      3.9456      3.8863    
  3.8379      3.8034      3.7855      3.7855      3.8034      3.8379      3.8863      3.9456      4.0123      4.0831    
  4.1552      4.2262      4.2945      4.3583      4.4160      4.4664      4.5087      4.5424      4.5674      4.5838    
  4.5920      4.5920      4.5838      4.5674      4.5424      4.5087      4.4664      4.4160      4.3583      4.2945    
  4.2262      4.1552      4.0831      4.0123      4.0282      3.9615      3.9034      3.8579      3.8290      3.8190    
  3.8290      3.8579      3.9034      3.9615      4.0282      4.0992      4.1710      4.2408      4.3065      4.3671    
  4.4216      4.4693      4.5097      4.5424      4.5675      4.5851      4.5954      4.5989      4.5954      4.5851    
  4.5675      4.5424      4.5097      4.4693      4.4216      4.3671      4.3065      4.2408      4.1710      4.0992    
  4.1051      4.0297      3.9597      3.9005      3.8574      3.8347      3.8347      3.8574      3.9005      3.9597    
  4.0297      4.1051      4.1810      4.2534      4.3199      4.3792      4.4308      4.4753      4.5128      4.5434    
  4.5674      4.5851      4.5966      4.6023      4.6023      4.5966      4.5851      4.5674      4.5434      4.5128    
  4.4753      4.4308      4.3792      4.3199      4.2534      4.1810      4.1737      4.0880      4.0032      3.9263    
  3.8645      3.8245      3.8106      3.8245      3.8646      3.9263      4.0032      4.0880      4.1737      4.2548    
  4.3275      4.3899      4.4418      4.4839      4.5181      4.5456      4.5673      4.5838      4.5954      4.6023    
  4.6046      4.6023      4.5954      4.5838      4.5673      4.5456      4.5181      4.4839      4.4418      4.3899    
  4.3275      4.2548      4.2319      4.1344      4.0319      3.9329      3.8467      3.7829      3.7489      3.7489    
  3.7829      3.8467      3.9329      4.0319      4.1344      4.2319      4.3185      4.3910      4.4485      4.4923    
  4.5249      4.5491      4.5675      4.5816      4.5920      4.5989      4.6023      4.6023      4.5989      4.5920    
  4.5816      4.5675      4.5491      4.5249      4.4923      4.4485      4.3910      4.3185      4.2786      4.1685    
  4.0460      3.9205      3.8038      3.7086      3.6463      3.6245      3.6463      3.7086      3.8038      3.9205    
  4.0460      4.1685      4.2787      4.3705      4.4420      4.4940      4.5295      4.5526      4.5678      4.5785    
  4.5864      4.5920      4.5954      4.5966      4.5954      4.5920      4.5864      4.5785      4.5678      4.5526    
  4.5295      4.4940      4.4420      4.3705      4.3139      4.1915      4.0479      3.8928      3.7400      3.6057    
  3.5055      3.4519      3.4519      3.5055      3.6057      3.7400      3.8928      4.0479      4.1915      4.3139    
  4.4099      4.4792      4.5249      4.5521      4.5667      4.5741      4.5785      4.5816      4.5838      4.5851    
  4.5851      4.5838      4.5816      4.5785      4.5741      4.5667      4.5521      4.5249      4.4792      4.4099    
  4.3381      4.2054      4.0416      3.8559      3.6636      3.4836      3.3364      3.2398      3.2062      3.2398    
  3.3364      3.4836      3.6635      3.8559      4.0416      4.2054      4.3381      4.4362      4.5019      4.5406    
  4.5597      4.5667      4.5678      4.5675      4.5673      4.5674      4.5675      4.5674      4.5673      4.5675    
  4.5678      4.5667      4.5597      4.5406      4.5019      4.4362      4.3521      4.2127      4.0320      3.8179    
  3.5857      3.3567      3.1555      3.0056      2.9255      2.9255      3.0056      3.1555      3.3567      3.5857    
  3.8179      4.0320      4.2127      4.3521      4.4494      4.5095      4.5406      4.5521      4.5526      4.5491    
  4.5456      4.5434      4.5424      4.5424      4.5434      4.5456      4.5491      4.5526      4.5521      4.5406    
  4.5095      4.4494      4.3567      4.2157      4.0240      3.7869      3.5186      3.2414      2.9831      2.7725    
  2.6347      2.5867      2.6347      2.7725      2.9831      3.2414      3.5186      3.7869      4.0240      4.2157    
  4.3567      4.4494      4.5019      4.5249      4.5295      4.5249      4.5181      4.5128      4.5097      4.5087    
  4.5097      4.5128      4.5181      4.5249      4.5295      4.5249      4.5019      4.4494      4.3521      4.2157    
  4.0209      3.7695      3.4732      3.1538      2.8407      2.5669      2.3637      2.2554      2.2554      2.3637    
  2.5669      2.8407      3.1538      3.4732      3.7695      4.0209      4.2157      4.3521      4.4362      4.4792    
  4.4940      4.4923      4.4839      4.4753      4.4693      4.4664      4.4664      4.4693      4.4753      4.4839    
  4.4923      4.4940      4.4792      4.4362      4.3381      4.2127      4.0240      3.7695      3.4572      3.1065    
  2.7467      2.4135      2.1431      1.9668      1.9056      1.9668      2.1431      2.4135      2.7467      3.1065    
  3.4572      3.7695      4.0240      4.2127      4.3381      4.4099      4.4420      4.4485      4.4418      4.4308    
  4.4216      4.4160      4.4142      4.4160      4.4216      4.4308      4.4418      4.4485      4.4420      4.4099    
  4.3139      4.2054      4.0320      3.7869      3.4732      3.1065      2.7139      2.3316      1.9991      1.7533    
  1.6227      1.6227      1.7533      1.9991      2.3316      2.7139      3.1065      3.4732      3.7869      4.0320    
  4.2054      4.3139      4.3705      4.3910      4.3899      4.3792      4.3671      4.3583      4.3539      4.3539    
  4.3583      4.3671      4.3792      4.3899      4.3910      4.3705      4.2787      4.1915      4.0416      3.8179    
  3.5186      3.1538      2.7467      2.3316      1.9490      1.6398      1.4388      1.3691      1.4388      1.6398    
  1.9490      2.3316      2.7467      3.1538      3.5186      3.8179      4.0416      4.1915      4.2787      4.3185    
  4.3275      4.3199      4.3065      4.2945      4.2870      4.2846      4.2870      4.2945      4.3065      4.3199    
  4.3275      4.3185      4.2319      4.1685      4.0479      3.8559      3.5857      3.2414      2.8407      2.4135    
  1.9991      1.6398      1.3750      1.2345      1.2345      1.3750      1.6398      1.9991      2.4135      2.8407    
  3.2414      3.5857      3.8559      4.0479      4.1685      4.2319      4.2548      4.2534      4.2408      4.2262    
  4.2154      4.2099      4.2099      4.2154      4.2262      4.2408      4.2534      4.2548      4.1737      4.1344    
  4.0460      3.8928      3.6635      3.3567      2.9831      2.5669      2.1431      1.7533      1.4388      1.2345    
  1.1637      1.2345      1.4388      1.7533      2.1431      2.5669      2.9831      3.3567      3.6635      3.8928    
  4.0460      4.1344      4.1737      4.1810      4.1710      4.1552      4.1410      4.1321      4.1291      4.1321    
  4.1410      4.1552      4.1710      4.1810      4.1051      4.0880      4.0319      3.9205      3.7400      3.4836    
  3.1555      2.7725      2.3637      1.9668      1.6227      1.3691      1.2345      1.2345      1.3691      1.6227    
  1.9668      2.3637      2.7725      3.1555      3.4836      3.7400      3.9205      4.0319      4.0880      4.1051    
  4.0992      4.0831      4.0659      4.0533      4.0469      4.0469      4.0533      4.0659      4.0831      4.0992    
  4.0282      4.0297      4.0032      3.9329      3.8038      3.6057      3.3364      3.0056      2.6347      2.2554    
  1.9056      1.6227      1.4388      1.3750      1.4388      1.6227      1.9056      2.2554      2.6347      3.0056    
  3.3364      3.6057      3.8038      3.9329      4.0032      4.0297      4.0282      4.0123      3.9926      3.9760    
  3.9658      3.9623      3.9658      3.9760      3.9926      4.0123      3.9456      3.9615      3.9597      3.9263    
  3.8467      3.7086      3.5055      3.2398      2.9255      2.5867      2.2554      1.9668      1.7533      1.6398    
  1.6398      1.7533      1.9668      2.2554      2.5867      2.9255      3.2398      3.5055      3.7086      3.8467    
  3.9263      3.9597      3.9615      3.9456      3.9233      3.9025      3.8879      3.8806      3.8806      3.8879    
  3.9025      3.9233      3.8608      3.8863      3.9034      3.9005      3.8646      3.7829      3.6463      3.4519    
  3.2062      2.9255      2.6347      2.3637      2.1431      1.9991      1.9490      1.9991      2.1431      2.3637    
  2.6347      2.9255      3.2062      3.4519      3.6463      3.7829      3.8646      3.9005      3.9034      3.8863    
  3.8608      3.8355      3.8159      3.8040      3.8000      3.8040      3.8159      3.8355      3.7774      3.8081    
  3.8379      3.8579      3.8574      3.8245      3.7489      3.6245      3.4519      3.2398      3.0056      2.7725    
  2.5669      2.4135      2.3316      2.3316      2.4135      2.5669      2.7725      3.0056      3.2398      3.4519    
  3.6245      3.7489      3.8245      3.8574      3.8579      3.8379      3.8081      3.7774      3.7521      3.7349    
  3.7264      3.7264      3.7349      3.7521      3.6991      3.7310      3.7679      3.8034      3.8290      3.8347    
  3.8106      3.7489      3.6463      3.5055      3.3364      3.1555      2.9831      2.8407      2.7467      2.7139    
  2.7467      2.8407      2.9831      3.1555      3.3364      3.5055      3.6463      3.7489      3.8106      3.8347    
  3.8290      3.8034      3.7679      3.7310      3.6991      3.6758      3.6618      3.6572      3.6618      3.6758    
  3.6289      3.6592      3.6985      3.7427      3.7855      3.8190      3.8347      3.8245      3.7829      3.7086    
  3.6057      3.4836      3.3567      3.2414      3.1538      3.1065      3.1065      3.1538      3.2414      3.3567    
  3.4836      3.6057      3.7086      3.7829      3.8245      3.8347      3.8190      3.7855      3.7427      3.6985    
  3.6592      3.6289      3.6086      3.5986      3.5986      3.6086      3.5689      3.5963      3.6344      3.6817    
  3.7341      3.7855      3.8290      3.8574      3.8646      3.8467      3.8038      3.7400      3.6635      3.5857    
  3.5186      3.4732      3.4572      3.4732      3.5186      3.5857      3.6636      3.7400      3.8038      3.8467    
  3.8645      3.8574      3.8290      3.7855      3.7341      3.6817      3.6344      3.5963      3.5689      3.5525    
  3.5470      3.5525      3.5206      3.5442      3.5796      3.6260      3.6817      3.7427      3.8034      3.8579    
  3.9005      3.9263      3.9329      3.9205      3.8928      3.8559      3.8179      3.7869      3.7695      3.7695    
  3.7869      3.8179      3.8559      3.8928      3.9205      3.9329      3.9263      3.9005      3.8579      3.8034    
  3.7427      3.6817      3.6260      3.5796      3.5442      3.5206      3.5088      3.5088      3.4853      3.5043    
  3.5359      3.5796      3.6344      3.6985      3.7679      3.8379      3.9034      3.9597      4.0032      4.0319    
  4.0460      4.0479      4.0416      4.0320      4.0240      4.0209      4.0240      4.0320      4.0416      4.0479    
  4.0460      4.0319      4.0032      3.9597      3.9034      3.8379      3.7679      3.6985      3.6344      3.5796    
  3.5359      3.5043      3.4853      3.4790      3.4639      3.4774      3.5043      3.5442      3.5963      3.6592    
  3.7310      3.8081      3.8863      3.9615      4.0297      4.0880      4.1344      4.1685      4.1915      4.2054    
  4.2127      4.2157      4.2157      4.2127      4.2054      4.1915      4.1685      4.1344      4.0880      4.0297    
  3.9615      3.8863      3.8081      3.7310      3.6592      3.5963      3.5442      3.5043      3.4774      3.4639    
  3.4440      3.4513      3.4731      3.5087      3.5574      3.6179      3.6886      3.7675      3.8518      3.9380    
  4.0227      4.1024      4.1744      4.2364      4.2872      4.3261      4.3534      4.3695      4.3747      4.3695    
  4.3534      4.3261      4.2872      4.2364      4.1744      4.1024      4.0227      3.9380      3.8518      3.7675    
  3.6886      3.6179      3.5574      3.5087      3.4731      3.4513      3.4513      3.4513      3.4666      3.4967    
  3.5406      3.5971      3.6645      3.7411      3.8248      3.9131      4.0030      4.0912      4.1746      4.2505    
  4.3166      4.3710      4.4124      4.4403      4.4544      4.4544      4.4403      4.4124      4.3710      4.3166    
  4.2505      4.1746      4.0912      4.0030      3.9131      3.8248      3.7411      3.6645      3.5971      3.5406    
  3.4967      3.4666      3.4731      3.4651      3.4731      3.4967      3.5350      3.5867      3.6501      3.7233    
  3.8044      3.8911      3.9813      4.0722      4.1608      4.2441      4.3194      4.3842      4.4365      4.4748    
  4.4981      4.5060      4.4981      4.4748      4.4365      4.3842      4.3194      4.2441      4.1608      4.0722    
  3.9813      3.8911      3.8044      3.7233      3.6501      3.5867      3.5350      3.4967      3.5087      3.4925    
  3.4925      3.5087      3.5406      3.5867      3.6454      3.7145      3.7921      3.8760      3.9640      4.0539    
  4.1431      4.2290      4.3085      4.3791      4.4384      4.4845      4.5160      4.5319      4.5319      4.5160    
  4.4845      4.4384      4.3791      4.3085      4.2290      4.1431      4.0539      3.9640      3.8760      3.7921    
  3.7145      3.6454      3.5867      3.5406      3.5574      3.5329      3.5246      3.5329      3.5574      3.5971    
  3.6501      3.7145      3.7880      3.8684      3.9534      4.0408      4.1283      4.2135      4.2937      4.3665    
  4.4294      4.4803      4.5177      4.5406      4.5483      4.5406      4.5177      4.4803      4.4294      4.3665    
  4.2937      4.2135      4.1283      4.0408      3.9534      3.8684      3.7880      3.7145      3.6501      3.5971    
  3.6179      3.5855      3.5689      3.5689      3.5855      3.6179      3.6645      3.7233      3.7921      3.8684    
  3.9499      4.0343      4.1192      4.2024      4.2813      4.3538      4.4176      4.4709      4.5120      4.5399    
  4.5540      4.5540      4.5399      4.5120      4.4709      4.4176      4.3538      4.2813      4.2024      4.1192    
  4.0343      3.9499      3.8684      3.7921      3.7233      3.6645      3.6886      3.6491      3.6246      3.6163    
  3.6246      3.6491      3.6886      3.7411      3.8044      3.8760      3.9534      4.0343      4.1162      4.1968    
  4.2738      4.3449      4.4082      4.4620      4.5049      4.5361      4.5549      4.5612      4.5549      4.5361    
  4.5049      4.4620      4.4082      4.3449      4.2738      4.1968      4.1162      4.0343      3.9534      3.8760    
  3.8044      3.7411      3.7675      3.7217      3.6898      3.6733      3.6733      3.6898      3.7217      3.7675    
  3.8248      3.8911      3.9640      4.0408      4.1192      4.1968      4.2713      4.3405      4.4026      4.4561    
  4.4996      4.5326      4.5547      4.5657      4.5657      4.5547      4.5326      4.4996      4.4561      4.4026    
  4.3405      4.2713      4.1968      4.1192      4.0408      3.9640      3.8911      3.8248      3.8518      3.8002    
  3.7610      3.7364      3.7281      3.7364      3.7610      3.8002      3.8518      3.9131      3.9813      4.0539    
  4.1283      4.2024      4.2738      4.3405      4.4008      4.4532      4.4966      4.5305      4.5546      4.5689    
  4.5737      4.5689      4.5546      4.5305      4.4966      4.4532      4.4008      4.3405      4.2738      4.2024    
  4.1283      4.0539      3.9813      3.9131      3.9380      3.8806      3.8337      3.8005      3.7833      3.7833    
  3.8005      3.8337      3.8806      3.9380      4.0030      4.0722      4.1431      4.2135      4.2813      4.3449    
  4.4026      4.4532      4.4956      4.5295      4.5547      4.5712      4.5794      4.5794      4.5712      4.5547    
  4.5295      4.4956      4.4532      4.4026      4.3449      4.2813      4.2135      4.1431      4.0722      4.0030    
  4.0227      3.9588      3.9032      3.8600      3.8325      3.8231      3.8325      3.8600      3.9032      3.9588    
  4.0227      4.0912      4.1608      4.2290      4.2937      4.3538      4.4082      4.4561      4.4966      4.5295    
  4.5547      4.5724      4.5829      4.5864      4.5829      4.5724      4.5547      4.5295      4.4966      4.4561    
  4.4082      4.3538      4.2937      4.2290      4.1608      4.0912      4.1024      4.0310      3.9651      3.9095    
  3.8692      3.8479      3.8479      3.8692      3.9095      3.9651      4.0310      4.1024      4.1746      4.2441    
  4.3085      4.3665      4.4176      4.4620      4.4996      4.5305      4.5547      4.5724      4.5841      4.5898    
  4.5898      4.5841      4.5724      4.5547      4.5305      4.4996      4.4620      4.4176      4.3665      4.3085    
  4.2441      4.1746      4.1744      4.0943      4.0156      3.9444      3.8873      3.8503      3.8375      3.8503    
  3.8873      3.9444      4.0156      4.0943      4.1744      4.2505      4.3194      4.3791      4.4294      4.4709    
  4.5049      4.5326      4.5546      4.5712      4.5829      4.5898      4.5921      4.5898      4.5829      4.5712    
  4.5546      4.5326      4.5049      4.4709      4.4294      4.3791      4.3194      4.2505      4.2364      4.1466    
  4.0526      3.9620      3.8832      3.8250      3.7939      3.7939      3.8250      3.8832      3.9620      4.0526    
  4.1466      4.2364      4.3166      4.3842      4.4384      4.4803      4.5120      4.5361      4.5547      4.5689    
  4.5794      4.5864      4.5898      4.5898      4.5864      4.5794      4.5689      4.5547      4.5361      4.5120    
  4.4803      4.4384      4.3842      4.3166      4.2872      4.1871      4.0759      3.9621      3.8564      3.7702    
  3.7137      3.6940      3.7137      3.7702      3.8564      3.9621      4.0759      4.1871      4.2872      4.3710    
  4.4365      4.4845      4.5177      4.5399      4.5549      4.5657      4.5737      4.5794      4.5829      4.5841    
  4.5829      4.5794      4.5737      4.5657      4.5549      4.5399      4.5177      4.4845      4.4365      4.3710    
  4.3261      4.2162      4.0871      3.9475      3.8100      3.6890      3.5987      3.5504      3.5504      3.5987    
  3.6890      3.8100      3.9475      4.0871      4.2162      4.3261      4.4124      4.4748      4.5160      4.5406    
  4.5540      4.5612      4.5657      4.5689      4.5712      4.5724      4.5724      4.5712      4.5689      4.5657    
  4.5612      4.5540      4.5406      4.5160      4.4748      4.4124      4.3534      4.2354      4.0893      3.9233    
  3.7510      3.5896      3.4574      3.3706      3.3403      3.3706      3.4574      3.5896      3.7510      3.9233    
  4.0893      4.2354      4.3534      4.4403      4.4981      4.5319      4.5483      4.5540      4.5549      4.5547    
  4.5546      4.5547      4.5547      4.5547      4.5546      4.5547      4.5549      4.5540      4.5483      4.5319    
  4.4981      4.4403      4.3695      4.2467      4.0867      3.8963      3.6891      3.4843      3.3039      3.1693    
  3.0973      3.0973      3.1693      3.3039      3.4843      3.6891      3.8963      4.0867      4.2467      4.3695    
  4.4544      4.5060      4.5319      4.5406      4.5399      4.5361      4.5326      4.5305      4.5295      4.5295    
  4.5305      4.5326      4.5361      4.5399      4.5406      4.5319      4.5060      4.4544      4.3747      4.2519    
  4.0832      3.8733      3.6347      3.3874      3.1562      2.9673      2.8435      2.8004      2.8435      2.9673    
  3.1562      3.3874      3.6347      3.8733      4.0832      4.2519      4.3747      4.4544      4.4981      4.5160    
  4.5177      4.5120      4.5049      4.4996      4.4966      4.4956      4.4966      4.4996      4.5049      4.5120    
  4.5177      4.5160      4.4981      4.4544      4.3695      4.2519      4.0817      3.8602      3.5976      3.3132    
  3.0334      2.7880      2.6056      2.5083      2.5083      2.6056      2.7880      3.0334      3.3132      3.5976    
  3.8602      4.0817      4.2519      4.3695      4.4403      4.4748      4.4845      4.4803      4.4709      4.4620    
  4.4561      4.4532      4.4532      4.4561      4.4620      4.4709      4.4803      4.4845      4.4748      4.4403    
  4.3534      4.2467      4.0832      3.8602      3.5844      3.2730      2.9520      2.6537      2.4111      2.2525    
  2.1974      2.2525      2.4111      2.6537      2.9520      3.2730      3.5844      3.8602      4.0832      4.2467    
  4.3534      4.4124      4.4365      4.4384      4.4294      4.4176      4.4082      4.4026      4.4008      4.4026    
  4.4082      4.4176      4.4294      4.4384      4.4365      4.4124      4.3261      4.2354      4.0867      3.8733    
  3.5976      3.2730      2.9236      2.5819      2.2837      2.0628      1.9452      1.9452      2.0628      2.2837    
  2.5819      2.9236      3.2730      3.5976      3.8733      4.0867      4.2354      4.3261      4.3710      4.3842    
  4.3791      4.3665      4.3538      4.3449      4.3405      4.3405      4.3449      4.3538      4.3665      4.3791    
  4.3842      4.3710      4.2872      4.2162      4.0893      3.8963      3.6347      3.3132      2.9520      2.5819    
  2.2393      1.9617      1.7808      1.7180      1.7808      1.9617      2.2393      2.5819      2.9520      3.3132    
  3.6347      3.8963      4.0893      4.2162      4.2872      4.3166      4.3194      4.3085      4.2937      4.2813    
  4.2738      4.2713      4.2738      4.2813      4.2937      4.3085      4.3194      4.3166      4.2364      4.1871    
  4.0871      3.9233      3.6891      3.3874      3.0334      2.6537      2.2837      1.9617      1.7237      1.5973    
  1.5973      1.7237      1.9617      2.2837      2.6537      3.0334      3.3874      3.6891      3.9233      4.0871    
  4.1871      4.2364      4.2505      4.2441      4.2290      4.2135      4.2024      4.1968      4.1968      4.2024    
  4.2135      4.2290      4.2441      4.2505      4.1744      4.1466      4.0759      3.9475      3.7510      3.4843    
  3.1562      2.7880      2.4111      2.0628      1.7808      1.5973      1.5336      1.5973      1.7808      2.0628    
  2.4111      2.7880      3.1562      3.4843      3.7510      3.9475      4.0759      4.1466      4.1744      4.1746    
  4.1608      4.1431      4.1283      4.1192      4.1162      4.1192      4.1283      4.1431      4.1608      4.1746    
  4.1024      4.0943      4.0526      3.9621      3.8100      3.5896      3.3039      2.9673      2.6056      2.2525    
  1.9452      1.7180      1.5973      1.5973      1.7180      1.9452      2.2525      2.6056      2.9673      3.3039    
  3.5896      3.8100      3.9621      4.0526      4.0943      4.1024      4.0912      4.0722      4.0539      4.0408    
  4.0343      4.0343      4.0408      4.0539      4.0722      4.0912      4.0227      4.0310      4.0156      3.9620    
  3.8564      3.6890      3.4574      3.1693      2.8435      2.5083      2.1974      1.9452      1.7808      1.7237    
  1.7808      1.9452      2.1974      2.5083      2.8435      3.1693      3.4574      3.6890      3.8564      3.9620    
  4.0156      4.0310      4.0227      4.0030      3.9813      3.9640      3.9534      3.9499      3.9534      3.9640    
  3.9813      4.0030      3.9380      3.9588      3.9651      3.9444      3.8832      3.7702      3.5987      3.3706    
  3.0973      2.8004      2.5083      2.2525      2.0628      1.9617      1.9617      2.0628      2.2525      2.5083    
  2.8004      3.0973      3.3706      3.5987      3.7702      3.8832      3.9444      3.9651      3.9588      3.9380    
  3.9131      3.8911      3.8760      3.8684      3.8684      3.8760      3.8911      3.9131      3.8518      3.8806    
  3.9032      3.9095      3.8873      3.8250      3.7137      3.5504      3.3403      3.0973      2.8435      2.6056    
  2.4111      2.2837      2.2393      2.2837      2.4111      2.6056      2.8435      3.0973      3.3403      3.5504    
  3.7137      3.8250      3.8873      3.9095      3.9032      3.8806      3.8518      3.8248      3.8044      3.7921    
  3.7880      3.7921      3.8044      3.8248      3.7675      3.8002      3.8337      3.8600      3.8692      3.8503    
  3.7939      3.6940      3.5504      3.3706      3.1693      2.9673      2.7880      2.6537      2.5819      2.5819    
  2.6537      2.7880      2.9673      3.1693      3.3706      3.5504      3.6940      3.7939      3.8503      3.8692    
  3.8600      3.8337      3.8002      3.7675      3.7411      3.7233      3.7145      3.7145      3.7233      3.7411    
  3.6886      3.7217      3.7610      3.8005      3.8325      3.8479      3.8375      3.7939      3.7137      3.5987    
  3.4574      3.3039      3.1562      3.0334      2.9520      2.9236      2.9520      3.0334      3.1562      3.3039    
  3.4574      3.5987      3.7137      3.7939      3.8375      3.8479      3.8325      3.8005      3.7610      3.7217    
  3.6886      3.6645      3.6501      3.6454      3.6501      3.6645      3.6179      3.6491      3.6898      3.7364    
  3.7833      3.8231      3.8479      3.8503      3.8250      3.7702      3.6890      3.5896      3.4843      3.3874    
  3.3132      3.2730      3.2730      3.3132      3.3874      3.4843      3.5896      3.6890      3.7702      3.8250    
  3.8503      3.8479      3.8231      3.7833      3.7364      3.6898      3.6491      3.6179      3.5971      3.5867    
  3.5867      3.5971      3.5574      3.5855      3.6246      3.6733      3.7281      3.7833      3.8325      3.8692    
  3.8873      3.8832      3.8564      3.8100      3.7510      3.6891      3.6347      3.5976      3.5844      3.5976    
  3.6347      3.6891      3.7510      3.8100      3.8564      3.8832      3.8873      3.8692      3.8325      3.7833    
  3.7281      3.6733      3.6246      3.5855      3.5574      3.5406      3.5350      3.5406      3.5087      3.5329    
  3.5689      3.6163      3.6733      3.7364      3.8005      3.8600      3.9095      3.9444      3.9620      3.9621    
  3.9475      3.9233      3.8963      3.8733      3.8602      3.8602      3.8733      3.8963      3.9233      3.9475    
  3.9621      3.9620      3.9444      3.9095      3.8600      3.8005      3.7364      3.6733      3.6163      3.5689    
  3.5329      3.5087      3.4967      3.4967      3.4731      3.4925      3.5246      3.5689      3.6246      3.6898    
  3.7610      3.8337      3.9032      3.9651      4.0156      4.0526      4.0759      4.0871      4.0893      4.0867    
  4.0832      4.0817      4.0832      4.0867      4.0893      4.0871      4.0759      4.0526      4.0156      3.9651    
  3.9032      3.8337      3.7610      3.6898      3.6246      3.5689      3.5246      3.4925      3.4731      3.4666    
  3.4513      3.4651      3.4925      3.5329      3.5855      3.6491      3.7217      3.8002      3.8806      3.9588    
  4.0310      4.0943      4.1466      4.1871      4.2162      4.2354      4.2467      4.2519      4.2519      4.2467    
  4.2354      4.2162      4.1871      4.1466      4.0943      4.0310      3.9588      3.8806      3.8002      3.7217    
  3.6491      3.5855      3.5329      3.4925      3.4651      3.4513      3.4274      3.4349      3.4569      3.4930    
  3.5422      3.6032      3.6745      3.7540      3.8393      3.9272      4.0143      4.0973      4.1734      4.2400    
  4.2956      4.3390      4.3700      4.3884      4.3946      4.3884      4.3700      4.3390      4.2956      4.2400    
  4.1734      4.0973      4.0143      3.9272      3.8393      3.7540      3.6745      3.6032      3.5422      3.4930    
  3.4569      3.4349      3.4349      3.4349      3.4503      3.4806      3.5248      3.5817      3.6494      3.7263    
  3.8103      3.8992      3.9900      4.0797      4.1652      4.2437      4.3125      4.3697      4.4137      4.4435    
  4.4585      4.4585      4.4435      4.4137      4.3697      4.3125      4.2437      4.1652      4.0797      3.9900    
  3.8992      3.8103      3.7263      3.6494      3.5817      3.5248      3.4806      3.4503      3.4569      3.4489    
  3.4569      3.4806      3.5191      3.5709      3.6345      3.7078      3.7889      3.8758      3.9661      4.0575    
  4.1469      4.2313      4.3080      4.3744      4.4282      4.4678      4.4921      4.5002      4.4921      4.4678    
  4.4282      4.3744      4.3080      4.2313      4.1469      4.0575      3.9661      3.8758      3.7889      3.7078    
  3.6345      3.5709      3.5191      3.4806      3.4930      3.4768      3.4768      3.4930      3.5248      3.5709    
  3.6295      3.6986      3.7761      3.8599      3.9479      4.0377      4.1271      4.2133      4.2934      4.3647    
  4.4248      4.4717      4.5038      4.5201      4.5201      4.5038      4.4717      4.4248      4.3647      4.2934    
  4.2133      4.1271      4.0377      3.9479      3.8599      3.7761      3.6986      3.6295      3.5709      3.5248    
  3.5422      3.5178      3.5096      3.5178      3.5422      3.5817      3.6345      3.6986      3.7719      3.8520    
  3.9369      4.0242      4.1115      4.1967      4.2770      4.3500      4.4133      4.4647      4.5025      4.5257    
  4.5335      4.5257      4.5025      4.4647      4.4133      4.3500      4.2770      4.1967      4.1115      4.0242    
  3.9369      3.8520      3.7719      3.6986      3.6345      3.5817      3.6032      3.5712      3.5548      3.5548    
  3.5712      3.6032      3.6494      3.7078      3.7761      3.8520      3.9332      4.0174      4.1022      4.1852    
  4.2642      4.3367      4.4007      4.4542      4.4956      4.5238      4.5381      4.5381      4.5238      4.4956    
  4.4542      4.4007      4.3367      4.2642      4.1852      4.1022      4.0174      3.9332      3.8520      3.7761    
  3.7078      3.6494      3.6745      3.6356      3.6115      3.6033      3.6115      3.6356      3.6745      3.7263    
  3.7889      3.8599      3.9369      4.0174      4.0990      4.1795      4.2565      4.3277      4.3912      4.4452    
  4.4884      4.5198      4.5388      4.5452      4.5388      4.5198      4.4884      4.4452      4.3912      4.3277    
  4.2565      4.1795      4.0990      4.0174      3.9369      3.8599      3.7889      3.7263      3.7540      3.7092    
  3.6779      3.6619      3.6619      3.6779      3.7092      3.7540      3.8103      3.8758      3.9479      4.0242    
  4.1022      4.1795      4.2539      4.3233      4.3856      4.4393      4.4831      4.5164      4.5387      4.5499    
  4.5499      4.5387      4.5164      4.4831      4.4393      4.3856      4.3233      4.2539      4.1795      4.1022    
  4.0242      3.9479      3.8758      3.8103      3.8393      3.7892      3.7512      3.7275      3.7194      3.7275    
  3.7512      3.7892      3.8393      3.8992      3.9661      4.0377      4.1115      4.1852      4.2565      4.3233    
  4.3837      4.4364      4.4801      4.5143      4.5387      4.5533      4.5581      4.5533      4.5387      4.5143    
  4.4801      4.4364      4.3837      4.3233      4.2565      4.1852      4.1115      4.0377      3.9661      3.8992    
  3.9272      3.8720      3.8272      3.7956      3.7792      3.7792      3.7956      3.8272      3.8720      3.9272    
  3.9900      4.0575      4.1271      4.1967      4.2642      4.3277      4.3856      4.4364      4.4792      4.5134    
  4.5389      4.5556      4.5640      4.5640      4.5556      4.5389      4.5134      4.4792      4.4364      4.3856    
  4.3277      4.2642      4.1967      4.1271      4.0575      3.9900      4.0143      3.9538      3.9015      3.8610    
  3.8354      3.8266      3.8354      3.8610      3.9015      3.9538      4.0143      4.0797      4.1469      4.2133    
  4.2770      4.3367      4.3912      4.4393      4.4801      4.5134      4.5389      4.5569      4.5675      4.5710    
  4.5675      4.5569      4.5389      4.5134      4.4801      4.4393      4.3912      4.3367      4.2770      4.2133    
  4.1469      4.0797      4.0973      4.0309      3.9699      3.9188      3.8819      3.8625      3.8625      3.8819    
  3.9188      3.9699      4.0309      4.0973      4.1652      4.2313      4.2934      4.3500      4.4007      4.4452    
  4.4831      4.5143      4.5389      4.5569      4.5687      4.5745      4.5745      4.5687      4.5569      4.5389    
  4.5143      4.4831      4.4452      4.4007      4.3500      4.2934      4.2313      4.1652      4.1734      4.1002    
  4.0288      3.9645      3.9133      3.8801      3.8686      3.8801      3.9133      3.9645      4.0288      4.1002    
  4.1734      4.2437      4.3080      4.3647      4.4133      4.4542      4.4884      4.5164      4.5387      4.5556    
  4.5675      4.5745      4.5768      4.5745      4.5675      4.5556      4.5387      4.5164      4.4884      4.4542    
  4.4133      4.3647      4.3080      4.2437      4.2400      4.1595      4.0759      3.9955      3.9259      3.8744    
  3.8471      3.8471      3.8744      3.9259      3.9955      4.0759      4.1595      4.2400      4.3125      4.3744    
  4.4248      4.4647      4.4956      4.5198      4.5387      4.5533      4.5640      4.5710      4.5745      4.5745    
  4.5710      4.5640      4.5533      4.5387      4.5198      4.4956      4.4647      4.4248      4.3744      4.3125    
  4.2956      4.2076      4.1102      4.0108      3.9186      3.8434      3.7942      3.7770      3.7942      3.8434    
  3.9186      4.0108      4.1102      4.2076      4.2956      4.3697      4.4282      4.4717      4.5025      4.5238    
  4.5388      4.5499      4.5581      4.5640      4.5675      4.5687      4.5675      4.5640      4.5581      4.5499    
  4.5388      4.5238      4.5025      4.4717      4.4282      4.3697      4.3390      4.2441      4.1326      4.0122    
  3.8935      3.7890      3.7109      3.6691      3.6691      3.7109      3.7890      3.8935      4.0122      4.1326    
  4.2441      4.3390      4.4137      4.4678      4.5038      4.5257      4.5381      4.5452      4.5499      4.5533    
  4.5556      4.5569      4.5569      4.5556      4.5533      4.5499      4.5452      4.5381      4.5257      4.5038    
  4.4678      4.4137      4.3700      4.2698      4.1453      4.0034      3.8559      3.7174      3.6037      3.5290    
  3.5030      3.5290      3.6037      3.7174      3.8559      4.0034      4.1453      4.2698      4.3700      4.4435    
  4.4921      4.5201      4.5335      4.5381      4.5388      4.5387      4.5387      4.5389      4.5389      4.5389    
  4.5387      4.5387      4.5388      4.5381      4.5335      4.5201      4.4921      4.4435      4.3884      4.2859    
  4.1511      3.9897      3.8134      3.6386      3.4842      3.3687      3.3069      3.3069      3.3687      3.4842    
  3.6386      3.8134      3.9897      4.1511      4.2859      4.3884      4.4585      4.5002      4.5201      4.5257    
  4.5238      4.5198      4.5164      4.5143      4.5134      4.5134      4.5143      4.5164      4.5198      4.5238    
  4.5257      4.5201      4.5002      4.4585      4.3946      4.2936      4.1531      3.9766      3.7747      3.5644    
  3.3671      3.2055      3.0993      3.0623      3.0993      3.2055      3.3671      3.5644      3.7747      3.9766    
  4.1531      4.2936      4.3946      4.4585      4.4921      4.5038      4.5025      4.4956      4.4884      4.4831    
  4.4801      4.4792      4.4801      4.4831      4.4884      4.4956      4.5025      4.5038      4.4921      4.4585    
  4.3884      4.2936      4.1535      3.9687      3.7478      3.5069      3.2687      3.0591      2.9028      2.8193    
  2.8193      2.9028      3.0591      3.2687      3.5069      3.7478      3.9687      4.1535      4.2936      4.3884    
  4.4435      4.4678      4.4717      4.4647      4.4542      4.4452      4.4393      4.4364      4.4364      4.4393    
  4.4452      4.4542      4.4647      4.4717      4.4678      4.4435      4.3700      4.2859      4.1531      3.9687    
  3.7381      3.4755      3.2031      2.9488      2.7411      2.6051      2.5577      2.6051      2.7411      2.9488    
  3.2031      3.4755      3.7381      3.9687      4.1531      4.2859      4.3700      4.4137      4.4282      4.4248    
  4.4133      4.4007      4.3912      4.3856      4.3837      4.3856      4.3912      4.4007      4.4133      4.4248    
  4.4282      4.4137      4.3390      4.2698      4.1511      3.9766      3.7478      3.4755      3.1801      2.8895    
  2.6347      2.4453      2.3443      2.3443      2.4453      2.6347      2.8895      3.1801      3.4755      3.7478    
  3.9766      4.1511      4.2698      4.3390      4.3697      4.3744      4.3647      4.3500      4.3367      4.3277    
  4.3233      4.3233      4.3277      4.3367      4.3500      4.3647      4.3744      4.3697      4.2956      4.2441    
  4.1453      3.9897      3.7747      3.5069      3.2031      2.8895      2.5976      2.3600      2.2048      2.1508    
  2.2048      2.3600      2.5976      2.8895      3.2031      3.5069      3.7747      3.9897      4.1453      4.2441    
  4.2956      4.3125      4.3080      4.2934      4.2770      4.2642      4.2565      4.2539      4.2565      4.2642    
  4.2770      4.2934      4.3080      4.3125      4.2400      4.2076      4.1326      4.0034      3.8134      3.5644    
  3.2687      2.9488      2.6347      2.3600      2.1562      2.0477      2.0477      2.1562      2.3600      2.6347    
  2.9488      3.2687      3.5644      3.8134      4.0034      4.1326      4.2076      4.2400      4.2437      4.2313    
  4.2133      4.1967      4.1852      4.1795      4.1795      4.1852      4.1967      4.2133      4.2313      4.2437    
  4.1734      4.1595      4.1102      4.0122      3.8559      3.6386      3.3671      3.0591      2.7411      2.4453    
  2.2048      2.0477      1.9931      2.0477      2.2048      2.4453      2.7411      3.0591      3.3671      3.6386    
  3.8559      4.0122      4.1102      4.1595      4.1734      4.1652      4.1469      4.1271      4.1115      4.1022    
  4.0990      4.1022      4.1115      4.1271      4.1469      4.1652      4.0973      4.1002      4.0759      4.0108    
  3.8935      3.7174      3.4842      3.2055      2.9028      2.6051      2.3443      2.1508      2.0477      2.0477    
  2.1508      2.3443      2.6051      2.9028      3.2055      3.4842      3.7174      3.8935      4.0108      4.0759    
  4.1002      4.0973      4.0797      4.0575      4.0377      4.0242      4.0174      4.0174      4.0242      4.0377    
  4.0575      4.0797      4.0143      4.0309      4.0288      3.9955      3.9186      3.7890      3.6037      3.3687    
  3.0993      2.8193      2.5577      2.3443      2.2048      2.1562      2.2048      2.3443      2.5577      2.8193    
  3.0993      3.3687      3.6037      3.7890      3.9186      3.9955      4.0288      4.0309      4.0143      3.9900    
  3.9661      3.9479      3.9369      3.9332      3.9369      3.9479      3.9661      3.9900      3.9272      3.9538    
  3.9699      3.9645      3.9259      3.8434      3.7109      3.5290      3.3069      3.0623      2.8193      2.6051    
  2.4453      2.3600      2.3600      2.4453      2.6051      2.8193      3.0623      3.3069      3.5290      3.7109    
  3.8434      3.9259      3.9645      3.9699      3.9538      3.9272      3.8992      3.8758      3.8599      3.8520    
  3.8520      3.8599      3.8758      3.8992      3.8393      3.8720      3.9015      3.9188      3.9133      3.8744    
  3.7942      3.6691      3.5030      3.3069      3.0993      2.9028      2.7411      2.6347      2.5976      2.6347    
  2.7411      2.9028      3.0993      3.3069      3.5030      3.6691      3.7942      3.8744      3.9133      3.9188    
  3.9015      3.8720      3.8393      3.8103      3.7889      3.7761      3.7719      3.7761      3.7889      3.8103    
  3.7540      3.7892      3.8272      3.8610      3.8819      3.8801      3.8471      3.7770      3.6691      3.5290    
  3.3687      3.2055      3.0591      2.9488      2.8895      2.8895      2.9488      3.0591      3.2055      3.3687    
  3.5290      3.6691      3.7770      3.8471      3.8801      3.8819      3.8610      3.8272      3.7892      3.7540    
  3.7263      3.7078      3.6986      3.6986      3.7078      3.7263      3.6745      3.7092      3.7512      3.7956    
  3.8354      3.8625      3.8686      3.8471      3.7942      3.7109      3.6037      3.4842      3.3671      3.2687    
  3.2031      3.1801      3.2031      3.2687      3.3671      3.4842      3.6037      3.7109      3.7942      3.8471    
  3.8686      3.8625      3.8354      3.7956      3.7512      3.7092      3.6745      3.6494      3.6345      3.6295    
  3.6345      3.6494      3.6032      3.6356      3.6779      3.7275      3.7792      3.8266      3.8625      3.8801    
  3.8744      3.8434      3.7890      3.7174      3.6386      3.5644      3.5069      3.4755      3.4755      3.5069    
  3.5644      3.6386      3.7174      3.7890      3.8434      3.8744      3.8801      3.8625      3.8266      3.7792    
  3.7275      3.6779      3.6356      3.6032      3.5817      3.5709      3.5709      3.5817      3.5422      3.5712    
  3.6115      3.6619      3.7194      3.7792      3.8354      3.8819      3.9133      3.9259      3.9186      3.8935    
  3.8559      3.8134      3.7747      3.7478      3.7381      3.7478      3.7747      3.8134      3.8559      3.8935    
  3.9186      3.9259      3.9133      3.8819      3.8354      3.7792      3.7194      3.6619      3.6115      3.5712    
  3.5422      3.5248      3.5191      3.5248      3.4930      3.5178      3.5548      3.6033      3.6619      3.7275    
  3.7956      3.8610      3.9188      3.9645      3.9955      4.0108      4.0122      4.0034      3.9897      3.9766    
  3.9687      3.9687      3.9766      3.9897      4.0034      4.0122      4.0108      3.9955      3.9645      3.9188    
  3.8610      3.7956      3.7275      3.6619      3.6033      3.5548      3.5178      3.4930      3.4806      3.4806    
  3.4569      3.4768      3.5096      3.5548      3.6115      3.6779      3.7512      3.8272      3.9015      3.9699    
  4.0288      4.0759      4.1102      4.1326      4.1453      4.1511      4.1531      4.1535      4.1531      4.1511    
  4.1453      4.1326      4.1102      4.0759      4.0288      3.9699      3.9015      3.8272      3.7512      3.6779    
  3.6115      3.5548      3.5096      3.4768      3.4569      3.4503      3.4349      3.4489      3.4768      3.5178    
  3.5712      3.6356      3.7092      3.7892      3.8720      3.9538      4.0309      4.1002      4.1595      4.2076    
  4.2441      4.2698      4.2859      4.2936      4.2936      4.2859      4.2698      4.2441      4.2076      4.1595    
  4.1002      4.0309      3.9538      3.8720      3.7892      3.7092      3.6356      3.5712      3.5178      3.4768    
  3.4489      3.4349      3.4078      3.4154      3.4377      3.4743      3.5240      3.5856      3.6574      3.7375    
  3.8238      3.9134      4.0030      4.0894      4.1697      4.2411      4.3016      4.3498      4.3845      4.4055    
  4.4126      4.4055      4.3845      4.3498      4.3016      4.2411      4.1697      4.0894      4.0030      3.9134    
  3.8238      3.7375      3.6574      3.5856      3.5240      3.4743      3.4377      3.4154      3.4154      3.4154    
  3.4309      3.4614      3.5060      3.5631      3.6312      3.7084      3.7928      3.8821      3.9740      4.0652    
  4.1529      4.2339      4.3057      4.3658      4.4124      4.4441      4.4602      4.4602      4.4441      4.4124    
  4.3658      4.3057      4.2339      4.1529      4.0652      3.9740      3.8821      3.7928      3.7084      3.6312    
  3.5631      3.5060      3.4614      3.4309      3.4377      3.4297      3.4377      3.4614      3.5000      3.5519    
  3.6155      3.6889      3.7702      3.8572      3.9478      4.0396      4.1299      4.2155      4.2937      4.3618    
  4.4172      4.4582      4.4833      4.4918      4.4833      4.4582      4.4172      4.3618      4.2937      4.2155    
  4.1299      4.0396      3.9478      3.8572      3.7702      3.6889      3.6155      3.5519      3.5000      3.4614    
  3.4743      3.4581      3.4581      3.4743      3.5060      3.5519      3.6103      3.6793      3.7567      3.8405    
  3.9285      4.0185      4.1080      4.1946      4.2754      4.3475      4.4086      4.4564      4.4892      4.5059    
  4.5059      4.4892      4.4564      4.4086      4.3475      4.2754      4.1946      4.1080      4.0185      3.9285    
  3.8405      3.7567      3.6793      3.6103      3.5519      3.5060      3.5240      3.4999      3.4917      3.4999    
  3.5240      3.5631      3.6155      3.6793      3.7523      3.8322      3.9170      4.0042      4.0917      4.1769    
  4.2575      4.3309      4.3947      4.4467      4.4851      4.5086      4.5165      4.5086      4.4851      4.4467    
  4.3947      4.3309      4.2575      4.1769      4.0917      4.0042      3.9170      3.8322      3.7523      3.6793    
  3.6155      3.5631      3.5856      3.5540      3.5379      3.5379      3.5540      3.5856      3.6312      3.6889    
  3.7567      3.8322      3.9132      3.9972      4.0819      4.1651      4.2443      4.3171      4.3815      4.4354    
  4.4772      4.5058      4.5203      4.5203      4.5058      4.4772      4.4354      4.3815      4.3171      4.2443    
  4.1651      4.0819      3.9972      3.9132      3.8322      3.7567      3.6889      3.6312      3.6574      3.6192    
  3.5956      3.5876      3.5956      3.6192      3.6574      3.7084      3.7702      3.8405      3.9170      3.9972    
  4.0787      4.1592      4.2364      4.3079      4.3718      4.4263      4.4700      4.5018      4.5211      4.5276    
  4.5211      4.5018      4.4700      4.4263      4.3718      4.3079      4.2364      4.1592      4.0787      3.9972    
  3.9170      3.8405      3.7702      3.7084      3.7375      3.6938      3.6634      3.6478      3.6478      3.6634    
  3.6937      3.7375      3.7928      3.8572      3.9285      4.0042      4.0819      4.1592      4.2338      4.3034    
  4.3662      4.4204      4.4648      4.4986      4.5213      4.5327      4.5327      4.5213      4.4986      4.4648    
  4.4204      4.3662      4.3034      4.2338      4.1592      4.0819      4.0042      3.9285      3.8572      3.7928    
  3.8238      3.7753      3.7387      3.7160      3.7082      3.7160      3.7387      3.7753      3.8238      3.8821    
  3.9478      4.0185      4.0917      4.1651      4.2364      4.3034      4.3643      4.4175      4.4619      4.4966    
  4.5214      4.5363      4.5412      4.5363      4.5214      4.4966      4.4619      4.4175      4.3643      4.3034    
  4.2364      4.1651      4.0917      4.0185      3.9478      3.8821      3.9134      3.8606      3.8180      3.7881    
  3.7727      3.7727      3.7881      3.8180      3.8606      3.9134      3.9740      4.0396      4.1080      4.1769    
  4.2443      4.3079      4.3662      4.4175      4.4609      4.4957      4.5216      4.5387      4.5472      4.5472    
  4.5387      4.5216      4.4957      4.4609      4.4175      4.3662      4.3079      4.2443      4.1769      4.1080    
  4.0396      3.9740      4.0030      3.9460      3.8972      3.8597      3.8360      3.8279      3.8360      3.8597    
  3.8972      3.9460      4.0030      4.0652      4.1299      4.1946      4.2575      4.3171      4.3718      4.4204    
  4.4619      4.4957      4.5217      4.5400      4.5508      4.5544      4.5508      4.5400      4.5217      4.4957    
  4.4619      4.4204      4.3718      4.3171      4.2575      4.1946      4.1299      4.0652      4.0894      4.0281    
  3.9724      3.9261      3.8928      3.8754      3.8754      3.8928      3.9261      3.9724      4.0281      4.0894    
  4.1529      4.2155      4.2754      4.3309      4.3815      4.4263      4.4648      4.4966      4.5216      4.5400    
  4.5520      4.5579      4.5579      4.5520      4.5400      4.5216      4.4966      4.4648      4.4263      4.3815    
  4.3309      4.2754      4.2155      4.1529      4.1697      4.1038      4.0401      3.9833      3.9382      3.9091    
  3.8991      3.9091      3.9382      3.9833      4.0401      4.1038      4.1697      4.2339      4.2937      4.3475    
  4.3947      4.4354      4.4700      4.4986      4.5214      4.5387      4.5508      4.5579      4.5603      4.5579    
  4.5508      4.5387      4.5214      4.4986      4.4700      4.4354      4.3947      4.3475      4.2937      4.2339    
  4.2411      4.1704      4.0977      4.0282      3.9684      3.9244      3.9010      3.9010      3.9244      3.9684    
  4.0282      4.0977      4.1704      4.2411      4.3057      4.3618      4.4086      4.4467      4.4772      4.5018    
  4.5213      4.5363      4.5472      4.5544      4.5579      4.5579      4.5544      4.5472      4.5363      4.5213    
  4.5018      4.4772      4.4467      4.4086      4.3618      4.3057      4.3016      4.2263      4.1436      4.0596    
  3.9819      3.9187      3.8773      3.8629      3.8773      3.9187      3.9819      4.0596      4.1436      4.2263    
  4.3016      4.3658      4.4172      4.4564      4.4851      4.5058      4.5211      4.5327      4.5412      4.5472    
  4.5508      4.5520      4.5508      4.5472      4.5412      4.5327      4.5211      4.5058      4.4851      4.4564    
  4.4172      4.3658      4.3498      4.2706      4.1779      4.0780      3.9795      3.8928      3.8281      3.7935    
  3.7935      3.8281      3.8928      3.9795      4.0780      4.1779      4.2706      4.3498      4.4124      4.4582    
  4.4892      4.5086      4.5203      4.5276      4.5327      4.5363      4.5387      4.5400      4.5400      4.5387    
  4.5363      4.5327      4.5276      4.5203      4.5086      4.4892      4.4582      4.4124      4.3845      4.3031    
  4.2015      4.0856      3.9648      3.8512      3.7578      3.6964      3.6749      3.6964      3.7578      3.8512    
  3.9648      4.0856      4.2015      4.3031      4.3845      4.4441      4.4833      4.5059      4.5165      4.5203    
  4.5211      4.5213      4.5214      4.5216      4.5217      4.5216      4.5214      4.5213      4.5211      4.5203    
  4.5165      4.5059      4.4833      4.4441      4.4055      4.3242      4.2163      4.0862      3.9433      3.8010    
  3.6751      3.5806      3.5300      3.5300      3.5806      3.6751      3.8010      3.9433      4.0862      4.2163    
  4.3242      4.4055      4.4602      4.4918      4.5059      4.5086      4.5058      4.5018      4.4986      4.4966    
  4.4957      4.4957      4.4966      4.4986      4.5018      4.5058      4.5086      4.5059      4.4918      4.4602    
  4.4126      4.3346      4.2241      4.0836      3.9215      3.7516      3.5915      3.4598      3.3731      3.3429    
  3.3731      3.4598      3.5915      3.7516      3.9215      4.0836      4.2241      4.3346      4.4126      4.4602    
  4.4833      4.4892      4.4851      4.4772      4.4700      4.4648      4.4619      4.4609      4.4619      4.4648    
  4.4700      4.4772      4.4851      4.4892      4.4833      4.4602      4.4055      4.3346      4.2265      4.0813    
  3.9055      3.7122      3.5198      3.3496      3.2223      3.1541      3.1541      3.2223      3.3496      3.5198    
  3.7122      3.9055      4.0813      4.2265      4.3346      4.4055      4.4441      4.4582      4.4564      4.4467    
  4.4354      4.4263      4.4204      4.4175      4.4175      4.4204      4.4263      4.4354      4.4467      4.4564    
  4.4582      4.4441      4.3845      4.3242      4.2241      4.0813      3.8997      3.6904      3.4715      3.2657    
  3.0969      2.9860      2.9474      2.9860      3.0969      3.2657      3.4715      3.6904      3.8997      4.0813    
  4.2241      4.3242      4.3845      4.4124      4.4172      4.4086      4.3947      4.3815      4.3718      4.3662    
  4.3643      4.3662      4.3718      4.3815      4.3947      4.4086      4.4172      4.4124      4.3498      4.3031    
  4.2163      4.0836      3.9055      3.6904      3.4544      3.2203      3.0139      2.8598      2.7775      2.7775    
  2.8598      3.0139      3.2203      3.4544      3.6904      3.9055      4.0836      4.2163      4.3031      4.3498    
  4.3658      4.3618      4.3475      4.3309      4.3171      4.3079      4.3034      4.3034      4.3079      4.3171    
  4.3309      4.3475      4.3618      4.3658      4.3016      4.2706      4.2015      4.0862      3.9215      3.7122    
  3.4715      3.2203      2.9849      2.7921      2.6658      2.6217      2.6658      2.7921      2.9849      3.2203    
  3.4715      3.7122      3.9215      4.0862      4.2015      4.2706      4.3016      4.3057      4.2937      4.2754    
  4.2575      4.2443      4.2364      4.2338      4.2364      4.2443      4.2575      4.2754      4.2937      4.3057    
  4.2411      4.2263      4.1779      4.0856      3.9433      3.7516      3.5198      3.2657      3.0139      2.7921    
  2.6268      2.5385      2.5385      2.6268      2.7921      3.0139      3.2657      3.5198      3.7516      3.9433    
  4.0856      4.1779      4.2263      4.2411      4.2339      4.2155      4.1946      4.1769      4.1651      4.1592    
  4.1592      4.1651      4.1769      4.1946      4.2155      4.2339      4.1697      4.1704      4.1436      4.0780    
  3.9648      3.8010      3.5915      3.3496      3.0969      2.8598      2.6658      2.5385      2.4942      2.5385    
  2.6658      2.8598      3.0969      3.3496      3.5915      3.8010      3.9648      4.0780      4.1436      4.1704    
  4.1697      4.1529      4.1299      4.1080      4.0917      4.0819      4.0787      4.0819      4.0917      4.1080    
  4.1299      4.1529      4.0894      4.1038      4.0977      4.0596      3.9795      3.8512      3.6751      3.4598    
  3.2223      2.9860      2.7775      2.6217      2.5385      2.5385      2.6217      2.7775      2.9860      3.2223    
  3.4598      3.6751      3.8512      3.9795      4.0596      4.0977      4.1038      4.0894      4.0652      4.0396    
  4.0185      4.0042      3.9972      3.9972      4.0042      4.0185      4.0396      4.0652      4.0030      4.0281    
  4.0401      4.0282      3.9819      3.8928      3.7578      3.5806      3.3731      3.1541      2.9474      2.7775    
  2.6658      2.6268      2.6658      2.7775      2.9474      3.1541      3.3731      3.5806      3.7578      3.8928    
  3.9819      4.0282      4.0401      4.0281      4.0030      3.9740      3.9478      3.9285      3.9170      3.9132    
  3.9170      3.9285      3.9478      3.9740      3.9134      3.9460      3.9724      3.9833      3.9684      3.9187    
  3.8281      3.6964      3.5300      3.3429      3.1541      2.9860      2.8598      2.7921      2.7921      2.8598    
  2.9860      3.1541      3.3429      3.5300      3.6964      3.8281      3.9187      3.9684      3.9833      3.9724    
  3.9460      3.9134      3.8821      3.8572      3.8405      3.8322      3.8322      3.8405      3.8572      3.8821    
  3.8238      3.8606      3.8972      3.9261      3.9382      3.9244      3.8773      3.7935      3.6749      3.5300    
  3.3731      3.2223      3.0969      3.0139      2.9849      3.0139      3.0969      3.2223      3.3731      3.5300    
  3.6749      3.7935      3.8773      3.9244      3.9382      3.9261      3.8972      3.8606      3.8238      3.7928    
  3.7702      3.7567      3.7523      3.7567      3.7702      3.7928      3.7375      3.7753      3.8180      3.8597    
  3.8928      3.9091      3.9010      3.8629      3.7935      3.6964      3.5806      3.4598      3.3496      3.2657    
  3.2203      3.2203      3.2657      3.3496      3.4598      3.5806      3.6964      3.7935      3.8629      3.9010    
  3.9091      3.8928      3.8597      3.8180      3.7753      3.7375      3.7084      3.6889      3.6793      3.6793    
  3.6889      3.7084      3.6574      3.6937      3.7387      3.7881      3.8360      3.8754      3.8991      3.9010    
  3.8773      3.8281      3.7578      3.6751      3.5915      3.5198      3.4715      3.4544      3.4715      3.5198    
  3.5915      3.6751      3.7578      3.8281      3.8773      3.9010      3.8991      3.8754      3.8360      3.7881    
  3.7387      3.6937      3.6574      3.6312      3.6155      3.6103      3.6155      3.6312      3.5856      3.6192    
  3.6634      3.7160      3.7727      3.8279      3.8754      3.9091      3.9244      3.9187      3.8928      3.8512    
  3.8010      3.7516      3.7122      3.6904      3.6904      3.7122      3.7516      3.8010      3.8512      3.8928    
  3.9187      3.9244      3.9091      3.8754      3.8279      3.7727      3.7160      3.6634      3.6192      3.5856    
  3.5631      3.5519      3.5519      3.5631      3.5240      3.5540      3.5956      3.6478      3.7082      3.7727    
  3.8360      3.8928      3.9382      3.9684      3.9819      3.9795      3.9648      3.9433      3.9215      3.9055    
  3.8997      3.9055      3.9215      3.9433      3.9648      3.9795      3.9819      3.9684      3.9382      3.8928    
  3.8360      3.7727      3.7082      3.6478      3.5956      3.5540      3.5240      3.5060      3.5000      3.5060    
  3.4743      3.4999      3.5379      3.5876      3.6478      3.7160      3.7881      3.8597      3.9261      3.9833    
  4.0282      4.0596      4.0780      4.0856      4.0862      4.0836      4.0813      4.0813      4.0836      4.0862    
  4.0856      4.0780      4.0596      4.0282      3.9833      3.9261      3.8597      3.7881      3.7160      3.6478    
  3.5876      3.5379      3.4999      3.4743      3.4614      3.4614      3.4377      3.4581      3.4917      3.5379    
  3.5956      3.6634      3.7387      3.8180      3.8972      3.9724      4.0401      4.0977      4.1436      4.1779    
  4.2015      4.2163      4.2241      4.2265      4.2241      4.2163      4.2015      4.1779      4.1436      4.0977    
  4.0401      3.9724      3.8972      3.8180      3.7387      3.6634      3.5956      3.5379      3.4917      3.4581    
  3.4377      3.4309      3.4154      3.4297      3.4581      3.4999      3.5540      3.6192      3.6937      3.7753    
  3.8606      3.9460      4.0281      4.1038      4.1704      4.2263      4.2706      4.3031      4.3242      4.3346    
  4.3346      4.3242      4.3031      4.2706      4.2263      4.1704      4.1038      4.0281      3.9460      3.8606    
  3.7753      3.6938      3.6192      3.5540      3.4999      3.4581      3.4297      3.4154      3.3862      3.3938    
  3.4164      3.4534      3.5037      3.5658      3.6382      3.7190      3.8061      3.8972      3.9891      4.0787    
  4.1628      4.2387      4.3039      4.3564      4.3947      4.4181      4.4259      4.4181      4.3947      4.3564    
  4.3039      4.2387      4.1628      4.0787      3.9891      3.8972      3.8061      3.7190      3.6382      3.5658    
  3.5037      3.4534      3.4164      3.3938      3.3938      3.3938      3.4094      3.4401      3.4849      3.5423    
  3.6107      3.6883      3.7731      3.8630      3.9557      4.0484      4.1380      4.2215      4.2960      4.3588    
  4.4078      4.4414      4.4585      4.4585      4.4414      4.4078      4.3588      4.2960      4.2215      4.1380    
  4.0484      3.9557      3.8630      3.7731      3.6883      3.6107      3.5423      3.4849      3.4401      3.4094    
  3.4164      3.4084      3.4164      3.4401      3.4786      3.5305      3.5942      3.6678      3.7492      3.8365    
  3.9275      4.0198      4.1109      4.1977      4.2774      4.3470      4.4039      4.4462      4.4722      4.4810    
  4.4722      4.4462      4.4039      4.3470      4.2774      4.1977      4.1109      4.0198      3.9275      3.8365    
  3.7492      3.6678      3.5942      3.5305      3.4786      3.4401      3.4534      3.4374      3.4374      3.4534    
  3.4849      3.5305      3.5887      3.6576      3.7350      3.8188      3.9070      3.9973      4.0872      4.1743    
  4.2558      4.3288      4.3908      4.4395      4.4730      4.4900      4.4900      4.4730      4.4395      4.3908    
  4.3288      4.2558      4.1743      4.0872      3.9973      3.9070      3.8188      3.7350      3.6576      3.5887    
  3.5305      3.4849      3.5037      3.4798      3.4718      3.4798      3.5037      3.5423      3.5942      3.6576    
  3.7303      3.8101      3.8949      3.9823      4.0700      4.1557      4.2368      4.3107      4.3751      4.4277    
  4.4667      4.4906      4.4987      4.4906      4.4667      4.4277      4.3751      4.3107      4.2368      4.1557    
  4.0700      3.9823      3.8949      3.8101      3.7303      3.6576      3.5942      3.5423      3.5658      3.5348    
  3.5189      3.5189      3.5348      3.5658      3.6107      3.6678      3.7350      3.8101      3.8908      3.9749    
  4.0598      4.1434      4.2230      4.2965      4.3615      4.4160      4.4584      4.4874      4.5022      4.5022    
  4.4874      4.4584      4.4160      4.3615      4.2965      4.2230      4.1434      4.0598      3.9749      3.8908    
  3.8101      3.7350      3.6678      3.6107      3.6382      3.6008      3.5778      3.5700      3.5778      3.6008    
  3.6382      3.6883      3.7492      3.8188      3.8949      3.9749      4.0565      4.1373      4.2149      4.2871    
  4.3517      4.4069      4.4513      4.4837      4.5034      4.5100      4.5034      4.4837      4.4513      4.4069    
  4.3517      4.2871      4.2149      4.1373      4.0565      3.9749      3.8949      3.8188      3.7492      3.6883    
  3.7190      3.6763      3.6468      3.6317      3.6317      3.6468      3.6763      3.7190      3.7731      3.8365    
  3.9070      3.9823      4.0598      4.1373      4.2123      4.2825      4.3459      4.4009      4.4462      4.4807    
  4.5039      4.5156      4.5156      4.5039      4.4807      4.4462      4.4009      4.3459      4.2825      4.2123    
  4.1373      4.0598      3.9823      3.9070      3.8365      3.7731      3.8061      3.7591      3.7239      3.7021    
  3.6947      3.7021      3.7239      3.7591      3.8061      3.8630      3.9275      3.9973      4.0700      4.1434    
  4.2149      4.2825      4.3441      4.3981      4.4432      4.4787      4.5042      4.5194      4.5245      4.5194    
  4.5042      4.4787      4.4432      4.3981      4.3441      4.2825      4.2149      4.1434      4.0700      3.9973    
  3.9275      3.8630      3.8972      3.8466      3.8062      3.7780      3.7634      3.7634      3.7780      3.8062    
  3.8466      3.8972      3.9557      4.0198      4.0872      4.1557      4.2230      4.2871      4.3459      4.3981    
  4.4423      4.4778      4.5044      4.5220      4.5307      4.5307      4.5220      4.5044      4.4778      4.4423    
  4.3981      4.3459      4.2871      4.2230      4.1557      4.0872      4.0198      3.9557      3.9891      3.9354    
  3.8900      3.8552      3.8335      3.8260      3.8335      3.8552      3.8900      3.9354      3.9891      4.0484    
  4.1109      4.1743      4.2368      4.2965      4.3517      4.4009      4.4432      4.4778      4.5045      4.5232    
  4.5344      4.5380      4.5344      4.5232      4.5045      4.4778      4.4432      4.4009      4.3517      4.2965    
  4.2368      4.1743      4.1109      4.0484      4.0787      4.0222      3.9715      3.9298      3.9000      3.8844    
  3.8844      3.9000      3.9298      3.9715      4.0222      4.0787      4.1380      4.1977      4.2558      4.3107    
  4.3615      4.4069      4.4462      4.4787      4.5044      4.5232      4.5356      4.5416      4.5416      4.5356    
  4.5232      4.5044      4.4787      4.4462      4.4069      4.3615      4.3107      4.2558      4.1977      4.1380    
  4.1628      4.1037      4.0474      3.9977      3.9585      3.9334      3.9248      3.9334      3.9585      3.9977    
  4.0474      4.1037      4.1628      4.2215      4.2774      4.3288      4.3751      4.4160      4.4513      4.4807    
  4.5042      4.5220      4.5344      4.5416      4.5440      4.5416      4.5344      4.5220      4.5042      4.4807    
  4.4513      4.4160      4.3751      4.3288      4.2774      4.2215      4.2387      4.1772      4.1148      4.0559    
  4.0056      3.9686      3.9491      3.9491      3.9686      4.0056      4.0559      4.1148      4.1772      4.2387    
  4.2960      4.3470      4.3908      4.4277      4.4584      4.4837      4.5039      4.5194      4.5307      4.5380    
  4.5416      4.5416      4.5380      4.5307      4.5194      4.5039      4.4837      4.4584      4.4277      4.3908    
  4.3470      4.2960      4.3039      4.2405      4.1718      4.1026      4.0389      3.9873      3.9536      3.9419    
  3.9536      3.9873      4.0389      4.1026      4.1718      4.2405      4.3039      4.3588      4.4039      4.4395    
  4.4667      4.4874      4.5034      4.5156      4.5245      4.5307      4.5344      4.5356      4.5344      4.5307    
  4.5245      4.5156      4.5034      4.4874      4.4667      4.4395      4.4039      4.3588      4.3564      4.2921    
  4.2174      4.1372      4.0584      3.9892      3.9375      3.9099      3.9099      3.9375      3.9892      4.0584    
  4.1372      4.2174      4.2921      4.3564      4.4078      4.4462      4.4730      4.4906      4.5022      4.5100    
  4.5156      4.5194      4.5220      4.5232      4.5232      4.5220      4.5194      4.5156      4.5100      4.5022    
  4.4906      4.4730      4.4462      4.4078      4.3947      4.3309      4.2514      4.1606      4.0659      3.9766    
  3.9033      3.8549      3.8380      3.8549      3.9032      3.9766      4.0659      4.1606      4.2514      4.3309    
  4.3947      4.4414      4.4722      4.4900      4.4987      4.5022      4.5034      4.5039      4.5042      4.5044    
  4.5045      4.5044      4.5042      4.5039      4.5034      4.5022      4.4987      4.4900      4.4722      4.4414    
  4.4181      4.3568      4.2747      4.1749      4.0647      3.9546      3.8567      3.7832      3.7437      3.7437    
  3.7832      3.8567      3.9546      4.0647      4.1749      4.2747      4.3568      4.4181      4.4585      4.4810    
  4.4900      4.4906      4.4874      4.4837      4.4807      4.4787      4.4778      4.4778      4.4787      4.4807    
  4.4837      4.4874      4.4906      4.4900      4.4810      4.4585      4.4259      4.3698      4.2880      4.1825    
  4.0594      3.9294      3.8061      3.7043      3.6372      3.6137      3.6372      3.7043      3.8061      3.9294    
  4.0594      4.1825      4.2880      4.3698      4.4259      4.4585      4.4722      4.4730      4.4667      4.4584    
  4.4513      4.4462      4.4432      4.4423      4.4432      4.4462      4.4513      4.4584      4.4667      4.4730    
  4.4722      4.4585      4.4181      4.3698      4.2924      4.1856      4.0541      3.9078      3.7610      3.6303    
  3.5321      3.4795      3.4795      3.5321      3.6303      3.7610      3.9078      4.0541      4.1856      4.2924    
  4.3698      4.4181      4.4414      4.4462      4.4395      4.4277      4.4160      4.4069      4.4009      4.3981    
  4.3981      4.4009      4.4069      4.4160      4.4277      4.4395      4.4462      4.4414      4.3947      4.3568    
  4.2880      4.1856      4.0520      3.8954      3.7298      3.5729      3.4433      3.3579      3.3281      3.3579    
  3.4433      3.5729      3.7298      3.8954      4.0520      4.1856      4.2880      4.3568      4.3947      4.4078    
  4.4039      4.3908      4.3751      4.3615      4.3517      4.3459      4.3441      4.3459      4.3517      4.3615    
  4.3751      4.3908      4.4039      4.4078      4.3564      4.3309      4.2747      4.1825      4.0541      3.8954    
  3.7187      3.5415      3.3839      3.2657      3.2023      3.2023      3.2657      3.3839      3.5415      3.7187    
  3.8954      4.0541      4.1825      4.2747      4.3309      4.3564      4.3588      4.3470      4.3288      4.3107    
  4.2965      4.2871      4.2825      4.2825      4.2871      4.2965      4.3107      4.3288      4.3470      4.3588    
  4.3039      4.2921      4.2514      4.1749      4.0594      3.9078      3.7298      3.5415      3.3631      3.2160    
  3.1191      3.0852      3.1191      3.2160      3.3631      3.5415      3.7298      3.9078      4.0594      4.1749    
  4.2514      4.2921      4.3039      4.2960      4.2774      4.2558      4.2368      4.2230      4.2149      4.2123    
  4.2149      4.2230      4.2368      4.2558      4.2774      4.2960      4.2387      4.2405      4.2174      4.1606    
  4.0647      3.9294      3.7610      3.5729      3.3839      3.2160      3.0899      3.0224      3.0224      3.0899    
  3.2160      3.3839      3.5729      3.7610      3.9294      4.0647      4.1606      4.2174      4.2405      4.2387    
  4.2215      4.1977      4.1743      4.1557      4.1434      4.1373      4.1373      4.1434      4.1557      4.1743    
  4.1977      4.2215      4.1628      4.1772      4.1718      4.1372      4.0659      3.9546      3.8061      3.6303    
  3.4433      3.2657      3.1191      3.0224      2.9886      3.0224      3.1191      3.2657      3.4433      3.6303    
  3.8061      3.9546      4.0659      4.1372      4.1718      4.1772      4.1628      4.1380      4.1109      4.0872    
  4.0700      4.0598      4.0565      4.0598      4.0700      4.0872      4.1109      4.1380      4.0787      4.1037    
  4.1148      4.1026      4.0584      3.9766      3.8567      3.7043      3.5321      3.3579      3.2023      3.0852    
  3.0224      3.0224      3.0852      3.2023      3.3579      3.5321      3.7043      3.8567      3.9766      4.0584    
  4.1026      4.1148      4.1037      4.0787      4.0484      4.0198      3.9973      3.9823      3.9749      3.9749    
  3.9823      3.9973      4.0198      4.0484      3.9891      4.0222      4.0474      4.0559      4.0389      3.9892    
  3.9032      3.7832      3.6372      3.4795      3.3281      3.2023      3.1191      3.0899      3.1191      3.2023    
  3.3281      3.4795      3.6372      3.7832      3.9032      3.9892      4.0389      4.0559      4.0474      4.0222    
  3.9891      3.9557      3.9275      3.9070      3.8949      3.8908      3.8949      3.9070      3.9275      3.9557    
  3.8972      3.9354      3.9715      3.9977      4.0056      3.9873      3.9375      3.8549      3.7437      3.6137    
  3.4795      3.3579      3.2657      3.2160      3.2160      3.2657      3.3579      3.4795      3.6137      3.7437    
  3.8549      3.9375      3.9873      4.0056      3.9977      3.9715      3.9354      3.8972      3.8630      3.8365    
  3.8188      3.8101      3.8101      3.8188      3.8365      3.8630      3.8061      3.8466      3.8900      3.9298    
  3.9585      3.9686      3.9536      3.9099      3.8380      3.7437      3.6372      3.5321      3.4433      3.3839    
  3.3631      3.3839      3.4433      3.5321      3.6372      3.7437      3.8380      3.9099      3.9536      3.9686    
  3.9585      3.9298      3.8900      3.8466      3.8061      3.7731      3.7492      3.7350      3.7303      3.7350    
  3.7492      3.7731      3.7190      3.7591      3.8062      3.8552      3.9000      3.9334      3.9491      3.9419    
  3.9099      3.8549      3.7832      3.7043      3.6303      3.5729      3.5415      3.5415      3.5729      3.6303    
  3.7043      3.7832      3.8549      3.9099      3.9419      3.9491      3.9334      3.9000      3.8552      3.8062    
  3.7591      3.7190      3.6883      3.6678      3.6576      3.6576      3.6678      3.6883      3.6382      3.6763    
  3.7239      3.7780      3.8335      3.8844      3.9248      3.9491      3.9536      3.9375      3.9032      3.8567    
  3.8061      3.7610      3.7298      3.7187      3.7298      3.7610      3.8061      3.8567      3.9033      3.9375    
  3.9536      3.9491      3.9248      3.8844      3.8335      3.7780      3.7239      3.6763      3.6382      3.6107    
  3.5942      3.5887      3.5942      3.6107      3.5658      3.6008      3.6468      3.7021      3.7634      3.8260    
  3.8844      3.9334      3.9686      3.9873      3.9892      3.9766      3.9546      3.9294      3.9078      3.8954    
  3.8954      3.9078      3.9294      3.9546      3.9766      3.9892      3.9873      3.9686      3.9334      3.8844    
  3.8260      3.7634      3.7021      3.6468      3.6008      3.5658      3.5423      3.5305      3.5305      3.5423    
  3.5037      3.5348      3.5778      3.6317      3.6947      3.7634      3.8335      3.9000      3.9585      4.0056    
  4.0389      4.0584      4.0659      4.0647      4.0594      4.0541      4.0520      4.0541      4.0594      4.0647    
  4.0659      4.0584      4.0389      4.0056      3.9585      3.9000      3.8335      3.7634      3.6947      3.6317    
  3.5778      3.5348      3.5037      3.4849      3.4786      3.4849      3.4534      3.4798      3.5189      3.5700    
  3.6317      3.7021      3.7780      3.8552      3.9298      3.9977      4.0559      4.1026      4.1372      4.1606    
  4.1749      4.1825      4.1856      4.1856      4.1825      4.1749      4.1606      4.1372      4.1026      4.0559    
  3.9977      3.9298      3.8552      3.7780      3.7021      3.6317      3.5700      3.5189      3.4798      3.4534    
  3.4401      3.4401      3.4164      3.4374      3.4718      3.5189      3.5778      3.6468      3.7239      3.8062    
  3.8900      3.9715      4.0474      4.1148      4.1718      4.2174      4.2514      4.2747      4.2880      4.2924    
  4.2880      4.2747      4.2514      4.2174      4.1718      4.1148      4.0474      3.9715      3.8900      3.8062    
  3.7239      3.6468      3.5778      3.5189      3.4718      3.4374      3.4164      3.4094      3.3938      3.4084    
  3.4374      3.4798      3.5348      3.6008      3.6763      3.7591      3.8466      3.9354      4.0222      4.1037    
  4.1772      4.2405      4.2921      4.3309      4.3568      4.3698      4.3698      4.3568      4.3309      4.2921    
  4.2405      4.1772      4.1037      4.0222      3.9354      3.8466      3.7591      3.6763      3.6008      3.5348    
  3.4798      3.4374      3.4084      3.3938      3.3634      3.3711      3.3940      3.4314      3.4821      3.5448    
  3.6178      3.6993      3.7873      3.8796      3.9735      4.0657      4.1532      4.2328      4.3019      4.3580    
  4.3994      4.4247      4.4332      4.4247      4.3994      4.3580      4.3019      4.2328      4.1532      4.0657    
  3.9735      3.8796      3.7873      3.6993      3.6178      3.5448      3.4821      3.4314      3.3940      3.3711    
  3.3711      3.3711      3.3868      3.4176      3.4626      3.5203      3.5890      3.6670      3.7524      3.8429    
  3.9365      4.0305      4.1218      4.2073      4.2840      4.3491      4.4001      4.4352      4.4531      4.4531    
  4.4352      4.4001      4.3491      4.2840      4.2073      4.1218      4.0305      3.9365      3.8429      3.7524    
  3.6670      3.5890      3.5203      3.4626      3.4176      3.3868      3.3940      3.3860      3.3940      3.4176    
  3.4561      3.5080      3.5717      3.6454      3.7272      3.8149      3.9064      3.9994      4.0913      4.1792    
  4.2601      4.3310      4.3893      4.4326      4.4593      4.4683      4.4593      4.4326      4.3893      4.3310    
  4.2601      4.1792      4.0913      3.9994      3.9064      3.8149      3.7272      3.6454      3.5717      3.5080    
  3.4561      3.4176      3.4314      3.4155      3.4155      3.4314      3.4626      3.5080      3.5659      3.6346    
  3.7121      3.7962      3.8848      3.9756      4.0661      4.1539      4.2361      4.3100      4.3728      4.4222    
  4.4563      4.4737      4.4737      4.4563      4.4222      4.3728      4.3100      4.2361      4.1539      4.0661    
  3.9756      3.8848      3.7962      3.7121      3.6346      3.5659      3.5080      3.4626      3.4821      3.4586    
  3.4507      3.4586      3.4821      3.5203      3.5717      3.6346      3.7071      3.7869      3.8719      3.9597    
  4.0481      4.1344      4.2162      4.2909      4.3560      4.4093      4.4488      4.4731      4.4813      4.4731    
  4.4488      4.4093      4.3560      4.2909      4.2162      4.1344      4.0481      3.9597      3.8719      3.7869    
  3.7071      3.6346      3.5717      3.5203      3.5448      3.5144      3.4988      3.4988      3.5144      3.5448    
  3.5890      3.6454      3.7121      3.7869      3.8676      3.9519      4.0373      4.1215      4.2019      4.2762    
  4.3421      4.3974      4.4406      4.4701      4.4851      4.4851      4.4701      4.4406      4.3974      4.3421    
  4.2762      4.2019      4.1215      4.0373      3.9519      3.8676      3.7869      3.7121      3.6454      3.5890    
  3.6178      3.5813      3.5587      3.5511      3.5587      3.5813      3.6178      3.6670      3.7272      3.7962    
  3.8719      3.9519      4.0338      4.1151      4.1935      4.2665      4.3321      4.3882      4.4335      4.4667    
  4.4869      4.4937      4.4869      4.4667      4.4335      4.3882      4.3321      4.2665      4.1935      4.1151    
  4.0338      3.9519      3.8719      3.7962      3.7272      3.6670      3.6993      3.6576      3.6289      3.6143    
  3.6143      3.6289      3.6576      3.6993      3.7524      3.8149      3.8848      3.9597      4.0373      4.1151    
  4.1907      4.2617      4.3262      4.3822      4.4284      4.4638      4.4877      4.4997      4.4997      4.4877    
  4.4638      4.4284      4.3822      4.3262      4.2617      4.1907      4.1151      4.0373      3.9597      3.8848    
  3.8149      3.7524      3.7873      3.7416      3.7076      3.6866      3.6794      3.6866      3.7076      3.7416    
  3.7873      3.8429      3.9064      3.9756      4.0481      4.1215      4.1935      4.2617      4.3242      4.3792    
  4.4254      4.4619      4.4881      4.5039      4.5092      4.5039      4.4881      4.4619      4.4254      4.3792    
  4.3242      4.2617      4.1935      4.1215      4.0481      3.9756      3.9064      3.8429      3.8796      3.8309    
  3.7923      3.7655      3.7517      3.7517      3.7655      3.7923      3.8309      3.8796      3.9365      3.9994    
  4.0661      4.1344      4.2019      4.2665      4.3262      4.3792      4.4244      4.4609      4.4883      4.5065    
  4.5155      4.5155      4.5065      4.4883      4.4609      4.4244      4.3792      4.3262      4.2665      4.2019    
  4.1344      4.0661      3.9994      3.9365      3.9735      3.9225      3.8798      3.8475      3.8273      3.8205    
  3.8273      3.8475      3.8798      3.9225      3.9735      4.0305      4.0913      4.1539      4.2162      4.2762    
  4.3321      4.3822      4.4254      4.4609      4.4884      4.5077      4.5192      4.5230      4.5192      4.5077    
  4.4884      4.4609      4.4254      4.3822      4.3321      4.2762      4.2162      4.1539      4.0913      4.0305    
  4.0657      4.0132      3.9667      3.9289      3.9021      3.8882      3.8882      3.9021      3.9289      3.9667    
  4.0132      4.0657      4.1218      4.1792      4.2361      4.2909      4.3421      4.3882      4.4284      4.4619    
  4.4883      4.5077      4.5204      4.5267      4.5267      4.5204      4.5077      4.4883      4.4619      4.4284    
  4.3882      4.3421      4.2909      4.2361      4.1792      4.1218      4.1532      4.0997      4.0497      4.0061    
  3.9721      3.9504      3.9430      3.9504      3.9721      4.0061      4.0497      4.0997      4.1532      4.2073    
  4.2601      4.3100      4.3560      4.3974      4.4335      4.4638      4.4881      4.5065      4.5192      4.5267    
  4.5292      4.5267      4.5192      4.5065      4.4881      4.4638      4.4335      4.3974      4.3560      4.3100    
  4.2601      4.2073      4.2328      4.1791      4.1256      4.0759      4.0337      4.0031      3.9869      3.9869    
  4.0031      4.0337      4.0759      4.1256      4.1791      4.2328      4.2840      4.3310      4.3728      4.4093    
  4.4406      4.4667      4.4877      4.5039      4.5155      4.5230      4.5267      4.5267      4.5230      4.5155    
  4.5039      4.4877      4.4667      4.4406      4.4093      4.3728      4.3310      4.2840      4.3019      4.2487    
  4.1921      4.1358      4.0845      4.0432      4.0163      4.0069      4.0163      4.0432      4.0845      4.1358    
  4.1921      4.2487      4.3019      4.3491      4.3893      4.4222      4.4488      4.4701      4.4869      4.4998    
  4.5092      4.5155      4.5192      4.5204      4.5192      4.5155      4.5092      4.4997      4.4869      4.4701    
  4.4488      4.4222      4.3893      4.3491      4.3580      4.3064      4.2474      4.1846      4.1233      4.0696    
  4.0296      4.0082      4.0082      4.0296      4.0696      4.1233      4.1846      4.2474      4.3064      4.3580    
  4.4001      4.4326      4.4563      4.4731      4.4851      4.4937      4.4998      4.5039      4.5065      4.5077    
  4.5077      4.5065      4.5039      4.4997      4.4937      4.4851      4.4731      4.4563      4.4326      4.4001    
  4.3994      4.3508      4.2905      4.2219      4.1503      4.0830      4.0276      3.9911      3.9783      3.9911    
  4.0276      4.0830      4.1503      4.2219      4.2905      4.3508      4.3994      4.4352      4.4593      4.4737    
  4.4813      4.4851      4.4869      4.4877      4.4881      4.4883      4.4884      4.4883      4.4881      4.4877    
  4.4869      4.4851      4.4813      4.4737      4.4593      4.4352      4.4247      4.3807      4.3211      4.2482    
  4.1673      4.0861      4.0136      3.9591      3.9298      3.9298      3.9591      4.0136      4.0861      4.1673    
  4.2482      4.3211      4.3807      4.4247      4.4531      4.4683      4.4737      4.4731      4.4701      4.4667    
  4.4638      4.4619      4.4609      4.4609      4.4619      4.4638      4.4667      4.4701      4.4731      4.4737    
  4.4683      4.4531      4.4332      4.3958      4.3393      4.2648      4.1767      4.0827      3.9930      3.9186    
  3.8694      3.8521      3.8694      3.9186      3.9930      4.0827      4.1767      4.2648      4.3393      4.3958    
  4.4332      4.4531      4.4593      4.4563      4.4488      4.4406      4.4335      4.4284      4.4254      4.4244    
  4.4254      4.4284      4.4335      4.4406      4.4488      4.4563      4.4593      4.4531      4.4247      4.3958    
  4.3454      4.2727      4.1810      4.0773      3.9720      3.8777      3.8064      3.7681      3.7681      3.8064    
  3.8777      3.9720      4.0773      4.1810      4.2727      4.3454      4.3958      4.4247      4.4352      4.4326    
  4.4222      4.4093      4.3974      4.3882      4.3822      4.3792      4.3792      4.3822      4.3882      4.3974    
  4.4093      4.4222      4.4326      4.4352      4.3994      4.3807      4.3393      4.2727      4.1822      4.0735    
  3.9566      3.8446      3.7514      3.6897      3.6681      3.6897      3.7514      3.8446      3.9566      4.0735    
  4.1822      4.2727      4.3393      4.3807      4.3994      4.4001      4.3893      4.3728      4.3560      4.3421    
  4.3321      4.3262      4.3242      4.3262      4.3321      4.3421      4.3560      4.3728      4.3893      4.4001    
  4.3580      4.3508      4.3211      4.2648      4.1810      4.0735      3.9510      3.8261      3.7140      3.6292    
  3.5836      3.5836      3.6292      3.7140      3.8261      3.9510      4.0735      4.1810      4.2648      4.3211    
  4.3508      4.3580      4.3491      4.3310      4.3100      4.2909      4.2762      4.2665      4.2617      4.2617    
  4.2665      4.2762      4.2909      4.3100      4.3310      4.3491      4.3019      4.3064      4.2905      4.2482    
  4.1767      4.0773      3.9566      3.8261      3.7007      3.5962      3.5270      3.5027      3.5270      3.5962    
  3.7007      3.8261      3.9566      4.0773      4.1767      4.2482      4.2905      4.3064      4.3019      4.2840    
  4.2601      4.2361      4.2162      4.2019      4.1935      4.1907      4.1935      4.2019      4.2162      4.2361    
  4.2601      4.2840      4.2328      4.2487      4.2474      4.2219      4.1673      4.0827      3.9720      3.8446    
  3.7140      3.5962      3.5071      3.4591      3.4591      3.5071      3.5962      3.7140      3.8446      3.9720    
  4.0827      4.1673      4.2219      4.2474      4.2487      4.2328      4.2073      4.1792      4.1539      4.1344    
  4.1215      4.1151      4.1151      4.1215      4.1344      4.1539      4.1792      4.2073      4.1532      4.1791    
  4.1921      4.1846      4.1503      4.0861      3.9930      3.8777      3.7514      3.6292      3.5270      3.4591    
  3.4352      3.4591      3.5270      3.6292      3.7514      3.8777      3.9930      4.0861      4.1503      4.1846    
  4.1921      4.1791      4.1532      4.1218      4.0913      4.0661      4.0481      4.0373      4.0338      4.0373    
  4.0481      4.0661      4.0913      4.1218      4.0657      4.0997      4.1256      4.1358      4.1233      4.0830    
  4.0136      3.9186      3.8064      3.6897      3.5836      3.5027      3.4591      3.4591      3.5027      3.5836    
  3.6897      3.8064      3.9186      4.0136      4.0830      4.1233      4.1358      4.1256      4.0997      4.0657    
  4.0305      3.9994      3.9756      3.9597      3.9519      3.9519      3.9597      3.9756      3.9994      4.0305    
  3.9735      4.0132      4.0497      4.0759      4.0845      4.0696      4.0276      3.9591      3.8694      3.7681    
  3.6681      3.5836      3.5270      3.5071      3.5270      3.5836      3.6681      3.7681      3.8694      3.9591    
  4.0276      4.0696      4.0845      4.0759      4.0497      4.0132      3.9735      3.9365      3.9064      3.8848    
  3.8719      3.8676      3.8719      3.8848      3.9064      3.9365      3.8796      3.9225      3.9667      4.0061    
  4.0337      4.0432      4.0296      3.9911      3.9298      3.8521      3.7681      3.6897      3.6292      3.5962    
  3.5962      3.6292      3.6897      3.7681      3.8521      3.9298      3.9911      4.0296      4.0432      4.0337    
  4.0061      3.9667      3.9225      3.8796      3.8429      3.8149      3.7962      3.7869      3.7869      3.7962    
  3.8149      3.8429      3.7873      3.8309      3.8798      3.9289      3.9721      4.0031      4.0163      4.0082    
  3.9783      3.9298      3.8694      3.8064      3.7514      3.7140      3.7007      3.7140      3.7514      3.8064    
  3.8694      3.9298      3.9783      4.0082      4.0163      4.0031      3.9721      3.9289      3.8798      3.8309    
  3.7873      3.7524      3.7272      3.7121      3.7071      3.7121      3.7272      3.7524      3.6993      3.7416    
  3.7923      3.8475      3.9021      3.9504      3.9869      4.0069      4.0082      3.9911      3.9591      3.9186    
  3.8777      3.8446      3.8261      3.8261      3.8446      3.8777      3.9186      3.9591      3.9911      4.0082    
  4.0069      3.9869      3.9504      3.9021      3.8475      3.7923      3.7416      3.6993      3.6670      3.6454    
  3.6346      3.6346      3.6454      3.6670      3.6178      3.6576      3.7076      3.7655      3.8273      3.8882    
  3.9430      3.9869      4.0163      4.0296      4.0276      4.0136      3.9930      3.9720      3.9566      3.9510    
  3.9566      3.9720      3.9930      4.0136      4.0276      4.0296      4.0163      3.9869      3.9430      3.8882    
  3.8273      3.7655      3.7076      3.6576      3.6178      3.5890      3.5717      3.5659      3.5717      3.5890    
  3.5448      3.5813      3.6289      3.6866      3.7517      3.8205      3.8882      3.9504      4.0031      4.0432    
  4.0696      4.0830      4.0861      4.0827      4.0773      4.0735      4.0735      4.0773      4.0827      4.0861    
  4.0830      4.0696      4.0432      4.0031      3.9504      3.8882      3.8205      3.7517      3.6866      3.6289    
  3.5813      3.5448      3.5203      3.5080      3.5080      3.5203      3.4821      3.5144      3.5587      3.6143    
  3.6794      3.7517      3.8273      3.9021      3.9721      4.0337      4.0845      4.1233      4.1503      4.1673    
  4.1767      4.1810      4.1822      4.1810      4.1767      4.1673      4.1503      4.1233      4.0845      4.0337    
  3.9721      3.9021      3.8273      3.7517      3.6794      3.6143      3.5587      3.5144      3.4821      3.4626    
  3.4561      3.4626      3.4314      3.4586      3.4988      3.5511      3.6143      3.6866      3.7655      3.8475    
  3.9289      4.0061      4.0759      4.1358      4.1846      4.2219      4.2482      4.2648      4.2727      4.2727    
  4.2648      4.2482      4.2219      4.1846      4.1358      4.0759      4.0061      3.9289      3.8475      3.7655    
  3.6866      3.6143      3.5511      3.4988      3.4586      3.4314      3.4176      3.4176      3.3940      3.4155    
  3.4507      3.4988      3.5587      3.6289      3.7076      3.7923      3.8798      3.9667      4.0497      4.1256    
  4.1921      4.2474      4.2905      4.3211      4.3393      4.3454      4.3393      4.3211      4.2905      4.2474    
  4.1921      4.1256      4.0497      3.9667      3.8798      3.7923      3.7076      3.6289      3.5587      3.4988    
  3.4507      3.4155      3.3940      3.3868      3.3711      3.3860      3.4155      3.4586      3.5144      3.5813    
  3.6576      3.7416      3.8309      3.9225      4.0132      4.0997      4.1791      4.2487      4.3064      4.3508    
  4.3807      4.3958      4.3958      4.3807      4.3508      4.3064      4.2487      4.1791      4.0997      4.0132    
  3.9225      3.8309      3.7416      3.6576      3.5813      3.5144      3.4586      3.4155      3.3860      3.3711    
  3.3405      3.3483      3.3715      3.4092      3.4604      3.5237      3.5974      3.6797      3.7686      3.8620    
  3.9573      4.0516      4.1416      4.2241      4.2961      4.3550      4.3986      4.4254      4.4344      4.4254    
  4.3986      4.3550      4.2961      4.2241      4.1416      4.0516      3.9573      3.8620      3.7686      3.6797    
  3.5974      3.5237      3.4604      3.4092      3.3715      3.3483      3.3483      3.3483      3.3641      3.3950    
  3.4401      3.4981      3.5673      3.6459      3.7319      3.8233      3.9178      4.0128      4.1054      4.1925    
  4.2709      4.3376      4.3901      4.4263      4.4448      4.4448      4.4263      4.3901      4.3376      4.2709    
  4.1925      4.1054      4.0128      3.9178      3.8233      3.7319      3.6459      3.5673      3.4981      3.4401    
  3.3950      3.3641      3.3715      3.3635      3.3715      3.3950      3.4333      3.4852      3.5491      3.6231    
  3.7054      3.7938      3.8861      3.9799      4.0726      4.1613      4.2432      4.3151      4.3743      4.4184    
  4.4456      4.4548      4.4456      4.4184      4.3743      4.3151      4.2432      4.1613      4.0726      3.9799    
  3.8861      3.7938      3.7054      3.6231      3.5491      3.4852      3.4333      3.3950      3.4092      3.3934    
  3.3934      3.4092      3.4401      3.4852      3.5430      3.6117      3.6894      3.7740      3.8632      3.9547    
  4.0461      4.1347      4.2177      4.2923      4.3558      4.4059      4.4404      4.4581      4.4581      4.4404    
  4.4059      4.3558      4.2923      4.2177      4.1347      4.0461      3.9547      3.8632      3.7740      3.6894    
  3.6117      3.5430      3.4852      3.4401      3.4604      3.4373      3.4294      3.4373      3.4604      3.4981    
  3.5491      3.6117      3.6841      3.7641      3.8495      3.9380      4.0271      4.1143      4.1970      4.2726    
  4.3385      4.3925      4.4326      4.4573      4.4656      4.4573      4.4326      4.3925      4.3385      4.2726    
  4.1970      4.1143      4.0271      3.9380      3.8495      3.7641      3.6841      3.6117      3.5491      3.4981    
  3.5237      3.4938      3.4785      3.4785      3.4938      3.5237      3.5673      3.6231      3.6894      3.7641    
  3.8449      3.9296      4.0157      4.1007      4.1821      4.2574      4.3243      4.3806      4.4246      4.4547    
  4.4700      4.4700      4.4547      4.4246      4.3806      4.3243      4.2574      4.1821      4.1007      4.0157    
  3.9296      3.8449      3.7641      3.6894      3.6231      3.5673      3.5974      3.5615      3.5395      3.5320    
  3.5395      3.5615      3.5974      3.6459      3.7054      3.7740      3.8495      3.9296      4.0120      4.0940    
  4.1732      4.2473      4.3140      4.3713      4.4176      4.4516      4.4724      4.4794      4.4724      4.4516    
  4.4176      4.3713      4.3140      4.2473      4.1732      4.0940      4.0120      3.9296      3.8495      3.7740    
  3.7054      3.6459      3.6797      3.6389      3.6108      3.5965      3.5965      3.6108      3.6389      3.6797    
  3.7319      3.7938      3.8632      3.9380      4.0157      4.0940      4.1703      4.2423      4.3078      4.3650    
  4.4124      4.4488      4.4735      4.4860      4.4860      4.4735      4.4488      4.4124      4.3650      4.3078    
  4.2423      4.1703      4.0940      4.0157      3.9380      3.8632      3.7938      3.7319      3.7686      3.7239    
  3.6907      3.6703      3.6634      3.6703      3.6907      3.7239      3.7686      3.8233      3.8861      3.9547    
  4.0271      4.1007      4.1732      4.2423      4.3058      4.3619      4.4093      4.4468      4.4740      4.4903    
  4.4958      4.4903      4.4740      4.4468      4.4093      4.3619      4.3058      4.2423      4.1732      4.1007    
  4.0271      3.9547      3.8861      3.8233      3.8620      3.8146      3.7772      3.7515      3.7383      3.7383    
  3.7515      3.7772      3.8146      3.8620      3.9178      3.9799      4.0461      4.1143      4.1821      4.2473    
  4.3078      4.3619      4.4082      4.4458      4.4741      4.4930      4.5024      4.5024      4.4930      4.4741    
  4.4458      4.4082      4.3619      4.3078      4.2473      4.1821      4.1143      4.0461      3.9799      3.9178    
  3.9573      3.9083      3.8676      3.8371      3.8181      3.8117      3.8181      3.8371      3.8676      3.9083    
  3.9573      4.0128      4.0726      4.1347      4.1970      4.2574      4.3140      4.3650      4.4093      4.4458    
  4.4741      4.4942      4.5061      4.5101      4.5061      4.4942      4.4741      4.4458      4.4093      4.3650    
  4.3140      4.2574      4.1970      4.1347      4.0726      4.0128      4.0516      4.0020      3.9587      3.9239    
  3.8994      3.8867      3.8867      3.8994      3.9239      3.9587      4.0020      4.0516      4.1054      4.1613    
  4.2177      4.2726      4.3243      4.3713      4.4124      4.4468      4.4741      4.4942      4.5073      4.5138    
  4.5138      4.5073      4.4942      4.4741      4.4468      4.4124      4.3713      4.3243      4.2726      4.2177    
  4.1613      4.1054      4.1416      4.0924      4.0471      4.0083      3.9783      3.9593      3.9528      3.9593    
  3.9783      4.0083      4.0471      4.0924      4.1416      4.1925      4.2432      4.2923      4.3385      4.3806    
  4.4176      4.4488      4.4740      4.4930      4.5061      4.5138      4.5164      4.5138      4.5061      4.4930    
  4.4740      4.4488      4.4176      4.3806      4.3385      4.2923      4.2432      4.1925      4.2241      4.1763    
  4.1298      4.0872      4.0516      4.0259      4.0124      4.0124      4.0259      4.0516      4.0872      4.1298    
  4.1763      4.2241      4.2709      4.3151      4.3558      4.3925      4.4246      4.4516      4.4735      4.4903    
  4.5024      4.5101      4.5138      4.5138      4.5101      4.5024      4.4903      4.4735      4.4516      4.4246    
  4.3925      4.3558      4.3151      4.2709      4.2961      4.2508      4.2037      4.1577      4.1163      4.0833    
  4.0619      4.0545      4.0619      4.0833      4.1163      4.1577      4.2037      4.2508      4.2961      4.3376    
  4.3743      4.4059      4.4326      4.4547      4.4724      4.4860      4.4958      4.5024      4.5061      4.5073    
  4.5061      4.5024      4.4958      4.4860      4.4724      4.4547      4.4326      4.4059      4.3743      4.3376    
  4.3550      4.3133      4.2667      4.2179      4.1707      4.1297      4.0992      4.0830      4.0830      4.0992    
  4.1297      4.1707      4.2179      4.2667      4.3133      4.3550      4.3901      4.4184      4.4404      4.4573    
  4.4700      4.4794      4.4860      4.4903      4.4930      4.4942      4.4942      4.4930      4.4903      4.4860    
  4.4794      4.4700      4.4573      4.4404      4.4184      4.3901      4.3986      4.3619      4.3170      4.2663    
  4.2137      4.1644      4.1239      4.0972      4.0879      4.0972      4.1239      4.1644      4.2137      4.2663    
  4.3170      4.3619      4.3986      4.4263      4.4456      4.4581      4.4656      4.4700      4.4724      4.4735    
  4.4740      4.4741      4.4741      4.4741      4.4740      4.4735      4.4724      4.4700      4.4656      4.4581    
  4.4456      4.4263      4.4254      4.3950      4.3535      4.3024      4.2455      4.1882      4.1370      4.0984    
  4.0776      4.0776      4.0984      4.1370      4.1882      4.2455      4.3024      4.3535      4.3950      4.4254    
  4.4448      4.4548      4.4581      4.4573      4.4547      4.4516      4.4488      4.4468      4.4458      4.4458    
  4.4468      4.4488      4.4516      4.4547      4.4573      4.4581      4.4548      4.4448      4.4344      4.4118    
  4.3755      4.3262      4.2670      4.2030      4.1414      4.0901      4.0560      4.0440      4.0560      4.0901    
  4.1414      4.2030      4.2670      4.3262      4.3755      4.4118      4.4344      4.4448      4.4456      4.4404    
  4.4326      4.4246      4.4176      4.4124      4.4093      4.4082      4.4093      4.4124      4.4176      4.4246    
  4.4326      4.4404      4.4456      4.4448      4.4254      4.4118      4.3829      4.3380      4.2792      4.2110    
  4.1408      4.0771      4.0287      4.0026      4.0026      4.0287      4.0771      4.1408      4.2110      4.2792    
  4.3380      4.3829      4.4118      4.4254      4.4263      4.4184      4.4059      4.3925      4.3806      4.3713    
  4.3650      4.3619      4.3619      4.3650      4.3713      4.3806      4.3925      4.4059      4.4184      4.4263    
  4.3986      4.3950      4.3755      4.3380      4.2831      4.2144      4.1386      4.0647      4.0026      3.9612    
  3.9466      3.9612      4.0026      4.0647      4.1386      4.2144      4.2831      4.3380      4.3755      4.3950    
  4.3986      4.3901      4.3743      4.3558      4.3385      4.3243      4.3140      4.3078      4.3058      4.3078    
  4.3140      4.3243      4.3385      4.3558      4.3743      4.3901      4.3550      4.3619      4.3535      4.3262    
  4.2792      4.2144      4.1376      4.0573      3.9840      3.9279      3.8976      3.8976      3.9279      3.9840    
  4.0573      4.1376      4.2144      4.2792      4.3262      4.3535      4.3619      4.3550      4.3376      4.3151    
  4.2923      4.2726      4.2574      4.2473      4.2423      4.2423      4.2473      4.2574      4.2726      4.2923    
  4.3151      4.3376      4.2961      4.3133      4.3170      4.3024      4.2670      4.2110      4.1386      4.0573    
  3.9772      3.9095      3.8641      3.8482      3.8641      3.9095      3.9772      4.0573      4.1386      4.2110    
  4.2670      4.3024      4.3170      4.3133      4.2961      4.2709      4.2432      4.2177      4.1970      4.1821    
  4.1732      4.1703      4.1732      4.1821      4.1970      4.2177      4.2432      4.2709      4.2241      4.2508    
  4.2667      4.2663      4.2455      4.2030      4.1408      4.0647      3.9840      3.9095      3.8523      3.8212    
  3.8212      3.8523      3.9095      3.9840      4.0647      4.1408      4.2030      4.2455      4.2663      4.2667    
  4.2508      4.2241      4.1925      4.1613      4.1347      4.1143      4.1007      4.0940      4.0940      4.1007    
  4.1143      4.1347      4.1613      4.1925      4.1416      4.1763      4.2037      4.2179      4.2137      4.1882    
  4.1414      4.0771      4.0026      3.9279      3.8641      3.8212      3.8060      3.8212      3.8641      3.9279    
  4.0026      4.0771      4.1414      4.1882      4.2137      4.2179      4.2037      4.1763      4.1416      4.1054    
  4.0726      4.0461      4.0271      4.0157      4.0120      4.0157      4.0271      4.0461      4.0726      4.1054    
  4.0516      4.0924      4.1298      4.1577      4.1707      4.1644      4.1370      4.0901      4.0287      3.9612    
  3.8976      3.8482      3.8212      3.8212      3.8482      3.8976      3.9612      4.0287      4.0901      4.1370    
  4.1644      4.1707      4.1577      4.1298      4.0924      4.0516      4.0128      3.9799      3.9547      3.9380    
  3.9296      3.9296      3.9380      3.9547      3.9799      4.0128      3.9573      4.0020      4.0471      4.0872    
  4.1163      4.1297      4.1239      4.0984      4.0560      4.0026      3.9466      3.8976      3.8641      3.8523    
  3.8641      3.8976      3.9466      4.0026      4.0560      4.0984      4.1239      4.1297      4.1163      4.0872    
  4.0471      4.0020      3.9573      3.9178      3.8861      3.8632      3.8495      3.8449      3.8495      3.8632    
  3.8861      3.9178      3.8620      3.9083      3.9587      4.0083      4.0516      4.0833      4.0992      4.0972    
  4.0776      4.0440      4.0026      3.9612      3.9279      3.9095      3.9095      3.9279      3.9612      4.0026    
  4.0440      4.0776      4.0972      4.0992      4.0833      4.0516      4.0083      3.9587      3.9083      3.8620    
  3.8233      3.7938      3.7740      3.7641      3.7641      3.7740      3.7938      3.8233      3.7686      3.8146    
  3.8676      3.9239      3.9783      4.0259      4.0619      4.0830      4.0879      4.0776      4.0560      4.0287    
  4.0026      3.9840      3.9772      3.9840      4.0026      4.0287      4.0560      4.0776      4.0879      4.0830    
  4.0619      4.0259      3.9783      3.9239      3.8676      3.8146      3.7686      3.7319      3.7054      3.6894    
  3.6841      3.6894      3.7054      3.7319      3.6797      3.7239      3.7772      3.8371      3.8994      3.9593    
  4.0124      4.0545      4.0830      4.0972      4.0984      4.0901      4.0771      4.0647      4.0573      4.0573    
  4.0647      4.0771      4.0901      4.0984      4.0972      4.0830      4.0545      4.0124      3.9593      3.8994    
  3.8371      3.7772      3.7239      3.6797      3.6459      3.6231      3.6117      3.6117      3.6231      3.6459    
  3.5974      3.6389      3.6907      3.7515      3.8181      3.8867      3.9528      4.0124      4.0619      4.0992    
  4.1239      4.1370      4.1414      4.1408      4.1386      4.1376      4.1386      4.1408      4.1414      4.1370    
  4.1239      4.0992      4.0619      4.0124      3.9528      3.8867      3.8181      3.7515      3.6907      3.6389    
  3.5974      3.5673      3.5491      3.5430      3.5491      3.5673      3.5237      3.5615      3.6108      3.6703    
  3.7383      3.8117      3.8867      3.9593      4.0259      4.0833      4.1297      4.1644      4.1882      4.2030    
  4.2110      4.2144      4.2144      4.2110      4.2030      4.1882      4.1644      4.1297      4.0833      4.0259    
  3.9593      3.8867      3.8117      3.7383      3.6703      3.6108      3.5615      3.5237      3.4981      3.4852    
  3.4852      3.4981      3.4604      3.4938      3.5395      3.5965      3.6634      3.7383      3.8181      3.8994    
  3.9783      4.0516      4.1163      4.1707      4.2137      4.2455      4.2670      4.2792      4.2831      4.2792    
  4.2670      4.2455      4.2137      4.1707      4.1163      4.0516      3.9783      3.8994      3.8181      3.7383    
  3.6634      3.5965      3.5395      3.4938      3.4604      3.4401      3.4333      3.4401      3.4092      3.4373    
  3.4785      3.5320      3.5965      3.6703      3.7515      3.8371      3.9239      4.0083      4.0872      4.1577    
  4.2179      4.2663      4.3024      4.3262      4.3380      4.3380      4.3262      4.3024      4.2663      4.2179    
  4.1577      4.0872      4.0083      3.9239      3.8371      3.7515      3.6703      3.5965      3.5320      3.4785    
  3.4373      3.4092      3.3950      3.3950      3.3715      3.3934      3.4294      3.4785      3.5395      3.6108    
  3.6907      3.7772      3.8676      3.9587      4.0471      4.1298      4.2037      4.2667      4.3170      4.3535    
  4.3755      4.3829      4.3755      4.3535      4.3170      4.2667      4.2037      4.1298      4.0471      3.9587    
  3.8676      3.7772      3.6907      3.6108      3.5395      3.4785      3.4294      3.3934      3.3715      3.3641    
  3.3483      3.3635      3.3934      3.4373      3.4938      3.5615      3.6389      3.7239      3.8146      3.9083    
  4.0020      4.0924      4.1763      4.2508      4.3133      4.3619      4.3950      4.4118      4.4118      4.3950    
  4.3619      4.3133      4.2508      4.1763      4.0924      4.0020      3.9083      3.8146      3.7239      3.6389    
  3.5615      3.4938      3.4373      3.3934      3.3635      3.3483      3.3186      3.3264      3.3498      3.3879    
  3.4396      3.5035      3.5780      3.6612      3.7512      3.8457      3.9421      4.0378      4.1295      4.2139    
  4.2878      4.3485      4.3936      4.4213      4.4307      4.4213      4.3936      4.3485      4.2878      4.2139    
  4.1295      4.0378      3.9421      3.8457      3.7512      3.6612      3.5780      3.5035      3.4396      3.3879    
  3.3498      3.3264      3.3264      3.3264      3.3422      3.3733      3.4186      3.4770      3.5467      3.6260    
  3.7129      3.8053      3.9007      3.9967      4.0903      4.1784      4.2579      4.3256      4.3790      4.4158    
  4.4346      4.4346      4.4158      4.3790      4.3256      4.2579      4.1784      4.0903      3.9967      3.9007    
  3.8053      3.7129      3.6260      3.5467      3.4770      3.4186      3.3733      3.3422      3.3498      3.3419    
  3.3498      3.3733      3.4116      3.4635      3.5276      3.6021      3.6850      3.7743      3.8675      3.9623    
  4.0559      4.1455      4.2280      4.3006      4.3603      4.4049      4.4324      4.4417      4.4324      4.4049    
  4.3603      4.3006      4.2280      4.1455      4.0559      3.9623      3.8675      3.7743      3.6850      3.6021    
  3.5276      3.4635      3.4116      3.3733      3.3879      3.3722      3.3722      3.3879      3.4186      3.4635    
  3.5212      3.5901      3.6682      3.7534      3.8434      3.9359      4.0282      4.1177      4.2016      4.2769    
  4.3410      4.3915      4.4263      4.4441      4.4441      4.4263      4.3915      4.3410      4.2769      4.2016    
  4.1177      4.0282      3.9359      3.8434      3.7534      3.6682      3.5901      3.5212      3.4635      3.4186    
  3.4396      3.4167      3.4090      3.4167      3.4396      3.4770      3.5276      3.5901      3.6625      3.7428    
  3.8288      3.9181      4.0082      4.0964      4.1801      4.2566      4.3234      4.3781      4.4187      4.4438    
  4.4522      4.4438      4.4187      4.3781      4.3234      4.2566      4.1801      4.0964      4.0082      3.9181    
  3.8288      3.7428      3.6625      3.5901      3.5276      3.4770      3.5035      3.4740      3.4590      3.4590    
  3.4740      3.5035      3.5467      3.6021      3.6682      3.7428      3.8240      3.9092      3.9961      4.0820    
  4.1644      4.2408      4.3088      4.3662      4.4110      4.4417      4.4574      4.4574      4.4417      4.4110    
  4.3662      4.3088      4.2408      4.1644      4.0820      3.9961      3.9092      3.8240      3.7428      3.6682    
  3.6021      3.5467      3.5780      3.5426      3.5209      3.5136      3.5209      3.5426      3.5780      3.6260    
  3.6850      3.7534      3.8288      3.9092      3.9920      4.0748      4.1550      4.2302      4.2981      4.3566    
  4.4040      4.4389      4.4603      4.4675      4.4603      4.4389      4.4040      4.3566      4.2981      4.2302    
  4.1550      4.0748      3.9920      3.9092      3.8288      3.7534      3.6850      3.6260      3.6612      3.6210    
  3.5933      3.5793      3.5793      3.5933      3.6210      3.6612      3.7129      3.7743      3.8434      3.9181    
  3.9961      4.0748      4.1518      4.2248      4.2915      4.3500      4.3986      4.4362      4.4617      4.4746    
  4.4746      4.4617      4.4362      4.3986      4.3500      4.2915      4.2248      4.1518      4.0748      3.9961    
  3.9181      3.8434      3.7743      3.7129      3.7512      3.7071      3.6745      3.6545      3.6477      3.6545    
  3.6745      3.7071      3.7512      3.8053      3.8675      3.9359      4.0082      4.0820      4.1550      4.2248    
  4.2893      4.3466      4.3952      4.4340      4.4621      4.4792      4.4849      4.4792      4.4621      4.4340    
  4.3952      4.3466      4.2893      4.2248      4.1550      4.0820      4.0082      3.9359      3.8675      3.8053    
  3.8457      3.7990      3.7624      3.7372      3.7243      3.7243      3.7372      3.7624      3.7990      3.8457    
  3.9007      3.9623      4.0282      4.0964      4.1644      4.2302      4.2915      4.3466      4.3941      4.4328    
  4.4622      4.4818      4.4917      4.4917      4.4818      4.4622      4.4328      4.3941      4.3466      4.2915    
  4.2302      4.1644      4.0964      4.0282      3.9623      3.9007      3.9421      3.8942      3.8547      3.8253    
  3.8070      3.8008      3.8070      3.8253      3.8547      3.8942      3.9421      3.9967      4.0559      4.1177    
  4.1801      4.2408      4.2981      4.3500      4.3952      4.4328      4.4621      4.4830      4.4955      4.4996    
  4.4955      4.4830      4.4621      4.4328      4.3952      4.3500      4.2981      4.2408      4.1801      4.1177    
  4.0559      3.9967      4.0378      3.9900      3.9487      3.9157      3.8927      3.8809      3.8809      3.8927    
  3.9157      3.9487      3.9900      4.0378      4.0903      4.1455      4.2016      4.2566      4.3088      4.3566    
  4.3986      4.4340      4.4622      4.4830      4.4967      4.5035      4.5035      4.4967      4.4830      4.4622    
  4.4340      4.3986      4.3566      4.3088      4.2566      4.2016      4.1455      4.0903      4.1295      4.0831    
  4.0410      4.0053      3.9781      3.9609      3.9551      3.9609      3.9781      4.0053      4.0410      4.0831    
  4.1295      4.1784      4.2280      4.2769      4.3234      4.3662      4.4040      4.4362      4.4621      4.4818    
  4.4955      4.5035      4.5061      4.5035      4.4955      4.4818      4.4621      4.4362      4.4040      4.3662    
  4.3234      4.2769      4.2280      4.1784      4.2139      4.1701      4.1284      4.0908      4.0598      4.0376    
  4.0261      4.0261      4.0376      4.0598      4.0908      4.1284      4.1701      4.2139      4.2579      4.3006    
  4.3410      4.3781      4.4110      4.4389      4.4617      4.4792      4.4917      4.4996      4.5035      4.5035    
  4.4996      4.4917      4.4792      4.4617      4.4389      4.4110      4.3781      4.3410      4.3006      4.2579    
  4.2878      4.2480      4.2077      4.1691      4.1349      4.1079      4.0905      4.0845      4.0905      4.1079    
  4.1349      4.1691      4.2077      4.2480      4.2878      4.3256      4.3603      4.3915      4.4187      4.4417    
  4.4603      4.4746      4.4849      4.4917      4.4955      4.4967      4.4955      4.4917      4.4849      4.4746    
  4.4603      4.4417      4.4187      4.3915      4.3603      4.3256      4.3485      4.3138      4.2762      4.2376    
  4.2008      4.1692      4.1459      4.1335      4.1335      4.1459      4.1692      4.2008      4.2376      4.2762    
  4.3138      4.3485      4.3790      4.4049      4.4263      4.4438      4.4574      4.4675      4.4746      4.4792    
  4.4818      4.4830      4.4830      4.4818      4.4792      4.4746      4.4675      4.4574      4.4438      4.4263    
  4.4049      4.3790      4.3936      4.3653      4.3316      4.2942      4.2558      4.2200      4.1907      4.1714    
  4.1647      4.1714      4.1907      4.2200      4.2558      4.2942      4.3316      4.3653      4.3936      4.4158    
  4.4324      4.4441      4.4522      4.4574      4.4603      4.4617      4.4621      4.4622      4.4621      4.4622    
  4.4621      4.4617      4.4603      4.4574      4.4522      4.4441      4.4324      4.4158      4.4213      4.4006    
  4.3723      4.3375      4.2987      4.2596      4.2246      4.1981      4.1839      4.1839      4.1981      4.2246    
  4.2596      4.2987      4.3375      4.3723      4.4006      4.4213      4.4346      4.4417      4.4441      4.4438    
  4.4417      4.4389      4.4362      4.4340      4.4328      4.4328      4.4340      4.4362      4.4389      4.4417    
  4.4438      4.4441      4.4417      4.4346      4.4307      4.4185      4.3971      4.3667      4.3293      4.2882    
  4.2483      4.2147      4.1923      4.1845      4.1923      4.2147      4.2483      4.2882      4.3293      4.3667    
  4.3971      4.4185      4.4307      4.4346      4.4324      4.4263      4.4187      4.4110      4.4040      4.3986    
  4.3952      4.3941      4.3952      4.3986      4.4040      4.4110      4.4187      4.4263      4.4324      4.4346    
  4.4213      4.4185      4.4054      4.3814      4.3475      4.3066      4.2634      4.2236      4.1931      4.1765    
  4.1765      4.1931      4.2236      4.2634      4.3066      4.3475      4.3814      4.4054      4.4185      4.4213    
  4.4158      4.4049      4.3915      4.3781      4.3662      4.3566      4.3500      4.3466      4.3466      4.3500    
  4.3566      4.3662      4.3781      4.3915      4.4049      4.4158      4.3936      4.4006      4.3971      4.3814    
  4.3535      4.3155      4.2715      4.2274      4.1897      4.1643      4.1553      4.1643      4.1897      4.2274    
  4.2715      4.3155      4.3535      4.3814      4.3971      4.4006      4.3936      4.3790      4.3603      4.3410    
  4.3234      4.3088      4.2981      4.2915      4.2893      4.2915      4.2981      4.3088      4.3234      4.3410    
  4.3603      4.3790      4.3485      4.3653      4.3723      4.3667      4.3475      4.3155      4.2741      4.2286    
  4.1859      4.1527      4.1345      4.1345      4.1527      4.1859      4.2286      4.2741      4.3155      4.3475    
  4.3667      4.3723      4.3653      4.3485      4.3256      4.3006      4.2769      4.2566      4.2408      4.2302    
  4.2248      4.2248      4.2302      4.2408      4.2566      4.2769      4.3006      4.3256      4.2878      4.3138    
  4.3316      4.3375      4.3293      4.3066      4.2715      4.2286      4.1843      4.1457      4.1195      4.1102    
  4.1195      4.1457      4.1843      4.2286      4.2715      4.3066      4.3293      4.3375      4.3316      4.3138    
  4.2878      4.2579      4.2280      4.2016      4.1801      4.1644      4.1550      4.1518      4.1550      4.1644    
  4.1801      4.2016      4.2280      4.2579      4.2139      4.2480      4.2762      4.2942      4.2987      4.2882    
  4.2634      4.2274      4.1859      4.1457      4.1140      4.0965      4.0965      4.1140      4.1457      4.1859    
  4.2274      4.2634      4.2882      4.2987      4.2942      4.2762      4.2480      4.2139      4.1784      4.1455    
  4.1177      4.0964      4.0820      4.0748      4.0748      4.0820      4.0964      4.1177      4.1455      4.1784    
  4.1295      4.1701      4.2077      4.2376      4.2558      4.2596      4.2483      4.2236      4.1897      4.1527    
  4.1195      4.0965      4.0883      4.0965      4.1195      4.1527      4.1897      4.2236      4.2483      4.2596    
  4.2558      4.2376      4.2077      4.1701      4.1295      4.0903      4.0559      4.0282      4.0082      3.9961    
  3.9920      3.9961      4.0082      4.0282      4.0559      4.0903      4.0378      4.0831      4.1284      4.1691    
  4.2008      4.2200      4.2246      4.2147      4.1931      4.1643      4.1345      4.1102      4.0965      4.0965    
  4.1102      4.1345      4.1643      4.1931      4.2147      4.2246      4.2200      4.2008      4.1691      4.1284    
  4.0831      4.0378      3.9967      3.9623      3.9359      3.9181      3.9092      3.9092      3.9181      3.9359    
  3.9623      3.9967      3.9421      3.9900      4.0410      4.0908      4.1349      4.1692      4.1907      4.1981    
  4.1923      4.1765      4.1553      4.1345      4.1195      4.1140      4.1195      4.1345      4.1553      4.1765    
  4.1923      4.1981      4.1907      4.1692      4.1349      4.0908      4.0410      3.9900      3.9421      3.9007    
  3.8675      3.8434      3.8288      3.8240      3.8288      3.8434      3.8675      3.9007      3.8457      3.8942    
  3.9487      4.0053      4.0598      4.1079      4.1459      4.1714      4.1839      4.1845      4.1765      4.1643    
  4.1527      4.1457      4.1457      4.1527      4.1643      4.1765      4.1845      4.1839      4.1714      4.1459    
  4.1079      4.0598      4.0053      3.9487      3.8942      3.8457      3.8053      3.7743      3.7534      3.7428    
  3.7428      3.7534      3.7743      3.8053      3.7512      3.7990      3.8547      3.9157      3.9781      4.0376    
  4.0905      4.1335      4.1647      4.1839      4.1923      4.1931      4.1897      4.1859      4.1843      4.1859    
  4.1897      4.1931      4.1923      4.1839      4.1647      4.1335      4.0905      4.0376      3.9781      3.9157    
  3.8547      3.7990      3.7512      3.7129      3.6850      3.6682      3.6625      3.6682      3.6850      3.7129    
  3.6612      3.7071      3.7624      3.8253      3.8927      3.9609      4.0261      4.0845      4.1335      4.1714    
  4.1981      4.2147      4.2236      4.2274      4.2286      4.2286      4.2274      4.2236      4.2147      4.1981    
  4.1714      4.1335      4.0845      4.0261      3.9609      3.8927      3.8253      3.7624      3.7071      3.6612    
  3.6260      3.6021      3.5901      3.5901      3.6021      3.6260      3.5780      3.6210      3.6745      3.7372    
  3.8070      3.8809      3.9551      4.0261      4.0905      4.1459      4.1907      4.2246      4.2483      4.2634    
  4.2715      4.2741      4.2715      4.2634      4.2483      4.2246      4.1907      4.1459      4.0905      4.0261    
  3.9551      3.8809      3.8070      3.7372      3.6745      3.6210      3.5780      3.5467      3.5276      3.5212    
  3.5276      3.5467      3.5035      3.5426      3.5933      3.6545      3.7243      3.8008      3.8809      3.9609    
  4.0376      4.1079      4.1692      4.2200      4.2596      4.2882      4.3066      4.3155      4.3155      4.3066    
  4.2882      4.2596      4.2200      4.1692      4.1079      4.0376      3.9609      3.8809      3.8008      3.7243    
  3.6545      3.5933      3.5426      3.5035      3.4770      3.4635      3.4635      3.4770      3.4396      3.4740    
  3.5209      3.5793      3.6477      3.7243      3.8070      3.8927      3.9781      4.0598      4.1349      4.2008    
  4.2558      4.2987      4.3293      4.3475      4.3535      4.3475      4.3293      4.2987      4.2558      4.2008    
  4.1349      4.0598      3.9781      3.8927      3.8070      3.7243      3.6477      3.5793      3.5209      3.4740    
  3.4396      3.4186      3.4116      3.4186      3.3879      3.4167      3.4590      3.5136      3.5793      3.6545    
  3.7372      3.8253      3.9157      4.0053      4.0908      4.1691      4.2376      4.2942      4.3375      4.3667    
  4.3814      4.3814      4.3667      4.3375      4.2942      4.2376      4.1691      4.0908      4.0053      3.9157    
  3.8253      3.7372      3.6545      3.5793      3.5136      3.4590      3.4167      3.3879      3.3733      3.3733    
  3.3498      3.3722      3.4090      3.4590      3.5209      3.5933      3.6745      3.7624      3.8547      3.9487    
  4.0410      4.1284      4.2077      4.2762      4.3316      4.3723      4.3971      4.4054      4.3971      4.3723    
  4.3316      4.2762      4.2077      4.1284      4.0410      3.9487      3.8547      3.7624      3.6745      3.5933    
  3.5209      3.4590      3.4090      3.3722      3.3498      3.3422      3.3264      3.3419      3.3722      3.4167    
  3.4740      3.5426      3.6210      3.7071      3.7990      3.8942      3.9900      4.0831      4.1701      4.2480    
  4.3138      4.3653      4.4006      4.4185      4.4185      4.4006      4.3653      4.3138      4.2480      4.1701    
  4.0831      3.9900      3.8942      3.7990      3.7071      3.6210      3.5426      3.4740      3.4167      3.3722    
  3.3419      3.3264      3.2986      3.3065      3.3301      3.3685      3.4207      3.4853      3.5607      3.6449    
  3.7360      3.8316      3.9291      4.0257      4.1183      4.2037      4.2787      4.3403      4.3861      4.4143    
  4.4239      4.4143      4.3861      4.3403      4.2787      4.2037      4.1183      4.0257      3.9291      3.8316    
  3.7360      3.6449      3.5607      3.4853      3.4207      3.3685      3.3301      3.3065      3.3065      3.3065    
  3.3224      3.3535      3.3991      3.4579      3.5282      3.6084      3.6963      3.7897      3.8862      3.9831    
  4.0775      4.1662      4.2462      4.3144      4.3682      4.4053      4.4242      4.4242      4.4053      4.3682    
  4.3144      4.2462      4.1662      4.0775      3.9831      3.8862      3.7897      3.6963      3.6084      3.5282    
  3.4579      3.3991      3.3535      3.3224      3.3301      3.3222      3.3301      3.3535      3.3919      3.4440    
  3.5084      3.5835      3.6672      3.7574      3.8516      3.9474      4.0420      4.1323      4.2154      4.2883    
  4.3483      4.3930      4.4206      4.4300      4.4206      4.3930      4.3483      4.2883      4.2154      4.1323    
  4.0420      3.9474      3.8516      3.7574      3.6672      3.5835      3.5084      3.4440      3.3919      3.3535    
  3.3685      3.3529      3.3529      3.3685      3.3991      3.4440      3.5018      3.5709      3.6494      3.7354    
  3.8263      3.9198      4.0131      4.1036      4.1882      4.2642      4.3288      4.3796      4.4147      4.4326    
  4.4326      4.4147      4.3796      4.3288      4.2642      4.1882      4.1036      4.0131      3.9198      3.8263    
  3.7354      3.6494      3.5709      3.5018      3.4440      3.3991      3.4207      3.3979      3.3903      3.3979    
  3.4207      3.4579      3.5084      3.5709      3.6435      3.7242      3.8109      3.9010      3.9920      4.0812    
  4.1659      4.2433      4.3110      4.3664      4.4075      4.4329      4.4414      4.4329      4.4075      4.3664    
  4.3110      4.2433      4.1659      4.0812      3.9920      3.9010      3.8109      3.7242      3.6435      3.5709    
  3.5084      3.4579      3.4853      3.4560      3.4411      3.4411      3.4560      3.4853      3.5282      3.5835    
  3.6494      3.7242      3.8057      3.8914      3.9790      4.0659      4.1494      4.2269      4.2959      4.3543    
  4.4000      4.4313      4.4473      4.4473      4.4313      4.4000      4.3543      4.2959      4.2269      4.1494    
  4.0659      3.9790      3.8914      3.8057      3.7242      3.6494      3.5835      3.5282      3.5607      3.5256    
  3.5041      3.4968      3.5041      3.5256      3.5607      3.6084      3.6672      3.7354      3.8109      3.8914    
  3.9747      4.0581      4.1392      4.2155      4.2846      4.3444      4.3930      4.4288      4.4508      4.4582    
  4.4508      4.4288      4.3930      4.3444      4.2846      4.2155      4.1392      4.0581      3.9747      3.8914    
  3.8109      3.7354      3.6672      3.6084      3.6449      3.6049      3.5776      3.5636      3.5636      3.5776    
  3.6049      3.6449      3.6963      3.7574      3.8263      3.9010      3.9790      4.0581      4.1358      4.2097    
  4.2776      4.3373      4.3873      4.4260      4.4524      4.4658      4.4658      4.4524      4.4260      4.3873    
  4.3373      4.2776      4.2097      4.1358      4.0581      3.9790      3.9010      3.8263      3.7574      3.6963    
  3.7360      3.6922      3.6599      3.6400      3.6333      3.6400      3.6599      3.6922      3.7360      3.7897    
  3.8516      3.9198      3.9920      4.0659      4.1392      4.2097      4.2752      4.3337      4.3836      4.4237    
  4.4529      4.4706      4.4766      4.4706      4.4529      4.4237      4.3836      4.3337      4.2752      4.2097    
  4.1392      4.0659      3.9920      3.9198      3.8516      3.7897      3.8316      3.7853      3.7490      3.7240    
  3.7113      3.7113      3.7240      3.7490      3.7853      3.8316      3.8862      3.9474      4.0131      4.0812    
  4.1494      4.2155      4.2776      4.3337      4.3823      4.4223      4.4528      4.4734      4.4837      4.4837    
  4.4734      4.4528      4.4223      4.3823      4.3337      4.2776      4.2155      4.1494      4.0812      4.0131    
  3.9474      3.8862      3.9291      3.8817      3.8427      3.8136      3.7956      3.7896      3.7956      3.8136    
  3.8427      3.8817      3.9291      3.9831      4.0420      4.1036      4.1659      4.2269      4.2846      4.3373    
  4.3836      4.4223      4.4528      4.4746      4.4877      4.4921      4.4877      4.4746      4.4528      4.4223    
  4.3836      4.3373      4.2846      4.2269      4.1659      4.1036      4.0420      3.9831      4.0257      3.9787    
  3.9384      3.9063      3.8841      3.8726      3.8726      3.8841      3.9063      3.9384      3.9787      4.0257    
  4.0775      4.1323      4.1882      4.2433      4.2959      4.3444      4.3873      4.4237      4.4528      4.4746    
  4.4890      4.4962      4.4962      4.4890      4.4746      4.4528      4.4237      4.3873      4.3444      4.2959    
  4.2433      4.1882      4.1323      4.0775      4.1183      4.0734      4.0331      3.9992      3.9735      3.9574    
  3.9519      3.9574      3.9735      3.9992      4.0331      4.0734      4.1183      4.1662      4.2154      4.2642    
  4.3110      4.3543      4.3930      4.4260      4.4529      4.4734      4.4877      4.4962      4.4989      4.4962    
  4.4877      4.4734      4.4529      4.4260      4.3930      4.3543      4.3110      4.2642      4.2154      4.1662    
  4.2037      4.1623      4.1234      4.0889      4.0607      4.0407      4.0303      4.0303      4.0407      4.0607    
  4.0889      4.1234      4.1623      4.2037      4.2462      4.2883      4.3288      4.3664      4.4000      4.4288    
  4.4524      4.4706      4.4837      4.4921      4.4962      4.4962      4.4921      4.4837      4.4706      4.4524    
  4.4288      4.4000      4.3664      4.3288      4.2883      4.2462      4.2787      4.2421      4.2061      4.1722    
  4.1426      4.1195      4.1048      4.0997      4.1048      4.1195      4.1426      4.1722      4.2061      4.2421    
  4.2787      4.3144      4.3483      4.3796      4.4075      4.4313      4.4508      4.4658      4.4766      4.4837    
  4.4877      4.4890      4.4877      4.4837      4.4766      4.4658      4.4508      4.4313      4.4075      4.3796    
  4.3483      4.3144      4.3403      4.3099      4.2780      4.2462      4.2163      4.1910      4.1725      4.1627    
  4.1627      4.1725      4.1910      4.2163      4.2462      4.2780      4.3099      4.3403      4.3682      4.3930    
  4.4147      4.4329      4.4473      4.4582      4.4658      4.4706      4.4734      4.4746      4.4746      4.4734    
  4.4706      4.4658      4.4582      4.4473      4.4329      4.4147      4.3930      4.3682      4.3861      4.3631    
  4.3367      4.3082      4.2794      4.2528      4.2312      4.2171      4.2122      4.2171      4.2312      4.2528    
  4.2794      4.3082      4.3367      4.3631      4.3861      4.4053      4.4206      4.4326      4.4414      4.4473    
  4.4508      4.4524      4.4529      4.4528      4.4528      4.4528      4.4529      4.4524      4.4508      4.4473    
  4.4414      4.4326      4.4206      4.4053      4.4143      4.3997      4.3801      4.3563      4.3300      4.3034    
  4.2797      4.2617      4.2520      4.2520      4.2617      4.2797      4.3034      4.3300      4.3563      4.3801    
  4.3997      4.4143      4.4242      4.4300      4.4326      4.4329      4.4313      4.4288      4.4260      4.4237    
  4.4223      4.4223      4.4237      4.4260      4.4288      4.4313      4.4329      4.4326      4.4300      4.4242    
  4.4239      4.4183      4.4067      4.3892      4.3668      4.3417      4.3170      4.2960      4.2819      4.2770    
  4.2819      4.2960      4.3170      4.3417      4.3668      4.3892      4.4067      4.4183      4.4239      4.4242    
  4.4206      4.4147      4.4075      4.4000      4.3930      4.3873      4.3836      4.3823      4.3836      4.3873    
  4.3930      4.4000      4.4075      4.4147      4.4206      4.4242      4.4143      4.4183      4.4156      4.4058    
  4.3891      4.3673      4.3433      4.3205      4.3027      4.2929      4.2929      4.3027      4.3205      4.3433    
  4.3673      4.3891      4.4058      4.4156      4.4183      4.4143      4.4053      4.3930      4.3796      4.3664    
  4.3543      4.3444      4.3373      4.3337      4.3337      4.3373      4.3444      4.3543      4.3664      4.3796    
  4.3930      4.4053      4.3861      4.3997      4.4067      4.4058      4.3966      4.3801      4.3588      4.3360    
  4.3158      4.3019      4.2969      4.3019      4.3158      4.3360      4.3588      4.3801      4.3966      4.4058    
  4.4067      4.3997      4.3861      4.3682      4.3483      4.3288      4.3110      4.2959      4.2846      4.2776    
  4.2752      4.2776      4.2846      4.2959      4.3110      4.3288      4.3483      4.3682      4.3403      4.3631    
  4.3801      4.3892      4.3891      4.3801      4.3639      4.3435      4.3228      4.3061      4.2967      4.2967    
  4.3061      4.3228      4.3435      4.3639      4.3801      4.3891      4.3892      4.3801      4.3631      4.3403    
  4.3144      4.2883      4.2642      4.2433      4.2269      4.2155      4.2097      4.2097      4.2155      4.2269    
  4.2433      4.2642      4.2883      4.3144      4.2787      4.3099      4.3367      4.3563      4.3668      4.3673    
  4.3588      4.3435      4.3250      4.3076      4.2952      4.2907      4.2952      4.3076      4.3250      4.3435    
  4.3588      4.3673      4.3668      4.3563      4.3367      4.3099      4.2787      4.2462      4.2154      4.1882    
  4.1659      4.1494      4.1392      4.1358      4.1392      4.1494      4.1659      4.1882      4.2154      4.2462    
  4.2037      4.2421      4.2780      4.3082      4.3300      4.3417      4.3433      4.3360      4.3228      4.3076    
  4.2944      4.2869      4.2869      4.2944      4.3076      4.3228      4.3360      4.3433      4.3417      4.3300    
  4.3082      4.2780      4.2421      4.2037      4.1662      4.1323      4.1036      4.0812      4.0659      4.0581    
  4.0581      4.0659      4.0812      4.1036      4.1323      4.1662      4.1183      4.1623      4.2061      4.2462    
  4.2794      4.3034      4.3170      4.3205      4.3158      4.3061      4.2952      4.2869      4.2838      4.2869    
  4.2952      4.3061      4.3158      4.3205      4.3170      4.3034      4.2794      4.2462      4.2061      4.1623    
  4.1183      4.0775      4.0420      4.0131      3.9920      3.9790      3.9747      3.9790      3.9920      4.0131    
  4.0420      4.0775      4.0257      4.0734      4.1234      4.1722      4.2163      4.2528      4.2797      4.2960    
  4.3027      4.3019      4.2967      4.2907      4.2869      4.2869      4.2907      4.2967      4.3019      4.3027    
  4.2960      4.2797      4.2528      4.2163      4.1722      4.1234      4.0734      4.0257      3.9831      3.9474    
  3.9198      3.9010      3.8914      3.8914      3.9010      3.9198      3.9474      3.9831      3.9291      3.9787    
  4.0331      4.0889      4.1426      4.1910      4.2312      4.2617      4.2819      4.2929      4.2969      4.2967    
  4.2952      4.2944      4.2952      4.2967      4.2969      4.2929      4.2819      4.2617      4.2312      4.1910    
  4.1426      4.0889      4.0331      3.9787      3.9291      3.8862      3.8516      3.8263      3.8109      3.8057    
  3.8109      3.8263      3.8516      3.8862      3.8316      3.8817      3.9384      3.9992      4.0607      4.1195    
  4.1725      4.2171      4.2520      4.2770      4.2929      4.3019      4.3061      4.3076      4.3076      4.3061    
  4.3019      4.2929      4.2770      4.2520      4.2171      4.1725      4.1195      4.0607      3.9992      3.9384    
  3.8817      3.8316      3.7897      3.7574      3.7354      3.7242      3.7242      3.7354      3.7574      3.7897    
  3.7360      3.7853      3.8427      3.9063      3.9735      4.0407      4.1048      4.1627      4.2122      4.2520    
  4.2819      4.3027      4.3158      4.3228      4.3250      4.3228      4.3158      4.3027      4.2819      4.2520    
  4.2122      4.1627      4.1048      4.0407      3.9735      3.9063      3.8427      3.7853      3.7360      3.6963    
  3.6672      3.6494      3.6435      3.6494      3.6672      3.6963      3.6449      3.6922      3.7490      3.8136    
  3.8841      3.9574      4.0303      4.0997      4.1627      4.2171      4.2617      4.2960      4.3205      4.3360    
  4.3435      4.3435      4.3360      4.3205      4.2960      4.2617      4.2171      4.1627      4.0997      4.0303    
  3.9574      3.8841      3.8136      3.7490      3.6922      3.6449      3.6084      3.5835      3.5709      3.5709    
  3.5835      3.6084      3.5607      3.6049      3.6599      3.7240      3.7956      3.8726      3.9519      4.0303    
  4.1048      4.1725      4.2312      4.2797      4.3170      4.3433      4.3588      4.3639      4.3588      4.3433    
  4.3170      4.2797      4.2312      4.1725      4.1048      4.0303      3.9519      3.8726      3.7956      3.7240    
  3.6599      3.6049      3.5607      3.5282      3.5084      3.5018      3.5084      3.5282      3.4853      3.5256    
  3.5776      3.6400      3.7113      3.7896      3.8726      3.9574      4.0407      4.1195      4.1910      4.2528    
  4.3034      4.3417      4.3673      4.3801      4.3801      4.3673      4.3417      4.3034      4.2528      4.1910    
  4.1195      4.0407      3.9574      3.8726      3.7896      3.7113      3.6400      3.5776      3.5256      3.4853    
  3.4579      3.4440      3.4440      3.4579      3.4207      3.4560      3.5041      3.5636      3.6333      3.7113    
  3.7956      3.8841      3.9735      4.0607      4.1426      4.2163      4.2794      4.3300      4.3668      4.3891    
  4.3966      4.3891      4.3668      4.3300      4.2794      4.2163      4.1426      4.0607      3.9735      3.8841    
  3.7956      3.7113      3.6333      3.5636      3.5041      3.4560      3.4207      3.3991      3.3919      3.3991    
  3.3685      3.3979      3.4411      3.4968      3.5636      3.6400      3.7240      3.8136      3.9063      3.9992    
  4.0889      4.1722      4.2462      4.3082      4.3563      4.3892      4.4058      4.4058      4.3892      4.3563    
  4.3082      4.2462      4.1722      4.0889      3.9992      3.9063      3.8136      3.7240      3.6400      3.5636    
  3.4968      3.4411      3.3979      3.3685      3.3535      3.3535      3.3301      3.3529      3.3903      3.4411    
  3.5041      3.5776      3.6599      3.7490      3.8427      3.9384      4.0331      4.1234      4.2061      4.2780    
  4.3367      4.3801      4.4067      4.4156      4.4067      4.3801      4.3367      4.2780      4.2061      4.1234    
  4.0331      3.9384      3.8427      3.7490      3.6599      3.5776      3.5041      3.4411      3.3903      3.3529    
  3.3301      3.3224      3.3065      3.3222      3.3529      3.3979      3.4560      3.5256      3.6049      3.6922    
  3.7853      3.8817      3.9787      4.0734      4.1623      4.2421      4.3099      4.3631      4.3997      4.4183    
  4.4183      4.3997      4.3631      4.3099      4.2421      4.1623      4.0734      3.9787      3.8817      3.7853    
  3.6922      3.6049      3.5256      3.4560      3.3979      3.3529      3.3222      3.3065      3.2817      3.2896    
  3.3133      3.3520      3.4048      3.4701      3.5463      3.6316      3.7237      3.8203      3.9188      4.0161    
  4.1093      4.1951      4.2703      4.3321      4.3781      4.4065      4.4161      4.4065      4.3781      4.3321    
  4.2703      4.1951      4.1093      4.0161      3.9188      3.8203      3.7237      3.6316      3.5463      3.4701    
  3.4048      3.3520      3.3133      3.2896      3.2896      3.2896      3.3055      3.3368      3.3827      3.4419    
  3.5129      3.5939      3.6828      3.7772      3.8748      3.9725      4.0676      4.1567      4.2369      4.3052    
  4.3589      4.3960      4.4149      4.4149      4.3960      4.3589      4.3052      4.2369      4.1567      4.0676    
  3.9725      3.8748      3.7772      3.6828      3.5939      3.5129      3.4419      3.3827      3.3368      3.3055    
  3.3133      3.3054      3.3133      3.3368      3.3753      3.4276      3.4924      3.5681      3.6526      3.7437    
  3.8389      3.9357      4.0310      4.1220      4.2056      4.2788      4.3389      4.3837      4.4113      4.4206    
  4.4113      4.3837      4.3389      4.2788      4.2056      4.1220      4.0310      3.9357      3.8389      3.7437    
  3.6526      3.5681      3.4924      3.4276      3.3753      3.3368      3.3520      3.3365      3.3365      3.3520    
  3.3827      3.4276      3.4855      3.5550      3.6341      3.7207      3.8124      3.9068      4.0011      4.0923    
  4.1777      4.2543      4.3194      4.3705      4.4058      4.4238      4.4238      4.4058      4.3705      4.3194    
  4.2543      4.1777      4.0923      4.0011      3.9068      3.8124      3.7207      3.6341      3.5550      3.4855    
  3.4276      3.3827      3.4048      3.3821      3.3744      3.3821      3.4048      3.4419      3.4924      3.5550    
  3.6278      3.7090      3.7962      3.8870      3.9788      4.0689      4.1545      4.2328      4.3013      4.3573    
  4.3990      4.4246      4.4333      4.4246      4.3990      4.3573      4.3013      4.2328      4.1545      4.0689    
  3.9788      3.8870      3.7962      3.7090      3.6278      3.5550      3.4924      3.4419      3.4701      3.4408    
  3.4260      3.4260      3.4408      3.4701      3.5129      3.5681      3.6341      3.7090      3.7907      3.8769    
  3.9651      4.0527      4.1371      4.2156      4.2857      4.3451      4.3916      4.4236      4.4399      4.4399    
  4.4236      4.3916      4.3451      4.2857      4.2156      4.1371      4.0527      3.9651      3.8769      3.7907    
  3.7090      3.6341      3.5681      3.5129      3.5463      3.5113      3.4898      3.4826      3.4898      3.5113    
  3.5463      3.5939      3.6526      3.7207      3.7962      3.8769      3.9604      4.0444      4.1263      4.2035    
  4.2738      4.3348      4.3845      4.4213      4.4439      4.4516      4.4439      4.4213      4.3845      4.3348    
  4.2738      4.2035      4.1263      4.0444      3.9604      3.8769      3.7962      3.7207      3.6526      3.5939    
  3.6316      3.5917      3.5643      3.5504      3.5504      3.5643      3.5917      3.6316      3.6828      3.7437    
  3.8124      3.8870      3.9651      4.0444      4.1226      4.1973      4.2663      4.3273      4.3786      4.4186    
  4.4459      4.4598      4.4598      4.4459      4.4186      4.3786      4.3273      4.2663      4.1973      4.1226    
  4.0444      3.9651      3.8870      3.8124      3.7437      3.6828      3.7237      3.6800      3.6477      3.6278    
  3.6211      3.6278      3.6477      3.6800      3.7237      3.7772      3.8389      3.9068      3.9788      4.0527    
  4.1263      4.1973      4.2637      4.3234      4.3747      4.4161      4.4465      4.4651      4.4713      4.4651    
  4.4465      4.4161      4.3747      4.3234      4.2637      4.1973      4.1263      4.0527      3.9788      3.9068    
  3.8389      3.7772      3.8203      3.7742      3.7379      3.7130      3.7002      3.7002      3.7130      3.7379    
  3.7742      3.8203      3.8748      3.9357      4.0011      4.0689      4.1371      4.2035      4.2663      4.3234    
  4.3733      4.4147      4.4465      4.4681      4.4790      4.4790      4.4681      4.4465      4.4147      4.3733    
  4.3234      4.2663      4.2035      4.1371      4.0689      4.0011      3.9357      3.8748      3.9188      3.8716    
  3.8327      3.8037      3.7858      3.7797      3.7858      3.8037      3.8327      3.8716      3.9188      3.9725    
  4.0310      4.0923      4.1545      4.2156      4.2738      4.3273      4.3747      4.4147      4.4465      4.4694    
  4.4833      4.4879      4.4833      4.4694      4.4465      4.4147      4.3747      4.3273      4.2738      4.2156    
  4.1545      4.0923      4.0310      3.9725      4.0161      3.9695      3.9295      3.8977      3.8756      3.8642    
  3.8642      3.8756      3.8977      3.9295      3.9695      4.0161      4.0676      4.1220      4.1777      4.2328    
  4.2857      4.3348      4.3786      4.4161      4.4465      4.4694      4.4847      4.4923      4.4923      4.4847    
  4.4694      4.4465      4.4161      4.3786      4.3348      4.2857      4.2328      4.1777      4.1220      4.0676    
  4.1093      4.0649      4.0253      3.9922      3.9671      3.9515      3.9462      3.9515      3.9671      3.9922    
  4.0253      4.0649      4.1093      4.1567      4.2056      4.2543      4.3013      4.3451      4.3845      4.4186    
  4.4465      4.4681      4.4833      4.4923      4.4953      4.4923      4.4833      4.4681      4.4465      4.4186    
  4.3845      4.3451      4.3013      4.2543      4.2056      4.1567      4.1951      4.1546      4.1171      4.0842    
  4.0574      4.0385      4.0287      4.0287      4.0385      4.0574      4.0842      4.1171      4.1546      4.1951    
  4.2369      4.2788      4.3194      4.3573      4.3916      4.4213      4.4459      4.4651      4.4790      4.4879    
  4.4923      4.4923      4.4879      4.4790      4.4651      4.4459      4.4213      4.3916      4.3573      4.3194    
  4.2788      4.2369      4.2703      4.2353      4.2015      4.1703      4.1433      4.1223      4.1090      4.1045    
  4.1090      4.1223      4.1433      4.1703      4.2015      4.2353      4.2703      4.3052      4.3389      4.3705    
  4.3990      4.4236      4.4439      4.4598      4.4713      4.4790      4.4833      4.4847      4.4833      4.4790    
  4.4713      4.4598      4.4439      4.4236      4.3990      4.3705      4.3389      4.3052      4.3321      4.3040    
  4.2753      4.2473      4.2215      4.1999      4.1842      4.1759      4.1759      4.1842      4.1999      4.2215    
  4.2473      4.2753      4.3040      4.3321      4.3589      4.3837      4.4058      4.4246      4.4399      4.4516    
  4.4598      4.4651      4.4681      4.4694      4.4694      4.4681      4.4651      4.4598      4.4516      4.4399    
  4.4246      4.4058      4.3837      4.3589      4.3781      4.3579      4.3357      4.3125      4.2895      4.2685    
  4.2516      4.2406      4.2368      4.2406      4.2516      4.2685      4.2895      4.3125      4.3357      4.3579    
  4.3781      4.3960      4.4113      4.4238      4.4333      4.4399      4.4439      4.4459      4.4465      4.4465    
  4.4465      4.4465      4.4465      4.4459      4.4439      4.4399      4.4333      4.4238      4.4113      4.3960    
  4.4065      4.3950      4.3805      4.3634      4.3446      4.3259      4.3092      4.2965      4.2897      4.2897    
  4.2965      4.3092      4.3259      4.3446      4.3634      4.3805      4.3950      4.4065      4.4149      4.4206    
  4.4238      4.4246      4.4236      4.4213      4.4186      4.4161      4.4147      4.4147      4.4161      4.4186    
  4.4213      4.4236      4.4246      4.4238      4.4206      4.4149      4.4161      4.4140      4.4081      4.3983    
  4.3853      4.3703      4.3552      4.3422      4.3334      4.3303      4.3334      4.3422      4.3552      4.3703    
  4.3853      4.3983      4.4081      4.4140      4.4161      4.4149      4.4113      4.4058      4.3990      4.3916    
  4.3845      4.3786      4.3747      4.3733      4.3747      4.3786      4.3845      4.3916      4.3990      4.4058    
  4.4113      4.4149      4.4065      4.4140      4.4174      4.4161      4.4102      4.4005      4.3886      4.3768    
  4.3672      4.3619      4.3619      4.3672      4.3768      4.3886      4.4005      4.4102      4.4161      4.4174    
  4.4140      4.4065      4.3960      4.3837      4.3705      4.3573      4.3451      4.3348      4.3273      4.3234    
  4.3234      4.3273      4.3348      4.3451      4.3573      4.3705      4.3837      4.3960      4.3781      4.3950    
  4.4081      4.4161      4.4185      4.4158      4.4089      4.3999      4.3911      4.3847      4.3823      4.3847    
  4.3911      4.3999      4.4089      4.4158      4.4185      4.4161      4.4081      4.3950      4.3781      4.3589    
  4.3389      4.3194      4.3013      4.2857      4.2738      4.2663      4.2637      4.2663      4.2738      4.2857    
  4.3013      4.3194      4.3389      4.3589      4.3321      4.3579      4.3805      4.3983      4.4102      4.4158    
  4.4157      4.4114      4.4052      4.3993      4.3957      4.3957      4.3993      4.4052      4.4114      4.4157    
  4.4158      4.4102      4.3983      4.3805      4.3579      4.3321      4.3052      4.2788      4.2543      4.2328    
  4.2156      4.2035      4.1973      4.1973      4.2035      4.2156      4.2328      4.2543      4.2788      4.3052    
  4.2703      4.3040      4.3357      4.3634      4.3853      4.4005      4.4089      4.4114      4.4098      4.4064    
  4.4032      4.4019      4.4032      4.4064      4.4098      4.4114      4.4089      4.4005      4.3853      4.3634    
  4.3357      4.3040      4.2703      4.2369      4.2056      4.1777      4.1545      4.1371      4.1263      4.1226    
  4.1263      4.1371      4.1545      4.1777      4.2056      4.2369      4.1951      4.2353      4.2753      4.3125    
  4.3446      4.3703      4.3886      4.3999      4.4052      4.4064      4.4056      4.4046      4.4046      4.4056    
  4.4064      4.4052      4.3999      4.3886      4.3703      4.3446      4.3125      4.2753      4.2353      4.1951    
  4.1567      4.1220      4.0923      4.0689      4.0527      4.0444      4.0444      4.0527      4.0689      4.0923    
  4.1220      4.1567      4.1093      4.1546      4.2015      4.2473      4.2895      4.3259      4.3552      4.3768    
  4.3911      4.3993      4.4032      4.4046      4.4049      4.4046      4.4032      4.3993      4.3911      4.3768    
  4.3552      4.3259      4.2895      4.2473      4.2015      4.1546      4.1093      4.0676      4.0310      4.0011    
  3.9788      3.9651      3.9604      3.9651      3.9788      4.0011      4.0310      4.0676      4.0161      4.0649    
  4.1171      4.1703      4.2215      4.2685      4.3092      4.3422      4.3672      4.3847      4.3957      4.4019    
  4.4046      4.4046      4.4019      4.3957      4.3847      4.3672      4.3422      4.3092      4.2685      4.2215    
  4.1703      4.1171      4.0649      4.0161      3.9725      3.9357      3.9068      3.8870      3.8769      3.8769    
  3.8870      3.9068      3.9357      3.9725      3.9188      3.9695      4.0253      4.0842      4.1433      4.1999    
  4.2516      4.2965      4.3334      4.3619      4.3823      4.3957      4.4032      4.4056      4.4032      4.3957    
  4.3823      4.3619      4.3334      4.2965      4.2516      4.1999      4.1433      4.0842      4.0253      3.9695    
  3.9188      3.8748      3.8389      3.8124      3.7962      3.7907      3.7962      3.8124      3.8389      3.8748    
  3.8203      3.8716      3.9295      3.9922      4.0574      4.1223      4.1842      4.2406      4.2897      4.3303    
  4.3619      4.3847      4.3993      4.4064      4.4064      4.3993      4.3847      4.3619      4.3303      4.2897    
  4.2406      4.1842      4.1223      4.0574      3.9922      3.9295      3.8716      3.8203      3.7772      3.7437    
  3.7207      3.7090      3.7090      3.7207      3.7437      3.7772      3.7237      3.7742      3.8327      3.8977    
  3.9671      4.0385      4.1090      4.1759      4.2368      4.2897      4.3334      4.3672      4.3911      4.4052    
  4.4098      4.4052      4.3911      4.3672      4.3334      4.2897      4.2368      4.1759      4.1090      4.0385    
  3.9671      3.8977      3.8327      3.7742      3.7237      3.6828      3.6526      3.6341      3.6278      3.6341    
  3.6526      3.6828      3.6316      3.6800      3.7379      3.8037      3.8756      3.9515      4.0287      4.1045    
  4.1759      4.2406      4.2965      4.3422      4.3768      4.3999      4.4114      4.4114      4.3999      4.3768    
  4.3422      4.2965      4.2406      4.1759      4.1045      4.0287      3.9515      3.8756      3.8037      3.7379    
  3.6800      3.6316      3.5939      3.5681      3.5550      3.5550      3.5681      3.5939      3.5463      3.5917    
  3.6477      3.7130      3.7858      3.8642      3.9462      4.0287      4.1090      4.1842      4.2516      4.3092    
  4.3552      4.3886      4.4089      4.4157      4.4089      4.3886      4.3552      4.3092      4.2516      4.1842    
  4.1090      4.0287      3.9462      3.8642      3.7858      3.7130      3.6477      3.5917      3.5463      3.5129    
  3.4924      3.4855      3.4924      3.5129      3.4701      3.5113      3.5643      3.6278      3.7002      3.7797    
  3.8642      3.9515      4.0385      4.1223      4.1999      4.2685      4.3259      4.3703      4.4005      4.4158    
  4.4158      4.4005      4.3703      4.3259      4.2685      4.1999      4.1223      4.0385      3.9515      3.8642    
  3.7797      3.7002      3.6278      3.5643      3.5113      3.4701      3.4419      3.4276      3.4276      3.4419    
  3.4048      3.4408      3.4898      3.5504      3.6211      3.7002      3.7858      3.8756      3.9671      4.0574    
  4.1433      4.2215      4.2895      4.3446      4.3853      4.4102      4.4185      4.4102      4.3853      4.3446    
  4.2895      4.2215      4.1433      4.0574      3.9671      3.8756      3.7858      3.7002      3.6211      3.5504    
  3.4898      3.4408      3.4048      3.3827      3.3753      3.3827      3.3520      3.3821      3.4260      3.4826    
  3.5504      3.6278      3.7130      3.8037      3.8977      3.9922      4.0842      4.1703      4.2473      4.3125    
  4.3634      4.3983      4.4161      4.4161      4.3983      4.3634      4.3125      4.2473      4.1703      4.0842    
  3.9922      3.8977      3.8037      3.7130      3.6278      3.5504      3.4826      3.4260      3.3821      3.3520    
  3.3368      3.3368      3.3133      3.3365      3.3744      3.4260      3.4898      3.5643      3.6477      3.7379    
  3.8327      3.9295      4.0253      4.1171      4.2015      4.2753      4.3357      4.3805      4.4081      4.4174    
  4.4081      4.3805      4.3357      4.2753      4.2015      4.1171      4.0253      3.9295      3.8327      3.7379    
  3.6477      3.5643      3.4898      3.4260      3.3744      3.3365      3.3133      3.3055      3.2896      3.3054    
  3.3365      3.3821      3.4408      3.5113      3.5917      3.6800      3.7742      3.8716      3.9695      4.0649    
  4.1546      4.2353      4.3040      4.3579      4.3950      4.4140      4.4140      4.3950      4.3579      4.3040    
  4.2353      4.1546      4.0649      3.9695      3.8716      3.7742      3.6800      3.5917      3.5113      3.4408    
  3.3821      3.3365      3.3054      3.2896      3.2687      3.2767      3.3005      3.3395      3.3927      3.4586    
  3.5355      3.6217      3.7147      3.8122      3.9115      4.0094      4.1029      4.1888      4.2640      4.3256    
  4.3715      4.3997      4.4093      4.3997      4.3715      4.3256      4.2640      4.1888      4.1029      4.0094    
  3.9115      3.8122      3.7147      3.6217      3.5355      3.4586      3.3927      3.3395      3.3005      3.2767    
  3.2767      3.2767      3.2926      3.3241      3.3702      3.4298      3.5014      3.5831      3.6728      3.7681    
  3.8665      3.9650      4.0605      4.1500      4.2303      4.2986      4.3522      4.3891      4.4079      4.4079    
  4.3891      4.3522      4.2986      4.2303      4.1500      4.0605      3.9650      3.8665      3.7681      3.6728    
  3.5831      3.5014      3.4298      3.3702      3.3241      3.2926      3.3005      3.2926      3.3005      3.3241    
  3.3627      3.4152      3.4804      3.5566      3.6417      3.7335      3.8296      3.9271      4.0231      4.1146    
  4.1986      4.2720      4.3323      4.3771      4.4046      4.4140      4.4046      4.3771      4.3323      4.2720    
  4.1986      4.1146      4.0231      3.9271      3.8296      3.7335      3.6417      3.5566      3.4804      3.4152    
  3.3627      3.3241      3.3395      3.3240      3.3240      3.3395      3.3702      3.4152      3.4734      3.5431    
  3.6226      3.7097      3.8020      3.8971      3.9921      4.0840      4.1701      4.2472      4.3127      4.3641    
  4.3996      4.4177      4.4177      4.3996      4.3641      4.3127      4.2472      4.1701      4.0840      3.9921    
  3.8971      3.8020      3.7097      3.6226      3.5431      3.4734      3.4152      3.3702      3.3927      3.3699    
  3.3623      3.3699      3.3927      3.4298      3.4804      3.5431      3.6161      3.6975      3.7851      3.8764    
  3.9688      4.0596      4.1460      4.2252      4.2943      4.3510      4.3932      4.4192      4.4279      4.4192    
  4.3932      4.3510      4.2943      4.2252      4.1460      4.0596      3.9688      3.8764      3.7851      3.6975    
  3.6161      3.5431      3.4804      3.4298      3.4586      3.4293      3.4144      3.4144      3.4293      3.4586    
  3.5014      3.5566      3.6226      3.6975      3.7793      3.8657      3.9543      4.0425      4.1277      4.2072    
  4.2783      4.3387      4.3860      4.4187      4.4353      4.4353      4.4187      4.3860      4.3387      4.2783    
  4.2072      4.1277      4.0425      3.9543      3.8657      3.7793      3.6975      3.6226      3.5566      3.5014    
  3.5355      3.5005      3.4790      3.4718      3.4790      3.5005      3.5355      3.5831      3.6417      3.7097    
  3.7851      3.8657      3.9494      4.0338      4.1163      4.1945      4.2658      4.3281      4.3790      4.4167    
  4.4399      4.4478      4.4399      4.4167      4.3790      4.3281      4.2658      4.1945      4.1163      4.0338    
  3.9494      3.8657      3.7851      3.7097      3.6417      3.5831      3.6217      3.5818      3.5544      3.5405    
  3.5405      3.5544      3.5818      3.6217      3.6728      3.7335      3.8020      3.8764      3.9543      4.0338    
  4.1124      4.1878      4.2579      4.3202      4.3729      4.4141      4.4424      4.4568      4.4568      4.4424    
  4.4141      4.3729      4.3202      4.2579      4.1878      4.1124      4.0338      3.9543      3.8764      3.8020    
  3.7335      3.6728      3.7147      3.6711      3.6387      3.6188      3.6121      3.6188      3.6387      3.6711    
  3.7147      3.7681      3.8296      3.8971      3.9688      4.0425      4.1163      4.1878      4.2551      4.3161    
  4.3689      4.4117      4.4434      4.4628      4.4693      4.4628      4.4434      4.4117      4.3689      4.3161    
  4.2551      4.1878      4.1163      4.0425      3.9688      3.8971      3.8296      3.7681      3.8122      3.7662    
  3.7299      3.7049      3.6921      3.6921      3.7049      3.7299      3.7662      3.8122      3.8665      3.9271    
  3.9921      4.0596      4.1277      4.1945      4.2579      4.3161      4.3674      4.4103      4.4436      4.4662    
  4.4777      4.4777      4.4662      4.4436      4.4103      4.3674      4.3161      4.2579      4.1945      4.1277    
  4.0596      3.9921      3.9271      3.8665      3.9115      3.8644      3.8256      3.7965      3.7785      3.7724    
  3.7785      3.7965      3.8256      3.8644      3.9115      3.9650      4.0231      4.0840      4.1460      4.2072    
  4.2658      4.3202      4.3689      4.4103      4.4436      4.4678      4.4826      4.4875      4.4826      4.4678    
  4.4436      4.4103      4.3689      4.3202      4.2658      4.2072      4.1460      4.0840      4.0231      3.9650    
  4.0094      3.9630      3.9231      3.8913      3.8691      3.8577      3.8577      3.8691      3.8913      3.9231    
  3.9630      4.0094      4.0605      4.1146      4.1701      4.2252      4.2783      4.3281      4.3729      4.4117    
  4.4436      4.4678      4.4841      4.4923      4.4923      4.4841      4.4678      4.4436      4.4117      4.3729    
  4.3281      4.2783      4.2252      4.1701      4.1146      4.0605      4.1029      4.0588      4.0195      3.9865    
  3.9616      3.9460      3.9407      3.9460      3.9616      3.9865      4.0195      4.0588      4.1029      4.1500    
  4.1986      4.2472      4.2943      4.3387      4.3790      4.4141      4.4434      4.4662      4.4826      4.4923    
  4.4955      4.4923      4.4826      4.4662      4.4434      4.4141      4.3790      4.3387      4.2943      4.2472    
  4.1986      4.1500      4.1888      4.1488      4.1117      4.0793      4.0531      4.0346      4.0250      4.0250    
  4.0346      4.0531      4.0793      4.1117      4.1488      4.1888      4.2303      4.2720      4.3127      4.3510    
  4.3860      4.4167      4.4424      4.4628      4.4777      4.4875      4.4923      4.4923      4.4875      4.4777    
  4.4628      4.4424      4.4167      4.3860      4.3510      4.3127      4.2720      4.2303      4.2640      4.2296    
  4.1966      4.1664      4.1406      4.1207      4.1080      4.1037      4.1080      4.1207      4.1406      4.1664    
  4.1966      4.2296      4.2640      4.2986      4.3323      4.3641      4.3932      4.4187      4.4399      4.4568    
  4.4693      4.4777      4.4826      4.4841      4.4826      4.4777      4.4693      4.4568      4.4399      4.4187    
  4.3932      4.3641      4.3323      4.2986      4.3256      4.2983      4.2710      4.2448      4.2210      4.2012    
  4.1869      4.1794      4.1794      4.1869      4.2012      4.2210      4.2448      4.2710      4.2983      4.3256    
  4.3522      4.3771      4.3996      4.4192      4.4353      4.4478      4.4568      4.4628      4.4662      4.4678    
  4.4678      4.4662      4.4628      4.4568      4.4478      4.4353      4.4192      4.3996      4.3771      4.3522    
  4.3715      4.3523      4.3320      4.3113      4.2913      4.2733      4.2589      4.2495      4.2463      4.2495    
  4.2589      4.2733      4.2913      4.3113      4.3320      4.3523      4.3715      4.3891      4.4046      4.4177    
  4.4279      4.4353      4.4399      4.4424      4.4434      4.4436      4.4436      4.4436      4.4434      4.4424    
  4.4399      4.4353      4.4279      4.4177      4.4046      4.3891      4.3997      4.3895      4.3773      4.3635    
  4.3488      4.3342      4.3213      4.3116      4.3063      4.3063      4.3116      4.3213      4.3342      4.3488    
  4.3635      4.3773      4.3895      4.3997      4.4079      4.4140      4.4177      4.4192      4.4187      4.4167    
  4.4141      4.4117      4.4103      4.4103      4.4117      4.4141      4.4167      4.4187      4.4192      4.4177    
  4.4140      4.4079      4.4093      4.4085      4.4052      4.3995      4.3914      4.3819      4.3721      4.3636    
  4.3577      4.3556      4.3577      4.3636      4.3721      4.3819      4.3914      4.3995      4.4052      4.4085    
  4.4093      4.4079      4.4046      4.3996      4.3932      4.3860      4.3790      4.3729      4.3689      4.3674    
  4.3689      4.3729      4.3790      4.3860      4.3932      4.3996      4.4046      4.4079      4.3997      4.4085    
  4.4147      4.4178      4.4176      4.4146      4.4096      4.4038      4.3989      4.3961      4.3961      4.3989    
  4.4038      4.4096      4.4146      4.4176      4.4178      4.4147      4.4085      4.3997      4.3891      4.3771    
  4.3641      4.3510      4.3387      4.3281      4.3202      4.3161      4.3161      4.3202      4.3281      4.3387    
  4.3510      4.3641      4.3771      4.3891      4.3715      4.3895      4.4052      4.4178      4.4265      4.4312    
  4.4325      4.4313      4.4290      4.4269      4.4261      4.4269      4.4290      4.4313      4.4325      4.4312    
  4.4265      4.4178      4.4052      4.3895      4.3715      4.3522      4.3323      4.3127      4.2943      4.2783    
  4.2658      4.2579      4.2551      4.2579      4.2658      4.2783      4.2943      4.3127      4.3323      4.3522    
  4.3256      4.3523      4.3773      4.3995      4.4176      4.4312      4.4402      4.4452      4.4472      4.4476    
  4.4474      4.4474      4.4476      4.4472      4.4452      4.4402      4.4312      4.4176      4.3995      4.3773    
  4.3523      4.3256      4.2986      4.2720      4.2472      4.2252      4.2072      4.1945      4.1878      4.1878    
  4.1945      4.2072      4.2252      4.2472      4.2720      4.2986      4.2640      4.2983      4.3320      4.3635    
  4.3914      4.4146      4.4325      4.4452      4.4533      4.4579      4.4601      4.4607      4.4601      4.4579    
  4.4533      4.4452      4.4325      4.4146      4.3914      4.3635      4.3320      4.2983      4.2640      4.2303    
  4.1986      4.1701      4.1460      4.1277      4.1163      4.1124      4.1163      4.1277      4.1460      4.1701    
  4.1986      4.2303      4.1888      4.2296      4.2710      4.3113      4.3488      4.3819      4.4096      4.4313    
  4.4472      4.4579      4.4643      4.4673      4.4673      4.4643      4.4579      4.4472      4.4313      4.4096    
  4.3819      4.3488      4.3113      4.2710      4.2296      4.1888      4.1500      4.1146      4.0840      4.0596    
  4.0425      4.0338      4.0338      4.0425      4.0596      4.0840      4.1146      4.1500      4.1029      4.1488    
  4.1966      4.2448      4.2913      4.3342      4.3721      4.4038      4.4290      4.4476      4.4601      4.4673    
  4.4696      4.4673      4.4601      4.4476      4.4290      4.4038      4.3721      4.3342      4.2913      4.2448    
  4.1966      4.1488      4.1029      4.0605      4.0231      3.9921      3.9688      3.9543      3.9494      3.9543    
  3.9688      3.9921      4.0231      4.0605      4.0094      4.0588      4.1117      4.1664      4.2210      4.2733    
  4.3213      4.3636      4.3989      4.4269      4.4474      4.4607      4.4673      4.4673      4.4607      4.4474    
  4.4269      4.3989      4.3636      4.3213      4.2733      4.2210      4.1664      4.1117      4.0588      4.0094    
  3.9650      3.9271      3.8971      3.8764      3.8657      3.8657      3.8764      3.8971      3.9271      3.9650    
  3.9115      3.9630      4.0195      4.0793      4.1406      4.2012      4.2589      4.3116      4.3577      4.3961    
  4.4261      4.4474      4.4601      4.4643      4.4601      4.4474      4.4261      4.3961      4.3577      4.3116    
  4.2589      4.2012      4.1406      4.0793      4.0195      3.9630      3.9115      3.8665      3.8296      3.8020    
  3.7851      3.7793      3.7851      3.8020      3.8296      3.8665      3.8122      3.8644      3.9231      3.9865    
  4.0531      4.1207      4.1869      4.2495      4.3063      4.3556      4.3961      4.4269      4.4476      4.4579    
  4.4579      4.4476      4.4269      4.3961      4.3556      4.3063      4.2495      4.1869      4.1207      4.0531    
  3.9865      3.9231      3.8644      3.8122      3.7681      3.7335      3.7097      3.6975      3.6975      3.7097    
  3.7335      3.7681      3.7147      3.7662      3.8256      3.8913      3.9616      4.0346      4.1080      4.1794    
  4.2463      4.3063      4.3577      4.3989      4.4290      4.4472      4.4533      4.4472      4.4290      4.3989    
  4.3577      4.3063      4.2463      4.1794      4.1080      4.0346      3.9616      3.8913      3.8256      3.7662    
  3.7147      3.6728      3.6417      3.6226      3.6161      3.6226      3.6417      3.6728      3.6217      3.6711    
  3.7299      3.7965      3.8691      3.9460      4.0250      4.1037      4.1794      4.2495      4.3116      4.3636    
  4.4038      4.4313      4.4452      4.4452      4.4313      4.4038      4.3636      4.3116      4.2495      4.1794    
  4.1037      4.0250      3.9460      3.8691      3.7965      3.7299      3.6711      3.6217      3.5831      3.5566    
  3.5431      3.5431      3.5566      3.5831      3.5355      3.5818      3.6387      3.7049      3.7785      3.8577    
  3.9407      4.0250      4.1080      4.1869      4.2589      4.3213      4.3721      4.4096      4.4325      4.4402    
  4.4325      4.4096      4.3721      4.3213      4.2589      4.1869      4.1080      4.0250      3.9407      3.8577    
  3.7785      3.7049      3.6387      3.5818      3.5355      3.5014      3.4804      3.4734      3.4804      3.5014    
  3.4586      3.5005      3.5544      3.6188      3.6921      3.7724      3.8577      3.9460      4.0346      4.1207    
  4.2012      4.2733      4.3342      4.3819      4.4146      4.4312      4.4312      4.4146      4.3819      4.3342    
  4.2733      4.2012      4.1207      4.0346      3.9460      3.8577      3.7724      3.6921      3.6188      3.5544    
  3.5005      3.4586      3.4298      3.4152      3.4152      3.4298      3.3927      3.4293      3.4790      3.5405    
  3.6121      3.6921      3.7785      3.8691      3.9616      4.0531      4.1406      4.2210      4.2913      4.3488    
  4.3914      4.4176      4.4265      4.4176      4.3914      4.3488      4.2913      4.2210      4.1406      4.0531    
  3.9616      3.8691      3.7785      3.6921      3.6121      3.5405      3.4790      3.4293      3.3927      3.3702    
  3.3627      3.3702      3.3395      3.3699      3.4144      3.4718      3.5405      3.6188      3.7049      3.7965    
  3.8913      3.9865      4.0793      4.1664      4.2448      4.3113      4.3635      4.3995      4.4178      4.4178    
  4.3995      4.3635      4.3113      4.2448      4.1664      4.0793      3.9865      3.8913      3.7965      3.7049    
  3.6188      3.5405      3.4718      3.4144      3.3699      3.3395      3.3241      3.3241      3.3005      3.3240    
  3.3623      3.4144      3.4790      3.5544      3.6387      3.7299      3.8256      3.9231      4.0195      4.1117    
  4.1966      4.2710      4.3320      4.3773      4.4052      4.4147      4.4052      4.3773      4.3320      4.2710    
  4.1966      4.1117      4.0195      3.9231      3.8256      3.7299      3.6387      3.5544      3.4790      3.4144    
  3.3623      3.3240      3.3005      3.2926      3.2767      3.2926      3.3240      3.3699      3.4293      3.5005    
  3.5818      3.6711      3.7662      3.8644      3.9630      4.0588      4.1488      4.2296      4.2983      4.3523    
  4.3895      4.4085      4.4085      4.3895      4.3523      4.2983      4.2296      4.1488      4.0588      3.9630    
  3.8644      3.7662      3.6711      3.5818      3.5005      3.4293      3.3699      3.3240      3.2926      3.2767    
  3.2605      3.2686      3.2925      3.3317      3.3851      3.4514      3.5289      3.6156      3.7093      3.8074    
  3.9071      4.0054      4.0991      4.1850      4.2601      4.3216      4.3673      4.3954      4.4049      4.3954    
  4.3673      4.3216      4.2601      4.1850      4.0991      4.0054      3.9071      3.8074      3.7093      3.6156    
  3.5289      3.4514      3.3851      3.3317      3.2925      3.2686      3.2686      3.2686      3.2846      3.3161    
  3.3624      3.4223      3.4942      3.5764      3.6666      3.7625      3.8614      3.9603      4.0562      4.1459    
  4.2263      4.2946      4.3481      4.3850      4.4038      4.4038      4.3850      4.3481      4.2946      4.2263    
  4.1459      4.0562      3.9603      3.8614      3.7625      3.6666      3.5764      3.4942      3.4223      3.3624    
  3.3161      3.2846      3.2925      3.2846      3.2925      3.3161      3.3548      3.4075      3.4729      3.5494    
  3.6348      3.7271      3.8236      3.9215      4.0180      4.1100      4.1943      4.2680      4.3284      4.3732    
  4.4008      4.4102      4.4008      4.3732      4.3284      4.2680      4.1943      4.1100      4.0180      3.9215    
  3.8236      3.7271      3.6348      3.5494      3.4729      3.4075      3.3548      3.3161      3.3317      3.3161    
  3.3161      3.3317      3.3624      3.4075      3.4658      3.5356      3.6152      3.7026      3.7953      3.8907    
  3.9861      4.0786      4.1652      4.2428      4.3087      4.3605      4.3962      4.4144      4.4144      4.3962    
  4.3605      4.3087      4.2428      4.1652      4.0786      3.9861      3.8907      3.7953      3.7026      3.6152    
  3.5356      3.4658      3.4075      3.3624      3.3851      3.3623      3.3547      3.3623      3.3851      3.4223    
  3.4729      3.5356      3.6086      3.6900      3.7777      3.8692      3.9620      4.0534      4.1404      4.2203    
  4.2902      4.3475      4.3902      4.4165      4.4253      4.4165      4.3902      4.3475      4.2902      4.2203    
  4.1404      4.0534      3.9620      3.8692      3.7777      3.6900      3.6086      3.5356      3.4729      3.4223    
  3.4514      3.4221      3.4072      3.4072      3.4221      3.4514      3.4942      3.5494      3.6152      3.6900    
  3.7718      3.8582      3.9470      4.0356      4.1215      4.2018      4.2738      4.3351      4.3833      4.4165    
  4.4335      4.4335      4.4165      4.3833      4.3351      4.2738      4.2018      4.1215      4.0356      3.9470    
  3.8582      3.7718      3.6900      3.6152      3.5494      3.4942      3.5289      3.4938      3.4723      3.4651    
  3.4723      3.4938      3.5289      3.5764      3.6348      3.7026      3.7777      3.8582      3.9419      4.0265    
  4.1095      4.1885      4.2610      4.3243      4.3763      4.4150      4.4389      4.4469      4.4389      4.4150    
  4.3763      4.3243      4.2610      4.1885      4.1095      4.0265      3.9419      3.8582      3.7777      3.7026    
  3.6348      3.5764      3.6156      3.5758      3.5484      3.5344      3.5344      3.5484      3.5758      3.6156    
  3.6666      3.7271      3.7953      3.8692      3.9470      4.0265      4.1054      4.1816      4.2527      4.3164    
  4.3704      4.4128      4.4420      4.4569      4.4569      4.4420      4.4128      4.3704      4.3164      4.2527    
  4.1816      4.1054      4.0265      3.9470      3.8692      3.7953      3.7271      3.6666      3.7093      3.6658    
  3.6334      3.6135      3.6068      3.6135      3.6334      3.6658      3.7093      3.7625      3.8236      3.8907    
  3.9620      4.0356      4.1095      4.1816      4.2499      4.3121      4.3663      4.4106      4.4435      4.4637    
  4.4705      4.4637      4.4435      4.4106      4.3663      4.3121      4.2499      4.1816      4.1095      4.0356    
  3.9620      3.8907      3.8236      3.7625      3.8074      3.7615      3.7253      3.7003      3.6874      3.6874    
  3.7003      3.7253      3.7615      3.8074      3.8614      3.9215      3.9861      4.0534      4.1215      4.1885    
  4.2527      4.3121      4.3649      4.4093      4.4440      4.4677      4.4798      4.4798      4.4677      4.4440    
  4.4093      4.3649      4.3121      4.2527      4.1885      4.1215      4.0534      3.9861      3.9215      3.8614    
  3.9071      3.8603      3.8216      3.7925      3.7745      3.7684      3.7745      3.7925      3.8216      3.8603    
  3.9071      3.9603      4.0180      4.0786      4.1404      4.2018      4.2610      4.3164      4.3663      4.4093    
  4.4441      4.4696      4.4852      4.4904      4.4852      4.4696      4.4441      4.4093      4.3663      4.3164    
  4.2610      4.2018      4.1404      4.0786      4.0180      3.9603      4.0054      3.9593      3.9195      3.8878    
  3.8657      3.8543      3.8543      3.8657      3.8878      3.9195      3.9593      4.0054      4.0562      4.1100    
  4.1652      4.2203      4.2738      4.3243      4.3704      4.4106      4.4440      4.4696      4.4869      4.4957    
  4.4957      4.4869      4.4696      4.4440      4.4106      4.3704      4.3243      4.2738      4.2203      4.1652    
  4.1100      4.0562      4.0991      4.0554      4.0162      3.9834      3.9585      3.9429      3.9376      3.9429    
  3.9585      3.9834      4.0162      4.0554      4.0991      4.1459      4.1943      4.2428      4.2902      4.3351    
  4.3763      4.4128      4.4435      4.4677      4.4852      4.4957      4.4992      4.4957      4.4852      4.4677    
  4.4435      4.4128      4.3763      4.3351      4.2902      4.2428      4.1943      4.1459      4.1850      4.1453    
  4.1086      4.0763      4.0503      4.0319      4.0223      4.0223      4.0319      4.0503      4.0763      4.1086    
  4.1453      4.1850      4.2263      4.2680      4.3087      4.3475      4.3833      4.4150      4.4420      4.4637    
  4.4798      4.4904      4.4957      4.4957      4.4904      4.4798      4.4637      4.4420      4.4150      4.3833    
  4.3475      4.3087      4.2680      4.2263      4.2601      4.2260      4.1934      4.1636      4.1381      4.1184    
  4.1060      4.1018      4.1060      4.1184      4.1381      4.1636      4.1934      4.2260      4.2601      4.2946    
  4.3284      4.3605      4.3902      4.4165      4.4389      4.4569      4.4705      4.4798      4.4852      4.4869    
  4.4852      4.4798      4.4705      4.4569      4.4389      4.4165      4.3902      4.3605      4.3284      4.2946    
  4.3216      4.2945      4.2676      4.2420      4.2189      4.1998      4.1861      4.1789      4.1789      4.1861    
  4.1998      4.2189      4.2420      4.2676      4.2945      4.3216      4.3481      4.3732      4.3962      4.4165    
  4.4335      4.4469      4.4569      4.4637      4.4677      4.4696      4.4696      4.4677      4.4637      4.4569    
  4.4469      4.4335      4.4165      4.3962      4.3732      4.3481      4.3673      4.3483      4.3285      4.3087    
  4.2898      4.2730      4.2596      4.2510      4.2480      4.2510      4.2596      4.2730      4.2898      4.3087    
  4.3285      4.3483      4.3673      4.3850      4.4008      4.4144      4.4253      4.4335      4.4389      4.4420    
  4.4435      4.4440      4.4441      4.4440      4.4435      4.4420      4.4389      4.4335      4.4253      4.4144    
  4.4008      4.3850      4.3954      4.3853      4.3738      4.3611      4.3480      4.3352      4.3240      4.3155    
  4.3110      4.3110      4.3155      4.3240      4.3352      4.3480      4.3611      4.3738      4.3853      4.3954    
  4.4038      4.4102      4.4144      4.4165      4.4165      4.4150      4.4128      4.4106      4.4093      4.4093    
  4.4106      4.4128      4.4150      4.4165      4.4165      4.4144      4.4102      4.4038      4.4049      4.4042    
  4.4017      4.3973      4.3913      4.3841      4.3767      4.3702      4.3657      4.3641      4.3657      4.3702    
  4.3767      4.3841      4.3913      4.3973      4.4017      4.4042      4.4049      4.4038      4.4008      4.3962    
  4.3902      4.3833      4.3763      4.3704      4.3663      4.3649      4.3663      4.3704      4.3763      4.3833    
  4.3902      4.3962      4.4008      4.4038      4.3954      4.4042      4.4111      4.4157      4.4179      4.4178    
  4.4159      4.4130      4.4103      4.4086      4.4086      4.4103      4.4130      4.4159      4.4178      4.4179    
  4.4157      4.4111      4.4042      4.3954      4.3850      4.3732      4.3605      4.3475      4.3351      4.3243    
  4.3164      4.3121      4.3121      4.3164      4.3243      4.3351      4.3475      4.3605      4.3732      4.3850    
  4.3673      4.3853      4.4017      4.4157      4.4269      4.4350      4.4400      4.4424      4.4432      4.4432    
  4.4431      4.4432      4.4432      4.4424      4.4400      4.4350      4.4269      4.4157      4.4017      4.3853    
  4.3673      4.3481      4.3284      4.3087      4.2902      4.2738      4.2610      4.2527      4.2499      4.2527    
  4.2610      4.2738      4.2902      4.3087      4.3284      4.3481      4.3216      4.3483      4.3738      4.3973    
  4.4179      4.4350      4.4481      4.4574      4.4633      4.4667      4.4681      4.4681      4.4667      4.4633    
  4.4574      4.4481      4.4350      4.4179      4.3973      4.3738      4.3483      4.3216      4.2946      4.2680    
  4.2428      4.2203      4.2018      4.1885      4.1816      4.1816      4.1885      4.2018      4.2203      4.2428    
  4.2680      4.2946      4.2601      4.2945      4.3285      4.3611      4.3913      4.4178      4.4400      4.4574    
  4.4701      4.4786      4.4834      4.4849      4.4834      4.4786      4.4701      4.4574      4.4400      4.4178    
  4.3913      4.3611      4.3285      4.2945      4.2601      4.2263      4.1943      4.1652      4.1404      4.1215    
  4.1095      4.1054      4.1095      4.1215      4.1404      4.1652      4.1943      4.2263      4.1850      4.2260    
  4.2676      4.3087      4.3480      4.3841      4.4159      4.4424      4.4633      4.4786      4.4885      4.4933    
  4.4933      4.4885      4.4786      4.4633      4.4424      4.4159      4.3841      4.3480      4.3087      4.2676    
  4.2260      4.1850      4.1459      4.1100      4.0786      4.0534      4.0356      4.0265      4.0265      4.0356    
  4.0534      4.0786      4.1100      4.1459      4.0991      4.1453      4.1934      4.2420      4.2898      4.3352    
  4.3767      4.4130      4.4432      4.4667      4.4834      4.4933      4.4966      4.4933      4.4834      4.4667    
  4.4432      4.4130      4.3767      4.3352      4.2898      4.2420      4.1934      4.1453      4.0991      4.0562    
  4.0180      3.9861      3.9620      3.9470      3.9419      3.9470      3.9620      3.9861      4.0180      4.0562    
  4.0054      4.0554      4.1086      4.1636      4.2189      4.2730      4.3240      4.3702      4.4103      4.4432    
  4.4681      4.4849      4.4933      4.4933      4.4849      4.4681      4.4432      4.4103      4.3702      4.3240    
  4.2730      4.2189      4.1636      4.1086      4.0554      4.0054      3.9603      3.9215      3.8907      3.8692    
  3.8582      3.8582      3.8692      3.8907      3.9215      3.9603      3.9071      3.9593      4.0162      4.0763    
  4.1381      4.1998      4.2596      4.3155      4.3657      4.4086      4.4431      4.4681      4.4834      4.4885    
  4.4834      4.4681      4.4431      4.4086      4.3657      4.3155      4.2596      4.1998      4.1381      4.0763    
  4.0162      3.9593      3.9071      3.8614      3.8236      3.7953      3.7777      3.7718      3.7777      3.7953    
  3.8236      3.8614      3.8074      3.8603      3.9195      3.9834      4.0503      4.1184      4.1861      4.2510    
  4.3110      4.3641      4.4086      4.4432      4.4667      4.4786      4.4786      4.4667      4.4432      4.4086    
  4.3641      4.3110      4.2510      4.1861      4.1184      4.0503      3.9834      3.9195      3.8603      3.8074    
  3.7625      3.7271      3.7026      3.6900      3.6900      3.7026      3.7271      3.7625      3.7093      3.7615    
  3.8216      3.8878      3.9585      4.0319      4.1060      4.1789      4.2480      4.3110      4.3657      4.4103    
  4.4432      4.4633      4.4701      4.4633      4.4432      4.4103      4.3657      4.3110      4.2480      4.1789    
  4.1060      4.0319      3.9585      3.8878      3.8216      3.7615      3.7093      3.6666      3.6348      3.6152    
  3.6086      3.6152      3.6348      3.6666      3.6156      3.6658      3.7253      3.7925      3.8657      3.9429    
  4.0223      4.1018      4.1789      4.2510      4.3155      4.3702      4.4130      4.4424      4.4574      4.4574    
  4.4424      4.4130      4.3702      4.3155      4.2510      4.1789      4.1018      4.0223      3.9429      3.8657    
  3.7925      3.7253      3.6658      3.6156      3.5764      3.5494      3.5356      3.5356      3.5494      3.5764    
  3.5289      3.5758      3.6334      3.7003      3.7745      3.8543      3.9376      4.0223      4.1060      4.1861    
  4.2596      4.3240      4.3767      4.4159      4.4400      4.4481      4.4400      4.4159      4.3767      4.3240    
  4.2596      4.1861      4.1060      4.0223      3.9376      3.8543      3.7745      3.7003      3.6334      3.5758    
  3.5289      3.4942      3.4729      3.4658      3.4729      3.4942      3.4514      3.4938      3.5484      3.6135    
  3.6874      3.7684      3.8543      3.9429      4.0319      4.1184      4.1998      4.2730      4.3352      4.3841    
  4.4178      4.4350      4.4350      4.4178      4.3841      4.3352      4.2730      4.1998      4.1184      4.0319    
  3.9429      3.8543      3.7684      3.6874      3.6135      3.5484      3.4938      3.4514      3.4223      3.4075    
  3.4075      3.4223      3.3851      3.4221      3.4723      3.5344      3.6068      3.6874      3.7745      3.8657    
  3.9585      4.0503      4.1381      4.2189      4.2898      4.3480      4.3913      4.4179      4.4269      4.4179    
  4.3913      4.3480      4.2898      4.2189      4.1381      4.0503      3.9585      3.8657      3.7745      3.6874    
  3.6068      3.5344      3.4723      3.4221      3.3851      3.3624      3.3548      3.3624      3.3317      3.3623    
  3.4072      3.4651      3.5344      3.6135      3.7003      3.7925      3.8878      3.9834      4.0763      4.1636    
  4.2420      4.3087      4.3611      4.3973      4.4157      4.4157      4.3973      4.3611      4.3087      4.2420    
  4.1636      4.0763      3.9834      3.8878      3.7925      3.7003      3.6135      3.5344      3.4651      3.4072    
  3.3623      3.3317      3.3161      3.3161      3.2925      3.3161      3.3547      3.4072      3.4723      3.5484    
  3.6334      3.7253      3.8216      3.9195      4.0162      4.1086      4.1934      4.2676      4.3285      4.3738    
  4.4017      4.4111      4.4017      4.3738      4.3285      4.2676      4.1934      4.1086      4.0162      3.9195    
  3.8216      3.7253      3.6334      3.5484      3.4723      3.4072      3.3547      3.3161      3.2925      3.2846    
  3.2686      3.2846      3.3161      3.3623      3.4221      3.4938      3.5758      3.6658      3.7615      3.8603    
  3.9593      4.0554      4.1453      4.2260      4.2945      4.3483      4.3853      4.4042      4.4042      4.3853    
  4.3483      4.2945      4.2260      4.1453      4.0554      3.9593      3.8603      3.7615      3.6658      3.5758    
  3.4938      3.4221      3.3623      3.3161      3.2846      3.2686      
