       N       E                     dE             d eps       ncg     rms          rms(c)
DAV:   1    -0.258995402848E+00   -0.25900E+00   -0.17548E+03 32256   0.699E+01
DAV:   2    -0.661036029931E+01   -0.63514E+01   -0.60798E+01 48468   0.102E+01
DAV:   3    -0.662009612281E+01   -0.97358E-02   -0.97327E-02 33264   0.412E-01
DAV:   4    -0.662010741277E+01   -0.11290E-04   -0.11290E-04 62790   0.142E-02
DAV:   5    -0.662010741261E+01    0.15542E-09   -0.75635E-10 33600   0.314E-05
DAV:   6    -0.662010741284E+01   -0.22028E-09    0.25025E-10 61320   0.137E-06
   1 F= -.69992065E+01 E0= -.69978037E+01  d E =-.280550E-02
