       N       E                     dE             d eps       ncg     rms          ort
DAV:   1     0.189722872401E+01    0.18972E+01   -0.27554E+03129276   0.129E+02
DAV:   2    -0.109437141939E+02   -0.12841E+02   -0.12345E+02129276   0.163E+01
DAV:   3    -0.109900621548E+02   -0.46348E-01   -0.46332E-01129276   0.109E+00
DAV:   4    -0.109901903974E+02   -0.12824E-03   -0.12824E-03129276   0.628E-02
DAV:   5    -0.109901904073E+02   -0.98962E-08   -0.91732E-08129276   0.439E-04
SDA:   6    -0.667870737411E+01    0.43115E+01   -0.91732E-08129276   0.727E+01 0.000E+00
CGA:   7    -0.945534077317E+01   -0.27766E+01   -0.30619E+01129276   0.474E+00-0.140E+01
CGA:   8    -0.958563083948E+01   -0.13029E+00   -0.12882E+00129276   0.404E-01 0.776E-02
CGA:   9    -0.959859420647E+01   -0.12963E-01   -0.12967E-01129276   0.477E-02 0.425E-04
CGA:  10    -0.960046147958E+01   -0.18673E-02   -0.18609E-02129276   0.116E-02 0.504E-04
CGA:  11    -0.960102996626E+01   -0.56849E-03   -0.56470E-03129276   0.319E-03 0.125E-04
CGA:  12    -0.960116907208E+01   -0.13911E-03   -0.13886E-03129276   0.487E-04 0.767E-06
CGA:  13    -0.960118954562E+01   -0.20474E-04   -0.20489E-04129276   0.837E-05-0.794E-07
CGA:  14    -0.960119346503E+01   -0.39194E-05   -0.39307E-05129276   0.167E-05-0.505E-07
CGA:  15    -0.960119427459E+01   -0.80957E-06   -0.81453E-06129276   0.332E-06-0.231E-07
   1 F= -.96011943E+01 E0= -.96008723E+01  d E =-.644031E-03
