 running  168 mpi-ranks, on    1 nodes
 distrk:  each k-point on  168 cores,    1 groups
 distr:  one band on    1 cores,  168 groups
 vasp.6.5.0 16Dec24 (build Jan 08 2025 16:17:04) complex                        
  
 POSCAR found type information on POSCAR BeH 
 POSCAR found :  2 types and      36 ions
 Reading from existing POTCAR
 scaLAPACK will be used
 -----------------------------------------------------------------------------
|                                                                             |
|           W    W    AA    RRRRR   N    N  II  N    N   GGGG   !!!           |
|           W    W   A  A   R    R  NN   N  II  NN   N  G    G  !!!           |
|           W    W  A    A  R    R  N N  N  II  N N  N  G       !!!           |
|           W WW W  AAAAAA  RRRRR   N  N N  II  N  N N  G  GGG   !            |
|           WW  WW  A    A  R   R   N   NN  II  N   NN  G    G                |
|           W    W  A    A  R    R  N    N  II  N    N   GGGG   !!!           |
|                                                                             |
|     For optimal performance we recommend to set                             |
|       NCORE = 2 up to number-of-cores-per-socket                            |
|     NCORE specifies how many cores store one orbital (NPAR=cpu/NCORE).      |
|     This setting can greatly improve the performance of VASP for DFT.       |
|     The default, NCORE=1 might be grossly inefficient on modern             |
|     multi-core architectures or massively parallel machines. Do your        |
|     own testing! More info at https://www.vasp.at/wiki/index.php/NCORE      |
|     Unfortunately you need to use the default for GW and RPA                |
|     calculations (for HF NCORE is supported but not extensively tested      |
|     yet).                                                                   |
|                                                                             |
 -----------------------------------------------------------------------------

 Reading from existing POTCAR
 -----------------------------------------------------------------------------
|                                                                             |
|               ----> ADVICE to this user running VASP <----                  |
|                                                                             |
|     You have a (more or less) 'large supercell' and for larger cells it     |
|     might be more efficient to use real-space projection operators.         |
|     Therefore, try LREAL= Auto in the INCAR file.                           |
|     Mind: For very accurate calculation, you might also keep the            |
|     reciprocal projection scheme (i.e. LREAL=.FALSE.).                      |
|                                                                             |
 -----------------------------------------------------------------------------

 LDA part: xc-table for (Slater+PW92), standard interpolation
 POSCAR, INCAR and KPOINTS ok, starting setup
 FFT: planning ... GRIDC
 FFT: planning ... GRID_SOFT
 FFT: planning ... GRID
 WAVECAR not read
 entering main loop
       N       E                     dE             d eps       ncg     rms          rms(c)
DAV:   1     0.538727730296E+02    0.53873E+02   -0.19085E+04 20496   0.227E+02
DAV:   2    -0.128832686512E+03   -0.18271E+03   -0.18245E+03 30744   0.378E+01
DAV:   3    -0.130806467178E+03   -0.19738E+01   -0.19715E+01 35280   0.550E+00
DAV:   4    -0.130808672733E+03   -0.22056E-02   -0.22055E-02 28896   0.155E-01
DAV:   5    -0.130808674520E+03   -0.17874E-05   -0.17859E-05 32760   0.520E-03    0.128E+01
DAV:   6    -0.126705152746E+03    0.41035E+01   -0.18347E+00 35112   0.111E+00    0.731E+00
DAV:   7    -0.124116480518E+03    0.25887E+01   -0.40782E+00 40488   0.155E+00    0.870E-01
DAV:   8    -0.123937334556E+03    0.17915E+00   -0.53866E-01 39480   0.492E-01    0.507E-01
DAV:   9    -0.123917269264E+03    0.20065E-01   -0.15172E-02 34104   0.123E-01    0.306E-01
DAV:  10    -0.123901366767E+03    0.15902E-01   -0.26325E-02 37632   0.129E-01    0.139E-01
DAV:  11    -0.123902996336E+03   -0.16296E-02   -0.14379E-02 36456   0.803E-02    0.657E-02
DAV:  12    -0.123904881316E+03   -0.18850E-02   -0.33402E-03 34104   0.378E-02    0.385E-02
DAV:  13    -0.123913412270E+03   -0.85310E-02   -0.10717E-03 32760   0.211E-02    0.166E-02
DAV:  14    -0.123916720825E+03   -0.33086E-02   -0.58858E-04 31920   0.162E-02    0.912E-03
DAV:  15    -0.123917988641E+03   -0.12678E-02   -0.14640E-04 32592   0.689E-03    0.404E-03
DAV:  16    -0.123918475698E+03   -0.48706E-03   -0.17699E-05 32424   0.264E-03    0.241E-03
DAV:  17    -0.123918552087E+03   -0.76389E-04   -0.33536E-06 33264   0.103E-03    0.113E-03
DAV:  18    -0.123918642081E+03   -0.89994E-04   -0.69649E-07 31080   0.543E-04    0.453E-04
DAV:  19    -0.123918658832E+03   -0.16751E-04   -0.89434E-08 34104   0.181E-04    0.271E-04
DAV:  20    -0.123918671023E+03   -0.12191E-04   -0.60245E-08 29232   0.170E-04    0.116E-04
DAV:  21    -0.123918675399E+03   -0.43761E-05   -0.37849E-09 34944   0.943E-05    0.410E-05
DAV:  22    -0.123918675962E+03   -0.56242E-06    0.24062E-08 32928   0.260E-05
   1 F= -.12833321E+03 E0= -.12833073E+03  d E =-.495491E-02
 Found    12 degrees of freedom:
 Finite differences POTIM= 0.01500 DOF=  12
 bond charge predicted
       N       E                     dE             d eps       ncg     rms          rms(c)
DAV:   1    -0.123918227428E+03    0.44797E-03   -0.49103E-02 21840   0.195E-01    0.540E-02
DAV:   2    -0.123918090350E+03    0.13708E-03   -0.41218E-04 38472   0.177E-02    0.267E-02
DAV:   3    -0.123918063336E+03    0.27014E-04   -0.13409E-04 31584   0.858E-03    0.549E-03
DAV:   4    -0.123918063235E+03    0.10029E-06   -0.58346E-06 37800   0.259E-03
   2 F= -.12833260E+03 E0= -.12833012E+03  d E =-.495857E-02
 Finite differences progress:
  Degree of freedom:   1/ 12
  Displacement:        1/  2
  Total:               1/ 24
 bond charge predicted
       N       E                     dE             d eps       ncg     rms          rms(c)
DAV:   1    -0.123918740542E+03   -0.67721E-03   -0.19626E-01 20832   0.389E-01    0.108E-01
DAV:   2    -0.123918186623E+03    0.55392E-03   -0.16217E-03 38304   0.341E-02    0.533E-02
DAV:   3    -0.123918077748E+03    0.10888E-03   -0.53372E-04 30408   0.171E-02    0.110E-02
DAV:   4    -0.123918077216E+03    0.53243E-06   -0.23460E-05 35280   0.516E-03    0.339E-03
DAV:   5    -0.123918077355E+03   -0.13886E-06   -0.17081E-06 32424   0.128E-03
   3 F= -.12833261E+03 E0= -.12833013E+03  d E =-.495898E-02
 Finite differences progress:
  Degree of freedom:   1/ 12
  Displacement:        2/  2
  Total:               2/ 24
 bond charge predicted
       N       E                     dE             d eps       ncg     rms          rms(c)
DAV:   1    -0.123917496525E+03    0.58069E-03   -0.94831E-02 20496   0.269E-01    0.682E-02
DAV:   2    -0.123917276600E+03    0.21992E-03   -0.65876E-04 39648   0.220E-02    0.347E-02
DAV:   3    -0.123917231800E+03    0.44800E-04   -0.22403E-04 30576   0.107E-02    0.726E-03
DAV:   4    -0.123917231748E+03    0.51309E-07   -0.96345E-06 36120   0.319E-03
   4 F= -.12833177E+03 E0= -.12832929E+03  d E =-.495429E-02
 Finite differences progress:
  Degree of freedom:   2/ 12
  Displacement:        1/  2
  Total:               3/ 24
 bond charge predicted
       N       E                     dE             d eps       ncg     rms          rms(c)
DAV:   1    -0.123918091661E+03   -0.85986E-03   -0.22340E-01 20496   0.424E-01    0.131E-01
DAV:   2    -0.123917306854E+03    0.78481E-03   -0.23495E-03 40488   0.448E-02    0.645E-02
DAV:   3    -0.123917146691E+03    0.16016E-03   -0.72215E-04 29400   0.229E-02    0.124E-02
DAV:   4    -0.123917144715E+03    0.19763E-05   -0.37400E-05 36624   0.681E-03    0.382E-03
DAV:   5    -0.123917144941E+03   -0.22615E-06   -0.21620E-06 32592   0.142E-03
   5 F= -.12833168E+03 E0= -.12832920E+03  d E =-.495418E-02
 Finite differences progress:
  Degree of freedom:   2/ 12
  Displacement:        2/  2
  Total:               4/ 24
 bond charge predicted
       N       E                     dE             d eps       ncg     rms          rms(c)
DAV:   1    -0.123918000763E+03   -0.85605E-03   -0.11231E-01 20832   0.304E-01    0.982E-02
DAV:   2    -0.123917608289E+03    0.39247E-03   -0.11626E-03 32424   0.294E-02    0.470E-02
DAV:   3    -0.123917535675E+03    0.72614E-04   -0.35919E-04 33600   0.158E-02    0.893E-03
DAV:   4    -0.123917535079E+03    0.59518E-06   -0.17463E-05 35784   0.451E-03    0.277E-03
DAV:   5    -0.123917535111E+03   -0.31514E-07   -0.11348E-06 35112   0.105E-03
   6 F= -.12833138E+03 E0= -.12832892E+03  d E =-.491570E-02
 Finite differences progress:
  Degree of freedom:   3/ 12
  Displacement:        1/  2
  Total:               5/ 24
 bond charge predicted
       N       E                     dE             d eps       ncg     rms          rms(c)
DAV:   1    -0.123918178141E+03   -0.64306E-03   -0.22598E-01 20496   0.422E-01    0.145E-01
DAV:   2    -0.123917401754E+03    0.77639E-03   -0.24836E-03 31416   0.419E-02    0.686E-02
DAV:   3    -0.123917273110E+03    0.12864E-03   -0.70882E-04 35784   0.216E-02    0.129E-02
DAV:   4    -0.123917270338E+03    0.27727E-05   -0.33211E-05 34608   0.621E-03    0.438E-03
DAV:   5    -0.123917269494E+03    0.84313E-06   -0.26058E-06 29736   0.162E-03
   7 F= -.12833248E+03 E0= -.12832998E+03  d E =-.499573E-02
 Finite differences progress:
  Degree of freedom:   3/ 12
  Displacement:        2/  2
  Total:               6/ 24
 bond charge predicted
       N       E                     dE             d eps       ncg     rms          rms(c)
DAV:   1    -0.123918621678E+03   -0.13513E-02   -0.11688E-01 21000   0.297E-01    0.985E-02
DAV:   2    -0.123918163226E+03    0.45845E-03   -0.15675E-03 29736   0.345E-02    0.465E-02
DAV:   3    -0.123918085083E+03    0.78143E-04   -0.40760E-04 35280   0.158E-02    0.936E-03
DAV:   4    -0.123918085064E+03    0.18617E-07   -0.19939E-05 32760   0.509E-03    0.312E-03
DAV:   5    -0.123918085402E+03   -0.33770E-06   -0.12408E-06 32928   0.116E-03
   8 F= -.12833262E+03 E0= -.12833014E+03  d E =-.495903E-02
 Finite differences progress:
  Degree of freedom:   4/ 12
  Displacement:        1/  2
  Total:               7/ 24
 bond charge predicted
       N       E                     dE             d eps       ncg     rms          rms(c)
DAV:   1    -0.123918715027E+03   -0.62996E-03   -0.19626E-01 20832   0.389E-01    0.108E-01
DAV:   2    -0.123918163675E+03    0.55135E-03   -0.16286E-03 38976   0.345E-02    0.533E-02
DAV:   3    -0.123918055313E+03    0.10836E-03   -0.53421E-04 33768   0.171E-02    0.110E-02
DAV:   4    -0.123918054741E+03    0.57258E-06   -0.22573E-05 36456   0.502E-03    0.339E-03
DAV:   5    -0.123918054944E+03   -0.20387E-06   -0.15912E-06 33432   0.125E-03
   9 F= -.12833259E+03 E0= -.12833011E+03  d E =-.495865E-02
 Finite differences progress:
  Degree of freedom:   4/ 12
  Displacement:        2/  2
  Total:               8/ 24
 bond charge predicted
       N       E                     dE             d eps       ncg     rms          rms(c)
DAV:   1    -0.123917406045E+03    0.64870E-03   -0.94817E-02 20496   0.269E-01    0.682E-02
DAV:   2    -0.123917186806E+03    0.21924E-03   -0.66176E-04 40152   0.223E-02    0.347E-02
DAV:   3    -0.123917142043E+03    0.44762E-04   -0.22441E-04 33096   0.107E-02    0.726E-03
DAV:   4    -0.123917141978E+03    0.65639E-07   -0.94010E-06 35952   0.313E-03
  10 F= -.12833168E+03 E0= -.12832920E+03  d E =-.495418E-02
 Finite differences progress:
  Degree of freedom:   5/ 12
  Displacement:        1/  2
  Total:               9/ 24
 bond charge predicted
       N       E                     dE             d eps       ncg     rms          rms(c)
DAV:   1    -0.123918181609E+03   -0.10396E-02   -0.22344E-01 20832   0.424E-01    0.131E-01
DAV:   2    -0.123917395496E+03    0.78611E-03   -0.23438E-03 40152   0.446E-02    0.645E-02
DAV:   3    -0.123917235317E+03    0.16018E-03   -0.72245E-04 29568   0.229E-02    0.124E-02
DAV:   4    -0.123917233320E+03    0.19964E-05   -0.37185E-05 36960   0.677E-03    0.381E-03
DAV:   5    -0.123917233550E+03   -0.22961E-06   -0.21400E-06 32256   0.142E-03
  11 F= -.12833177E+03 E0= -.12832929E+03  d E =-.495431E-02
 Finite differences progress:
  Degree of freedom:   5/ 12
  Displacement:        2/  2
  Total:              10/ 24
 bond charge predicted
       N       E                     dE             d eps       ncg     rms          rms(c)
DAV:   1    -0.123917773184E+03   -0.53986E-03   -0.11250E-01 20496   0.305E-01    0.983E-02
DAV:   2    -0.123917378367E+03    0.39482E-03   -0.11878E-03 34944   0.296E-02    0.468E-02
DAV:   3    -0.123917306378E+03    0.71989E-04   -0.35297E-04 33600   0.156E-02    0.910E-03
DAV:   4    -0.123917304958E+03    0.14200E-05   -0.17511E-05 32424   0.449E-03    0.273E-03
DAV:   5    -0.123917304781E+03    0.17654E-06   -0.12200E-06 34608   0.110E-03
  12 F= -.12833252E+03 E0= -.12833002E+03  d E =-.499583E-02
 Finite differences progress:
  Degree of freedom:   6/ 12
  Displacement:        1/  2
  Total:              11/ 24
 bond charge predicted
       N       E                     dE             d eps       ncg     rms          rms(c)
DAV:   1    -0.123918404270E+03   -0.10993E-02   -0.22587E-01 20496   0.421E-01    0.145E-01
DAV:   2    -0.123917631328E+03    0.77294E-03   -0.24176E-03 28896   0.421E-02    0.688E-02
DAV:   3    -0.123917500430E+03    0.13090E-03   -0.72900E-04 35616   0.222E-02    0.126E-02
DAV:   4    -0.123917499481E+03    0.94941E-06   -0.33760E-05 34608   0.632E-03    0.447E-03
DAV:   5    -0.123917499311E+03    0.16985E-06   -0.25122E-06 34104   0.158E-03
  13 F= -.12833135E+03 E0= -.12832889E+03  d E =-.491583E-02
 Finite differences progress:
  Degree of freedom:   6/ 12
  Displacement:        2/  2
  Total:              12/ 24
 bond charge predicted
       N       E                     dE             d eps       ncg     rms          rms(c)
DAV:   1    -0.123918683602E+03   -0.11841E-02   -0.14015E-01 21168   0.401E-01    0.106E-01
DAV:   2    -0.123918395385E+03    0.28822E-03   -0.10011E-03 30912   0.305E-02    0.554E-02
DAV:   3    -0.123918343119E+03    0.52266E-04   -0.31590E-04 34776   0.141E-02    0.108E-02
DAV:   4    -0.123918341517E+03    0.16023E-05   -0.18804E-05 33432   0.446E-03    0.301E-03
DAV:   5    -0.123918341453E+03    0.63687E-07   -0.12374E-06 33936   0.116E-03
  14 F= -.12833288E+03 E0= -.12833040E+03  d E =-.495507E-02
 Finite differences progress:
  Degree of freedom:   7/ 12
  Displacement:        1/  2
  Total:              13/ 24
 bond charge predicted
       N       E                     dE             d eps       ncg     rms          rms(c)
DAV:   1    -0.123918816851E+03   -0.47533E-03   -0.33309E-01 20496   0.664E-01    0.154E-01
DAV:   2    -0.123918495842E+03    0.32101E-03   -0.57174E-04 38976   0.224E-02    0.873E-02
DAV:   3    -0.123918396811E+03    0.99031E-04   -0.43858E-04 33432   0.143E-02    0.892E-03
DAV:   4    -0.123918394096E+03    0.27145E-05   -0.16249E-05 33264   0.346E-03    0.208E-03
DAV:   5    -0.123918393990E+03    0.10613E-06   -0.94920E-07 32928   0.943E-04
  15 F= -.12833293E+03 E0= -.12833045E+03  d E =-.495496E-02
 Finite differences progress:
  Degree of freedom:   7/ 12
  Displacement:        2/  2
  Total:              14/ 24
 bond charge predicted
       N       E                     dE             d eps       ncg     rms          rms(c)
DAV:   1    -0.123918018064E+03    0.37603E-03   -0.16483E-01 20496   0.469E-01    0.104E-01
DAV:   2    -0.123917894152E+03    0.12391E-03   -0.20286E-04 38808   0.141E-02    0.597E-02
DAV:   3    -0.123917852741E+03    0.41411E-04   -0.18243E-04 34440   0.926E-03    0.499E-03
DAV:   4    -0.123917851692E+03    0.10487E-05   -0.59315E-06 30408   0.211E-03    0.122E-03
DAV:   5    -0.123917851661E+03    0.31426E-07   -0.30947E-07 34440   0.582E-04
  16 F= -.12833239E+03 E0= -.12832991E+03  d E =-.495535E-02
 Finite differences progress:
  Degree of freedom:   8/ 12
  Displacement:        1/  2
  Total:              15/ 24
 bond charge predicted
       N       E                     dE             d eps       ncg     rms          rms(c)
DAV:   1    -0.123918677091E+03   -0.82540E-03   -0.35116E-01 20496   0.669E-01    0.187E-01
DAV:   2    -0.123918004865E+03    0.67223E-03   -0.12366E-03 40152   0.286E-02    0.102E-01
DAV:   3    -0.123917824565E+03    0.18030E-03   -0.78528E-04 34440   0.191E-02    0.136E-02
DAV:   4    -0.123917819322E+03    0.52432E-05   -0.30733E-05 36120   0.471E-03    0.282E-03
DAV:   5    -0.123917819108E+03    0.21468E-06   -0.16080E-06 32088   0.122E-03
  17 F= -.12833235E+03 E0= -.12832988E+03  d E =-.495457E-02
 Finite differences progress:
  Degree of freedom:   8/ 12
  Displacement:        2/  2
  Total:              16/ 24
 bond charge predicted
       N       E                     dE             d eps       ncg     rms          rms(c)
DAV:   1    -0.123918104422E+03   -0.28510E-03   -0.17213E-01 20496   0.474E-01    0.123E-01
DAV:   2    -0.123917833965E+03    0.27046E-03   -0.52233E-04 31584   0.207E-02    0.682E-02
DAV:   3    -0.123917760467E+03    0.73498E-04   -0.32151E-04 36624   0.133E-02    0.872E-03
DAV:   4    -0.123917758339E+03    0.21285E-05   -0.15131E-05 32760   0.341E-03    0.199E-03
DAV:   5    -0.123917758545E+03   -0.20621E-06   -0.90665E-07 36120   0.100E-03
  18 F= -.12833185E+03 E0= -.12832938E+03  d E =-.492824E-02
 Finite differences progress:
  Degree of freedom:   9/ 12
  Displacement:        1/  2
  Total:              17/ 24
 bond charge predicted
       N       E                     dE             d eps       ncg     rms          rms(c)
DAV:   1    -0.123918256345E+03   -0.49801E-03   -0.34106E-01 20496   0.668E-01    0.164E-01
DAV:   2    -0.123917852644E+03    0.40370E-03   -0.85023E-04 27048   0.292E-02    0.927E-02
DAV:   3    -0.123917745150E+03    0.10749E-03   -0.50774E-04 34440   0.193E-02    0.104E-02
DAV:   4    -0.123917741065E+03    0.40848E-05   -0.30514E-05 34104   0.509E-03    0.272E-03
DAV:   5    -0.123917741208E+03   -0.14246E-06   -0.18927E-06 35616   0.159E-03
  19 F= -.12833272E+03 E0= -.12833023E+03  d E =-.498228E-02
 Finite differences progress:
  Degree of freedom:   9/ 12
  Displacement:        2/  2
  Total:              18/ 24
 bond charge predicted
       N       E                     dE             d eps       ncg     rms          rms(c)
DAV:   1    -0.123918625204E+03   -0.88414E-03   -0.16852E-01 20496   0.472E-01    0.113E-01
DAV:   2    -0.123918441863E+03    0.18334E-03   -0.44026E-04 36288   0.237E-02    0.639E-02
DAV:   3    -0.123918387630E+03    0.54232E-04   -0.23201E-04 28560   0.120E-02    0.677E-03
DAV:   4    -0.123918386317E+03    0.13135E-05   -0.12420E-05 34272   0.344E-03    0.191E-03
DAV:   5    -0.123918386419E+03   -0.10161E-06   -0.82784E-07 34440   0.972E-04
  20 F= -.12833292E+03 E0= -.12833044E+03  d E =-.495497E-02
 Finite differences progress:
  Degree of freedom:  10/ 12
  Displacement:        1/  2
  Total:              19/ 24
 bond charge predicted
       N       E                     dE             d eps       ncg     rms          rms(c)
DAV:   1    -0.123918774004E+03   -0.38769E-03   -0.33316E-01 20496   0.664E-01    0.154E-01
DAV:   2    -0.123918451718E+03    0.32229E-03   -0.56309E-04 38976   0.218E-02    0.873E-02
DAV:   3    -0.123918352605E+03    0.99114E-04   -0.43917E-04 35784   0.143E-02    0.893E-03
DAV:   4    -0.123918349862E+03    0.27428E-05   -0.16246E-05 33096   0.343E-03    0.207E-03
DAV:   5    -0.123918349751E+03    0.11085E-06   -0.93033E-07 33936   0.931E-04
  21 F= -.12833288E+03 E0= -.12833041E+03  d E =-.495509E-02
 Finite differences progress:
  Degree of freedom:  10/ 12
  Displacement:        2/  2
  Total:              20/ 24
 bond charge predicted
       N       E                     dE             d eps       ncg     rms          rms(c)
DAV:   1    -0.123917989241E+03    0.36062E-03   -0.16486E-01 20496   0.469E-01    0.104E-01
DAV:   2    -0.123917865027E+03    0.12421E-03   -0.20076E-04 38472   0.139E-02    0.598E-02
DAV:   3    -0.123917823594E+03    0.41433E-04   -0.18256E-04 35616   0.926E-03    0.499E-03
DAV:   4    -0.123917822532E+03    0.10616E-05   -0.59338E-06 30240   0.211E-03    0.122E-03
DAV:   5    -0.123917822496E+03    0.36649E-07   -0.30781E-07 34104   0.581E-04
  22 F= -.12833236E+03 E0= -.12832988E+03  d E =-.495457E-02
 Finite differences progress:
  Degree of freedom:  11/ 12
  Displacement:        1/  2
  Total:              21/ 24
 bond charge predicted
       N       E                     dE             d eps       ncg     rms          rms(c)
DAV:   1    -0.123918707974E+03   -0.88544E-03   -0.35123E-01 20496   0.669E-01    0.187E-01
DAV:   2    -0.123918035042E+03    0.67293E-03   -0.12365E-03 39816   0.286E-02    0.102E-01
DAV:   3    -0.123917854557E+03    0.18049E-03   -0.78597E-04 33768   0.192E-02    0.136E-02
DAV:   4    -0.123917849317E+03    0.52395E-05   -0.30806E-05 36120   0.472E-03    0.282E-03
DAV:   5    -0.123917849103E+03    0.21453E-06   -0.16120E-06 30408   0.123E-03
  23 F= -.12833238E+03 E0= -.12832991E+03  d E =-.495536E-02
 Finite differences progress:
  Degree of freedom:  11/ 12
  Displacement:        2/  2
  Total:              22/ 24
 bond charge predicted
       N       E                     dE             d eps       ncg     rms          rms(c)
DAV:   1    -0.123918052870E+03   -0.20355E-03   -0.17364E-01 20496   0.475E-01    0.125E-01
DAV:   2    -0.123917779622E+03    0.27325E-03   -0.53021E-04 33936   0.208E-02    0.693E-02
DAV:   3    -0.123917708991E+03    0.70631E-04   -0.32606E-04 33432   0.135E-02    0.879E-03
DAV:   4    -0.123917706826E+03    0.21656E-05   -0.15665E-05 36456   0.351E-03    0.201E-03
DAV:   5    -0.123917706851E+03   -0.25817E-07   -0.92257E-07 35112   0.102E-03
  24 F= -.12833269E+03 E0= -.12833020E+03  d E =-.498227E-02
 Finite differences progress:
  Degree of freedom:  12/ 12
  Displacement:        1/  2
  Total:              23/ 24
 bond charge predicted
       N       E                     dE             d eps       ncg     rms          rms(c)
DAV:   1    -0.123918322656E+03   -0.61583E-03   -0.33915E-01 20496   0.668E-01    0.163E-01
DAV:   2    -0.123917907002E+03    0.41565E-03   -0.84409E-04 29064   0.287E-02    0.926E-02
DAV:   3    -0.123917794309E+03    0.11269E-03   -0.50422E-04 35280   0.186E-02    0.105E-02
DAV:   4    -0.123917790722E+03    0.35868E-05   -0.28747E-05 31752   0.478E-03    0.271E-03
DAV:   5    -0.123917791347E+03   -0.62435E-06   -0.18958E-06 35616   0.153E-03
  25 F= -.12833188E+03 E0= -.12832941E+03  d E =-.492819E-02
 Finite differences progress:
  Degree of freedom:  12/ 12
  Displacement:        2/  2
  Total:              24/ 24
