   3   3   0   0
  0.8374985E+02  0.2506240E-09  0.2506240E-09  0.4000000E-08  0.5000000E-15
  1.000000000000000E-004
  CAR 
 Convergence                             
     21.16606191    -14.08678286  301     -2.22156043      1.00000000
    -14.087  0.0000E+00  0.0000E+00
    -13.969  0.0000E+00  0.0000E+00
    -13.852  0.0000E+00  0.0000E+00
    -13.734  0.0000E+00  0.0000E+00
    -13.617  0.0000E+00  0.0000E+00
    -13.499  0.0000E+00  0.0000E+00
    -13.382  0.0000E+00  0.0000E+00
    -13.264  0.0000E+00  0.0000E+00
    -13.147  0.0000E+00  0.0000E+00
    -13.029  0.0000E+00  0.0000E+00
    -12.912  0.0000E+00  0.0000E+00
    -12.794  0.0000E+00  0.0000E+00
    -12.677  0.5098E-09  0.5990E-10
    -12.559  0.6705E-03  0.7879E-04
    -12.442  0.1359E+00  0.1605E-01
    -12.324  0.3517E+00  0.5738E-01
    -12.207  0.3558E+00  0.9919E-01
    -12.089  0.3557E+00  0.1410E+00
    -11.972  0.3641E+00  0.1838E+00
    -11.854  0.3803E+00  0.2285E+00
    -11.737  0.3380E+00  0.2682E+00
    -11.619  0.3613E+00  0.3106E+00
    -11.502  0.3727E+00  0.3544E+00
    -11.384  0.3100E+00  0.3909E+00
    -11.267  0.4223E+00  0.4405E+00
    -11.149  0.3127E+00  0.4772E+00
    -11.032  0.3870E+00  0.5227E+00
    -10.914  0.3477E+00  0.5636E+00
    -10.797  0.3615E+00  0.6060E+00
    -10.679  0.3648E+00  0.6489E+00
    -10.561  0.3176E+00  0.6862E+00
    -10.444  0.4074E+00  0.7341E+00
    -10.326  0.3554E+00  0.7759E+00
    -10.209  0.3351E+00  0.8152E+00
    -10.091  0.4398E+00  0.8669E+00
     -9.974  0.2387E+00  0.8950E+00
     -9.856  0.4510E+00  0.9480E+00
     -9.739  0.3469E+00  0.9887E+00
     -9.621  0.3452E+00  0.1029E+01
     -9.504  0.3691E+00  0.1073E+01
     -9.386  0.4128E+00  0.1121E+01
     -9.269  0.3033E+00  0.1157E+01
     -9.151  0.4080E+00  0.1205E+01
     -9.034  0.3956E+00  0.1251E+01
     -8.916  0.2998E+00  0.1286E+01
     -8.799  0.5146E+00  0.1347E+01
     -8.681  0.6859E+00  0.1428E+01
     -8.564  0.7711E+00  0.1518E+01
     -8.446  0.8293E+00  0.1616E+01
     -8.329  0.7197E+00  0.1700E+01
     -8.211  0.7694E+00  0.1791E+01
     -8.094  0.5500E+00  0.1855E+01
     -7.976  0.6777E+00  0.1935E+01
     -7.859  0.6129E+00  0.2007E+01
     -7.741  0.5579E+00  0.2072E+01
     -7.624  0.6753E+00  0.2152E+01
     -7.506  0.7273E+00  0.2237E+01
     -7.389  0.7256E+00  0.2323E+01
     -7.271  0.7129E+00  0.2406E+01
     -7.154  0.8003E+00  0.2500E+01
     -7.036  0.8021E+00  0.2595E+01
     -6.919  0.6403E+00  0.2670E+01
     -6.801  0.8004E+00  0.2764E+01
     -6.684  0.8193E+00  0.2860E+01
     -6.566  0.8639E+00  0.2962E+01
     -6.449  0.5664E+00  0.3028E+01
     -6.331  0.9507E+00  0.3140E+01
     -6.214  0.7763E+00  0.3231E+01
     -6.096  0.9221E+00  0.3340E+01
     -5.979  0.7134E+00  0.3423E+01
     -5.861  0.9436E+00  0.3534E+01
     -5.744  0.9254E+00  0.3643E+01
     -5.626  0.1178E+01  0.3781E+01
     -5.509  0.9373E+00  0.3892E+01
     -5.391  0.9453E+00  0.4003E+01
     -5.274  0.1163E+01  0.4139E+01
     -5.156  0.9234E+00  0.4248E+01
     -5.039  0.1103E+01  0.4377E+01
     -4.921  0.9339E+00  0.4487E+01
     -4.804  0.1226E+01  0.4631E+01
     -4.686  0.9506E+00  0.4743E+01
     -4.569  0.8944E+00  0.4848E+01
     -4.451  0.1194E+01  0.4988E+01
     -4.333  0.8988E+00  0.5094E+01
     -4.216  0.1401E+01  0.5259E+01
     -4.098  0.9452E+00  0.5370E+01
     -3.981  0.6147E+00  0.5442E+01
     -3.863  0.8795E+00  0.5545E+01
     -3.746  0.5120E+00  0.5606E+01
     -3.628  0.3348E+00  0.5645E+01
     -3.511  0.5811E+00  0.5713E+01
     -3.393  0.3790E+00  0.5758E+01
     -3.276  0.2282E+00  0.5785E+01
     -3.158  0.3371E+00  0.5824E+01
     -3.041  0.2206E+00  0.5850E+01
     -2.923  0.1530E+00  0.5868E+01
     -2.806  0.1788E+00  0.5889E+01
     -2.688  0.9378E-01  0.5900E+01
     -2.571  0.1002E+00  0.5912E+01
     -2.453  0.1955E+00  0.5935E+01
     -2.336  0.2215E+00  0.5961E+01
     -2.218  0.3554E+00  0.6003E+01
     -2.101  0.1477E+01  0.6176E+01
     -1.983  0.1769E+01  0.6384E+01
     -1.866  0.1274E+01  0.6534E+01
     -1.748  0.1827E+01  0.6748E+01
     -1.631  0.1356E+01  0.6908E+01
     -1.513  0.1344E+01  0.7066E+01
     -1.396  0.1419E+01  0.7232E+01
     -1.278  0.1648E+01  0.7426E+01
     -1.161  0.1598E+01  0.7614E+01
     -1.043  0.1698E+01  0.7813E+01
     -0.926  0.1849E+01  0.8031E+01
     -0.808  0.1772E+01  0.8239E+01
     -0.691  0.2202E+01  0.8497E+01
     -0.573  0.1947E+01  0.8726E+01
     -0.456  0.1663E+01  0.8922E+01
     -0.338  0.1309E+01  0.9075E+01
     -0.221  0.1270E+01  0.9225E+01
     -0.103  0.9095E+00  0.9332E+01
      0.014  0.1144E+01  0.9466E+01
      0.132  0.7836E+00  0.9558E+01
      0.249  0.5182E+00  0.9619E+01
      0.367  0.4725E+00  0.9674E+01
      0.484  0.4215E+00  0.9724E+01
      0.602  0.5135E+00  0.9784E+01
      0.719  0.1610E+00  0.9803E+01
      0.837  0.4106E+00  0.9851E+01
      0.954  0.5612E+00  0.9917E+01
      1.072  0.7157E+00  0.1000E+02
      1.189  0.7604E+00  0.1009E+02
      1.307  0.7120E+00  0.1017E+02
      1.424  0.1086E+01  0.1030E+02
      1.542  0.1825E+01  0.1052E+02
      1.659  0.2228E+01  0.1078E+02
      1.777  0.3536E+01  0.1119E+02
      1.895  0.2753E+01  0.1152E+02
      2.012  0.3051E+01  0.1188E+02
      2.130  0.3210E+01  0.1225E+02
      2.247  0.2833E+01  0.1259E+02
      2.365  0.3123E+01  0.1295E+02
      2.482  0.3539E+01  0.1337E+02
      2.600  0.2803E+01  0.1370E+02
      2.717  0.3509E+01  0.1411E+02
      2.835  0.4248E+01  0.1461E+02
      2.952  0.3108E+01  0.1498E+02
      3.070  0.4114E+01  0.1546E+02
      3.187  0.4140E+01  0.1595E+02
      3.305  0.3482E+01  0.1635E+02
      3.422  0.3761E+01  0.1680E+02
      3.540  0.3833E+01  0.1725E+02
      3.657  0.3648E+01  0.1768E+02
      3.775  0.3883E+01  0.1813E+02
      3.892  0.4061E+01  0.1861E+02
      4.010  0.3558E+01  0.1903E+02
      4.127  0.3730E+01  0.1947E+02
      4.245  0.4227E+01  0.1996E+02
      4.362  0.3758E+01  0.2040E+02
      4.480  0.3682E+01  0.2084E+02
      4.597  0.3680E+01  0.2127E+02
      4.715  0.4045E+01  0.2174E+02
      4.832  0.4201E+01  0.2224E+02
      4.950  0.3869E+01  0.2269E+02
      5.067  0.4246E+01  0.2319E+02
      5.185  0.4342E+01  0.2370E+02
      5.302  0.4404E+01  0.2422E+02
      5.420  0.4865E+01  0.2479E+02
      5.537  0.4342E+01  0.2530E+02
      5.655  0.4456E+01  0.2582E+02
      5.772  0.4827E+01  0.2639E+02
      5.890  0.4147E+01  0.2688E+02
      6.007  0.4123E+01  0.2736E+02
      6.125  0.5049E+01  0.2796E+02
      6.242  0.4656E+01  0.2850E+02
      6.360  0.3871E+01  0.2896E+02
      6.477  0.4314E+01  0.2947E+02
      6.595  0.5113E+01  0.3007E+02
      6.712  0.4095E+01  0.3055E+02
      6.830  0.5222E+01  0.3116E+02
      6.947  0.4674E+01  0.3171E+02
      7.065  0.5731E+01  0.3238E+02
      7.182  0.5610E+01  0.3304E+02
      7.300  0.5346E+01  0.3367E+02
      7.417  0.5102E+01  0.3427E+02
      7.535  0.4793E+01  0.3483E+02
      7.652  0.5421E+01  0.3547E+02
      7.770  0.6150E+01  0.3619E+02
      7.887  0.5719E+01  0.3687E+02
      8.005  0.5138E+01  0.3747E+02
      8.123  0.5254E+01  0.3809E+02
      8.240  0.5505E+01  0.3873E+02
      8.358  0.5929E+01  0.3943E+02
      8.475  0.6291E+01  0.4017E+02
      8.593  0.5350E+01  0.4080E+02
      8.710  0.5547E+01  0.4145E+02
      8.828  0.6201E+01  0.4218E+02
      8.945  0.5521E+01  0.4283E+02
      9.063  0.5764E+01  0.4351E+02
      9.180  0.6132E+01  0.4423E+02
      9.298  0.5548E+01  0.4488E+02
      9.415  0.5393E+01  0.4551E+02
      9.533  0.5461E+01  0.4615E+02
      9.650  0.5809E+01  0.4684E+02
      9.768  0.6733E+01  0.4763E+02
      9.885  0.5889E+01  0.4832E+02
     10.003  0.5092E+01  0.4892E+02
     10.120  0.5943E+01  0.4962E+02
     10.238  0.5556E+01  0.5027E+02
     10.355  0.5249E+01  0.5089E+02
     10.473  0.5622E+01  0.5155E+02
     10.590  0.7003E+01  0.5237E+02
     10.708  0.5752E+01  0.5305E+02
     10.825  0.5622E+01  0.5371E+02
     10.943  0.5682E+01  0.5437E+02
     11.060  0.5732E+01  0.5505E+02
     11.178  0.6195E+01  0.5578E+02
     11.295  0.6497E+01  0.5654E+02
     11.413  0.6188E+01  0.5727E+02
     11.530  0.5837E+01  0.5795E+02
     11.648  0.5571E+01  0.5861E+02
     11.765  0.6123E+01  0.5933E+02
     11.883  0.5389E+01  0.5996E+02
     12.000  0.5441E+01  0.6060E+02
     12.118  0.7114E+01  0.6143E+02
     12.235  0.6156E+01  0.6216E+02
     12.353  0.5891E+01  0.6285E+02
     12.470  0.6263E+01  0.6359E+02
     12.588  0.6055E+01  0.6430E+02
     12.705  0.6639E+01  0.6508E+02
     12.823  0.7489E+01  0.6596E+02
     12.940  0.7049E+01  0.6679E+02
     13.058  0.6193E+01  0.6751E+02
     13.175  0.5552E+01  0.6817E+02
     13.293  0.6803E+01  0.6897E+02
     13.410  0.6439E+01  0.6972E+02
     13.528  0.6433E+01  0.7048E+02
     13.645  0.7073E+01  0.7131E+02
     13.763  0.6710E+01  0.7210E+02
     13.880  0.5846E+01  0.7278E+02
     13.998  0.5973E+01  0.7349E+02
     14.115  0.5616E+01  0.7415E+02
     14.233  0.6317E+01  0.7489E+02
     14.351  0.5660E+01  0.7555E+02
     14.468  0.5242E+01  0.7617E+02
     14.586  0.5494E+01  0.7682E+02
     14.703  0.4691E+01  0.7737E+02
     14.821  0.4133E+01  0.7785E+02
     14.938  0.4558E+01  0.7839E+02
     15.056  0.3541E+01  0.7880E+02
     15.173  0.3008E+01  0.7916E+02
     15.291  0.3530E+01  0.7957E+02
     15.408  0.3025E+01  0.7993E+02
     15.526  0.2328E+01  0.8020E+02
     15.643  0.2623E+01  0.8051E+02
     15.761  0.2061E+01  0.8075E+02
     15.878  0.2371E+01  0.8103E+02
     15.996  0.2577E+01  0.8133E+02
     16.113  0.1792E+01  0.8154E+02
     16.231  0.1486E+01  0.8172E+02
     16.348  0.1628E+01  0.8191E+02
     16.466  0.1685E+01  0.8211E+02
     16.583  0.2128E+01  0.8236E+02
     16.701  0.2174E+01  0.8261E+02
     16.818  0.8042E+00  0.8271E+02
     16.936  0.5806E+00  0.8278E+02
     17.053  0.7778E+00  0.8287E+02
     17.171  0.9505E+00  0.8298E+02
     17.288  0.1137E+01  0.8311E+02
     17.406  0.9474E+00  0.8322E+02
     17.523  0.3870E+00  0.8327E+02
     17.641  0.8705E+00  0.8337E+02
     17.758  0.7876E+00  0.8346E+02
     17.876  0.6637E+00  0.8354E+02
     17.993  0.2278E+00  0.8357E+02
     18.111  0.2974E+00  0.8360E+02
     18.228  0.2912E+00  0.8364E+02
     18.346  0.1022E+01  0.8376E+02
     18.463  0.5310E+00  0.8382E+02
     18.581  0.1449E+00  0.8384E+02
     18.698  0.1629E+00  0.8386E+02
     18.816  0.7170E-01  0.8387E+02
     18.933  0.2018E+00  0.8389E+02
     19.051  0.7900E-01  0.8390E+02
     19.168  0.6031E-01  0.8391E+02
     19.286  0.1114E+00  0.8392E+02
     19.403  0.1985E+00  0.8394E+02
     19.521  0.2910E+00  0.8398E+02
     19.638  0.1993E+00  0.8400E+02
     19.756  0.9997E-03  0.8400E+02
     19.873  0.1228E-08  0.8400E+02
     19.991  0.0000E+00  0.8400E+02
     20.108  0.0000E+00  0.8400E+02
     20.226  0.0000E+00  0.8400E+02
     20.343  0.0000E+00  0.8400E+02
     20.461  0.0000E+00  0.8400E+02
     20.579  0.0000E+00  0.8400E+02
     20.696  0.0000E+00  0.8400E+02
     20.814  0.0000E+00  0.8400E+02
     20.931  0.0000E+00  0.8400E+02
     21.049  0.0000E+00  0.8400E+02
     21.166  0.0000E+00  0.8400E+02
