   2   2   0   0
  0.2748765E+03  0.3983717E-09  0.3983717E-09  0.4000000E-08  0.5000000E-15
  1.000000000000000E-004
  CAR 
 Convergence                             
     13.70663231    -10.01243558  301     -3.95511230      1.00000000
    -10.012  0.0000E+00  0.0000E+00
     -9.933  0.0000E+00  0.0000E+00
     -9.854  0.0000E+00  0.0000E+00
     -9.775  0.0000E+00  0.0000E+00
     -9.696  0.0000E+00  0.0000E+00
     -9.617  0.0000E+00  0.0000E+00
     -9.538  0.0000E+00  0.0000E+00
     -9.459  0.0000E+00  0.0000E+00
     -9.380  0.0000E+00  0.0000E+00
     -9.301  0.0000E+00  0.0000E+00
     -9.222  0.1146E-15  0.9063E-17
     -9.143  0.9637E-09  0.7620E-10
     -9.064  0.6527E-04  0.5161E-05
     -8.985  0.3987E-01  0.3157E-02
     -8.906  0.3689E+00  0.3232E-01
     -8.826  0.1232E+00  0.4206E-01
     -8.747  0.1143E+01  0.1324E+00
     -8.668  0.1853E+01  0.2789E+00
     -8.589  0.8585E-01  0.2857E+00
     -8.510  0.5446E-04  0.2857E+00
     -8.431  0.1898E-01  0.2872E+00
     -8.352  0.1202E+01  0.3823E+00
     -8.273  0.1801E+01  0.5247E+00
     -8.194  0.3689E+00  0.5538E+00
     -8.115  0.2254E+01  0.7320E+00
     -8.036  0.5478E+00  0.7753E+00
     -7.957  0.2438E-02  0.7755E+00
     -7.878  0.1050E-06  0.7755E+00
     -7.799  0.4813E-09  0.7755E+00
     -7.720  0.9697E-04  0.7755E+00
     -7.641  0.1669E+00  0.7887E+00
     -7.561  0.3682E+01  0.1080E+01
     -7.482  0.2313E+01  0.1263E+01
     -7.403  0.3384E-01  0.1265E+01
     -7.324  0.1386E-02  0.1265E+01
     -7.245  0.4280E+00  0.1299E+01
     -7.166  0.2281E+01  0.1480E+01
     -7.087  0.3865E+00  0.1510E+01
     -7.008  0.1098E-02  0.1510E+01
     -6.929  0.2919E-07  0.1510E+01
     -6.850  0.1027E-05  0.1510E+01
     -6.771  0.1278E-01  0.1511E+01
     -6.692  0.1620E+01  0.1639E+01
     -6.613  0.4225E+01  0.1973E+01
     -6.534  0.3364E+00  0.2000E+01
     -6.455  0.3809E-03  0.2000E+01
     -6.376  0.3913E-08  0.2000E+01
     -6.296  0.2723E-04  0.2000E+01
     -6.217  0.6138E-01  0.2005E+01
     -6.138  0.1707E+01  0.2140E+01
     -6.059  0.1304E+01  0.2243E+01
     -5.980  0.2435E-01  0.2245E+01
     -5.901  0.9179E-03  0.2245E+01
     -5.822  0.3554E+00  0.2273E+01
     -5.743  0.2276E+01  0.2453E+01
     -5.664  0.5948E+00  0.2500E+01
     -5.585  0.2027E+01  0.2660E+01
     -5.506  0.9312E+00  0.2734E+01
     -5.427  0.9220E-02  0.2735E+01
     -5.348  0.9519E-06  0.2735E+01
     -5.269  0.7889E-12  0.2735E+01
     -5.190  0.9696E-09  0.2735E+01
     -5.110  0.1547E-03  0.2735E+01
     -5.031  0.2130E+00  0.2752E+01
     -4.952  0.3885E+01  0.3059E+01
     -4.873  0.2089E+01  0.3224E+01
     -4.794  0.1169E+01  0.3316E+01
     -4.715  0.1852E+01  0.3463E+01
     -4.636  0.8558E-01  0.3469E+01
     -4.557  0.5085E-04  0.3469E+01
     -4.478  0.2695E-09  0.3469E+01
     -4.399  0.6191E-05  0.3469E+01
     -4.320  0.2881E-01  0.3472E+01
     -4.241  0.1525E+01  0.3592E+01
     -4.162  0.1988E+01  0.3749E+01
     -4.083  0.1297E+00  0.3760E+01
     -4.004  0.1689E+01  0.3893E+01
     -3.925  0.2110E+01  0.4060E+01
     -3.845  0.2159E+01  0.4231E+01
     -3.766  0.2388E+00  0.4250E+01
     -3.687  0.2787E+01  0.4470E+01
     -3.608  0.4241E+01  0.4805E+01
     -3.529  0.4464E+01  0.5158E+01
     -3.450  0.8365E+00  0.5224E+01
     -3.371  0.5567E+00  0.5268E+01
     -3.292  0.2257E+01  0.5447E+01
     -3.213  0.1049E+01  0.5530E+01
     -3.134  0.2147E+01  0.5700E+01
     -3.055  0.2690E+00  0.5721E+01
     -2.976  0.1835E+01  0.5866E+01
     -2.897  0.1201E+01  0.5961E+01
     -2.818  0.1518E+01  0.6081E+01
     -2.739  0.2442E+01  0.6274E+01
     -2.660  0.5696E+01  0.6724E+01
     -2.580  0.2617E+01  0.6931E+01
     -2.501  0.9554E-01  0.6939E+01
     -2.422  0.1219E+00  0.6948E+01
     -2.343  0.1996E+01  0.7106E+01
     -2.264  0.1102E+01  0.7193E+01
     -2.185  0.2040E+01  0.7355E+01
     -2.106  0.9252E+00  0.7428E+01
     -2.027  0.9442E-02  0.7429E+01
     -1.948  0.2365E+00  0.7447E+01
     -1.869  0.2310E+01  0.7630E+01
     -1.790  0.1704E+01  0.7765E+01
     -1.711  0.2445E+01  0.7958E+01
     -1.632  0.5305E+00  0.8000E+01
     -1.553  0.2252E-02  0.8000E+01
     -1.474  0.9236E-07  0.8000E+01
     -1.395  0.2957E-13  0.8000E+01
     -1.315  0.0000E+00  0.8000E+01
     -1.236  0.0000E+00  0.8000E+01
     -1.157  0.0000E+00  0.8000E+01
     -1.078  0.0000E+00  0.8000E+01
     -0.999  0.0000E+00  0.8000E+01
     -0.920  0.0000E+00  0.8000E+01
     -0.841  0.1364E-12  0.8000E+01
     -0.762  0.2749E-06  0.8000E+01
     -0.683  0.4390E-02  0.8000E+01
     -0.604  0.7086E+00  0.8056E+01
     -0.525  0.3145E+01  0.8305E+01
     -0.446  0.2213E+01  0.8480E+01
     -0.367  0.1238E+00  0.8490E+01
     -0.288  0.7799E-02  0.8490E+01
     -0.209  0.9555E+00  0.8566E+01
     -0.129  0.2457E+01  0.8760E+01
     -0.050  0.1956E+00  0.8776E+01
      0.029  0.5446E+00  0.8819E+01
      0.108  0.2255E+01  0.8997E+01
      0.187  0.3064E+00  0.9021E+01
      0.266  0.2918E+00  0.9044E+01
      0.345  0.3075E+00  0.9069E+01
      0.424  0.4852E+00  0.9107E+01
      0.503  0.4533E+01  0.9465E+01
      0.582  0.7247E+01  0.1004E+02
      0.661  0.3671E+01  0.1033E+02
      0.740  0.1065E+01  0.1041E+02
      0.819  0.2750E+01  0.1063E+02
      0.898  0.3893E+01  0.1094E+02
      0.977  0.2755E+01  0.1116E+02
      1.056  0.2595E+01  0.1136E+02
      1.136  0.1863E+01  0.1151E+02
      1.215  0.2959E+01  0.1174E+02
      1.294  0.2902E+01  0.1197E+02
      1.373  0.5017E+01  0.1237E+02
      1.452  0.7023E+01  0.1292E+02
      1.531  0.8524E+01  0.1360E+02
      1.610  0.7736E+01  0.1421E+02
      1.689  0.3730E+01  0.1450E+02
      1.768  0.2253E+01  0.1468E+02
      1.847  0.3728E+01  0.1498E+02
      1.926  0.2650E+01  0.1519E+02
      2.005  0.5912E+01  0.1565E+02
      2.084  0.1159E+02  0.1657E+02
      2.163  0.6735E+01  0.1710E+02
      2.242  0.8892E+01  0.1781E+02
      2.321  0.5340E+01  0.1823E+02
      2.401  0.6595E+01  0.1875E+02
      2.480  0.7288E+01  0.1933E+02
      2.559  0.1118E+02  0.2021E+02
      2.638  0.7448E+01  0.2080E+02
      2.717  0.4562E+01  0.2116E+02
      2.796  0.6322E+01  0.2166E+02
      2.875  0.8670E+01  0.2234E+02
      2.954  0.6715E+01  0.2288E+02
      3.033  0.1381E+02  0.2397E+02
      3.112  0.7622E+01  0.2457E+02
      3.191  0.7222E+01  0.2514E+02
      3.270  0.3545E+01  0.2542E+02
      3.349  0.2567E+01  0.2562E+02
      3.428  0.4845E+01  0.2601E+02
      3.507  0.1127E+02  0.2690E+02
      3.586  0.8858E+01  0.2760E+02
      3.666  0.1756E+01  0.2774E+02
      3.745  0.1477E+02  0.2890E+02
      3.824  0.1396E+02  0.3001E+02
      3.903  0.4445E+01  0.3036E+02
      3.982  0.9448E+01  0.3111E+02
      4.061  0.9669E+01  0.3187E+02
      4.140  0.1124E+02  0.3276E+02
      4.219  0.8336E+01  0.3342E+02
      4.298  0.7838E+01  0.3404E+02
      4.377  0.6409E+01  0.3454E+02
      4.456  0.7392E+01  0.3513E+02
      4.535  0.6800E+01  0.3567E+02
      4.614  0.7623E+01  0.3627E+02
      4.693  0.8472E+01  0.3694E+02
      4.772  0.9338E+01  0.3768E+02
      4.852  0.5277E+01  0.3809E+02
      4.931  0.7472E+01  0.3869E+02
      5.010  0.4459E+01  0.3904E+02
      5.089  0.9904E+01  0.3982E+02
      5.168  0.1306E+02  0.4085E+02
      5.247  0.8957E+01  0.4156E+02
      5.326  0.1506E+02  0.4275E+02
      5.405  0.4404E+01  0.4310E+02
      5.484  0.9138E+01  0.4382E+02
      5.563  0.1190E+02  0.4476E+02
      5.642  0.1218E+02  0.4573E+02
      5.721  0.4719E+01  0.4610E+02
      5.800  0.9861E+01  0.4688E+02
      5.879  0.1288E+02  0.4790E+02
      5.958  0.8858E+01  0.4860E+02
      6.037  0.1127E+02  0.4949E+02
      6.117  0.1343E+02  0.5055E+02
      6.196  0.1453E+02  0.5170E+02
      6.275  0.7885E+01  0.5232E+02
      6.354  0.3701E+01  0.5262E+02
      6.433  0.3897E+01  0.5292E+02
      6.512  0.7216E+01  0.5349E+02
      6.591  0.9443E+01  0.5424E+02
      6.670  0.9378E+01  0.5498E+02
      6.749  0.3910E+01  0.5529E+02
      6.828  0.9208E+01  0.5602E+02
      6.907  0.1536E+02  0.5723E+02
      6.986  0.1047E+02  0.5806E+02
      7.065  0.1318E+02  0.5910E+02
      7.144  0.1409E+02  0.6022E+02
      7.223  0.1517E+02  0.6142E+02
      7.302  0.8830E+01  0.6212E+02
      7.382  0.8843E+01  0.6281E+02
      7.461  0.2653E+01  0.6302E+02
      7.540  0.6900E+01  0.6357E+02
      7.619  0.2036E+02  0.6518E+02
      7.698  0.1653E+02  0.6649E+02
      7.777  0.1336E+02  0.6754E+02
      7.856  0.1745E+02  0.6892E+02
      7.935  0.1073E+02  0.6977E+02
      8.014  0.6213E+01  0.7026E+02
      8.093  0.1021E+02  0.7107E+02
      8.172  0.7916E+01  0.7170E+02
      8.251  0.4060E+01  0.7202E+02
      8.330  0.5910E+01  0.7248E+02
      8.409  0.1428E+02  0.7361E+02
      8.488  0.1046E+02  0.7444E+02
      8.568  0.8626E+01  0.7512E+02
      8.647  0.6931E+01  0.7567E+02
      8.726  0.6352E+01  0.7617E+02
      8.805  0.1687E+01  0.7631E+02
      8.884  0.1704E+01  0.7644E+02
      8.963  0.1738E+01  0.7658E+02
      9.042  0.5486E+01  0.7701E+02
      9.121  0.1228E+02  0.7798E+02
      9.200  0.7005E+01  0.7854E+02
      9.279  0.8489E+01  0.7921E+02
      9.358  0.3123E+01  0.7945E+02
      9.437  0.4297E+01  0.7979E+02
      9.516  0.1141E+01  0.7988E+02
      9.595  0.5576E+01  0.8033E+02
      9.674  0.7425E+01  0.8091E+02
      9.753  0.2110E+01  0.8108E+02
      9.833  0.2402E+01  0.8127E+02
      9.912  0.3090E+01  0.8151E+02
      9.991  0.3333E+01  0.8178E+02
     10.070  0.1259E+01  0.8188E+02
     10.149  0.2276E+01  0.8206E+02
     10.228  0.3191E+00  0.8208E+02
     10.307  0.1927E-02  0.8208E+02
     10.386  0.2207E+00  0.8210E+02
     10.465  0.1847E+01  0.8225E+02
     10.544  0.4621E+01  0.8261E+02
     10.623  0.2340E+01  0.8280E+02
     10.702  0.1953E+01  0.8295E+02
     10.781  0.2620E+01  0.8316E+02
     10.860  0.3361E+00  0.8318E+02
     10.939  0.3754E+00  0.8321E+02
     11.018  0.3237E+01  0.8347E+02
     11.098  0.2802E+01  0.8369E+02
     11.177  0.2955E+00  0.8371E+02
     11.256  0.1912E-02  0.8371E+02
     11.335  0.2083E-06  0.8371E+02
     11.414  0.1926E-12  0.8371E+02
     11.493  0.0000E+00  0.8371E+02
     11.572  0.0000E+00  0.8371E+02
     11.651  0.0000E+00  0.8371E+02
     11.730  0.6373E-13  0.8371E+02
     11.809  0.1166E-06  0.8371E+02
     11.888  0.1692E-02  0.8371E+02
     11.967  0.2468E+00  0.8373E+02
     12.046  0.7192E+00  0.8379E+02
     12.125  0.6472E-01  0.8380E+02
     12.204  0.6013E-02  0.8380E+02
     12.283  0.3920E+00  0.8383E+02
     12.363  0.6085E+00  0.8388E+02
     12.442  0.1372E+00  0.8389E+02
     12.521  0.4942E+00  0.8393E+02
     12.600  0.5032E+00  0.8397E+02
     12.679  0.4002E+00  0.8400E+02
     12.758  0.3991E-01  0.8400E+02
     12.837  0.6527E-04  0.8400E+02
     12.916  0.9637E-09  0.8400E+02
     12.995  0.1146E-15  0.8400E+02
     13.074  0.0000E+00  0.8400E+02
     13.153  0.0000E+00  0.8400E+02
     13.232  0.0000E+00  0.8400E+02
     13.311  0.0000E+00  0.8400E+02
     13.390  0.0000E+00  0.8400E+02
     13.469  0.0000E+00  0.8400E+02
     13.549  0.0000E+00  0.8400E+02
     13.628  0.0000E+00  0.8400E+02
     13.707  0.0000E+00  0.8400E+02
