       N       E                     dE             d eps       ncg     rms          rms(c)
DAV:   1    -0.848634376983E+01   -0.84863E+01   -0.14193E+03   840   0.194E+02
DAV:   2    -0.178934536910E+02   -0.94071E+01   -0.80175E+01  1092   0.268E+01
DAV:   3    -0.181166935469E+02   -0.22324E+00   -0.22302E+00  1232   0.539E+00
DAV:   4    -0.181171819056E+02   -0.48836E-03   -0.48836E-03  1316   0.246E-01
DAV:   5    -0.181171820999E+02   -0.19433E-06   -0.19359E-06  1204   0.598E-03
DAV:   6    -0.181171821000E+02   -0.43372E-10   -0.80011E-09  1260   0.349E-04
   1 F= -.18117182E+02 E0= -.18116883E+02  d E =-.599024E-03  mag=     0.0000    -0.0000     0.0000
