 running   42 mpi-ranks, on    1 nodes
 distrk:  each k-point on   42 cores,    1 groups
 distr:  one band on    1 cores,   42 groups
 vasp.6.5.0 16Dec24 (build Jan 08 2025 16:17:04) complex                        
  
 POSCAR found type information on POSCAR Be
 POSCAR found :  1 types and       2 ions
 Reading from existing POTCAR
 scaLAPACK will be used
 -----------------------------------------------------------------------------
|                                                                             |
|           W    W    AA    RRRRR   N    N  II  N    N   GGGG   !!!           |
|           W    W   A  A   R    R  NN   N  II  NN   N  G    G  !!!           |
|           W    W  A    A  R    R  N N  N  II  N N  N  G       !!!           |
|           W WW W  AAAAAA  RRRRR   N  N N  II  N  N N  G  GGG   !            |
|           WW  WW  A    A  R   R   N   NN  II  N   NN  G    G                |
|           W    W  A    A  R    R  N    N  II  N    N   GGGG   !!!           |
|                                                                             |
|     For optimal performance we recommend to set                             |
|       NCORE = 2 up to number-of-cores-per-socket                            |
|     NCORE specifies how many cores store one orbital (NPAR=cpu/NCORE).      |
|     This setting can greatly improve the performance of VASP for DFT.       |
|     The default, NCORE=1 might be grossly inefficient on modern             |
|     multi-core architectures or massively parallel machines. Do your        |
|     own testing! More info at https://www.vasp.at/wiki/index.php/NCORE      |
|     Unfortunately you need to use the default for GW and RPA                |
|     calculations (for HF NCORE is supported but not extensively tested      |
|     yet).                                                                   |
|                                                                             |
 -----------------------------------------------------------------------------

 Reading from existing POTCAR
 LDA part: xc-table for (Slater+PW92), standard interpolation
 POSCAR, INCAR and KPOINTS ok, starting setup
 FFT: planning ... GRIDC
 FFT: planning ... GRID_SOFT
 FFT: planning ... GRID
 WAVECAR not read
 entering main loop
       N       E                     dE             d eps       ncg     rms          rms(c)
DAV:   1     0.133918821076E+02    0.13392E+02   -0.18924E+03  5460   0.727E+01
DAV:   2     0.329164826960E+01   -0.10100E+02   -0.97763E+01  8064   0.152E+01
DAV:   3     0.327840383879E+01   -0.13244E-01   -0.13243E-01  5796   0.594E-01
DAV:   4     0.327837075633E+01   -0.33082E-04   -0.33083E-04 10626   0.302E-02
DAV:   5     0.327837075498E+01   -0.13558E-08   -0.12747E-08  5754   0.144E-04    0.390E+00
DAV:   6     0.455632061720E+01    0.12779E+01   -0.10026E+00  7938   0.121E+00    0.193E+00
DAV:   7     0.500894969389E+01    0.45263E+00   -0.90339E-01  7518   0.850E-01    0.524E-01
DAV:   8     0.505638075103E+01    0.47431E-01   -0.59807E-02  8358   0.179E-01    0.310E-01
DAV:   9     0.506873739504E+01    0.12357E-01   -0.88524E-03  8694   0.134E-01    0.254E-01
DAV:  10     0.507344812792E+01    0.47107E-02   -0.18336E-02  9324   0.104E-01    0.768E-02
DAV:  11     0.507270831690E+01   -0.73981E-03   -0.89730E-04  8988   0.271E-02    0.648E-02
DAV:  12     0.507171794957E+01   -0.99037E-03   -0.42021E-04  9156   0.115E-02    0.207E-02
DAV:  13     0.507022709979E+01   -0.14908E-02   -0.63690E-04  8526   0.192E-02    0.122E-02
DAV:  14     0.506989213999E+01   -0.33496E-03   -0.15236E-04  8610   0.807E-03    0.568E-03
DAV:  15     0.506972930207E+01   -0.16284E-03   -0.64808E-06  8904   0.177E-03    0.126E-03
DAV:  16     0.506969930528E+01   -0.29997E-04   -0.27315E-06  8904   0.891E-04    0.904E-04
DAV:  17     0.506968144827E+01   -0.17857E-04   -0.41010E-07  8358   0.391E-04    0.205E-04
DAV:  18     0.506967960101E+01   -0.18473E-05   -0.65412E-08  9534   0.121E-04    0.572E-05
DAV:  19     0.506967937773E+01   -0.22328E-06   -0.21602E-09  8148   0.634E-05
   1 F= 0.50696794E+01 E0= 0.50702650E+01  d E =-.117126E-02
