   1   1   0   0
  0.7826841E+01  0.2166388E-09  0.2166388E-09  0.2166388E-09  0.5000000E-15
  1.000000000000000E-004
  CAR 
 Dielectric                              
    473.67476454    -27.06024053 4000      7.95539595      1.00000000
    -27.060  0.0000E+00  0.0000E+00
    -26.935  0.0000E+00  0.0000E+00
    -26.810  0.0000E+00  0.0000E+00
    -26.685  0.0000E+00  0.0000E+00
    -26.559  0.0000E+00  0.0000E+00
    -26.434  0.0000E+00  0.0000E+00
    -26.309  0.0000E+00  0.0000E+00
    -26.184  0.0000E+00  0.0000E+00
    -26.059  0.0000E+00  0.0000E+00
    -25.933  0.0000E+00  0.0000E+00
    -25.808  0.0000E+00  0.0000E+00
    -25.683  0.0000E+00  0.0000E+00
    -25.558  0.0000E+00  0.0000E+00
    -25.432  0.0000E+00  0.0000E+00
    -25.307  0.0000E+00  0.0000E+00
    -25.182  0.0000E+00  0.0000E+00
    -25.057  0.0000E+00  0.0000E+00
    -24.932  0.0000E+00  0.0000E+00
    -24.806  0.0000E+00  0.0000E+00
    -24.681  0.0000E+00  0.0000E+00
    -24.556  0.0000E+00  0.0000E+00
    -24.431  0.0000E+00  0.0000E+00
    -24.306  0.0000E+00  0.0000E+00
    -24.180  0.0000E+00  0.0000E+00
    -24.055  0.0000E+00  0.0000E+00
    -23.930  0.0000E+00  0.0000E+00
    -23.805  0.0000E+00  0.0000E+00
    -23.679  0.0000E+00  0.0000E+00
    -23.554  0.0000E+00  0.0000E+00
    -23.429  0.0000E+00  0.0000E+00
    -23.304  0.0000E+00  0.0000E+00
    -23.179  0.0000E+00  0.0000E+00
    -23.053  0.0000E+00  0.0000E+00
    -22.928  0.0000E+00  0.0000E+00
    -22.803  0.0000E+00  0.0000E+00
    -22.678  0.0000E+00  0.0000E+00
    -22.552  0.0000E+00  0.0000E+00
    -22.427  0.0000E+00  0.0000E+00
    -22.302  0.0000E+00  0.0000E+00
    -22.177  0.0000E+00  0.0000E+00
    -22.052  0.0000E+00  0.0000E+00
    -21.926  0.0000E+00  0.0000E+00
    -21.801  0.0000E+00  0.0000E+00
    -21.676  0.0000E+00  0.0000E+00
    -21.551  0.0000E+00  0.0000E+00
    -21.426  0.0000E+00  0.0000E+00
    -21.300  0.0000E+00  0.0000E+00
    -21.175  0.0000E+00  0.0000E+00
    -21.050  0.0000E+00  0.0000E+00
    -20.925  0.0000E+00  0.0000E+00
    -20.799  0.0000E+00  0.0000E+00
    -20.674  0.0000E+00  0.0000E+00
    -20.549  0.0000E+00  0.0000E+00
    -20.424  0.0000E+00  0.0000E+00
    -20.299  0.0000E+00  0.0000E+00
    -20.173  0.0000E+00  0.0000E+00
    -20.048  0.0000E+00  0.0000E+00
    -19.923  0.0000E+00  0.0000E+00
    -19.798  0.0000E+00  0.0000E+00
    -19.673  0.0000E+00  0.0000E+00
    -19.547  0.0000E+00  0.0000E+00
    -19.422  0.0000E+00  0.0000E+00
    -19.297  0.0000E+00  0.0000E+00
    -19.172  0.0000E+00  0.0000E+00
    -19.046  0.0000E+00  0.0000E+00
    -18.921  0.0000E+00  0.0000E+00
    -18.796  0.0000E+00  0.0000E+00
    -18.671  0.0000E+00  0.0000E+00
    -18.546  0.0000E+00  0.0000E+00
    -18.420  0.0000E+00  0.0000E+00
    -18.295  0.0000E+00  0.0000E+00
    -18.170  0.0000E+00  0.0000E+00
    -18.045  0.0000E+00  0.0000E+00
    -17.920  0.0000E+00  0.0000E+00
    -17.794  0.0000E+00  0.0000E+00
    -17.669  0.0000E+00  0.0000E+00
    -17.544  0.0000E+00  0.0000E+00
    -17.419  0.0000E+00  0.0000E+00
    -17.293  0.0000E+00  0.0000E+00
    -17.168  0.0000E+00  0.0000E+00
    -17.043  0.0000E+00  0.0000E+00
    -16.918  0.0000E+00  0.0000E+00
    -16.793  0.0000E+00  0.0000E+00
    -16.667  0.0000E+00  0.0000E+00
    -16.542  0.0000E+00  0.0000E+00
    -16.417  0.0000E+00  0.0000E+00
    -16.292  0.0000E+00  0.0000E+00
    -16.167  0.0000E+00  0.0000E+00
    -16.041  0.0000E+00  0.0000E+00
    -15.916  0.0000E+00  0.0000E+00
    -15.791  0.0000E+00  0.0000E+00
    -15.666  0.0000E+00  0.0000E+00
    -15.540  0.0000E+00  0.0000E+00
    -15.415  0.0000E+00  0.0000E+00
    -15.290  0.0000E+00  0.0000E+00
    -15.165  0.0000E+00  0.0000E+00
    -15.040  0.0000E+00  0.0000E+00
    -14.914  0.0000E+00  0.0000E+00
    -14.789  0.0000E+00  0.0000E+00
    -14.664  0.0000E+00  0.0000E+00
    -14.539  0.0000E+00  0.0000E+00
    -14.414  0.0000E+00  0.0000E+00
    -14.288  0.0000E+00  0.0000E+00
    -14.163  0.0000E+00  0.0000E+00
    -14.038  0.0000E+00  0.0000E+00
    -13.913  0.0000E+00  0.0000E+00
    -13.787  0.0000E+00  0.0000E+00
    -13.662  0.0000E+00  0.0000E+00
    -13.537  0.0000E+00  0.0000E+00
    -13.412  0.0000E+00  0.0000E+00
    -13.287  0.0000E+00  0.0000E+00
    -13.161  0.0000E+00  0.0000E+00
    -13.036  0.0000E+00  0.0000E+00
    -12.911  0.0000E+00  0.0000E+00
    -12.786  0.0000E+00  0.0000E+00
    -12.661  0.0000E+00  0.0000E+00
    -12.535  0.0000E+00  0.0000E+00
    -12.410  0.0000E+00  0.0000E+00
    -12.285  0.0000E+00  0.0000E+00
    -12.160  0.0000E+00  0.0000E+00
    -12.034  0.0000E+00  0.0000E+00
    -11.909  0.0000E+00  0.0000E+00
    -11.784  0.0000E+00  0.0000E+00
    -11.659  0.0000E+00  0.0000E+00
    -11.534  0.0000E+00  0.0000E+00
    -11.408  0.0000E+00  0.0000E+00
    -11.283  0.0000E+00  0.0000E+00
    -11.158  0.0000E+00  0.0000E+00
    -11.033  0.0000E+00  0.0000E+00
    -10.907  0.0000E+00  0.0000E+00
    -10.782  0.0000E+00  0.0000E+00
    -10.657  0.0000E+00  0.0000E+00
    -10.532  0.0000E+00  0.0000E+00
    -10.407  0.0000E+00  0.0000E+00
    -10.281  0.0000E+00  0.0000E+00
    -10.156  0.0000E+00  0.0000E+00
    -10.031  0.0000E+00  0.0000E+00
     -9.906  0.0000E+00  0.0000E+00
     -9.781  0.0000E+00  0.0000E+00
     -9.655  0.0000E+00  0.0000E+00
     -9.530  0.0000E+00  0.0000E+00
     -9.405  0.0000E+00  0.0000E+00
     -9.280  0.0000E+00  0.0000E+00
     -9.154  0.0000E+00  0.0000E+00
     -9.029  0.0000E+00  0.0000E+00
     -8.904  0.0000E+00  0.0000E+00
     -8.779  0.0000E+00  0.0000E+00
     -8.654  0.0000E+00  0.0000E+00
     -8.528  0.0000E+00  0.0000E+00
     -8.403  0.0000E+00  0.0000E+00
     -8.278  0.0000E+00  0.0000E+00
     -8.153  0.0000E+00  0.0000E+00
     -8.028  0.0000E+00  0.0000E+00
     -7.902  0.0000E+00  0.0000E+00
     -7.777  0.0000E+00  0.0000E+00
     -7.652  0.0000E+00  0.0000E+00
     -7.527  0.0000E+00  0.0000E+00
     -7.401  0.0000E+00  0.0000E+00
     -7.276  0.0000E+00  0.0000E+00
     -7.151  0.0000E+00  0.0000E+00
     -7.026  0.0000E+00  0.0000E+00
     -6.901  0.0000E+00  0.0000E+00
     -6.775  0.0000E+00  0.0000E+00
     -6.650  0.0000E+00  0.0000E+00
     -6.525  0.0000E+00  0.0000E+00
     -6.400  0.0000E+00  0.0000E+00
     -6.275  0.0000E+00  0.0000E+00
     -6.149  0.0000E+00  0.0000E+00
     -6.024  0.0000E+00  0.0000E+00
     -5.899  0.0000E+00  0.0000E+00
     -5.774  0.0000E+00  0.0000E+00
     -5.648  0.0000E+00  0.0000E+00
     -5.523  0.0000E+00  0.0000E+00
     -5.398  0.0000E+00  0.0000E+00
     -5.273  0.0000E+00  0.0000E+00
     -5.148  0.0000E+00  0.0000E+00
     -5.022  0.0000E+00  0.0000E+00
     -4.897  0.0000E+00  0.0000E+00
     -4.772  0.0000E+00  0.0000E+00
     -4.647  0.0000E+00  0.0000E+00
     -4.522  0.0000E+00  0.0000E+00
     -4.396  0.0000E+00  0.0000E+00
     -4.271  0.8365E-03  0.1047E-03
     -4.146  0.2231E-01  0.4114E-02
     -4.021  0.1990E-01  0.8081E-02
     -3.895  0.4379E-01  0.1432E-01
     -3.770  0.2746E-01  0.2142E-01
     -3.645  0.7790E-01  0.3262E-01
     -3.520  0.4719E-01  0.3853E-01
     -3.395  0.2605E-01  0.4685E-01
     -3.269  0.5798E-01  0.6121E-01
     -3.144  0.4113E-01  0.6886E-01
     -3.019  0.8766E-01  0.8038E-01
     -2.894  0.5081E-01  0.9649E-01
     -2.769  0.7790E-01  0.1072E+00
     -2.643  0.1127E+00  0.1219E+00
     -2.518  0.4275E-01  0.1327E+00
     -2.393  0.5841E-01  0.1505E+00
     -2.268  0.5867E-01  0.1603E+00
     -2.142  0.5932E-01  0.1774E+00
     -2.017  0.6371E-01  0.1975E+00
     -1.892  0.9388E-01  0.2135E+00
     -1.767  0.8838E-01  0.2268E+00
     -1.642  0.7239E-01  0.2443E+00
     -1.516  0.7847E-01  0.2629E+00
     -1.391  0.7770E-01  0.2799E+00
     -1.266  0.2976E-01  0.2959E+00
     -1.141  0.2391E-01  0.3134E+00
     -1.016  0.1645E+00  0.3408E+00
     -0.890  0.7828E-01  0.3568E+00
     -0.765  0.1219E+00  0.3769E+00
     -0.640  0.1241E+00  0.3997E+00
     -0.515  0.5948E-01  0.4160E+00
     -0.389  0.5092E-01  0.4320E+00
     -0.264  0.1748E+00  0.4658E+00
     -0.139  0.9989E-01  0.4808E+00
     -0.014  0.7784E-01  0.5025E+00
      0.111  0.7794E-01  0.5269E+00
      0.237  0.1043E+00  0.5545E+00
      0.362  0.8469E-01  0.5667E+00
      0.487  0.1484E+00  0.5950E+00
      0.612  0.1114E+00  0.6215E+00
      0.738  0.1486E+00  0.6481E+00
      0.863  0.5841E-01  0.6685E+00
      0.988  0.9753E-01  0.6978E+00
      1.113  0.9017E-01  0.7188E+00
      1.238  0.1605E+00  0.7447E+00
      1.364  0.1582E+00  0.7785E+00
      1.489  0.1168E+00  0.8038E+00
      1.614  0.1536E+00  0.8328E+00
      1.739  0.4977E-01  0.8515E+00
      1.864  0.1730E+00  0.8913E+00
      1.990  0.1019E+00  0.9093E+00
      2.115  0.1564E+00  0.9386E+00
      2.240  0.2123E+00  0.9859E+00
      2.365  0.1943E+00  0.1018E+01
      2.491  0.2647E+00  0.1053E+01
      2.616  0.1719E+00  0.1081E+01
      2.741  0.2246E+00  0.1118E+01
      2.866  0.1971E+00  0.1158E+01
      2.991  0.8481E-01  0.1181E+01
      3.117  0.3769E+00  0.1240E+01
      3.242  0.3890E+00  0.1295E+01
      3.367  0.1365E+00  0.1313E+01
      3.492  0.1375E+00  0.1347E+01
      3.617  0.9738E-01  0.1371E+01
      3.743  0.2183E+00  0.1411E+01
      3.868  0.9478E-01  0.1430E+01
      3.993  0.2185E+00  0.1467E+01
      4.118  0.2532E+00  0.1516E+01
      4.244  0.5842E-01  0.1537E+01
      4.369  0.2725E+00  0.1576E+01
      4.494  0.1990E-01  0.1589E+01
      4.619  0.3721E-01  0.1603E+01
      4.744  0.1814E+00  0.1633E+01
      4.870  0.4437E-01  0.1648E+01
      4.995  0.2335E+00  0.1694E+01
      5.120  0.1363E+00  0.1725E+01
      5.245  0.1162E+00  0.1740E+01
      5.370  0.9882E-01  0.1752E+01
      5.496  0.5828E-01  0.1767E+01
      5.621  0.6055E-01  0.1777E+01
      5.746  0.9742E-01  0.1794E+01
      5.871  0.1365E+00  0.1821E+01
      5.997  0.9067E-01  0.1840E+01
      6.122  0.5800E-01  0.1858E+01
      6.247  0.5843E-01  0.1871E+01
      6.372  0.1947E-01  0.1875E+01
      6.497  0.2159E-09  0.1875E+01
      6.623  0.3405E-01  0.1882E+01
      6.748  0.1407E+00  0.1904E+01
      6.873  0.3895E-01  0.1914E+01
      6.998  0.1355E-01  0.1920E+01
      7.123  0.5843E-01  0.1934E+01
      7.249  0.4325E-01  0.1939E+01
      7.374  0.9094E-03  0.1944E+01
      7.499  0.1674E-02  0.1946E+01
      7.624  0.7542E-01  0.1958E+01
      7.750  0.1216E+00  0.1974E+01
      7.875  0.6002E-01  0.1986E+01
      8.000  0.1364E+00  0.2010E+01
      8.125  0.5843E-01  0.2019E+01
      8.250  0.1556E+00  0.2040E+01
      8.376  0.1934E+00  0.2069E+01
      8.501  0.2922E+00  0.2121E+01
      8.626  0.2483E+00  0.2177E+01
      8.751  0.1297E+00  0.2211E+01
      8.876  0.4285E+00  0.2307E+01
      9.002  0.2426E+00  0.2355E+01
      9.127  0.1373E+00  0.2378E+01
      9.252  0.1606E+00  0.2410E+01
      9.377  0.2156E+00  0.2455E+01
      9.503  0.3347E+00  0.2509E+01
      9.628  0.1629E+00  0.2539E+01
      9.753  0.1365E+00  0.2558E+01
      9.878  0.2178E+00  0.2602E+01
     10.003  0.3718E+00  0.2665E+01
     10.129  0.2153E+00  0.2704E+01
     10.254  0.5843E-01  0.2716E+01
     10.379  0.1394E+00  0.2738E+01
     10.504  0.1221E+00  0.2760E+01
     10.629  0.2534E+00  0.2807E+01
     10.755  0.2373E+00  0.2849E+01
     10.880  0.1788E+00  0.2885E+01
     11.005  0.6413E-01  0.2905E+01
     11.130  0.9752E-01  0.2929E+01
     11.256  0.8342E-01  0.2947E+01
     11.381  0.2192E+00  0.2986E+01
     11.506  0.2169E+00  0.3029E+01
     11.631  0.1731E+00  0.3055E+01
     11.756  0.9253E-01  0.3072E+01
     11.882  0.7836E-01  0.3095E+01
     12.007  0.9849E-01  0.3117E+01
     12.132  0.2094E+00  0.3147E+01
     12.257  0.3021E+00  0.3204E+01
     12.383  0.2467E+00  0.3242E+01
     12.508  0.1164E+00  0.3264E+01
     12.633  0.1233E+00  0.3287E+01
     12.758  0.1201E+00  0.3308E+01
     12.883  0.1812E+00  0.3331E+01
     13.009  0.2290E+00  0.3382E+01
     13.134  0.2991E+00  0.3442E+01
     13.259  0.2626E+00  0.3483E+01
     13.384  0.2095E+00  0.3521E+01
     13.509  0.2178E+00  0.3552E+01
     13.635  0.2033E+00  0.3598E+01
     13.760  0.7208E-01  0.3621E+01
     13.885  0.2077E+00  0.3673E+01
     14.010  0.3108E+00  0.3735E+01
     14.136  0.2596E+00  0.3794E+01
     14.261  0.2245E+00  0.3841E+01
     14.386  0.2142E+00  0.3884E+01
     14.511  0.8566E-01  0.3901E+01
     14.636  0.2370E+00  0.3954E+01
     14.762  0.1762E+00  0.3985E+01
     14.887  0.5192E+00  0.4057E+01
     15.012  0.2149E+00  0.4100E+01
     15.137  0.1785E+00  0.4144E+01
     15.262  0.1029E+00  0.4164E+01
     15.388  0.1955E+00  0.4210E+01
     15.513  0.7118E-01  0.4233E+01
     15.638  0.2266E+00  0.4272E+01
     15.763  0.3349E+00  0.4329E+01
     15.889  0.3109E+00  0.4382E+01
     16.014  0.5891E-01  0.4422E+01
     16.139  0.1736E+00  0.4450E+01
     16.264  0.1128E+00  0.4474E+01
     16.389  0.1646E+00  0.4507E+01
     16.515  0.8477E-01  0.4534E+01
     16.640  0.2135E+00  0.4567E+01
     16.765  0.3858E+00  0.4637E+01
     16.890  0.3220E+00  0.4678E+01
     17.015  0.1854E+00  0.4710E+01
     17.141  0.1520E+00  0.4748E+01
     17.266  0.9013E-01  0.4771E+01
     17.391  0.1145E+00  0.4786E+01
     17.516  0.1354E+00  0.4814E+01
     17.642  0.2489E+00  0.4869E+01
     17.767  0.3485E+00  0.4934E+01
     17.892  0.2970E+00  0.5001E+01
     18.017  0.1315E+00  0.5020E+01
     18.142  0.1711E+00  0.5060E+01
     18.268  0.1499E+00  0.5093E+01
     18.393  0.2564E+00  0.5138E+01
     18.518  0.2448E+00  0.5182E+01
     18.643  0.2321E+00  0.5225E+01
     18.768  0.3363E+00  0.5298E+01
     18.894  0.1986E+00  0.5335E+01
     19.019  0.2639E+00  0.5372E+01
     19.144  0.3093E+00  0.5434E+01
     19.269  0.1964E+00  0.5466E+01
     19.395  0.1721E+00  0.5498E+01
     19.520  0.2725E+00  0.5548E+01
     19.645  0.3120E+00  0.5601E+01
     19.770  0.4374E+00  0.5672E+01
     19.895  0.1051E+00  0.5694E+01
     20.021  0.2535E+00  0.5746E+01
     20.146  0.9661E-01  0.5804E+01
     20.271  0.1278E+00  0.5837E+01
     20.396  0.2934E+00  0.5887E+01
     20.521  0.3317E+00  0.5949E+01
     20.647  0.1379E+00  0.5977E+01
     20.772  0.2323E+00  0.6032E+01
     20.897  0.1078E+00  0.6053E+01
     21.022  0.2735E+00  0.6100E+01
     21.148  0.2357E+00  0.6145E+01
     21.273  0.2091E+00  0.6181E+01
     21.398  0.1978E+00  0.6218E+01
     21.523  0.3201E+00  0.6271E+01
     21.648  0.1477E+00  0.6301E+01
     21.774  0.3709E+00  0.6355E+01
     21.899  0.1015E+00  0.6377E+01
     22.024  0.1789E+00  0.6408E+01
     22.149  0.9648E-01  0.6446E+01
     22.274  0.1683E+00  0.6484E+01
     22.400  0.1862E+00  0.6532E+01
     22.525  0.1514E+00  0.6573E+01
     22.650  0.2427E+00  0.6631E+01
     22.775  0.3038E+00  0.6681E+01
     22.901  0.2387E+00  0.6722E+01
     23.026  0.2754E+00  0.6764E+01
     23.151  0.1574E+00  0.6803E+01
     23.276  0.1541E+00  0.6826E+01
     23.401  0.4564E+00  0.6889E+01
     23.527  0.4597E+00  0.6980E+01
     23.652  0.4181E+00  0.7056E+01
     23.777  0.4661E+00  0.7135E+01
     23.902  0.3256E+00  0.7221E+01
     24.028  0.3712E+00  0.7285E+01
     24.153  0.3220E+00  0.7350E+01
     24.278  0.4431E+00  0.7428E+01
     24.403  0.3653E+00  0.7500E+01
     24.528  0.2557E+00  0.7562E+01
     24.654  0.3441E+00  0.7614E+01
     24.779  0.4424E+00  0.7695E+01
     24.904  0.3688E+00  0.7766E+01
     25.029  0.3231E+00  0.7829E+01
     25.154  0.2530E+00  0.7886E+01
     25.280  0.3891E+00  0.7960E+01
     25.405  0.1609E+00  0.8002E+01
     25.530  0.1383E+00  0.8024E+01
     25.655  0.2227E+00  0.8071E+01
     25.781  0.1104E+00  0.8112E+01
     25.906  0.1278E+00  0.8137E+01
     26.031  0.8532E-01  0.8153E+01
     26.156  0.1655E+00  0.8182E+01
     26.281  0.5475E-01  0.8196E+01
     26.407  0.8350E-01  0.8215E+01
     26.532  0.3139E+00  0.8284E+01
     26.657  0.1308E+00  0.8318E+01
     26.782  0.1756E+00  0.8344E+01
     26.907  0.1973E+00  0.8379E+01
     27.033  0.2921E-01  0.8386E+01
     27.158  0.5113E-01  0.8395E+01
     27.283  0.1160E+00  0.8421E+01
     27.408  0.4669E-01  0.8438E+01
     27.534  0.1563E+00  0.8473E+01
     27.659  0.4437E-01  0.8488E+01
     27.784  0.1183E+00  0.8512E+01
     27.909  0.1948E-01  0.8522E+01
     28.034  0.5843E-01  0.8532E+01
     28.160  0.3720E-01  0.8539E+01
     28.285  0.5843E-01  0.8546E+01
     28.410  0.1363E+00  0.8566E+01
     28.535  0.9001E-01  0.8578E+01
     28.660  0.6566E-01  0.8589E+01
     28.786  0.1230E+00  0.8616E+01
     28.911  0.1753E+00  0.8648E+01
     29.036  0.1045E+00  0.8661E+01
     29.161  0.9997E-01  0.8695E+01
     29.287  0.1850E+00  0.8722E+01
     29.412  0.7885E-01  0.8735E+01
     29.537  0.3895E-01  0.8742E+01
     29.662  0.1304E+00  0.8775E+01
     29.787  0.6812E-01  0.8797E+01
     29.913  0.4792E-08  0.8797E+01
     30.038  0.2009E+00  0.8827E+01
     30.163  0.1222E+00  0.8854E+01
     30.288  0.1375E+00  0.8878E+01
     30.413  0.1650E+00  0.8908E+01
     30.539  0.2403E+00  0.8941E+01
     30.664  0.1204E+00  0.8977E+01
     30.789  0.7914E-01  0.9011E+01
     30.914  0.1148E+00  0.9037E+01
     31.040  0.1751E+00  0.9072E+01
     31.165  0.1856E+00  0.9100E+01
     31.290  0.1499E+00  0.9143E+01
     31.415  0.7363E-01  0.9170E+01
     31.540  0.1633E+00  0.9198E+01
     31.666  0.2528E+00  0.9234E+01
     31.791  0.1724E+00  0.9265E+01
     31.916  0.1394E+00  0.9286E+01
     32.041  0.2772E+00  0.9335E+01
     32.166  0.2183E+00  0.9374E+01
     32.292  0.2504E+00  0.9430E+01
     32.417  0.9738E-01  0.9470E+01
     32.542  0.2646E+00  0.9503E+01
     32.667  0.1571E+00  0.9536E+01
     32.793  0.1171E+00  0.9567E+01
     32.918  0.2502E+00  0.9608E+01
     33.043  0.1802E+00  0.9643E+01
     33.168  0.2867E+00  0.9693E+01
     33.293  0.2488E+00  0.9753E+01
     33.419  0.3146E+00  0.9801E+01
     33.544  0.3996E+00  0.9888E+01
     33.669  0.3657E+00  0.9959E+01
     33.794  0.3164E+00  0.1000E+02
     33.919  0.2615E+00  0.1007E+02
     34.045  0.3148E+00  0.1013E+02
     34.170  0.5000E+00  0.1021E+02
     34.295  0.5300E+00  0.1030E+02
     34.420  0.3528E+00  0.1038E+02
     34.546  0.3284E+00  0.1044E+02
     34.671  0.2145E+00  0.1050E+02
     34.796  0.3889E+00  0.1060E+02
     34.921  0.2862E+00  0.1067E+02
     35.046  0.2336E+00  0.1072E+02
     35.172  0.3383E+00  0.1079E+02
     35.297  0.1723E+00  0.1083E+02
     35.422  0.3111E+00  0.1089E+02
     35.547  0.2760E+00  0.1094E+02
     35.673  0.2915E+00  0.1099E+02
     35.798  0.3486E+00  0.1105E+02
     35.923  0.1790E+00  0.1110E+02
     36.048  0.3978E+00  0.1117E+02
     36.173  0.3345E+00  0.1122E+02
     36.299  0.1858E+00  0.1126E+02
     36.424  0.2214E+00  0.1131E+02
     36.549  0.1603E+00  0.1134E+02
     36.674  0.1877E+00  0.1136E+02
     36.799  0.1919E+00  0.1140E+02
     36.925  0.2532E+00  0.1145E+02
     37.050  0.2284E+00  0.1149E+02
     37.175  0.1354E+00  0.1151E+02
     37.300  0.2056E+00  0.1155E+02
     37.426  0.3489E+00  0.1161E+02
     37.551  0.1644E+00  0.1165E+02
     37.676  0.1763E+00  0.1168E+02
     37.801  0.1531E+00  0.1173E+02
     37.926  0.3708E+00  0.1178E+02
     38.052  0.3500E+00  0.1184E+02
     38.177  0.3434E+00  0.1189E+02
     38.302  0.1950E+00  0.1192E+02
     38.427  0.2381E+00  0.1197E+02
     38.552  0.1375E+00  0.1200E+02
     38.678  0.2282E+00  0.1204E+02
     38.803  0.1983E+00  0.1207E+02
     38.928  0.3567E+00  0.1213E+02
     39.053  0.3175E+00  0.1219E+02
     39.179  0.1901E+00  0.1223E+02
     39.304  0.2184E+00  0.1228E+02
     39.429  0.2880E+00  0.1235E+02
     39.554  0.2065E+00  0.1238E+02
     39.679  0.8843E-01  0.1241E+02
     39.805  0.2416E+00  0.1247E+02
     39.930  0.1246E+00  0.1249E+02
     40.055  0.3136E+00  0.1255E+02
     40.180  0.1417E+00  0.1259E+02
     40.305  0.3020E+00  0.1266E+02
     40.431  0.1939E+00  0.1272E+02
     40.556  0.2134E+00  0.1276E+02
     40.681  0.2342E+00  0.1282E+02
     40.806  0.3402E+00  0.1287E+02
     40.932  0.2517E+00  0.1293E+02
     41.057  0.2598E+00  0.1296E+02
     41.182  0.7735E-01  0.1300E+02
     41.307  0.1775E+00  0.1302E+02
     41.432  0.2232E+00  0.1307E+02
     41.558  0.2900E+00  0.1313E+02
     41.683  0.2805E+00  0.1317E+02
     41.808  0.1124E+00  0.1319E+02
     41.933  0.2540E+00  0.1323E+02
     42.058  0.1766E+00  0.1327E+02
     42.184  0.3112E+00  0.1332E+02
     42.309  0.2696E+00  0.1337E+02
     42.434  0.2762E+00  0.1342E+02
     42.559  0.1277E+00  0.1344E+02
     42.685  0.2199E+00  0.1349E+02
     42.810  0.2284E+00  0.1354E+02
     42.935  0.1620E+00  0.1358E+02
     43.060  0.1290E+00  0.1362E+02
     43.185  0.2490E+00  0.1367E+02
     43.311  0.3017E+00  0.1371E+02
     43.436  0.2177E+00  0.1375E+02
     43.561  0.1931E+00  0.1379E+02
     43.686  0.1349E+00  0.1383E+02
     43.811  0.3424E+00  0.1390E+02
     43.937  0.1516E+00  0.1393E+02
     44.062  0.4569E+00  0.1400E+02
     44.187  0.4631E+00  0.1407E+02
     44.312  0.1472E+00  0.1415E+02
     44.438  0.3692E+00  0.1423E+02
     44.563  0.2088E+00  0.1429E+02
     44.688  0.3575E+00  0.1436E+02
     44.813  0.2230E+00  0.1440E+02
     44.938  0.3853E+00  0.1446E+02
     45.064  0.3814E+00  0.1454E+02
     45.189  0.1955E+00  0.1459E+02
     45.314  0.2701E+00  0.1464E+02
     45.439  0.3023E+00  0.1469E+02
     45.564  0.1576E+00  0.1473E+02
     45.690  0.3669E+00  0.1480E+02
     45.815  0.3585E+00  0.1485E+02
     45.940  0.2587E+00  0.1489E+02
     46.065  0.3725E+00  0.1497E+02
     46.191  0.1671E+00  0.1502E+02
     46.316  0.3220E+00  0.1507E+02
     46.441  0.2239E+00  0.1511E+02
     46.566  0.3651E+00  0.1518E+02
     46.691  0.2873E+00  0.1523E+02
     46.817  0.1819E+00  0.1528E+02
     46.942  0.3279E+00  0.1535E+02
     47.067  0.2993E+00  0.1541E+02
     47.192  0.3623E+00  0.1547E+02
     47.318  0.2655E+00  0.1551E+02
     47.443  0.1998E+00  0.1554E+02
     47.568  0.3602E+00  0.1561E+02
     47.693  0.2317E+00  0.1566E+02
     47.818  0.2386E+00  0.1570E+02
     47.944  0.2468E+00  0.1575E+02
     48.069  0.2390E+00  0.1581E+02
     48.194  0.3250E+00  0.1587E+02
     48.319  0.3633E+00  0.1593E+02
     48.444  0.2344E+00  0.1599E+02
     48.570  0.3508E+00  0.1606E+02
     48.695  0.2251E+00  0.1610E+02
     48.820  0.3618E+00  0.1616E+02
     48.945  0.1720E+00  0.1620E+02
     49.071  0.1525E+00  0.1623E+02
     49.196  0.2771E+00  0.1627E+02
     49.321  0.1172E+00  0.1630E+02
     49.446  0.1973E+00  0.1633E+02
     49.571  0.7320E-01  0.1636E+02
     49.697  0.2621E+00  0.1640E+02
     49.822  0.1483E+00  0.1645E+02
     49.947  0.3159E+00  0.1650E+02
     50.072  0.2548E+00  0.1655E+02
     50.197  0.1142E+00  0.1660E+02
     50.323  0.3937E+00  0.1667E+02
     50.448  0.1631E+00  0.1670E+02
     50.573  0.1794E+00  0.1673E+02
     50.698  0.1410E+00  0.1677E+02
     50.824  0.2268E+00  0.1681E+02
     50.949  0.3558E+00  0.1686E+02
     51.074  0.2491E+00  0.1691E+02
     51.199  0.1724E+00  0.1695E+02
     51.324  0.3080E+00  0.1700E+02
     51.450  0.3141E+00  0.1705E+02
     51.575  0.2317E+00  0.1710E+02
     51.700  0.2066E+00  0.1714E+02
     51.825  0.1729E+00  0.1719E+02
     51.950  0.2064E+00  0.1722E+02
     52.076  0.1154E+00  0.1725E+02
     52.201  0.2376E+00  0.1730E+02
     52.326  0.1985E+00  0.1734E+02
     52.451  0.1604E+00  0.1738E+02
     52.577  0.2726E+00  0.1743E+02
     52.702  0.2777E+00  0.1749E+02
     52.827  0.3914E+00  0.1756E+02
     52.952  0.4109E+00  0.1765E+02
     53.077  0.2769E+00  0.1770E+02
     53.203  0.2433E+00  0.1776E+02
     53.328  0.1853E+00  0.1780E+02
     53.453  0.1935E+00  0.1785E+02
     53.578  0.3829E+00  0.1791E+02
     53.703  0.3517E+00  0.1800E+02
     53.829  0.3160E+00  0.1808E+02
     53.954  0.2870E+00  0.1814E+02
     54.079  0.1007E+00  0.1818E+02
     54.204  0.2340E+00  0.1822E+02
     54.330  0.2484E+00  0.1826E+02
     54.455  0.3786E+00  0.1834E+02
     54.580  0.3106E+00  0.1839E+02
     54.705  0.3616E+00  0.1845E+02
     54.830  0.2021E+00  0.1850E+02
     54.956  0.4562E+00  0.1857E+02
     55.081  0.5146E+00  0.1867E+02
     55.206  0.2233E+00  0.1874E+02
     55.331  0.4070E+00  0.1882E+02
     55.456  0.3513E+00  0.1888E+02
     55.582  0.1319E+00  0.1893E+02
     55.707  0.2196E+00  0.1900E+02
     55.832  0.3157E+00  0.1905E+02
     55.957  0.3117E+00  0.1913E+02
     56.083  0.3537E+00  0.1920E+02
     56.208  0.2721E+00  0.1925E+02
     56.333  0.1901E+00  0.1929E+02
     56.458  0.2625E+00  0.1933E+02
     56.583  0.5001E+00  0.1944E+02
     56.709  0.3400E+00  0.1950E+02
     56.834  0.4770E+00  0.1957E+02
     56.959  0.2536E+00  0.1963E+02
     57.084  0.3173E+00  0.1968E+02
     57.209  0.2954E+00  0.1975E+02
     57.335  0.2025E+00  0.1981E+02
     57.460  0.3071E+00  0.1987E+02
     57.585  0.3613E+00  0.1994E+02
     57.710  0.2254E+00  0.2002E+02
     57.836  0.1628E+00  0.2007E+02
     57.961  0.2698E+00  0.2012E+02
     58.086  0.2456E+00  0.2017E+02
     58.211  0.2687E+00  0.2022E+02
     58.336  0.2407E+00  0.2027E+02
     58.462  0.3428E+00  0.2033E+02
     58.587  0.2887E+00  0.2038E+02
     58.712  0.1738E+00  0.2043E+02
     58.837  0.3296E+00  0.2050E+02
     58.963  0.1155E+00  0.2053E+02
     59.088  0.3443E+00  0.2059E+02
     59.213  0.2177E+00  0.2064E+02
     59.338  0.3422E+00  0.2070E+02
     59.463  0.2667E+00  0.2075E+02
     59.589  0.2356E+00  0.2079E+02
     59.714  0.1897E+00  0.2083E+02
     59.839  0.3300E+00  0.2088E+02
     59.964  0.2063E+00  0.2092E+02
     60.089  0.2664E+00  0.2096E+02
     60.215  0.2535E+00  0.2101E+02
     60.340  0.2247E+00  0.2107E+02
     60.465  0.2645E+00  0.2112E+02
     60.590  0.3631E+00  0.2121E+02
     60.716  0.2847E+00  0.2126E+02
     60.841  0.3512E+00  0.2132E+02
     60.966  0.3816E+00  0.2143E+02
     61.091  0.2724E+00  0.2150E+02
     61.216  0.3937E+00  0.2156E+02
     61.342  0.3482E+00  0.2163E+02
     61.467  0.3077E+00  0.2170E+02
     61.592  0.1945E+00  0.2175E+02
     61.717  0.2051E+00  0.2178E+02
     61.842  0.2661E+00  0.2183E+02
     61.968  0.3147E+00  0.2189E+02
     62.093  0.1344E+00  0.2194E+02
     62.218  0.2809E+00  0.2200E+02
     62.343  0.3467E+00  0.2207E+02
     62.469  0.3039E+00  0.2213E+02
     62.594  0.1655E+00  0.2217E+02
     62.719  0.4309E+00  0.2225E+02
     62.844  0.3782E+00  0.2231E+02
     62.969  0.3348E+00  0.2236E+02
     63.095  0.1536E+00  0.2239E+02
     63.220  0.2143E+00  0.2243E+02
     63.345  0.2135E+00  0.2248E+02
     63.470  0.2708E+00  0.2254E+02
     63.595  0.2126E+00  0.2257E+02
     63.721  0.3235E+00  0.2264E+02
     63.846  0.1999E+00  0.2269E+02
     63.971  0.2448E+00  0.2273E+02
     64.096  0.6454E-01  0.2275E+02
     64.222  0.3272E+00  0.2280E+02
     64.347  0.1258E+00  0.2285E+02
     64.472  0.2352E+00  0.2289E+02
     64.597  0.3194E+00  0.2295E+02
     64.722  0.2240E+00  0.2301E+02
     64.848  0.3029E+00  0.2307E+02
     64.973  0.2773E+00  0.2313E+02
     65.098  0.3998E+00  0.2319E+02
     65.223  0.2998E+00  0.2324E+02
     65.348  0.5809E+00  0.2334E+02
     65.474  0.4690E+00  0.2341E+02
     65.599  0.4570E+00  0.2349E+02
     65.724  0.1856E+00  0.2353E+02
     65.849  0.2364E+00  0.2358E+02
     65.975  0.4003E+00  0.2366E+02
     66.100  0.3858E+00  0.2375E+02
     66.225  0.4306E+00  0.2381E+02
     66.350  0.2758E+00  0.2387E+02
     66.475  0.3849E+00  0.2395E+02
     66.601  0.2921E+00  0.2403E+02
     66.726  0.1546E+00  0.2407E+02
     66.851  0.2463E+00  0.2412E+02
     66.976  0.3853E+00  0.2419E+02
     67.101  0.3786E+00  0.2425E+02
     67.227  0.2571E+00  0.2431E+02
     67.352  0.3164E+00  0.2436E+02
     67.477  0.4475E+00  0.2445E+02
     67.602  0.3857E+00  0.2451E+02
     67.728  0.1676E+00  0.2457E+02
     67.853  0.4206E+00  0.2463E+02
     67.978  0.2589E+00  0.2469E+02
     68.103  0.2267E+00  0.2473E+02
     68.228  0.4085E+00  0.2481E+02
     68.354  0.2302E+00  0.2487E+02
     68.479  0.3704E+00  0.2494E+02
     68.604  0.4533E+00  0.2502E+02
     68.729  0.3134E+00  0.2507E+02
     68.854  0.2727E+00  0.2513E+02
     68.980  0.4818E-01  0.2515E+02
     69.105  0.2816E+00  0.2521E+02
     69.230  0.2055E+00  0.2525E+02
     69.355  0.3492E+00  0.2530E+02
     69.481  0.2875E+00  0.2535E+02
     69.606  0.2210E+00  0.2541E+02
     69.731  0.2689E+00  0.2548E+02
     69.856  0.3258E+00  0.2555E+02
     69.981  0.4794E+00  0.2564E+02
     70.107  0.2953E+00  0.2571E+02
     70.232  0.3229E+00  0.2576E+02
     70.357  0.2477E+00  0.2582E+02
     70.482  0.3567E+00  0.2589E+02
     70.608  0.2643E+00  0.2595E+02
     70.733  0.4010E+00  0.2602E+02
     70.858  0.2377E+00  0.2609E+02
     70.983  0.1794E+00  0.2614E+02
     71.108  0.2147E+00  0.2619E+02
     71.234  0.2369E+00  0.2623E+02
     71.359  0.2917E+00  0.2629E+02
     71.484  0.1842E+00  0.2633E+02
     71.609  0.2462E+00  0.2639E+02
     71.734  0.1670E+00  0.2643E+02
     71.860  0.2185E+00  0.2650E+02
     71.985  0.3774E+00  0.2658E+02
     72.110  0.4096E+00  0.2666E+02
     72.235  0.2911E+00  0.2672E+02
     72.361  0.4735E+00  0.2680E+02
     72.486  0.5112E+00  0.2688E+02
     72.611  0.2876E+00  0.2693E+02
     72.736  0.4045E+00  0.2700E+02
     72.861  0.1556E+00  0.2705E+02
     72.987  0.4043E+00  0.2711E+02
     73.112  0.2279E+00  0.2717E+02
     73.237  0.3500E+00  0.2724E+02
     73.362  0.1817E+00  0.2728E+02
     73.487  0.2588E+00  0.2732E+02
     73.613  0.2152E+00  0.2737E+02
     73.738  0.3492E+00  0.2743E+02
     73.863  0.2865E+00  0.2751E+02
     73.988  0.4331E+00  0.2759E+02
     74.114  0.2047E+00  0.2763E+02
     74.239  0.2204E+00  0.2771E+02
     74.364  0.4591E+00  0.2780E+02
     74.489  0.1973E+00  0.2785E+02
     74.614  0.3147E+00  0.2791E+02
     74.740  0.4278E+00  0.2799E+02
     74.865  0.2295E+00  0.2806E+02
     74.990  0.3208E+00  0.2811E+02
     75.115  0.1480E+00  0.2814E+02
     75.240  0.2650E+00  0.2820E+02
     75.366  0.2895E+00  0.2827E+02
     75.491  0.1950E+00  0.2832E+02
     75.616  0.4075E+00  0.2838E+02
     75.741  0.1339E+00  0.2843E+02
     75.867  0.3391E+00  0.2850E+02
     75.992  0.2919E+00  0.2857E+02
     76.117  0.3040E+00  0.2862E+02
     76.242  0.1621E+00  0.2866E+02
     76.367  0.1450E+00  0.2869E+02
     76.493  0.3030E+00  0.2874E+02
     76.618  0.9805E-01  0.2878E+02
     76.743  0.2447E+00  0.2882E+02
     76.868  0.4002E+00  0.2889E+02
     76.993  0.2237E+00  0.2894E+02
     77.119  0.2729E+00  0.2898E+02
     77.244  0.3032E+00  0.2905E+02
     77.369  0.4208E+00  0.2914E+02
     77.494  0.3374E+00  0.2921E+02
     77.620  0.1571E+00  0.2926E+02
     77.745  0.3234E+00  0.2932E+02
     77.870  0.1878E+00  0.2937E+02
     77.995  0.1907E+00  0.2943E+02
     78.120  0.3788E+00  0.2950E+02
     78.246  0.3898E+00  0.2957E+02
     78.371  0.1924E+00  0.2961E+02
     78.496  0.1833E+00  0.2964E+02
     78.621  0.4819E+00  0.2973E+02
     78.746  0.1924E+00  0.2977E+02
     78.872  0.3534E+00  0.2984E+02
     78.997  0.2231E+00  0.2987E+02
     79.122  0.4107E+00  0.2995E+02
     79.247  0.1703E+00  0.2999E+02
     79.373  0.3408E+00  0.3006E+02
     79.498  0.3370E+00  0.3011E+02
     79.623  0.2089E+00  0.3018E+02
     79.748  0.4205E+00  0.3026E+02
     79.873  0.3579E+00  0.3034E+02
     79.999  0.5211E+00  0.3043E+02
     80.124  0.4118E+00  0.3051E+02
     80.249  0.3009E+00  0.3056E+02
     80.374  0.2966E+00  0.3063E+02
     80.499  0.3206E+00  0.3070E+02
     80.625  0.4766E+00  0.3077E+02
     80.750  0.3055E+00  0.3081E+02
     80.875  0.5046E+00  0.3089E+02
     81.000  0.3719E+00  0.3095E+02
     81.126  0.4094E+00  0.3102E+02
     81.251  0.4023E+00  0.3110E+02
     81.376  0.1055E+00  0.3113E+02
     81.501  0.3689E+00  0.3120E+02
     81.626  0.4017E+00  0.3128E+02
     81.752  0.3372E+00  0.3133E+02
     81.877  0.4374E+00  0.3142E+02
     82.002  0.5800E+00  0.3153E+02
     82.127  0.2626E+00  0.3159E+02
     82.253  0.3451E+00  0.3168E+02
     82.378  0.4141E+00  0.3177E+02
     82.503  0.3321E+00  0.3182E+02
     82.628  0.2513E+00  0.3191E+02
     82.753  0.4509E+00  0.3199E+02
     82.879  0.3218E+00  0.3206E+02
     83.004  0.2859E+00  0.3213E+02
     83.129  0.2400E+00  0.3218E+02
     83.254  0.4773E+00  0.3225E+02
     83.379  0.3368E+00  0.3235E+02
     83.505  0.5274E+00  0.3244E+02
     83.630  0.5157E+00  0.3253E+02
     83.755  0.2701E+00  0.3260E+02
     83.880  0.1274E+00  0.3263E+02
     84.006  0.2994E+00  0.3269E+02
     84.131  0.2266E+00  0.3274E+02
     84.256  0.2692E+00  0.3280E+02
     84.381  0.2737E+00  0.3285E+02
     84.506  0.2080E+00  0.3291E+02
     84.632  0.4697E+00  0.3300E+02
     84.757  0.1603E+00  0.3306E+02
     84.882  0.1146E+00  0.3310E+02
     85.007  0.1846E+00  0.3315E+02
     85.132  0.3086E+00  0.3322E+02
     85.258  0.7166E+00  0.3335E+02
     85.383  0.3506E+00  0.3340E+02
     85.508  0.3586E+00  0.3346E+02
     85.633  0.4364E+00  0.3354E+02
     85.759  0.2141E+00  0.3359E+02
     85.884  0.3152E+00  0.3364E+02
     86.009  0.4814E+00  0.3373E+02
     86.134  0.5234E+00  0.3381E+02
     86.259  0.2103E+00  0.3386E+02
     86.385  0.1560E+00  0.3389E+02
     86.510  0.2150E+00  0.3393E+02
     86.635  0.3469E+00  0.3400E+02
     86.760  0.2832E+00  0.3404E+02
     86.885  0.4881E+00  0.3413E+02
     87.011  0.4278E+00  0.3419E+02
     87.136  0.4376E+00  0.3426E+02
     87.261  0.2313E+00  0.3432E+02
     87.386  0.1515E+00  0.3438E+02
     87.512  0.2280E+00  0.3441E+02
     87.637  0.4742E+00  0.3449E+02
     87.762  0.4556E+00  0.3457E+02
     87.887  0.4358E+00  0.3465E+02
     88.012  0.3301E+00  0.3472E+02
     88.138  0.3068E+00  0.3477E+02
     88.263  0.1749E+00  0.3483E+02
     88.388  0.3131E+00  0.3489E+02
     88.513  0.3675E+00  0.3495E+02
     88.638  0.1442E+00  0.3498E+02
     88.764  0.4244E+00  0.3506E+02
     88.889  0.4300E+00  0.3512E+02
     89.014  0.2818E+00  0.3517E+02
     89.139  0.3791E+00  0.3526E+02
     89.265  0.6877E+00  0.3536E+02
     89.390  0.3951E+00  0.3544E+02
     89.515  0.3571E+00  0.3549E+02
     89.640  0.3577E+00  0.3558E+02
     89.765  0.5000E+00  0.3565E+02
     89.891  0.3320E+00  0.3570E+02
     90.016  0.4030E+00  0.3578E+02
     90.141  0.3143E+00  0.3585E+02
     90.266  0.4386E+00  0.3593E+02
     90.391  0.4130E+00  0.3599E+02
     90.517  0.1266E+00  0.3603E+02
     90.642  0.3539E+00  0.3610E+02
     90.767  0.2217E+00  0.3614E+02
     90.892  0.8376E+00  0.3625E+02
     91.018  0.3736E+00  0.3631E+02
     91.143  0.3726E+00  0.3637E+02
     91.268  0.4273E+00  0.3646E+02
     91.393  0.3325E+00  0.3652E+02
     91.518  0.2837E+00  0.3660E+02
     91.644  0.4643E+00  0.3669E+02
     91.769  0.3713E+00  0.3677E+02
     91.894  0.4094E+00  0.3684E+02
     92.019  0.2505E+00  0.3690E+02
     92.144  0.3588E+00  0.3699E+02
     92.270  0.2734E+00  0.3705E+02
     92.395  0.2404E+00  0.3710E+02
     92.520  0.5069E+00  0.3718E+02
     92.645  0.1541E+00  0.3722E+02
     92.771  0.3378E+00  0.3730E+02
     92.896  0.5379E+00  0.3740E+02
     93.021  0.3556E+00  0.3747E+02
     93.146  0.3092E+00  0.3753E+02
     93.271  0.3797E+00  0.3759E+02
     93.397  0.4546E+00  0.3766E+02
     93.522  0.5130E+00  0.3775E+02
     93.647  0.3081E+00  0.3782E+02
     93.772  0.3725E+00  0.3789E+02
     93.898  0.2672E+00  0.3794E+02
     94.023  0.3063E+00  0.3801E+02
     94.148  0.2565E+00  0.3806E+02
     94.273  0.3503E+00  0.3813E+02
     94.398  0.3445E+00  0.3820E+02
     94.524  0.2692E+00  0.3826E+02
     94.649  0.3921E+00  0.3834E+02
     94.774  0.4134E+00  0.3842E+02
     94.899  0.3158E+00  0.3848E+02
     95.024  0.3652E+00  0.3853E+02
     95.150  0.2115E+00  0.3860E+02
     95.275  0.4015E+00  0.3867E+02
     95.400  0.4574E+00  0.3875E+02
     95.525  0.2040E+00  0.3881E+02
     95.651  0.3352E+00  0.3888E+02
     95.776  0.2805E+00  0.3894E+02
     95.901  0.3311E+00  0.3902E+02
     96.026  0.3378E+00  0.3910E+02
     96.151  0.3757E+00  0.3916E+02
     96.277  0.2879E+00  0.3922E+02
     96.402  0.3649E+00  0.3930E+02
     96.527  0.2172E+00  0.3937E+02
     96.652  0.4678E+00  0.3947E+02
     96.777  0.1832E+00  0.3951E+02
     96.903  0.4215E+00  0.3958E+02
     97.028  0.2646E+00  0.3964E+02
     97.153  0.4484E+00  0.3971E+02
     97.278  0.3554E+00  0.3979E+02
     97.404  0.3514E+00  0.3986E+02
     97.529  0.4686E+00  0.3995E+02
     97.654  0.3318E+00  0.4002E+02
     97.779  0.3082E+00  0.4008E+02
     97.904  0.7329E+00  0.4019E+02
     98.030  0.7405E+00  0.4033E+02
     98.155  0.4049E+00  0.4040E+02
     98.280  0.3325E+00  0.4046E+02
     98.405  0.4402E+00  0.4055E+02
     98.530  0.3315E+00  0.4062E+02
     98.656  0.3985E+00  0.4068E+02
     98.781  0.3544E+00  0.4075E+02
     98.906  0.2436E+00  0.4079E+02
     99.031  0.4760E+00  0.4086E+02
     99.157  0.2121E+00  0.4090E+02
     99.282  0.1890E+00  0.4094E+02
     99.407  0.2381E+00  0.4101E+02
     99.532  0.3009E+00  0.4107E+02
     99.657  0.2365E+00  0.4113E+02
     99.783  0.5116E+00  0.4124E+02
     99.908  0.2124E+00  0.4129E+02
    100.033  0.2999E+00  0.4133E+02
    100.158  0.4111E+00  0.4141E+02
    100.283  0.2444E+00  0.4146E+02
    100.409  0.2542E+00  0.4151E+02
    100.534  0.3169E+00  0.4158E+02
    100.659  0.5081E+00  0.4169E+02
    100.784  0.3848E+00  0.4177E+02
    100.910  0.3806E+00  0.4185E+02
    101.035  0.3638E+00  0.4191E+02
    101.160  0.5419E+00  0.4202E+02
    101.285  0.3286E+00  0.4207E+02
    101.410  0.3266E+00  0.4214E+02
    101.536  0.2577E+00  0.4218E+02
    101.661  0.2231E+00  0.4224E+02
    101.786  0.4022E+00  0.4232E+02
    101.911  0.2786E+00  0.4237E+02
    102.036  0.4359E+00  0.4244E+02
    102.162  0.2026E+00  0.4248E+02
    102.287  0.6937E+00  0.4260E+02
    102.412  0.4083E+00  0.4268E+02
    102.537  0.2790E+00  0.4274E+02
    102.663  0.4980E+00  0.4282E+02
    102.788  0.2463E+00  0.4287E+02
    102.913  0.3542E+00  0.4295E+02
    103.038  0.2415E+00  0.4301E+02
    103.163  0.6065E+00  0.4313E+02
    103.289  0.3973E+00  0.4321E+02
    103.414  0.4417E+00  0.4329E+02
    103.539  0.3525E+00  0.4335E+02
    103.664  0.4953E+00  0.4343E+02
    103.789  0.3804E+00  0.4350E+02
    103.915  0.6321E+00  0.4361E+02
    104.040  0.2335E+00  0.4367E+02
    104.165  0.2572E+00  0.4373E+02
    104.290  0.3026E+00  0.4379E+02
    104.416  0.4944E+00  0.4387E+02
    104.541  0.3010E+00  0.4393E+02
    104.666  0.3754E+00  0.4400E+02
    104.791  0.3911E+00  0.4407E+02
    104.916  0.2875E+00  0.4414E+02
    105.042  0.3761E+00  0.4422E+02
    105.167  0.3145E+00  0.4428E+02
    105.292  0.4131E+00  0.4435E+02
    105.417  0.3472E+00  0.4441E+02
    105.543  0.2682E+00  0.4449E+02
    105.668  0.5261E+00  0.4458E+02
    105.793  0.2741E+00  0.4462E+02
    105.918  0.3083E+00  0.4468E+02
    106.043  0.4735E+00  0.4476E+02
    106.169  0.4620E+00  0.4486E+02
    106.294  0.3295E+00  0.4494E+02
    106.419  0.3792E+00  0.4504E+02
    106.544  0.3038E+00  0.4511E+02
    106.669  0.2368E+00  0.4516E+02
    106.795  0.2253E+00  0.4522E+02
    106.920  0.2659E+00  0.4528E+02
    107.045  0.2120E+00  0.4533E+02
    107.170  0.4183E+00  0.4540E+02
    107.296  0.3806E+00  0.4546E+02
    107.421  0.2707E+00  0.4553E+02
    107.546  0.1999E+00  0.4560E+02
    107.671  0.4834E+00  0.4569E+02
    107.796  0.4228E+00  0.4576E+02
    107.922  0.3777E+00  0.4583E+02
    108.047  0.5473E+00  0.4593E+02
    108.172  0.2704E+00  0.4598E+02
    108.297  0.2920E+00  0.4604E+02
    108.422  0.3383E+00  0.4613E+02
    108.548  0.2494E+00  0.4619E+02
    108.673  0.4486E+00  0.4626E+02
    108.798  0.4712E+00  0.4634E+02
    108.923  0.5702E+00  0.4644E+02
    109.049  0.3599E+00  0.4653E+02
    109.174  0.3689E+00  0.4659E+02
    109.299  0.4079E+00  0.4666E+02
    109.424  0.5043E+00  0.4676E+02
    109.549  0.4035E+00  0.4684E+02
    109.675  0.4204E+00  0.4692E+02
    109.800  0.2705E+00  0.4697E+02
    109.925  0.5491E+00  0.4707E+02
    110.050  0.2982E+00  0.4714E+02
    110.175  0.2431E+00  0.4719E+02
    110.301  0.5346E+00  0.4729E+02
    110.426  0.3285E+00  0.4737E+02
    110.551  0.3457E+00  0.4743E+02
    110.676  0.4912E+00  0.4751E+02
    110.802  0.4657E+00  0.4760E+02
    110.927  0.4074E+00  0.4768E+02
    111.052  0.5207E+00  0.4776E+02
    111.177  0.6040E+00  0.4786E+02
    111.302  0.3985E+00  0.4796E+02
    111.428  0.3505E+00  0.4802E+02
    111.553  0.5092E+00  0.4813E+02
    111.678  0.1532E+00  0.4818E+02
    111.803  0.5671E+00  0.4828E+02
    111.928  0.2094E+00  0.4833E+02
    112.054  0.2383E+00  0.4838E+02
    112.179  0.4176E+00  0.4846E+02
    112.304  0.4312E+00  0.4855E+02
    112.429  0.6099E+00  0.4865E+02
    112.555  0.5031E+00  0.4875E+02
    112.680  0.5134E+00  0.4883E+02
    112.805  0.4758E+00  0.4890E+02
    112.930  0.3549E+00  0.4896E+02
    113.055  0.2826E+00  0.4900E+02
    113.181  0.3978E+00  0.4908E+02
    113.306  0.2492E+00  0.4913E+02
    113.431  0.4464E+00  0.4922E+02
    113.556  0.3536E+00  0.4930E+02
    113.681  0.5657E+00  0.4941E+02
    113.807  0.6008E+00  0.4953E+02
    113.932  0.5629E+00  0.4963E+02
    114.057  0.3307E+00  0.4972E+02
    114.182  0.4351E+00  0.4979E+02
    114.308  0.3743E+00  0.4987E+02
    114.433  0.3502E+00  0.4993E+02
    114.558  0.3957E+00  0.5001E+02
    114.683  0.2605E+00  0.5007E+02
    114.808  0.2801E+00  0.5011E+02
    114.934  0.4473E+00  0.5022E+02
    115.059  0.3261E+00  0.5030E+02
    115.184  0.4407E+00  0.5040E+02
    115.309  0.2167E+00  0.5046E+02
    115.434  0.3231E+00  0.5054E+02
    115.560  0.4948E+00  0.5062E+02
    115.685  0.4545E+00  0.5073E+02
    115.810  0.3612E+00  0.5080E+02
    115.935  0.2702E+00  0.5085E+02
    116.061  0.4037E+00  0.5093E+02
    116.186  0.3599E+00  0.5100E+02
    116.311  0.5124E+00  0.5111E+02
    116.436  0.5859E+00  0.5122E+02
    116.561  0.3163E+00  0.5129E+02
    116.687  0.3344E+00  0.5136E+02
    116.812  0.3605E+00  0.5143E+02
    116.937  0.2740E+00  0.5149E+02
    117.062  0.3739E+00  0.5156E+02
    117.188  0.3714E+00  0.5163E+02
    117.313  0.4121E+00  0.5170E+02
    117.438  0.2617E+00  0.5176E+02
    117.563  0.3697E+00  0.5183E+02
    117.688  0.4557E+00  0.5190E+02
    117.814  0.2884E+00  0.5196E+02
    117.939  0.3270E+00  0.5201E+02
    118.064  0.4600E+00  0.5210E+02
    118.189  0.2053E+00  0.5215E+02
    118.314  0.2620E+00  0.5220E+02
    118.440  0.3243E+00  0.5225E+02
    118.565  0.2291E+00  0.5233E+02
    118.690  0.2611E+00  0.5238E+02
    118.815  0.3251E+00  0.5244E+02
    118.941  0.4090E+00  0.5252E+02
    119.066  0.4315E+00  0.5262E+02
    119.191  0.6745E+00  0.5272E+02
    119.316  0.2795E+00  0.5279E+02
    119.441  0.2044E+00  0.5285E+02
    119.567  0.5979E+00  0.5295E+02
    119.692  0.3545E+00  0.5302E+02
    119.817  0.4467E+00  0.5311E+02
    119.942  0.4841E+00  0.5320E+02
    120.067  0.4776E+00  0.5328E+02
    120.193  0.1588E+00  0.5332E+02
    120.318  0.4052E+00  0.5340E+02
    120.443  0.5765E+00  0.5351E+02
    120.568  0.4312E+00  0.5360E+02
    120.694  0.2353E+00  0.5366E+02
    120.819  0.4174E+00  0.5374E+02
    120.944  0.3182E+00  0.5381E+02
    121.069  0.3297E+00  0.5388E+02
    121.194  0.3046E+00  0.5394E+02
    121.320  0.1736E+00  0.5400E+02
    121.445  0.3733E+00  0.5406E+02
    121.570  0.2949E+00  0.5412E+02
    121.695  0.3937E+00  0.5421E+02
    121.820  0.5843E+00  0.5430E+02
    121.946  0.4231E+00  0.5437E+02
    122.071  0.3740E+00  0.5445E+02
    122.196  0.3034E+00  0.5451E+02
    122.321  0.2402E+00  0.5458E+02
    122.447  0.6512E+00  0.5468E+02
    122.572  0.4391E+00  0.5476E+02
    122.697  0.4183E+00  0.5486E+02
    122.822  0.1931E+00  0.5491E+02
    122.947  0.3184E+00  0.5498E+02
    123.073  0.3399E+00  0.5505E+02
    123.198  0.5578E+00  0.5516E+02
    123.323  0.3387E+00  0.5522E+02
    123.448  0.4683E+00  0.5530E+02
    123.573  0.2801E+00  0.5536E+02
    123.699  0.4336E+00  0.5543E+02
    123.824  0.5289E+00  0.5552E+02
    123.949  0.5873E+00  0.5564E+02
    124.074  0.5755E+00  0.5574E+02
    124.200  0.3669E+00  0.5582E+02
    124.325  0.4627E+00  0.5591E+02
    124.450  0.2987E+00  0.5598E+02
    124.575  0.3308E+00  0.5605E+02
    124.700  0.3767E+00  0.5611E+02
    124.826  0.5403E+00  0.5620E+02
    124.951  0.4519E+00  0.5627E+02
    125.076  0.3814E+00  0.5633E+02
    125.201  0.4624E+00  0.5643E+02
    125.326  0.4865E+00  0.5654E+02
    125.452  0.2305E+00  0.5659E+02
    125.577  0.3876E+00  0.5664E+02
    125.702  0.3413E+00  0.5671E+02
    125.827  0.3359E+00  0.5677E+02
    125.953  0.2866E+00  0.5683E+02
    126.078  0.4602E+00  0.5690E+02
    126.203  0.5648E+00  0.5701E+02
    126.328  0.3530E+00  0.5707E+02
    126.453  0.4690E+00  0.5716E+02
    126.579  0.4015E+00  0.5724E+02
    126.704  0.4790E+00  0.5732E+02
    126.829  0.4101E+00  0.5741E+02
    126.954  0.3678E+00  0.5750E+02
    127.079  0.3369E+00  0.5756E+02
    127.205  0.3904E+00  0.5765E+02
    127.330  0.4145E+00  0.5773E+02
    127.455  0.3478E+00  0.5781E+02
    127.580  0.5929E+00  0.5791E+02
    127.706  0.6267E+00  0.5801E+02
    127.831  0.3876E+00  0.5809E+02
    127.956  0.4258E+00  0.5817E+02
    128.081  0.7603E+00  0.5830E+02
    128.206  0.3976E+00  0.5837E+02
    128.332  0.3850E+00  0.5845E+02
    128.457  0.3244E+00  0.5853E+02
    128.582  0.4227E+00  0.5860E+02
    128.707  0.3899E+00  0.5870E+02
    128.833  0.4357E+00  0.5877E+02
    128.958  0.5466E+00  0.5890E+02
    129.083  0.5036E+00  0.5900E+02
    129.208  0.2098E+00  0.5904E+02
    129.333  0.6562E+00  0.5916E+02
    129.459  0.3948E+00  0.5924E+02
    129.584  0.4494E+00  0.5933E+02
    129.709  0.4144E+00  0.5940E+02
    129.834  0.3736E+00  0.5948E+02
    129.959  0.2938E+00  0.5955E+02
    130.085  0.2930E+00  0.5961E+02
    130.210  0.4378E+00  0.5968E+02
    130.335  0.4742E+00  0.5977E+02
    130.460  0.3358E+00  0.5986E+02
    130.586  0.5215E+00  0.5995E+02
    130.711  0.2891E+00  0.6001E+02
    130.836  0.2657E+00  0.6007E+02
    130.961  0.2825E+00  0.6015E+02
    131.086  0.3943E+00  0.6026E+02
    131.212  0.4071E+00  0.6035E+02
    131.337  0.3212E+00  0.6043E+02
    131.462  0.4425E+00  0.6053E+02
    131.587  0.3016E+00  0.6060E+02
    131.712  0.5760E+00  0.6071E+02
    131.838  0.5134E+00  0.6079E+02
    131.963  0.2939E+00  0.6085E+02
    132.088  0.3019E+00  0.6091E+02
    132.213  0.6876E+00  0.6104E+02
    132.339  0.3237E+00  0.6111E+02
    132.464  0.4239E+00  0.6119E+02
    132.589  0.5783E+00  0.6128E+02
    132.714  0.4224E+00  0.6138E+02
    132.839  0.3194E+00  0.6147E+02
    132.965  0.2348E+00  0.6153E+02
    133.090  0.5850E+00  0.6162E+02
    133.215  0.4792E+00  0.6171E+02
    133.340  0.3109E+00  0.6178E+02
    133.465  0.4100E+00  0.6188E+02
    133.591  0.4322E+00  0.6198E+02
    133.716  0.3893E+00  0.6205E+02
    133.841  0.4672E+00  0.6214E+02
    133.966  0.3188E+00  0.6221E+02
    134.092  0.4669E+00  0.6229E+02
    134.217  0.4872E+00  0.6237E+02
    134.342  0.6043E+00  0.6248E+02
    134.467  0.5361E+00  0.6260E+02
    134.592  0.4220E+00  0.6268E+02
    134.718  0.3584E+00  0.6274E+02
    134.843  0.3254E+00  0.6282E+02
    134.968  0.3723E+00  0.6289E+02
    135.093  0.4469E+00  0.6297E+02
    135.218  0.3379E+00  0.6306E+02
    135.344  0.5754E+00  0.6317E+02
    135.469  0.3277E+00  0.6324E+02
    135.594  0.3213E+00  0.6331E+02
    135.719  0.5985E+00  0.6342E+02
    135.845  0.4886E+00  0.6350E+02
    135.970  0.3496E+00  0.6357E+02
    136.095  0.4131E+00  0.6365E+02
    136.220  0.5772E+00  0.6374E+02
    136.345  0.5555E+00  0.6385E+02
    136.471  0.4697E+00  0.6394E+02
    136.596  0.4482E+00  0.6405E+02
    136.721  0.4277E+00  0.6415E+02
    136.846  0.3530E+00  0.6422E+02
    136.971  0.5944E+00  0.6431E+02
    137.097  0.3032E+00  0.6440E+02
    137.222  0.3184E+00  0.6447E+02
    137.347  0.3028E+00  0.6454E+02
    137.472  0.1737E+00  0.6460E+02
    137.598  0.4906E+00  0.6468E+02
    137.723  0.3149E+00  0.6475E+02
    137.848  0.4892E+00  0.6486E+02
    137.973  0.4859E+00  0.6493E+02
    138.098  0.3120E+00  0.6501E+02
    138.224  0.3422E+00  0.6509E+02
    138.349  0.6848E-01  0.6512E+02
    138.474  0.3760E+00  0.6520E+02
    138.599  0.5028E+00  0.6528E+02
    138.724  0.3526E+00  0.6536E+02
    138.850  0.4283E+00  0.6543E+02
    138.975  0.4537E+00  0.6554E+02
    139.100  0.5190E+00  0.6564E+02
    139.225  0.4575E+00  0.6574E+02
    139.351  0.4945E+00  0.6583E+02
    139.476  0.3265E+00  0.6589E+02
    139.601  0.5317E+00  0.6599E+02
    139.726  0.4158E+00  0.6609E+02
    139.851  0.4516E+00  0.6618E+02
    139.977  0.4447E+00  0.6628E+02
    140.102  0.2884E+00  0.6635E+02
    140.227  0.3290E+00  0.6642E+02
    140.352  0.4695E+00  0.6648E+02
    140.478  0.6995E+00  0.6660E+02
    140.603  0.4811E+00  0.6670E+02
    140.728  0.3269E+00  0.6677E+02
    140.853  0.5397E+00  0.6689E+02
    140.978  0.6122E+00  0.6700E+02
    141.104  0.3501E+00  0.6709E+02
    141.229  0.3291E+00  0.6717E+02
    141.354  0.4680E+00  0.6724E+02
    141.479  0.2206E+00  0.6732E+02
    141.604  0.4244E+00  0.6739E+02
    141.730  0.4529E+00  0.6751E+02
    141.855  0.4536E+00  0.6759E+02
    141.980  0.5281E+00  0.6769E+02
    142.105  0.2525E+00  0.6777E+02
    142.231  0.2557E+00  0.6783E+02
    142.356  0.2338E+00  0.6790E+02
    142.481  0.3670E+00  0.6798E+02
    142.606  0.5279E+00  0.6809E+02
    142.731  0.2768E+00  0.6815E+02
    142.857  0.1726E+00  0.6820E+02
    142.982  0.2959E+00  0.6830E+02
    143.107  0.3804E+00  0.6836E+02
    143.232  0.2851E+00  0.6841E+02
    143.357  0.3226E+00  0.6849E+02
    143.483  0.3366E+00  0.6857E+02
    143.608  0.5569E+00  0.6864E+02
    143.733  0.6973E+00  0.6875E+02
    143.858  0.4652E+00  0.6883E+02
    143.984  0.2579E+00  0.6890E+02
    144.109  0.3708E+00  0.6898E+02
    144.234  0.5298E+00  0.6907E+02
    144.359  0.4987E+00  0.6917E+02
    144.484  0.3837E+00  0.6923E+02
    144.610  0.5878E+00  0.6933E+02
    144.735  0.3494E+00  0.6940E+02
    144.860  0.4317E+00  0.6948E+02
    144.985  0.5058E+00  0.6958E+02
    145.110  0.2582E+00  0.6964E+02
    145.236  0.2453E+00  0.6969E+02
    145.361  0.4678E+00  0.6978E+02
    145.486  0.3614E+00  0.6985E+02
    145.611  0.1513E+00  0.6991E+02
    145.737  0.6336E+00  0.7001E+02
    145.862  0.4646E+00  0.7008E+02
    145.987  0.2895E+00  0.7015E+02
    146.112  0.2990E+00  0.7021E+02
    146.237  0.5696E+00  0.7031E+02
    146.363  0.3280E+00  0.7037E+02
    146.488  0.4570E+00  0.7044E+02
    146.613  0.2649E+00  0.7050E+02
    146.738  0.6293E+00  0.7061E+02
    146.863  0.2829E+00  0.7069E+02
    146.989  0.7429E+00  0.7080E+02
    147.114  0.2004E+00  0.7085E+02
    147.239  0.5745E+00  0.7095E+02
    147.364  0.4953E+00  0.7102E+02
    147.490  0.3344E+00  0.7110E+02
    147.615  0.3988E+00  0.7117E+02
    147.740  0.4012E+00  0.7124E+02
    147.865  0.3288E+00  0.7133E+02
    147.990  0.5007E+00  0.7142E+02
    148.116  0.3393E+00  0.7150E+02
    148.241  0.3785E+00  0.7159E+02
    148.366  0.6913E+00  0.7170E+02
    148.491  0.5936E+00  0.7180E+02
    148.616  0.5446E+00  0.7189E+02
    148.742  0.5901E+00  0.7199E+02
    148.867  0.4853E+00  0.7209E+02
    148.992  0.4374E+00  0.7218E+02
    149.117  0.3783E+00  0.7225E+02
    149.243  0.4780E+00  0.7234E+02
    149.368  0.4051E+00  0.7244E+02
    149.493  0.3142E+00  0.7252E+02
    149.618  0.5497E+00  0.7263E+02
    149.743  0.4370E+00  0.7272E+02
    149.869  0.5312E+00  0.7284E+02
    149.994  0.4759E+00  0.7293E+02
    150.119  0.6418E+00  0.7304E+02
    150.244  0.3691E+00  0.7310E+02
    150.369  0.4641E+00  0.7319E+02
    150.495  0.6403E+00  0.7329E+02
    150.620  0.2958E+00  0.7337E+02
    150.745  0.2171E+00  0.7342E+02
    150.870  0.5799E+00  0.7353E+02
    150.996  0.4880E+00  0.7363E+02
    151.121  0.5188E+00  0.7372E+02
    151.246  0.4556E+00  0.7384E+02
    151.371  0.3744E+00  0.7393E+02
    151.496  0.3245E+00  0.7399E+02
    151.622  0.4118E+00  0.7406E+02
    151.747  0.6249E+00  0.7416E+02
    151.872  0.3809E+00  0.7423E+02
    151.997  0.6842E+00  0.7436E+02
    152.123  0.4820E+00  0.7448E+02
    152.248  0.5872E+00  0.7457E+02
    152.373  0.4750E+00  0.7467E+02
    152.498  0.5617E+00  0.7477E+02
    152.623  0.3303E+00  0.7484E+02
    152.749  0.3383E+00  0.7493E+02
    152.874  0.5039E+00  0.7503E+02
    152.999  0.4603E+00  0.7510E+02
    153.124  0.4282E+00  0.7517E+02
    153.249  0.3679E+00  0.7527E+02
    153.375  0.4715E+00  0.7535E+02
    153.500  0.4648E+00  0.7545E+02
    153.625  0.3504E+00  0.7552E+02
    153.750  0.4641E+00  0.7560E+02
    153.876  0.5813E+00  0.7571E+02
    154.001  0.5299E+00  0.7582E+02
    154.126  0.4405E+00  0.7593E+02
    154.251  0.4725E+00  0.7601E+02
    154.376  0.2252E+00  0.7607E+02
    154.502  0.4386E+00  0.7615E+02
    154.627  0.3009E+00  0.7620E+02
    154.752  0.4554E+00  0.7631E+02
    154.877  0.3260E+00  0.7637E+02
    155.002  0.3434E+00  0.7645E+02
    155.128  0.4683E+00  0.7653E+02
    155.253  0.6540E+00  0.7662E+02
    155.378  0.6248E+00  0.7671E+02
    155.503  0.4174E+00  0.7680E+02
    155.629  0.4642E+00  0.7689E+02
    155.754  0.4852E+00  0.7698E+02
    155.879  0.3879E+00  0.7706E+02
    156.004  0.4506E+00  0.7717E+02
    156.129  0.4989E+00  0.7727E+02
    156.255  0.5010E+00  0.7736E+02
    156.380  0.4420E+00  0.7745E+02
    156.505  0.3964E+00  0.7753E+02
    156.630  0.5758E+00  0.7763E+02
    156.755  0.4219E+00  0.7771E+02
    156.881  0.2373E+00  0.7777E+02
    157.006  0.5306E+00  0.7784E+02
    157.131  0.4614E+00  0.7794E+02
    157.256  0.6694E+00  0.7806E+02
    157.382  0.5371E+00  0.7815E+02
    157.507  0.4216E+00  0.7824E+02
    157.632  0.4694E+00  0.7834E+02
    157.757  0.4314E+00  0.7845E+02
    157.882  0.5633E+00  0.7855E+02
    158.008  0.5835E+00  0.7866E+02
    158.133  0.3719E+00  0.7874E+02
    158.258  0.5150E+00  0.7883E+02
    158.383  0.5041E+00  0.7892E+02
    158.508  0.5777E+00  0.7901E+02
    158.634  0.4890E+00  0.7910E+02
    158.759  0.3476E+00  0.7920E+02
    158.884  0.3545E+00  0.7929E+02
    159.009  0.5055E+00  0.7940E+02
    159.135  0.2964E+00  0.7946E+02
    159.260  0.4181E+00  0.7955E+02
    159.385  0.3201E+00  0.7964E+02
    159.510  0.4351E+00  0.7972E+02
    159.635  0.5305E+00  0.7981E+02
    159.761  0.6673E+00  0.7992E+02
    159.886  0.4892E+00  0.8002E+02
    160.011  0.4007E+00  0.8011E+02
    160.136  0.3167E+00  0.8020E+02
    160.261  0.2399E+00  0.8026E+02
    160.387  0.3720E+00  0.8035E+02
    160.512  0.4401E+00  0.8043E+02
    160.637  0.6300E+00  0.8053E+02
    160.762  0.5195E+00  0.8062E+02
    160.888  0.5351E+00  0.8073E+02
    161.013  0.3388E+00  0.8080E+02
    161.138  0.6243E+00  0.8091E+02
    161.263  0.2941E+00  0.8097E+02
    161.388  0.2854E+00  0.8103E+02
    161.514  0.5325E+00  0.8113E+02
    161.639  0.6386E+00  0.8126E+02
    161.764  0.6919E+00  0.8140E+02
    161.889  0.4184E+00  0.8149E+02
    162.014  0.4214E+00  0.8159E+02
    162.140  0.3362E+00  0.8166E+02
    162.265  0.4770E+00  0.8176E+02
    162.390  0.3994E+00  0.8186E+02
    162.515  0.6413E+00  0.8197E+02
    162.641  0.4998E+00  0.8207E+02
    162.766  0.4624E+00  0.8217E+02
    162.891  0.2860E+00  0.8223E+02
    163.016  0.3395E+00  0.8231E+02
    163.141  0.2070E+00  0.8237E+02
    163.267  0.4509E+00  0.8247E+02
    163.392  0.7319E+00  0.8262E+02
    163.517  0.4621E+00  0.8273E+02
    163.642  0.5324E+00  0.8282E+02
    163.768  0.5936E+00  0.8292E+02
    163.893  0.4572E+00  0.8300E+02
    164.018  0.3713E+00  0.8308E+02
    164.143  0.5285E+00  0.8317E+02
    164.268  0.4299E+00  0.8326E+02
    164.394  0.5318E+00  0.8337E+02
    164.519  0.5127E+00  0.8347E+02
    164.644  0.3787E+00  0.8356E+02
    164.769  0.4352E+00  0.8363E+02
    164.894  0.1848E+00  0.8369E+02
    165.020  0.4861E+00  0.8377E+02
    165.145  0.5785E+00  0.8388E+02
    165.270  0.5733E+00  0.8399E+02
    165.395  0.3864E+00  0.8409E+02
    165.521  0.5284E+00  0.8421E+02
    165.646  0.4073E+00  0.8429E+02
    165.771  0.3613E+00  0.8434E+02
    165.896  0.4729E+00  0.8443E+02
    166.021  0.2345E+00  0.8449E+02
    166.147  0.4140E+00  0.8457E+02
    166.272  0.3611E+00  0.8463E+02
    166.397  0.5769E+00  0.8474E+02
    166.522  0.3218E+00  0.8482E+02
    166.647  0.6198E+00  0.8494E+02
    166.773  0.2377E+00  0.8501E+02
    166.898  0.4195E+00  0.8510E+02
    167.023  0.5152E+00  0.8521E+02
    167.148  0.2927E+00  0.8528E+02
    167.274  0.3975E+00  0.8536E+02
    167.399  0.5722E+00  0.8546E+02
    167.524  0.6232E+00  0.8557E+02
    167.649  0.5959E+00  0.8568E+02
    167.774  0.3810E+00  0.8575E+02
    167.900  0.5146E+00  0.8584E+02
    168.025  0.5873E+00  0.8595E+02
    168.150  0.4948E+00  0.8605E+02
    168.275  0.5452E+00  0.8616E+02
    168.400  0.4641E+00  0.8624E+02
    168.526  0.4241E+00  0.8634E+02
    168.651  0.5513E+00  0.8645E+02
    168.776  0.3416E+00  0.8653E+02
    168.901  0.5250E+00  0.8663E+02
    169.027  0.5317E+00  0.8672E+02
    169.152  0.4901E+00  0.8680E+02
    169.277  0.4437E+00  0.8690E+02
    169.402  0.6317E+00  0.8702E+02
    169.527  0.5875E+00  0.8714E+02
    169.653  0.6100E+00  0.8725E+02
    169.778  0.4392E+00  0.8735E+02
    169.903  0.5281E+00  0.8743E+02
    170.028  0.5206E+00  0.8752E+02
    170.153  0.6282E+00  0.8764E+02
    170.279  0.2526E+00  0.8768E+02
    170.404  0.3552E+00  0.8775E+02
    170.529  0.5714E+00  0.8785E+02
    170.654  0.3933E+00  0.8793E+02
    170.780  0.3094E+00  0.8800E+02
    170.905  0.4111E+00  0.8807E+02
    171.030  0.5371E+00  0.8817E+02
    171.155  0.4706E+00  0.8826E+02
    171.280  0.2658E+00  0.8832E+02
    171.406  0.6414E+00  0.8841E+02
    171.531  0.2697E+00  0.8848E+02
    171.656  0.3480E+00  0.8856E+02
    171.781  0.4274E+00  0.8864E+02
    171.906  0.8814E+00  0.8879E+02
    172.032  0.7644E+00  0.8892E+02
    172.157  0.6072E+00  0.8902E+02
    172.282  0.4211E+00  0.8911E+02
    172.407  0.5886E+00  0.8923E+02
    172.533  0.4420E+00  0.8934E+02
    172.658  0.4941E+00  0.8941E+02
    172.783  0.4958E+00  0.8951E+02
    172.908  0.5108E+00  0.8961E+02
    173.033  0.5656E+00  0.8969E+02
    173.159  0.3932E+00  0.8976E+02
    173.284  0.4172E+00  0.8987E+02
    173.409  0.3832E+00  0.8994E+02
    173.534  0.6740E+00  0.9006E+02
    173.659  0.4378E+00  0.9013E+02
    173.785  0.3529E+00  0.9022E+02
    173.910  0.6703E+00  0.9034E+02
    174.035  0.4420E+00  0.9045E+02
    174.160  0.4694E+00  0.9054E+02
    174.286  0.3551E+00  0.9065E+02
    174.411  0.5489E+00  0.9076E+02
    174.536  0.5165E+00  0.9086E+02
    174.661  0.3507E+00  0.9093E+02
    174.786  0.5102E+00  0.9103E+02
    174.912  0.6044E+00  0.9112E+02
    175.037  0.3452E+00  0.9119E+02
    175.162  0.4900E+00  0.9128E+02
    175.287  0.5139E+00  0.9137E+02
    175.413  0.5728E+00  0.9148E+02
    175.538  0.4443E+00  0.9158E+02
    175.663  0.5733E+00  0.9170E+02
    175.788  0.5462E+00  0.9180E+02
    175.913  0.4490E+00  0.9190E+02
    176.039  0.5259E+00  0.9200E+02
    176.164  0.5296E+00  0.9211E+02
    176.289  0.4482E+00  0.9221E+02
    176.414  0.4275E+00  0.9229E+02
    176.539  0.4935E+00  0.9239E+02
    176.665  0.4358E+00  0.9247E+02
    176.790  0.5345E+00  0.9255E+02
    176.915  0.3993E+00  0.9265E+02
    177.040  0.3092E+00  0.9271E+02
    177.166  0.3882E+00  0.9277E+02
    177.291  0.2243E+00  0.9286E+02
    177.416  0.4009E+00  0.9293E+02
    177.541  0.4190E+00  0.9300E+02
    177.666  0.7959E+00  0.9314E+02
    177.792  0.5599E+00  0.9323E+02
    177.917  0.4249E+00  0.9333E+02
    178.042  0.6409E+00  0.9346E+02
    178.167  0.3507E+00  0.9355E+02
    178.292  0.4538E+00  0.9365E+02
    178.418  0.2856E+00  0.9372E+02
    178.543  0.3922E+00  0.9379E+02
    178.668  0.7784E+00  0.9390E+02
    178.793  0.4514E+00  0.9401E+02
    178.919  0.4573E+00  0.9411E+02
    179.044  0.5193E+00  0.9421E+02
    179.169  0.3072E+00  0.9427E+02
    179.294  0.6165E+00  0.9439E+02
    179.419  0.4478E+00  0.9449E+02
    179.545  0.5609E+00  0.9459E+02
    179.670  0.3672E+00  0.9466E+02
    179.795  0.4103E+00  0.9476E+02
    179.920  0.4798E+00  0.9486E+02
    180.045  0.3831E+00  0.9497E+02
    180.171  0.4026E+00  0.9504E+02
    180.296  0.6017E+00  0.9516E+02
    180.421  0.3364E+00  0.9525E+02
    180.546  0.5718E+00  0.9534E+02
    180.672  0.3265E+00  0.9542E+02
    180.797  0.3676E+00  0.9550E+02
    180.922  0.5109E+00  0.9561E+02
    181.047  0.7326E+00  0.9574E+02
    181.172  0.3002E+00  0.9582E+02
    181.298  0.5946E+00  0.9595E+02
    181.423  0.6490E+00  0.9608E+02
    181.548  0.6554E+00  0.9618E+02
    181.673  0.4334E+00  0.9626E+02
    181.798  0.5886E+00  0.9638E+02
    181.924  0.3841E+00  0.9645E+02
    182.049  0.4687E+00  0.9657E+02
    182.174  0.4530E+00  0.9664E+02
    182.299  0.5644E+00  0.9674E+02
    182.425  0.2502E+00  0.9680E+02
    182.550  0.4419E+00  0.9689E+02
    182.675  0.5695E+00  0.9700E+02
    182.800  0.3413E+00  0.9708E+02
    182.925  0.2928E+00  0.9713E+02
    183.051  0.4196E+00  0.9720E+02
    183.176  0.4728E+00  0.9728E+02
    183.301  0.2864E+00  0.9735E+02
    183.426  0.4948E+00  0.9744E+02
    183.551  0.5203E+00  0.9757E+02
    183.677  0.5449E+00  0.9767E+02
    183.802  0.4789E+00  0.9776E+02
    183.927  0.7163E+00  0.9788E+02
    184.052  0.4979E+00  0.9797E+02
    184.178  0.6457E+00  0.9808E+02
    184.303  0.5088E+00  0.9818E+02
    184.428  0.4860E+00  0.9828E+02
    184.553  0.5841E+00  0.9841E+02
    184.678  0.4904E+00  0.9850E+02
    184.804  0.7359E+00  0.9862E+02
    184.929  0.3020E+00  0.9871E+02
    185.054  0.4580E+00  0.9879E+02
    185.179  0.2533E+00  0.9885E+02
    185.304  0.3522E+00  0.9892E+02
    185.430  0.4340E+00  0.9901E+02
    185.555  0.3510E+00  0.9909E+02
    185.680  0.4691E+00  0.9917E+02
    185.805  0.3761E+00  0.9926E+02
    185.931  0.4439E+00  0.9937E+02
    186.056  0.5898E+00  0.9948E+02
    186.181  0.5924E+00  0.9959E+02
    186.306  0.7399E+00  0.9972E+02
    186.431  0.4631E+00  0.9981E+02
    186.557  0.6252E+00  0.9991E+02
    186.682  0.4159E+00  0.1000E+03
    186.807  0.4938E+00  0.1001E+03
    186.932  0.3953E+00  0.1002E+03
    187.058  0.6165E+00  0.1003E+03
    187.183  0.3759E+00  0.1004E+03
    187.308  0.2126E+00  0.1004E+03
    187.433  0.4860E+00  0.1005E+03
    187.558  0.4949E+00  0.1006E+03
    187.684  0.4448E+00  0.1007E+03
    187.809  0.4930E+00  0.1008E+03
    187.934  0.4495E+00  0.1009E+03
    188.059  0.4161E+00  0.1010E+03
    188.184  0.4848E+00  0.1011E+03
    188.310  0.4716E+00  0.1012E+03
    188.435  0.3792E+00  0.1013E+03
    188.560  0.4149E+00  0.1013E+03
    188.685  0.5489E+00  0.1014E+03
    188.811  0.4410E+00  0.1015E+03
    188.936  0.3996E+00  0.1016E+03
    189.061  0.3833E+00  0.1016E+03
    189.186  0.5214E+00  0.1017E+03
    189.311  0.3884E+00  0.1018E+03
    189.437  0.3394E+00  0.1019E+03
    189.562  0.4560E+00  0.1020E+03
    189.687  0.4728E+00  0.1021E+03
    189.812  0.5273E+00  0.1022E+03
    189.937  0.4014E+00  0.1023E+03
    190.063  0.4077E+00  0.1024E+03
    190.188  0.3723E+00  0.1025E+03
    190.313  0.4764E+00  0.1026E+03
    190.438  0.5114E+00  0.1027E+03
    190.564  0.6473E+00  0.1028E+03
    190.689  0.3936E+00  0.1029E+03
    190.814  0.5635E+00  0.1030E+03
    190.939  0.5831E+00  0.1031E+03
    191.064  0.6016E+00  0.1032E+03
    191.190  0.5347E+00  0.1033E+03
    191.315  0.3102E+00  0.1034E+03
    191.440  0.4637E+00  0.1035E+03
    191.565  0.4434E+00  0.1036E+03
    191.690  0.3516E+00  0.1036E+03
    191.816  0.3318E+00  0.1037E+03
    191.941  0.5971E+00  0.1038E+03
    192.066  0.2903E+00  0.1039E+03
    192.191  0.4931E+00  0.1040E+03
    192.317  0.4150E+00  0.1041E+03
    192.442  0.5097E+00  0.1042E+03
    192.567  0.5705E+00  0.1043E+03
    192.692  0.4612E+00  0.1044E+03
    192.817  0.4414E+00  0.1045E+03
    192.943  0.5137E+00  0.1046E+03
    193.068  0.4796E+00  0.1047E+03
    193.193  0.5598E+00  0.1048E+03
    193.318  0.3828E+00  0.1049E+03
    193.443  0.4107E+00  0.1049E+03
    193.569  0.4562E+00  0.1050E+03
    193.694  0.5470E+00  0.1051E+03
    193.819  0.6754E+00  0.1052E+03
    193.944  0.7476E+00  0.1054E+03
    194.070  0.3048E+00  0.1055E+03
    194.195  0.6839E+00  0.1056E+03
    194.320  0.3292E+00  0.1056E+03
    194.445  0.5713E+00  0.1058E+03
    194.570  0.5608E+00  0.1059E+03
    194.696  0.6072E+00  0.1060E+03
    194.821  0.5181E+00  0.1061E+03
    194.946  0.4654E+00  0.1062E+03
    195.071  0.5763E+00  0.1063E+03
    195.196  0.5748E+00  0.1064E+03
    195.322  0.6431E+00  0.1065E+03
    195.447  0.6483E+00  0.1067E+03
    195.572  0.4496E+00  0.1067E+03
    195.697  0.4081E+00  0.1068E+03
    195.823  0.5807E+00  0.1069E+03
    195.948  0.8541E+00  0.1071E+03
    196.073  0.4360E+00  0.1072E+03
    196.198  0.4533E+00  0.1073E+03
    196.323  0.4343E+00  0.1073E+03
    196.449  0.6806E+00  0.1075E+03
    196.574  0.5350E+00  0.1076E+03
    196.699  0.5648E+00  0.1077E+03
    196.824  0.6799E+00  0.1078E+03
    196.949  0.3845E+00  0.1079E+03
    197.075  0.3887E+00  0.1080E+03
    197.200  0.3454E+00  0.1081E+03
    197.325  0.6376E+00  0.1082E+03
    197.450  0.5130E+00  0.1083E+03
    197.576  0.5502E+00  0.1084E+03
    197.701  0.5735E+00  0.1085E+03
    197.826  0.5298E+00  0.1086E+03
    197.951  0.3888E+00  0.1087E+03
    198.076  0.5154E+00  0.1088E+03
    198.202  0.4806E+00  0.1089E+03
    198.327  0.4596E+00  0.1090E+03
    198.452  0.5021E+00  0.1091E+03
    198.577  0.3941E+00  0.1092E+03
    198.703  0.6120E+00  0.1093E+03
    198.828  0.6091E+00  0.1094E+03
    198.953  0.2444E+00  0.1094E+03
    199.078  0.5532E+00  0.1095E+03
    199.203  0.5579E+00  0.1097E+03
    199.329  0.4360E+00  0.1098E+03
    199.454  0.5245E+00  0.1099E+03
    199.579  0.3816E+00  0.1099E+03
    199.704  0.3406E+00  0.1100E+03
    199.829  0.3761E+00  0.1101E+03
    199.955  0.5023E+00  0.1102E+03
    200.080  0.3113E+00  0.1103E+03
    200.205  0.3573E+00  0.1104E+03
    200.330  0.4595E+00  0.1105E+03
    200.456  0.3553E+00  0.1105E+03
    200.581  0.5431E+00  0.1106E+03
    200.706  0.3204E+00  0.1107E+03
    200.831  0.4273E+00  0.1108E+03
    200.956  0.3650E+00  0.1109E+03
    201.082  0.6157E+00  0.1110E+03
    201.207  0.6072E+00  0.1111E+03
    201.332  0.4726E+00  0.1112E+03
    201.457  0.5379E+00  0.1113E+03
    201.582  0.5745E+00  0.1114E+03
    201.708  0.6084E+00  0.1115E+03
    201.833  0.4550E+00  0.1116E+03
    201.958  0.5869E+00  0.1117E+03
    202.083  0.5198E+00  0.1118E+03
    202.209  0.5294E+00  0.1119E+03
    202.334  0.4293E+00  0.1120E+03
    202.459  0.6157E+00  0.1121E+03
    202.584  0.6622E+00  0.1123E+03
    202.709  0.2635E+00  0.1123E+03
    202.835  0.5466E+00  0.1124E+03
    202.960  0.6396E+00  0.1125E+03
    203.085  0.5135E+00  0.1126E+03
    203.210  0.4093E+00  0.1127E+03
    203.335  0.4011E+00  0.1128E+03
    203.461  0.5028E+00  0.1129E+03
    203.586  0.7787E+00  0.1130E+03
    203.711  0.5889E+00  0.1131E+03
    203.836  0.3968E+00  0.1132E+03
    203.962  0.6952E+00  0.1133E+03
    204.087  0.7213E+00  0.1135E+03
    204.212  0.7848E+00  0.1136E+03
    204.337  0.2804E+00  0.1137E+03
    204.462  0.2591E+00  0.1138E+03
    204.588  0.4512E+00  0.1139E+03
    204.713  0.3982E+00  0.1140E+03
    204.838  0.4908E+00  0.1140E+03
    204.963  0.4582E+00  0.1141E+03
    205.088  0.6061E+00  0.1143E+03
    205.214  0.6865E+00  0.1144E+03
    205.339  0.5178E+00  0.1145E+03
    205.464  0.4510E+00  0.1146E+03
    205.589  0.4962E+00  0.1147E+03
    205.715  0.3516E+00  0.1147E+03
    205.840  0.4324E+00  0.1148E+03
    205.965  0.3925E+00  0.1149E+03
    206.090  0.3868E+00  0.1150E+03
    206.215  0.8548E+00  0.1151E+03
    206.341  0.3868E+00  0.1152E+03
    206.466  0.3601E+00  0.1153E+03
    206.591  0.3345E+00  0.1153E+03
    206.716  0.3906E+00  0.1154E+03
    206.841  0.3384E+00  0.1154E+03
    206.967  0.5333E+00  0.1156E+03
    207.092  0.6161E+00  0.1157E+03
    207.217  0.4242E+00  0.1158E+03
    207.342  0.4097E+00  0.1158E+03
    207.468  0.6103E+00  0.1159E+03
    207.593  0.5607E+00  0.1161E+03
    207.718  0.6320E+00  0.1162E+03
    207.843  0.6096E+00  0.1163E+03
    207.968  0.5224E+00  0.1164E+03
    208.094  0.6667E+00  0.1165E+03
    208.219  0.5414E+00  0.1166E+03
    208.344  0.2978E+00  0.1167E+03
    208.469  0.5482E+00  0.1168E+03
    208.594  0.6580E+00  0.1169E+03
    208.720  0.5398E+00  0.1170E+03
    208.845  0.6112E+00  0.1171E+03
    208.970  0.5326E+00  0.1172E+03
    209.095  0.4984E+00  0.1173E+03
    209.221  0.4692E+00  0.1174E+03
    209.346  0.6223E+00  0.1176E+03
    209.471  0.5482E+00  0.1177E+03
    209.596  0.5251E+00  0.1178E+03
    209.721  0.6694E+00  0.1179E+03
    209.847  0.4821E+00  0.1179E+03
    209.972  0.3967E+00  0.1180E+03
    210.097  0.5341E+00  0.1181E+03
    210.222  0.5252E+00  0.1182E+03
    210.348  0.6568E+00  0.1184E+03
    210.473  0.5518E+00  0.1185E+03
    210.598  0.4033E+00  0.1186E+03
    210.723  0.3893E+00  0.1186E+03
    210.848  0.5306E+00  0.1187E+03
    210.974  0.3937E+00  0.1188E+03
    211.099  0.4552E+00  0.1189E+03
    211.224  0.3186E+00  0.1190E+03
    211.349  0.6447E+00  0.1191E+03
    211.474  0.5821E+00  0.1192E+03
    211.600  0.3709E+00  0.1193E+03
    211.725  0.5523E+00  0.1194E+03
    211.850  0.3021E+00  0.1195E+03
    211.975  0.5196E+00  0.1196E+03
    212.101  0.3713E+00  0.1196E+03
    212.226  0.3372E+00  0.1197E+03
    212.351  0.5201E+00  0.1199E+03
    212.476  0.7437E+00  0.1200E+03
    212.601  0.4202E+00  0.1201E+03
    212.727  0.5878E+00  0.1202E+03
    212.852  0.4904E+00  0.1203E+03
    212.977  0.4576E+00  0.1204E+03
    213.102  0.5378E+00  0.1205E+03
    213.227  0.3130E+00  0.1206E+03
    213.353  0.5508E+00  0.1207E+03
    213.478  0.5251E+00  0.1208E+03
    213.603  0.5528E+00  0.1209E+03
    213.728  0.6159E+00  0.1210E+03
    213.854  0.3398E+00  0.1211E+03
    213.979  0.5825E+00  0.1212E+03
    214.104  0.7706E+00  0.1213E+03
    214.229  0.6600E+00  0.1214E+03
    214.354  0.6864E+00  0.1215E+03
    214.480  0.6035E+00  0.1217E+03
    214.605  0.5681E+00  0.1218E+03
    214.730  0.4016E+00  0.1218E+03
    214.855  0.5119E+00  0.1219E+03
    214.980  0.7182E+00  0.1221E+03
    215.106  0.3318E+00  0.1221E+03
    215.231  0.5530E+00  0.1222E+03
    215.356  0.3099E+00  0.1223E+03
    215.481  0.5893E+00  0.1224E+03
    215.607  0.4760E+00  0.1226E+03
    215.732  0.6347E+00  0.1227E+03
    215.857  0.5002E+00  0.1228E+03
    215.982  0.3357E+00  0.1229E+03
    216.107  0.6205E+00  0.1230E+03
    216.233  0.4596E+00  0.1230E+03
    216.358  0.5113E+00  0.1231E+03
    216.483  0.5748E+00  0.1232E+03
    216.608  0.5946E+00  0.1233E+03
    216.733  0.5388E+00  0.1234E+03
    216.859  0.5773E+00  0.1235E+03
    216.984  0.4681E+00  0.1236E+03
    217.109  0.5535E+00  0.1237E+03
    217.234  0.7494E+00  0.1238E+03
    217.360  0.2818E+00  0.1239E+03
    217.485  0.2862E+00  0.1240E+03
    217.610  0.5914E+00  0.1241E+03
    217.735  0.4126E+00  0.1241E+03
    217.860  0.4903E+00  0.1242E+03
    217.986  0.4450E+00  0.1243E+03
    218.111  0.4001E+00  0.1244E+03
    218.236  0.4753E+00  0.1245E+03
    218.361  0.4046E+00  0.1246E+03
    218.486  0.4053E+00  0.1247E+03
    218.612  0.3901E+00  0.1248E+03
    218.737  0.8081E+00  0.1249E+03
    218.862  0.3700E+00  0.1250E+03
    218.987  0.5246E+00  0.1251E+03
    219.113  0.5195E+00  0.1252E+03
    219.238  0.3967E+00  0.1253E+03
    219.363  0.7480E+00  0.1254E+03
    219.488  0.3940E+00  0.1255E+03
    219.613  0.6867E+00  0.1256E+03
    219.739  0.2875E+00  0.1257E+03
    219.864  0.4885E+00  0.1258E+03
    219.989  0.2680E+00  0.1259E+03
    220.114  0.7727E+00  0.1260E+03
    220.239  0.4964E+00  0.1262E+03
    220.365  0.3893E+00  0.1262E+03
    220.490  0.4326E+00  0.1263E+03
    220.615  0.6982E+00  0.1264E+03
    220.740  0.6288E+00  0.1266E+03
    220.866  0.3450E+00  0.1266E+03
    220.991  0.6173E+00  0.1268E+03
    221.116  0.5858E+00  0.1269E+03
    221.241  0.6379E+00  0.1270E+03
    221.366  0.6949E+00  0.1271E+03
    221.492  0.3864E+00  0.1272E+03
    221.617  0.6067E+00  0.1273E+03
    221.742  0.7689E+00  0.1274E+03
    221.867  0.5532E+00  0.1275E+03
    221.993  0.4349E+00  0.1276E+03
    222.118  0.4675E+00  0.1277E+03
    222.243  0.4619E+00  0.1278E+03
    222.368  0.7028E+00  0.1279E+03
    222.493  0.9580E+00  0.1281E+03
    222.619  0.4776E+00  0.1282E+03
    222.744  0.7205E+00  0.1283E+03
    222.869  0.6469E+00  0.1284E+03
    222.994  0.5927E+00  0.1285E+03
    223.119  0.6163E+00  0.1286E+03
    223.245  0.7463E+00  0.1288E+03
    223.370  0.3399E+00  0.1289E+03
    223.495  0.4759E+00  0.1290E+03
    223.620  0.2601E+00  0.1290E+03
    223.746  0.6619E+00  0.1291E+03
    223.871  0.2914E+00  0.1292E+03
    223.996  0.5888E+00  0.1293E+03
    224.121  0.3937E+00  0.1294E+03
    224.246  0.5254E+00  0.1295E+03
    224.372  0.4643E+00  0.1296E+03
    224.497  0.3989E+00  0.1297E+03
    224.622  0.5530E+00  0.1298E+03
    224.747  0.8254E+00  0.1300E+03
    224.872  0.3704E+00  0.1300E+03
    224.998  0.4596E+00  0.1301E+03
    225.123  0.7494E+00  0.1302E+03
    225.248  0.4490E+00  0.1303E+03
    225.373  0.2603E+00  0.1304E+03
    225.499  0.3862E+00  0.1305E+03
    225.624  0.5497E+00  0.1306E+03
    225.749  0.6728E+00  0.1307E+03
    225.874  0.6268E+00  0.1308E+03
    225.999  0.4103E+00  0.1309E+03
    226.125  0.5067E+00  0.1310E+03
    226.250  0.6181E+00  0.1311E+03
    226.375  0.6210E+00  0.1312E+03
    226.500  0.5949E+00  0.1313E+03
    226.625  0.6992E+00  0.1315E+03
    226.751  0.6099E+00  0.1316E+03
    226.876  0.3047E+00  0.1317E+03
    227.001  0.4960E+00  0.1318E+03
    227.126  0.4667E+00  0.1319E+03
    227.252  0.6539E+00  0.1320E+03
    227.377  0.4476E+00  0.1321E+03
    227.502  0.3403E+00  0.1322E+03
    227.627  0.9325E+00  0.1323E+03
    227.752  0.4315E+00  0.1324E+03
    227.878  0.3689E+00  0.1325E+03
    228.003  0.4444E+00  0.1326E+03
    228.128  0.6091E+00  0.1327E+03
    228.253  0.4645E+00  0.1328E+03
    228.378  0.5119E+00  0.1329E+03
    228.504  0.5099E+00  0.1330E+03
    228.629  0.5107E+00  0.1331E+03
    228.754  0.7292E+00  0.1332E+03
    228.879  0.4440E+00  0.1333E+03
    229.005  0.7536E+00  0.1335E+03
    229.130  0.3886E+00  0.1336E+03
    229.255  0.7557E+00  0.1337E+03
    229.380  0.2847E+00  0.1337E+03
    229.505  0.5322E+00  0.1338E+03
    229.631  0.4603E+00  0.1339E+03
    229.756  0.6964E+00  0.1341E+03
    229.881  0.4838E+00  0.1342E+03
    230.006  0.6707E+00  0.1343E+03
    230.131  0.3547E+00  0.1343E+03
    230.257  0.3521E+00  0.1344E+03
    230.382  0.5725E+00  0.1345E+03
    230.507  0.4522E+00  0.1346E+03
    230.632  0.5255E+00  0.1347E+03
    230.758  0.6262E+00  0.1349E+03
    230.883  0.3768E+00  0.1350E+03
    231.008  0.4670E+00  0.1350E+03
    231.133  0.4996E+00  0.1351E+03
    231.258  0.4085E+00  0.1352E+03
    231.384  0.4211E+00  0.1353E+03
    231.509  0.5479E+00  0.1354E+03
    231.634  0.6087E+00  0.1355E+03
    231.759  0.7741E+00  0.1356E+03
    231.884  0.5632E+00  0.1358E+03
    232.010  0.4755E+00  0.1359E+03
    232.135  0.7154E+00  0.1360E+03
    232.260  0.5015E+00  0.1361E+03
    232.385  0.5223E+00  0.1362E+03
    232.511  0.4500E+00  0.1363E+03
    232.636  0.5962E+00  0.1364E+03
    232.761  0.6916E+00  0.1365E+03
    232.886  0.6145E+00  0.1366E+03
    233.011  0.4605E+00  0.1367E+03
    233.137  0.4352E+00  0.1368E+03
    233.262  0.6753E+00  0.1369E+03
    233.387  0.3130E+00  0.1370E+03
    233.512  0.4772E+00  0.1371E+03
    233.638  0.5763E+00  0.1372E+03
    233.763  0.9327E+00  0.1374E+03
    233.888  0.5381E+00  0.1375E+03
    234.013  0.4111E+00  0.1376E+03
    234.138  0.7292E+00  0.1377E+03
    234.264  0.6282E+00  0.1378E+03
    234.389  0.3966E+00  0.1379E+03
    234.514  0.6055E+00  0.1381E+03
    234.639  0.5139E+00  0.1382E+03
    234.764  0.4600E+00  0.1383E+03
    234.890  0.4537E+00  0.1383E+03
    235.015  0.8416E+00  0.1385E+03
    235.140  0.4968E+00  0.1386E+03
    235.265  0.5547E+00  0.1387E+03
    235.391  0.5739E+00  0.1388E+03
    235.516  0.4462E+00  0.1389E+03
    235.641  0.3102E+00  0.1390E+03
    235.766  0.5048E+00  0.1391E+03
    235.891  0.5479E+00  0.1391E+03
    236.017  0.5013E+00  0.1392E+03
    236.142  0.5054E+00  0.1393E+03
    236.267  0.7143E+00  0.1395E+03
    236.392  0.4615E+00  0.1396E+03
    236.517  0.5371E+00  0.1397E+03
    236.643  0.4706E+00  0.1398E+03
    236.768  0.4210E+00  0.1399E+03
    236.893  0.2829E+00  0.1400E+03
    237.018  0.6804E+00  0.1401E+03
    237.144  0.4508E+00  0.1402E+03
    237.269  0.2730E+00  0.1402E+03
    237.394  0.5455E+00  0.1403E+03
    237.519  0.4737E+00  0.1405E+03
    237.644  0.6311E+00  0.1406E+03
    237.770  0.4879E+00  0.1407E+03
    237.895  0.3492E+00  0.1408E+03
    238.020  0.5845E+00  0.1409E+03
    238.145  0.5907E+00  0.1410E+03
    238.270  0.5532E+00  0.1411E+03
    238.396  0.7842E+00  0.1412E+03
    238.521  0.5683E+00  0.1414E+03
    238.646  0.4523E+00  0.1415E+03
    238.771  0.4665E+00  0.1415E+03
    238.897  0.6447E+00  0.1417E+03
    239.022  0.6021E+00  0.1418E+03
    239.147  0.3913E+00  0.1419E+03
    239.272  0.6574E+00  0.1420E+03
    239.397  0.4714E+00  0.1421E+03
    239.523  0.4230E+00  0.1422E+03
    239.648  0.6250E+00  0.1423E+03
    239.773  0.6673E+00  0.1424E+03
    239.898  0.4725E+00  0.1425E+03
    240.023  0.4114E+00  0.1426E+03
    240.149  0.5023E+00  0.1427E+03
    240.274  0.6204E+00  0.1428E+03
    240.399  0.3417E+00  0.1429E+03
    240.524  0.5713E+00  0.1430E+03
    240.650  0.4637E+00  0.1431E+03
    240.775  0.4633E+00  0.1432E+03
    240.900  0.5220E+00  0.1433E+03
    241.025  0.5902E+00  0.1434E+03
    241.150  0.5829E+00  0.1435E+03
    241.276  0.4523E+00  0.1436E+03
    241.401  0.5885E+00  0.1437E+03
    241.526  0.6110E+00  0.1439E+03
    241.651  0.6154E+00  0.1439E+03
    241.776  0.5032E+00  0.1440E+03
    241.902  0.6316E+00  0.1442E+03
    242.027  0.3389E+00  0.1442E+03
    242.152  0.4917E+00  0.1443E+03
    242.277  0.2966E+00  0.1444E+03
    242.403  0.2351E+00  0.1445E+03
    242.528  0.5524E+00  0.1446E+03
    242.653  0.2863E+00  0.1447E+03
    242.778  0.4597E+00  0.1447E+03
    242.903  0.7532E+00  0.1449E+03
    243.029  0.5193E+00  0.1450E+03
    243.154  0.6647E+00  0.1451E+03
    243.279  0.4124E+00  0.1452E+03
    243.404  0.5301E+00  0.1453E+03
    243.529  0.5178E+00  0.1454E+03
    243.655  0.6636E+00  0.1455E+03
    243.780  0.5366E+00  0.1456E+03
    243.905  0.4757E+00  0.1457E+03
    244.030  0.7273E+00  0.1459E+03
    244.156  0.5485E+00  0.1460E+03
    244.281  0.5655E+00  0.1461E+03
    244.406  0.5483E+00  0.1462E+03
    244.531  0.7721E+00  0.1463E+03
    244.656  0.8484E+00  0.1465E+03
    244.782  0.6420E+00  0.1466E+03
    244.907  0.6215E+00  0.1467E+03
    245.032  0.5600E+00  0.1468E+03
    245.157  0.3393E+00  0.1469E+03
    245.283  0.4416E+00  0.1470E+03
    245.408  0.4356E+00  0.1471E+03
    245.533  0.5094E+00  0.1472E+03
    245.658  0.5580E+00  0.1473E+03
    245.783  0.4946E+00  0.1474E+03
    245.909  0.5345E+00  0.1475E+03
    246.034  0.5754E+00  0.1476E+03
    246.159  0.4433E+00  0.1477E+03
    246.284  0.6286E+00  0.1479E+03
    246.409  0.5589E+00  0.1479E+03
    246.535  0.3698E+00  0.1480E+03
    246.660  0.6164E+00  0.1482E+03
    246.785  0.6859E+00  0.1483E+03
    246.910  0.6755E+00  0.1484E+03
    247.036  0.4693E+00  0.1485E+03
    247.161  0.7163E+00  0.1487E+03
    247.286  0.6961E+00  0.1488E+03
    247.411  0.5435E+00  0.1489E+03
    247.536  0.5736E+00  0.1490E+03
    247.662  0.4684E+00  0.1491E+03
    247.787  0.5794E+00  0.1493E+03
    247.912  0.5281E+00  0.1494E+03
    248.037  0.6994E+00  0.1495E+03
    248.162  0.4917E+00  0.1496E+03
    248.288  0.5248E+00  0.1497E+03
    248.413  0.5058E+00  0.1498E+03
    248.538  0.4168E+00  0.1499E+03
    248.663  0.5226E+00  0.1500E+03
    248.789  0.6233E+00  0.1501E+03
    248.914  0.5401E+00  0.1502E+03
    249.039  0.4425E+00  0.1503E+03
    249.164  0.4710E+00  0.1504E+03
    249.289  0.7348E+00  0.1505E+03
    249.415  0.5017E+00  0.1506E+03
    249.540  0.4765E+00  0.1507E+03
    249.665  0.4638E+00  0.1508E+03
    249.790  0.4552E+00  0.1509E+03
    249.915  0.8165E+00  0.1510E+03
    250.041  0.6184E+00  0.1511E+03
    250.166  0.4849E+00  0.1512E+03
    250.291  0.4492E+00  0.1513E+03
    250.416  0.5592E+00  0.1514E+03
    250.542  0.5074E+00  0.1515E+03
    250.667  0.6211E+00  0.1516E+03
    250.792  0.7648E+00  0.1518E+03
    250.917  0.4663E+00  0.1519E+03
    251.042  0.4375E+00  0.1520E+03
    251.168  0.5889E+00  0.1521E+03
    251.293  0.6548E+00  0.1522E+03
    251.418  0.3673E+00  0.1523E+03
    251.543  0.6538E+00  0.1524E+03
    251.668  0.5393E+00  0.1526E+03
    251.794  0.6261E+00  0.1527E+03
    251.919  0.5934E+00  0.1528E+03
    252.044  0.4560E+00  0.1529E+03
    252.169  0.4589E+00  0.1530E+03
    252.295  0.6097E+00  0.1531E+03
    252.420  0.6667E+00  0.1532E+03
    252.545  0.4719E+00  0.1533E+03
    252.670  0.4543E+00  0.1534E+03
    252.795  0.5971E+00  0.1535E+03
    252.921  0.4965E+00  0.1536E+03
    253.046  0.6391E+00  0.1537E+03
    253.171  0.4265E+00  0.1538E+03
    253.296  0.4766E+00  0.1539E+03
    253.421  0.7191E+00  0.1540E+03
    253.547  0.4786E+00  0.1542E+03
    253.672  0.4483E+00  0.1543E+03
    253.797  0.4201E+00  0.1544E+03
    253.922  0.5417E+00  0.1545E+03
    254.048  0.6429E+00  0.1546E+03
    254.173  0.6469E+00  0.1547E+03
    254.298  0.3552E+00  0.1548E+03
    254.423  0.5172E+00  0.1549E+03
    254.548  0.5013E+00  0.1550E+03
    254.674  0.5736E+00  0.1551E+03
    254.799  0.4579E+00  0.1552E+03
    254.924  0.5948E+00  0.1553E+03
    255.049  0.7865E+00  0.1555E+03
    255.174  0.4193E+00  0.1556E+03
    255.300  0.7418E+00  0.1557E+03
    255.425  0.5399E+00  0.1558E+03
    255.550  0.5146E+00  0.1559E+03
    255.675  0.4396E+00  0.1560E+03
    255.801  0.4175E+00  0.1561E+03
    255.926  0.4866E+00  0.1562E+03
    256.051  0.5820E+00  0.1563E+03
    256.176  0.2671E+00  0.1564E+03
    256.301  0.4338E+00  0.1565E+03
    256.427  0.5324E+00  0.1566E+03
    256.552  0.4773E+00  0.1567E+03
    256.677  0.5226E+00  0.1568E+03
    256.802  0.4014E+00  0.1569E+03
    256.928  0.6721E+00  0.1570E+03
    257.053  0.6155E+00  0.1571E+03
    257.178  0.3985E+00  0.1572E+03
    257.303  0.5355E+00  0.1573E+03
    257.428  0.5408E+00  0.1574E+03
    257.554  0.6829E+00  0.1575E+03
    257.679  0.5015E+00  0.1576E+03
    257.804  0.6116E+00  0.1578E+03
    257.929  0.5639E+00  0.1579E+03
    258.054  0.5981E+00  0.1580E+03
    258.180  0.4281E+00  0.1581E+03
    258.305  0.6962E+00  0.1582E+03
    258.430  0.4600E+00  0.1583E+03
    258.555  0.6266E+00  0.1584E+03
    258.681  0.6184E+00  0.1585E+03
    258.806  0.7879E+00  0.1586E+03
    258.931  0.3579E+00  0.1587E+03
    259.056  0.7196E+00  0.1589E+03
    259.181  0.5640E+00  0.1590E+03
    259.307  0.6547E+00  0.1591E+03
    259.432  0.6616E+00  0.1592E+03
    259.557  0.5810E+00  0.1594E+03
    259.682  0.5293E+00  0.1595E+03
    259.807  0.2753E+00  0.1596E+03
    259.933  0.5761E+00  0.1597E+03
    260.058  0.5344E+00  0.1598E+03
    260.183  0.7257E+00  0.1599E+03
    260.308  0.5119E+00  0.1600E+03
    260.434  0.6359E+00  0.1601E+03
    260.559  0.4220E+00  0.1602E+03
    260.684  0.4652E+00  0.1603E+03
    260.809  0.2771E+00  0.1604E+03
    260.934  0.5337E+00  0.1605E+03
    261.060  0.5512E+00  0.1606E+03
    261.185  0.7813E+00  0.1607E+03
    261.310  0.5294E+00  0.1609E+03
    261.435  0.5587E+00  0.1610E+03
    261.560  0.6930E+00  0.1611E+03
    261.686  0.5300E+00  0.1612E+03
    261.811  0.5856E+00  0.1613E+03
    261.936  0.4176E+00  0.1614E+03
    262.061  0.4155E+00  0.1615E+03
    262.187  0.7929E+00  0.1616E+03
    262.312  0.5667E+00  0.1617E+03
    262.437  0.5375E+00  0.1618E+03
    262.562  0.7214E+00  0.1620E+03
    262.687  0.6360E+00  0.1621E+03
    262.813  0.5398E+00  0.1622E+03
    262.938  0.4170E+00  0.1623E+03
    263.063  0.5314E+00  0.1624E+03
    263.188  0.5562E+00  0.1625E+03
    263.313  0.6852E+00  0.1626E+03
    263.439  0.6206E+00  0.1627E+03
    263.564  0.5712E+00  0.1628E+03
    263.689  0.7928E+00  0.1629E+03
    263.814  0.3245E+00  0.1630E+03
    263.940  0.4703E+00  0.1631E+03
    264.065  0.3002E+00  0.1632E+03
    264.190  0.3956E+00  0.1633E+03
    264.315  0.6800E+00  0.1634E+03
    264.440  0.4353E+00  0.1636E+03
    264.566  0.8512E+00  0.1637E+03
    264.691  0.6250E+00  0.1638E+03
    264.816  0.5456E+00  0.1639E+03
    264.941  0.4857E+00  0.1640E+03
    265.066  0.6159E+00  0.1642E+03
    265.192  0.5187E+00  0.1643E+03
    265.317  0.5695E+00  0.1643E+03
    265.442  0.6864E+00  0.1645E+03
    265.567  0.4484E+00  0.1646E+03
    265.693  0.7532E+00  0.1647E+03
    265.818  0.6844E+00  0.1648E+03
    265.943  0.3906E+00  0.1649E+03
    266.068  0.5639E+00  0.1650E+03
    266.193  0.4850E+00  0.1651E+03
    266.319  0.4514E+00  0.1652E+03
    266.444  0.5862E+00  0.1653E+03
    266.569  0.4534E+00  0.1654E+03
    266.694  0.4934E+00  0.1655E+03
    266.819  0.5227E+00  0.1657E+03
    266.945  0.4391E+00  0.1658E+03
    267.070  0.6780E+00  0.1659E+03
    267.195  0.9750E+00  0.1660E+03
    267.320  0.7688E+00  0.1661E+03
    267.446  0.5660E+00  0.1662E+03
    267.571  0.7587E+00  0.1664E+03
    267.696  0.5100E+00  0.1665E+03
    267.821  0.6654E+00  0.1666E+03
    267.946  0.5546E+00  0.1667E+03
    268.072  0.6358E+00  0.1669E+03
    268.197  0.7760E+00  0.1670E+03
    268.322  0.7715E+00  0.1671E+03
    268.447  0.6829E+00  0.1672E+03
    268.573  0.4049E+00  0.1673E+03
    268.698  0.4980E+00  0.1674E+03
    268.823  0.6500E+00  0.1675E+03
    268.948  0.6685E+00  0.1676E+03
    269.073  0.5467E+00  0.1678E+03
    269.199  0.3570E+00  0.1678E+03
    269.324  0.6164E+00  0.1679E+03
    269.449  0.5996E+00  0.1681E+03
    269.574  0.4649E+00  0.1682E+03
    269.699  0.7130E+00  0.1683E+03
    269.825  0.6520E+00  0.1684E+03
    269.950  0.4503E+00  0.1685E+03
    270.075  0.6191E+00  0.1686E+03
    270.200  0.5760E+00  0.1687E+03
    270.326  0.4545E+00  0.1688E+03
    270.451  0.7278E+00  0.1689E+03
    270.576  0.4453E+00  0.1690E+03
    270.701  0.6479E+00  0.1691E+03
    270.826  0.5131E+00  0.1692E+03
    270.952  0.6113E+00  0.1693E+03
    271.077  0.5774E+00  0.1694E+03
    271.202  0.7232E+00  0.1696E+03
    271.327  0.4201E+00  0.1697E+03
    271.452  0.3395E+00  0.1697E+03
    271.578  0.4911E+00  0.1698E+03
    271.703  0.6109E+00  0.1699E+03
    271.828  0.6581E+00  0.1701E+03
    271.953  0.6130E+00  0.1702E+03
    272.079  0.6632E+00  0.1703E+03
    272.204  0.8047E+00  0.1704E+03
    272.329  0.4945E+00  0.1706E+03
    272.454  0.7066E+00  0.1707E+03
    272.579  0.4776E+00  0.1708E+03
    272.705  0.5959E+00  0.1709E+03
    272.830  0.4383E+00  0.1710E+03
    272.955  0.4457E+00  0.1711E+03
    273.080  0.7584E+00  0.1712E+03
    273.205  0.6483E+00  0.1714E+03
    273.331  0.5687E+00  0.1715E+03
    273.456  0.5672E+00  0.1716E+03
    273.581  0.5888E+00  0.1717E+03
    273.706  0.4360E+00  0.1718E+03
    273.832  0.6482E+00  0.1719E+03
    273.957  0.6197E+00  0.1720E+03
    274.082  0.5103E+00  0.1722E+03
    274.207  0.5643E+00  0.1723E+03
    274.332  0.6602E+00  0.1724E+03
    274.458  0.7447E+00  0.1725E+03
    274.583  0.5936E+00  0.1726E+03
    274.708  0.6119E+00  0.1727E+03
    274.833  0.5038E+00  0.1728E+03
    274.958  0.5582E+00  0.1729E+03
    275.084  0.6840E+00  0.1731E+03
    275.209  0.9378E+00  0.1732E+03
    275.334  0.3280E+00  0.1733E+03
    275.459  0.6072E+00  0.1734E+03
    275.585  0.6525E+00  0.1735E+03
    275.710  0.3936E+00  0.1736E+03
    275.835  0.6643E+00  0.1737E+03
    275.960  0.6309E+00  0.1738E+03
    276.085  0.5137E+00  0.1740E+03
    276.211  0.6684E+00  0.1741E+03
    276.336  0.5289E+00  0.1742E+03
    276.461  0.5558E+00  0.1743E+03
    276.586  0.5943E+00  0.1744E+03
    276.711  0.3279E+00  0.1745E+03
    276.837  0.4871E+00  0.1746E+03
    276.962  0.5057E+00  0.1747E+03
    277.087  0.4503E+00  0.1748E+03
    277.212  0.3376E+00  0.1748E+03
    277.338  0.4488E+00  0.1749E+03
    277.463  0.4985E+00  0.1750E+03
    277.588  0.7609E+00  0.1751E+03
    277.713  0.6053E+00  0.1753E+03
    277.838  0.3674E+00  0.1754E+03
    277.964  0.6591E+00  0.1755E+03
    278.089  0.5776E+00  0.1756E+03
    278.214  0.3886E+00  0.1757E+03
    278.339  0.4859E+00  0.1759E+03
    278.464  0.5629E+00  0.1759E+03
    278.590  0.6742E+00  0.1761E+03
    278.715  0.6376E+00  0.1762E+03
    278.840  0.4946E+00  0.1763E+03
    278.965  0.6284E+00  0.1764E+03
    279.091  0.4789E+00  0.1765E+03
    279.216  0.6027E+00  0.1767E+03
    279.341  0.4127E+00  0.1768E+03
    279.466  0.5815E+00  0.1769E+03
    279.591  0.7215E+00  0.1770E+03
    279.717  0.6570E+00  0.1771E+03
    279.842  0.3724E+00  0.1772E+03
    279.967  0.6429E+00  0.1773E+03
    280.092  0.5190E+00  0.1774E+03
    280.218  0.1090E+01  0.1776E+03
    280.343  0.5905E+00  0.1777E+03
    280.468  0.5492E+00  0.1778E+03
    280.593  0.5354E+00  0.1779E+03
    280.718  0.5210E+00  0.1780E+03
    280.844  0.7333E+00  0.1781E+03
    280.969  0.6314E+00  0.1783E+03
    281.094  0.6658E+00  0.1784E+03
    281.219  0.6186E+00  0.1785E+03
    281.344  0.5380E+00  0.1786E+03
    281.470  0.8180E+00  0.1787E+03
    281.595  0.5623E+00  0.1788E+03
    281.720  0.5629E+00  0.1789E+03
    281.845  0.5753E+00  0.1791E+03
    281.971  0.6855E+00  0.1792E+03
    282.096  0.6836E+00  0.1793E+03
    282.221  0.3636E+00  0.1794E+03
    282.346  0.5937E+00  0.1795E+03
    282.471  0.5632E+00  0.1796E+03
    282.597  0.5905E+00  0.1797E+03
    282.722  0.6220E+00  0.1799E+03
    282.847  0.7590E+00  0.1800E+03
    282.972  0.3755E+00  0.1801E+03
    283.097  0.5810E+00  0.1802E+03
    283.223  0.7863E+00  0.1803E+03
    283.348  0.2943E+00  0.1804E+03
    283.473  0.6152E+00  0.1805E+03
    283.598  0.4816E+00  0.1806E+03
    283.724  0.7628E+00  0.1807E+03
    283.849  0.5782E+00  0.1808E+03
    283.974  0.7039E+00  0.1810E+03
    284.099  0.5053E+00  0.1811E+03
    284.224  0.1978E+00  0.1812E+03
    284.350  0.5458E+00  0.1813E+03
    284.475  0.6210E+00  0.1814E+03
    284.600  0.6027E+00  0.1815E+03
    284.725  0.5992E+00  0.1816E+03
    284.850  0.3854E+00  0.1817E+03
    284.976  0.6830E+00  0.1818E+03
    285.101  0.4575E+00  0.1819E+03
    285.226  0.7190E+00  0.1821E+03
    285.351  0.5758E+00  0.1822E+03
    285.477  0.4477E+00  0.1822E+03
    285.602  0.8190E+00  0.1824E+03
    285.727  0.7021E+00  0.1825E+03
    285.852  0.4697E+00  0.1826E+03
    285.977  0.7773E+00  0.1828E+03
    286.103  0.7480E+00  0.1829E+03
    286.228  0.5011E+00  0.1830E+03
    286.353  0.6621E+00  0.1831E+03
    286.478  0.6980E+00  0.1833E+03
    286.603  0.8022E+00  0.1834E+03
    286.729  0.6054E+00  0.1836E+03
    286.854  0.4514E+00  0.1837E+03
    286.979  0.5942E+00  0.1838E+03
    287.104  0.5111E+00  0.1839E+03
    287.230  0.5115E+00  0.1840E+03
    287.355  0.5042E+00  0.1841E+03
    287.480  0.5706E+00  0.1842E+03
    287.605  0.4220E+00  0.1843E+03
    287.730  0.2702E+00  0.1844E+03
    287.856  0.7404E+00  0.1845E+03
    287.981  0.6749E+00  0.1846E+03
    288.106  0.6483E+00  0.1847E+03
    288.231  0.9850E+00  0.1849E+03
    288.356  0.3180E+00  0.1850E+03
    288.482  0.5005E+00  0.1851E+03
    288.607  0.5019E+00  0.1852E+03
    288.732  0.4863E+00  0.1853E+03
    288.857  0.4676E+00  0.1853E+03
    288.983  0.2691E+00  0.1854E+03
    289.108  0.7664E+00  0.1855E+03
    289.233  0.4358E+00  0.1856E+03
    289.358  0.6786E+00  0.1857E+03
    289.483  0.4943E+00  0.1858E+03
    289.609  0.7807E+00  0.1860E+03
    289.734  0.5507E+00  0.1861E+03
    289.859  0.7191E+00  0.1862E+03
    289.984  0.3849E+00  0.1863E+03
    290.109  0.3931E+00  0.1864E+03
    290.235  0.4348E+00  0.1865E+03
    290.360  0.6711E+00  0.1866E+03
    290.485  0.5100E+00  0.1867E+03
    290.610  0.8559E+00  0.1869E+03
    290.736  0.7039E+00  0.1870E+03
    290.861  0.5314E+00  0.1871E+03
    290.986  0.5719E+00  0.1872E+03
    291.111  0.5508E+00  0.1874E+03
    291.236  0.5152E+00  0.1875E+03
    291.362  0.6018E+00  0.1876E+03
    291.487  0.6645E+00  0.1877E+03
    291.612  0.6033E+00  0.1878E+03
    291.737  0.7975E+00  0.1879E+03
    291.863  0.4891E+00  0.1880E+03
    291.988  0.6137E+00  0.1882E+03
    292.113  0.5212E+00  0.1883E+03
    292.238  0.3684E+00  0.1883E+03
    292.363  0.6729E+00  0.1885E+03
    292.489  0.7744E+00  0.1886E+03
    292.614  0.7319E+00  0.1887E+03
    292.739  0.6433E+00  0.1889E+03
    292.864  0.1094E+01  0.1890E+03
    292.989  0.6209E+00  0.1891E+03
    293.115  0.7883E+00  0.1893E+03
    293.240  0.5666E+00  0.1894E+03
    293.365  0.7495E+00  0.1895E+03
    293.490  0.4102E+00  0.1896E+03
    293.616  0.6895E+00  0.1898E+03
    293.741  0.4030E+00  0.1899E+03
    293.866  0.4757E+00  0.1900E+03
    293.991  0.4385E+00  0.1901E+03
    294.116  0.5999E+00  0.1902E+03
    294.242  0.8658E+00  0.1904E+03
    294.367  0.3995E+00  0.1905E+03
    294.492  0.4455E+00  0.1906E+03
    294.617  0.7112E+00  0.1907E+03
    294.742  0.4682E+00  0.1908E+03
    294.868  0.6602E+00  0.1909E+03
    294.993  0.7744E+00  0.1910E+03
    295.118  0.6707E+00  0.1912E+03
    295.243  0.4149E+00  0.1913E+03
    295.369  0.9142E+00  0.1914E+03
    295.494  0.5286E+00  0.1915E+03
    295.619  0.5133E+00  0.1916E+03
    295.744  0.4534E+00  0.1917E+03
    295.869  0.6340E+00  0.1918E+03
    295.995  0.5862E+00  0.1920E+03
    296.120  0.5258E+00  0.1921E+03
    296.245  0.6437E+00  0.1922E+03
    296.370  0.4277E+00  0.1923E+03
    296.495  0.8088E+00  0.1924E+03
    296.621  0.5958E+00  0.1925E+03
    296.746  0.4408E+00  0.1926E+03
    296.871  0.5174E+00  0.1928E+03
    296.996  0.7168E+00  0.1929E+03
    297.122  0.5628E+00  0.1930E+03
    297.247  0.4539E+00  0.1931E+03
    297.372  0.4626E+00  0.1932E+03
    297.497  0.6501E+00  0.1933E+03
    297.622  0.6278E+00  0.1935E+03
    297.748  0.4701E+00  0.1936E+03
    297.873  0.5284E+00  0.1937E+03
    297.998  0.6946E+00  0.1938E+03
    298.123  0.7776E+00  0.1939E+03
    298.248  0.5693E+00  0.1940E+03
    298.374  0.6516E+00  0.1942E+03
    298.499  0.4258E+00  0.1943E+03
    298.624  0.5951E+00  0.1944E+03
    298.749  0.6343E+00  0.1946E+03
    298.875  0.3507E+00  0.1947E+03
    299.000  0.4312E+00  0.1947E+03
    299.125  0.5159E+00  0.1949E+03
    299.250  0.5882E+00  0.1950E+03
    299.375  0.5923E+00  0.1951E+03
    299.501  0.3600E+00  0.1952E+03
    299.626  0.7023E+00  0.1953E+03
    299.751  0.5155E+00  0.1954E+03
    299.876  0.7997E+00  0.1955E+03
    300.001  0.4987E+00  0.1956E+03
    300.127  0.5782E+00  0.1957E+03
    300.252  0.6317E+00  0.1958E+03
    300.377  0.6869E+00  0.1960E+03
    300.502  0.4157E+00  0.1961E+03
    300.628  0.8339E+00  0.1963E+03
    300.753  0.5218E+00  0.1964E+03
    300.878  0.8302E+00  0.1965E+03
    301.003  0.7119E+00  0.1967E+03
    301.128  0.4793E+00  0.1968E+03
    301.254  0.4184E+00  0.1969E+03
    301.379  0.3807E+00  0.1969E+03
    301.504  0.5187E+00  0.1971E+03
    301.629  0.4962E+00  0.1972E+03
    301.754  0.7368E+00  0.1973E+03
    301.880  0.5667E+00  0.1975E+03
    302.005  0.3730E+00  0.1975E+03
    302.130  0.5113E+00  0.1977E+03
    302.255  0.7469E+00  0.1978E+03
    302.381  0.5669E+00  0.1979E+03
    302.506  0.2300E+00  0.1980E+03
    302.631  0.5533E+00  0.1981E+03
    302.756  0.6571E+00  0.1982E+03
    302.881  0.7249E+00  0.1984E+03
    303.007  0.6447E+00  0.1985E+03
    303.132  0.4878E+00  0.1986E+03
    303.257  0.5638E+00  0.1987E+03
    303.382  0.5929E+00  0.1988E+03
    303.508  0.5015E+00  0.1989E+03
    303.633  0.7662E+00  0.1991E+03
    303.758  0.7320E+00  0.1992E+03
    303.883  0.4909E+00  0.1993E+03
    304.008  0.8531E+00  0.1994E+03
    304.134  0.7091E+00  0.1995E+03
    304.259  0.5341E+00  0.1996E+03
    304.384  0.6188E+00  0.1998E+03
    304.509  0.4180E+00  0.1999E+03
    304.634  0.5309E+00  0.2000E+03
    304.760  0.5515E+00  0.2001E+03
    304.885  0.7057E+00  0.2002E+03
    305.010  0.4535E+00  0.2003E+03
    305.135  0.4679E+00  0.2004E+03
    305.261  0.9617E+00  0.2006E+03
    305.386  0.6717E+00  0.2007E+03
    305.511  0.5861E+00  0.2008E+03
    305.636  0.3777E+00  0.2009E+03
    305.761  0.4928E+00  0.2011E+03
    305.887  0.5308E+00  0.2011E+03
    306.012  0.7823E+00  0.2013E+03
    306.137  0.7049E+00  0.2014E+03
    306.262  0.7101E+00  0.2015E+03
    306.387  0.6030E+00  0.2017E+03
    306.513  0.3855E+00  0.2017E+03
    306.638  0.5682E+00  0.2018E+03
    306.763  0.5214E+00  0.2019E+03
    306.888  0.6135E+00  0.2021E+03
    307.014  0.5557E+00  0.2022E+03
    307.139  0.6924E+00  0.2023E+03
    307.264  0.6051E+00  0.2024E+03
    307.389  0.4907E+00  0.2025E+03
    307.514  0.7206E+00  0.2027E+03
    307.640  0.7114E+00  0.2028E+03
    307.765  0.5858E+00  0.2029E+03
    307.890  0.9394E+00  0.2031E+03
    308.015  0.4822E+00  0.2032E+03
    308.140  0.4412E+00  0.2033E+03
    308.266  0.6274E+00  0.2034E+03
    308.391  0.6346E+00  0.2035E+03
    308.516  0.7878E+00  0.2037E+03
    308.641  0.6190E+00  0.2038E+03
    308.767  0.6647E+00  0.2039E+03
    308.892  0.6920E+00  0.2041E+03
    309.017  0.6213E+00  0.2042E+03
    309.142  0.5922E+00  0.2043E+03
    309.267  0.4004E+00  0.2044E+03
    309.393  0.5182E+00  0.2045E+03
    309.518  0.4902E+00  0.2046E+03
    309.643  0.8183E+00  0.2047E+03
    309.768  0.4308E+00  0.2048E+03
    309.893  0.4689E+00  0.2050E+03
    310.019  0.2503E+00  0.2051E+03
    310.144  0.6948E+00  0.2052E+03
    310.269  0.5410E+00  0.2053E+03
    310.394  0.6930E+00  0.2054E+03
    310.520  0.5677E+00  0.2055E+03
    310.645  0.3944E+00  0.2056E+03
    310.770  0.6440E+00  0.2058E+03
    310.895  0.5065E+00  0.2058E+03
    311.020  0.5692E+00  0.2060E+03
    311.146  0.5095E+00  0.2061E+03
    311.271  0.3910E+00  0.2062E+03
    311.396  0.6566E+00  0.2063E+03
    311.521  0.5645E+00  0.2064E+03
    311.646  0.6492E+00  0.2066E+03
    311.772  0.6398E+00  0.2067E+03
    311.897  0.5197E+00  0.2068E+03
    312.022  0.6362E+00  0.2070E+03
    312.147  0.6354E+00  0.2071E+03
    312.273  0.5334E+00  0.2072E+03
    312.398  0.7893E+00  0.2073E+03
    312.523  0.6033E+00  0.2074E+03
    312.648  0.7392E+00  0.2076E+03
    312.773  0.6454E+00  0.2077E+03
    312.899  0.4255E+00  0.2078E+03
    313.024  0.5649E+00  0.2079E+03
    313.149  0.5449E+00  0.2080E+03
    313.274  0.3981E+00  0.2081E+03
    313.399  0.5416E+00  0.2082E+03
    313.525  0.6017E+00  0.2083E+03
    313.650  0.5930E+00  0.2085E+03
    313.775  0.5959E+00  0.2086E+03
    313.900  0.8522E+00  0.2087E+03
    314.026  0.3976E+00  0.2088E+03
    314.151  0.5761E+00  0.2089E+03
    314.276  0.7541E+00  0.2090E+03
    314.401  0.8824E+00  0.2092E+03
    314.526  0.5870E+00  0.2093E+03
    314.652  0.6535E+00  0.2094E+03
    314.777  0.5352E+00  0.2095E+03
    314.902  0.4436E+00  0.2096E+03
    315.027  0.8483E+00  0.2098E+03
    315.153  0.6620E+00  0.2099E+03
    315.278  0.5687E+00  0.2100E+03
    315.403  0.6706E+00  0.2101E+03
    315.528  0.5188E+00  0.2102E+03
    315.653  0.7297E+00  0.2104E+03
    315.779  0.8627E+00  0.2105E+03
    315.904  0.5191E+00  0.2106E+03
    316.029  0.5601E+00  0.2107E+03
    316.154  0.6454E+00  0.2108E+03
    316.279  0.6031E+00  0.2109E+03
    316.405  0.7008E+00  0.2111E+03
    316.530  0.4105E+00  0.2112E+03
    316.655  0.7176E+00  0.2113E+03
    316.780  0.8546E+00  0.2115E+03
    316.906  0.7431E+00  0.2116E+03
    317.031  0.5506E+00  0.2117E+03
    317.156  0.5624E+00  0.2118E+03
    317.281  0.5726E+00  0.2119E+03
    317.406  0.5320E+00  0.2120E+03
    317.532  0.6260E+00  0.2122E+03
    317.657  0.6082E+00  0.2123E+03
    317.782  0.4468E+00  0.2124E+03
    317.907  0.6417E+00  0.2125E+03
    318.032  0.4551E+00  0.2126E+03
    318.158  0.7479E+00  0.2127E+03
    318.283  0.5509E+00  0.2129E+03
    318.408  0.6820E+00  0.2130E+03
    318.533  0.5706E+00  0.2131E+03
    318.659  0.4624E+00  0.2132E+03
    318.784  0.7917E+00  0.2133E+03
    318.909  0.3883E+00  0.2134E+03
    319.034  0.6334E+00  0.2135E+03
    319.159  0.5457E+00  0.2136E+03
    319.285  0.6592E+00  0.2138E+03
    319.410  0.5406E+00  0.2139E+03
    319.535  0.3538E+00  0.2140E+03
    319.660  0.7048E+00  0.2141E+03
    319.785  0.6492E+00  0.2142E+03
    319.911  0.5009E+00  0.2143E+03
    320.036  0.5558E+00  0.2144E+03
    320.161  0.6468E+00  0.2146E+03
    320.286  0.6233E+00  0.2147E+03
    320.412  0.5142E+00  0.2148E+03
    320.537  0.6441E+00  0.2150E+03
    320.662  0.6125E+00  0.2151E+03
    320.787  0.6764E+00  0.2152E+03
    320.912  0.6146E+00  0.2153E+03
    321.038  0.8033E+00  0.2155E+03
    321.163  0.6740E+00  0.2156E+03
    321.288  0.3819E+00  0.2157E+03
    321.413  0.6337E+00  0.2158E+03
    321.538  0.6224E+00  0.2159E+03
    321.664  0.6777E+00  0.2161E+03
    321.789  0.7238E+00  0.2162E+03
    321.914  0.5558E+00  0.2163E+03
    322.039  0.6643E+00  0.2164E+03
    322.165  0.5481E+00  0.2166E+03
    322.290  0.6890E+00  0.2167E+03
    322.415  0.6124E+00  0.2168E+03
    322.540  0.6314E+00  0.2170E+03
    322.665  0.6343E+00  0.2171E+03
    322.791  0.5704E+00  0.2172E+03
    322.916  0.7156E+00  0.2173E+03
    323.041  0.5716E+00  0.2174E+03
    323.166  0.6533E+00  0.2176E+03
    323.291  0.6525E+00  0.2177E+03
    323.417  0.4753E+00  0.2178E+03
    323.542  0.8091E+00  0.2179E+03
    323.667  0.5526E+00  0.2180E+03
    323.792  0.6110E+00  0.2181E+03
    323.918  0.5974E+00  0.2183E+03
    324.043  0.6557E+00  0.2184E+03
    324.168  0.5942E+00  0.2185E+03
    324.293  0.5696E+00  0.2187E+03
    324.418  0.7323E+00  0.2188E+03
    324.544  0.8080E+00  0.2189E+03
    324.669  0.5315E+00  0.2190E+03
    324.794  0.6175E+00  0.2192E+03
    324.919  0.4623E+00  0.2193E+03
    325.044  0.6042E+00  0.2194E+03
    325.170  0.6547E+00  0.2195E+03
    325.295  0.7100E+00  0.2196E+03
    325.420  0.6898E+00  0.2198E+03
    325.545  0.4945E+00  0.2199E+03
    325.671  0.8955E+00  0.2200E+03
    325.796  0.5433E+00  0.2201E+03
    325.921  0.6468E+00  0.2202E+03
    326.046  0.5006E+00  0.2204E+03
    326.171  0.4746E+00  0.2205E+03
    326.297  0.4364E+00  0.2205E+03
    326.422  0.4660E+00  0.2206E+03
    326.547  0.6108E+00  0.2207E+03
    326.672  0.5682E+00  0.2209E+03
    326.798  0.6575E+00  0.2210E+03
    326.923  0.5643E+00  0.2211E+03
    327.048  0.5055E+00  0.2212E+03
    327.173  0.8014E+00  0.2213E+03
    327.298  0.5877E+00  0.2215E+03
    327.424  0.6713E+00  0.2216E+03
    327.549  0.5244E+00  0.2217E+03
    327.674  0.5858E+00  0.2218E+03
    327.799  0.8079E+00  0.2220E+03
    327.924  0.6146E+00  0.2221E+03
    328.050  0.6802E+00  0.2223E+03
    328.175  0.4603E+00  0.2224E+03
    328.300  0.6114E+00  0.2225E+03
    328.425  0.4374E+00  0.2226E+03
    328.551  0.5753E+00  0.2227E+03
    328.676  0.6180E+00  0.2229E+03
    328.801  0.5718E+00  0.2230E+03
    328.926  0.7610E+00  0.2231E+03
    329.051  0.7005E+00  0.2232E+03
    329.177  0.5928E+00  0.2234E+03
    329.302  0.6778E+00  0.2235E+03
    329.427  0.5737E+00  0.2236E+03
    329.552  0.4638E+00  0.2237E+03
    329.677  0.7797E+00  0.2239E+03
    329.803  0.5918E+00  0.2240E+03
    329.928  0.8959E+00  0.2241E+03
    330.053  0.9431E+00  0.2243E+03
    330.178  0.6710E+00  0.2244E+03
    330.304  0.5442E+00  0.2245E+03
    330.429  0.5585E+00  0.2246E+03
    330.554  0.6228E+00  0.2247E+03
    330.679  0.8040E+00  0.2249E+03
    330.804  0.6224E+00  0.2250E+03
    330.930  0.4548E+00  0.2251E+03
    331.055  0.7843E+00  0.2252E+03
    331.180  0.3956E+00  0.2253E+03
    331.305  0.5361E+00  0.2254E+03
    331.430  0.6427E+00  0.2256E+03
    331.556  0.4406E+00  0.2257E+03
    331.681  0.6586E+00  0.2258E+03
    331.806  0.5200E+00  0.2259E+03
    331.931  0.5946E+00  0.2260E+03
    332.057  0.5442E+00  0.2261E+03
    332.182  0.8977E+00  0.2263E+03
    332.307  0.6079E+00  0.2264E+03
    332.432  0.6700E+00  0.2265E+03
    332.557  0.8286E+00  0.2267E+03
    332.683  0.1072E+01  0.2268E+03
    332.808  0.5734E+00  0.2270E+03
    332.933  0.7355E+00  0.2271E+03
    333.058  0.4640E+00  0.2272E+03
    333.183  0.7348E+00  0.2273E+03
    333.309  0.5924E+00  0.2274E+03
    333.434  0.6633E+00  0.2275E+03
    333.559  0.5224E+00  0.2276E+03
    333.684  0.7410E+00  0.2278E+03
    333.810  0.6438E+00  0.2279E+03
    333.935  0.5382E+00  0.2280E+03
    334.060  0.4634E+00  0.2281E+03
    334.185  0.6634E+00  0.2282E+03
    334.310  0.8268E+00  0.2284E+03
    334.436  0.4158E+00  0.2285E+03
    334.561  0.5383E+00  0.2286E+03
    334.686  0.5418E+00  0.2287E+03
    334.811  0.7497E+00  0.2288E+03
    334.936  0.4309E+00  0.2289E+03
    335.062  0.6503E+00  0.2291E+03
    335.187  0.5900E+00  0.2292E+03
    335.312  0.9004E+00  0.2293E+03
    335.437  0.6936E+00  0.2294E+03
    335.563  0.4904E+00  0.2296E+03
    335.688  0.6279E+00  0.2297E+03
    335.813  0.7013E+00  0.2298E+03
    335.938  0.8111E+00  0.2299E+03
    336.063  0.8040E+00  0.2301E+03
    336.189  0.4618E+00  0.2302E+03
    336.314  0.8332E+00  0.2303E+03
    336.439  0.5480E+00  0.2305E+03
    336.564  0.9844E+00  0.2306E+03
    336.689  0.7007E+00  0.2308E+03
    336.815  0.7874E+00  0.2309E+03
    336.940  0.4357E+00  0.2310E+03
    337.065  0.4450E+00  0.2311E+03
    337.190  0.4989E+00  0.2312E+03
    337.316  0.7601E+00  0.2313E+03
    337.441  0.6061E+00  0.2315E+03
    337.566  0.6153E+00  0.2316E+03
    337.691  0.5380E+00  0.2317E+03
    337.816  0.4895E+00  0.2318E+03
    337.942  0.7027E+00  0.2320E+03
    338.067  0.5682E+00  0.2321E+03
    338.192  0.5010E+00  0.2322E+03
    338.317  0.6788E+00  0.2323E+03
    338.443  0.6091E+00  0.2324E+03
    338.568  0.5163E+00  0.2325E+03
    338.693  0.6542E+00  0.2327E+03
    338.818  0.6926E+00  0.2328E+03
    338.943  0.7674E+00  0.2329E+03
    339.069  0.6328E+00  0.2331E+03
    339.194  0.5716E+00  0.2332E+03
    339.319  0.7753E+00  0.2333E+03
    339.444  0.6689E+00  0.2334E+03
    339.569  0.4434E+00  0.2335E+03
    339.695  0.5496E+00  0.2336E+03
    339.820  0.8163E+00  0.2338E+03
    339.945  0.5694E+00  0.2339E+03
    340.070  0.6789E+00  0.2341E+03
    340.196  0.8080E+00  0.2342E+03
    340.321  0.7033E+00  0.2344E+03
    340.446  0.4442E+00  0.2344E+03
    340.571  0.5428E+00  0.2345E+03
    340.696  0.6287E+00  0.2347E+03
    340.822  0.5341E+00  0.2348E+03
    340.947  0.7274E+00  0.2349E+03
    341.072  0.5769E+00  0.2350E+03
    341.197  0.5226E+00  0.2352E+03
    341.322  0.7146E+00  0.2353E+03
    341.448  0.6334E+00  0.2354E+03
    341.573  0.4715E+00  0.2355E+03
    341.698  0.6697E+00  0.2356E+03
    341.823  0.8157E+00  0.2358E+03
    341.949  0.6331E+00  0.2359E+03
    342.074  0.4990E+00  0.2360E+03
    342.199  0.5625E+00  0.2361E+03
    342.324  0.6943E+00  0.2363E+03
    342.449  0.5648E+00  0.2364E+03
    342.575  0.5966E+00  0.2365E+03
    342.700  0.7344E+00  0.2366E+03
    342.825  0.7704E+00  0.2367E+03
    342.950  0.4647E+00  0.2368E+03
    343.075  0.7483E+00  0.2370E+03
    343.201  0.4201E+00  0.2371E+03
    343.326  0.4546E+00  0.2372E+03
    343.451  0.6986E+00  0.2373E+03
    343.576  0.6442E+00  0.2375E+03
    343.702  0.6940E+00  0.2376E+03
    343.827  0.8446E+00  0.2377E+03
    343.952  0.6218E+00  0.2379E+03
    344.077  0.5239E+00  0.2380E+03
    344.202  0.4131E+00  0.2381E+03
    344.328  0.5058E+00  0.2382E+03
    344.453  0.5569E+00  0.2383E+03
    344.578  0.5744E+00  0.2384E+03
    344.703  0.7242E+00  0.2386E+03
    344.828  0.7659E+00  0.2387E+03
    344.954  0.3642E+00  0.2388E+03
    345.079  0.8773E+00  0.2390E+03
    345.204  0.8866E+00  0.2391E+03
    345.329  0.7536E+00  0.2393E+03
    345.455  0.7599E+00  0.2394E+03
    345.580  0.6373E+00  0.2395E+03
    345.705  0.5752E+00  0.2396E+03
    345.830  0.4708E+00  0.2398E+03
    345.955  0.7954E+00  0.2399E+03
    346.081  0.6688E+00  0.2400E+03
    346.206  0.7039E+00  0.2402E+03
    346.331  0.5234E+00  0.2403E+03
    346.456  0.6511E+00  0.2404E+03
    346.581  0.5518E+00  0.2405E+03
    346.707  0.5512E+00  0.2407E+03
    346.832  0.5784E+00  0.2408E+03
    346.957  0.5972E+00  0.2409E+03
    347.082  0.9375E+00  0.2410E+03
    347.208  0.2513E+00  0.2411E+03
    347.333  0.9799E+00  0.2413E+03
    347.458  0.8570E+00  0.2414E+03
    347.583  0.6731E+00  0.2415E+03
    347.708  0.8987E+00  0.2417E+03
    347.834  0.5430E+00  0.2418E+03
    347.959  0.8135E+00  0.2419E+03
    348.084  0.5269E+00  0.2420E+03
    348.209  0.8073E+00  0.2422E+03
    348.334  0.6969E+00  0.2423E+03
    348.460  0.7723E+00  0.2425E+03
    348.585  0.5897E+00  0.2426E+03
    348.710  0.4190E+00  0.2427E+03
    348.835  0.6146E+00  0.2428E+03
    348.961  0.6509E+00  0.2429E+03
    349.086  0.3911E+00  0.2430E+03
    349.211  0.5773E+00  0.2432E+03
    349.336  0.5124E+00  0.2433E+03
    349.461  0.9471E+00  0.2434E+03
    349.587  0.6228E+00  0.2435E+03
    349.712  0.6666E+00  0.2437E+03
    349.837  0.5987E+00  0.2438E+03
    349.962  0.7145E+00  0.2439E+03
    350.088  0.5587E+00  0.2440E+03
    350.213  0.4596E+00  0.2441E+03
    350.338  0.8183E+00  0.2442E+03
    350.463  0.4368E+00  0.2443E+03
    350.588  0.7605E+00  0.2445E+03
    350.714  0.5412E+00  0.2446E+03
    350.839  0.4676E+00  0.2447E+03
    350.964  0.5292E+00  0.2448E+03
    351.089  0.4125E+00  0.2449E+03
    351.214  0.7448E+00  0.2451E+03
    351.340  0.7084E+00  0.2452E+03
    351.465  0.4376E+00  0.2453E+03
    351.590  0.6723E+00  0.2454E+03
    351.715  0.7302E+00  0.2456E+03
    351.841  0.2376E+00  0.2457E+03
    351.966  0.6795E+00  0.2458E+03
    352.091  0.4267E+00  0.2459E+03
    352.216  0.9059E+00  0.2461E+03
    352.341  0.9329E+00  0.2462E+03
    352.467  0.8482E+00  0.2464E+03
    352.592  0.5464E+00  0.2465E+03
    352.717  0.5718E+00  0.2466E+03
    352.842  0.7016E+00  0.2468E+03
    352.967  0.4954E+00  0.2469E+03
    353.093  0.6343E+00  0.2470E+03
    353.218  0.7499E+00  0.2472E+03
    353.343  0.5601E+00  0.2473E+03
    353.468  0.7470E+00  0.2474E+03
    353.594  0.7384E+00  0.2475E+03
    353.719  0.7270E+00  0.2477E+03
    353.844  0.9460E+00  0.2479E+03
    353.969  0.6857E+00  0.2480E+03
    354.094  0.6298E+00  0.2481E+03
    354.220  0.5704E+00  0.2482E+03
    354.345  0.5077E+00  0.2483E+03
    354.470  0.6560E+00  0.2485E+03
    354.595  0.7356E+00  0.2486E+03
    354.720  0.7089E+00  0.2487E+03
    354.846  0.8012E+00  0.2489E+03
    354.971  0.7916E+00  0.2490E+03
    355.096  0.3887E+00  0.2491E+03
    355.221  0.7909E+00  0.2493E+03
    355.347  0.4861E+00  0.2493E+03
    355.472  0.6993E+00  0.2495E+03
    355.597  0.5650E+00  0.2496E+03
    355.722  0.6585E+00  0.2497E+03
    355.847  0.5971E+00  0.2499E+03
    355.973  0.5560E+00  0.2500E+03
    356.098  0.5215E+00  0.2501E+03
    356.223  0.5358E+00  0.2502E+03
    356.348  0.1018E+01  0.2504E+03
    356.473  0.7187E+00  0.2505E+03
    356.599  0.4728E+00  0.2506E+03
    356.724  0.4362E+00  0.2507E+03
    356.849  0.6425E+00  0.2508E+03
    356.974  0.1015E+01  0.2510E+03
    357.100  0.7915E+00  0.2511E+03
    357.225  0.6406E+00  0.2512E+03
    357.350  0.7431E+00  0.2514E+03
    357.475  0.8429E+00  0.2515E+03
    357.600  0.5647E+00  0.2516E+03
    357.726  0.4810E+00  0.2517E+03
    357.851  0.5527E+00  0.2518E+03
    357.976  0.5960E+00  0.2519E+03
    358.101  0.7564E+00  0.2521E+03
    358.226  0.3291E+00  0.2522E+03
    358.352  0.8740E+00  0.2523E+03
    358.477  0.5671E+00  0.2524E+03
    358.602  0.5751E+00  0.2526E+03
    358.727  0.4422E+00  0.2527E+03
    358.853  0.4751E+00  0.2528E+03
    358.978  0.8500E+00  0.2529E+03
    359.103  0.5244E+00  0.2530E+03
    359.228  0.4604E+00  0.2531E+03
    359.353  0.8104E+00  0.2533E+03
    359.479  0.5430E+00  0.2534E+03
    359.604  0.7632E+00  0.2536E+03
    359.729  0.6745E+00  0.2537E+03
    359.854  0.5587E+00  0.2538E+03
    359.979  0.6295E+00  0.2539E+03
    360.105  0.6921E+00  0.2540E+03
    360.230  0.7389E+00  0.2542E+03
    360.355  0.6005E+00  0.2543E+03
    360.480  0.5088E+00  0.2544E+03
    360.606  0.8290E+00  0.2546E+03
    360.731  0.8028E+00  0.2547E+03
    360.856  0.5944E+00  0.2548E+03
    360.981  0.8775E+00  0.2550E+03
    361.106  0.8905E+00  0.2552E+03
    361.232  0.5918E+00  0.2553E+03
    361.357  0.3496E+00  0.2555E+03
    361.482  0.1062E+01  0.2556E+03
    361.607  0.6877E+00  0.2558E+03
    361.733  0.7338E+00  0.2559E+03
    361.858  0.5107E+00  0.2560E+03
    361.983  0.6703E+00  0.2561E+03
    362.108  0.7100E+00  0.2563E+03
    362.233  0.5731E+00  0.2564E+03
    362.359  0.5554E+00  0.2565E+03
    362.484  0.7006E+00  0.2566E+03
    362.609  0.6163E+00  0.2568E+03
    362.734  0.8253E+00  0.2569E+03
    362.859  0.5566E+00  0.2570E+03
    362.985  0.6138E+00  0.2571E+03
    363.110  0.5917E+00  0.2572E+03
    363.235  0.9376E+00  0.2574E+03
    363.360  0.5352E+00  0.2575E+03
    363.486  0.6548E+00  0.2576E+03
    363.611  0.5139E+00  0.2577E+03
    363.736  0.6594E+00  0.2579E+03
    363.861  0.5555E+00  0.2580E+03
    363.986  0.7876E+00  0.2581E+03
    364.112  0.4925E+00  0.2582E+03
    364.237  0.7302E+00  0.2584E+03
    364.362  0.9159E+00  0.2585E+03
    364.487  0.6036E+00  0.2586E+03
    364.612  0.5002E+00  0.2587E+03
    364.738  0.5580E+00  0.2588E+03
    364.863  0.6610E+00  0.2590E+03
    364.988  0.6853E+00  0.2591E+03
    365.113  0.6861E+00  0.2592E+03
    365.239  0.7021E+00  0.2594E+03
    365.364  0.6363E+00  0.2595E+03
    365.489  0.5751E+00  0.2596E+03
    365.614  0.6629E+00  0.2597E+03
    365.739  0.7399E+00  0.2599E+03
    365.865  0.6215E+00  0.2600E+03
    365.990  0.4966E+00  0.2601E+03
    366.115  0.5733E+00  0.2602E+03
    366.240  0.3445E+00  0.2603E+03
    366.365  0.6238E+00  0.2604E+03
    366.491  0.6175E+00  0.2606E+03
    366.616  0.7075E+00  0.2607E+03
    366.741  0.7496E+00  0.2609E+03
    366.866  0.5187E+00  0.2610E+03
    366.992  0.6486E+00  0.2611E+03
    367.117  0.7077E+00  0.2612E+03
    367.242  0.7055E+00  0.2614E+03
    367.367  0.6701E+00  0.2615E+03
    367.492  0.8681E+00  0.2616E+03
    367.618  0.7305E+00  0.2617E+03
    367.743  0.5582E+00  0.2619E+03
    367.868  0.7980E+00  0.2620E+03
    367.993  0.5942E+00  0.2621E+03
    368.118  0.8411E+00  0.2623E+03
    368.244  0.4044E+00  0.2624E+03
    368.369  0.6669E+00  0.2625E+03
    368.494  0.7842E+00  0.2627E+03
    368.619  0.6459E+00  0.2628E+03
    368.745  0.7008E+00  0.2629E+03
    368.870  0.7216E+00  0.2630E+03
    368.995  0.7224E+00  0.2632E+03
    369.120  0.6524E+00  0.2633E+03
    369.245  0.6662E+00  0.2634E+03
    369.371  0.7108E+00  0.2636E+03
    369.496  0.7731E+00  0.2638E+03
    369.621  0.7935E+00  0.2639E+03
    369.746  0.5745E+00  0.2640E+03
    369.871  0.5508E+00  0.2641E+03
    369.997  0.8477E+00  0.2643E+03
    370.122  0.7962E+00  0.2644E+03
    370.247  0.9244E+00  0.2646E+03
    370.372  0.6125E+00  0.2647E+03
    370.498  0.5785E+00  0.2648E+03
    370.623  0.7507E+00  0.2650E+03
    370.748  0.7110E+00  0.2651E+03
    370.873  0.8111E+00  0.2653E+03
    370.998  0.5495E+00  0.2654E+03
    371.124  0.6058E+00  0.2655E+03
    371.249  0.4270E+00  0.2656E+03
    371.374  0.5667E+00  0.2657E+03
    371.499  0.7821E+00  0.2659E+03
    371.624  0.8058E+00  0.2660E+03
    371.750  0.6329E+00  0.2661E+03
    371.875  0.3979E+00  0.2662E+03
    372.000  0.6622E+00  0.2663E+03
    372.125  0.5991E+00  0.2665E+03
    372.251  0.4574E+00  0.2665E+03
    372.376  0.7907E+00  0.2667E+03
    372.501  0.7022E+00  0.2668E+03
    372.626  0.5395E+00  0.2669E+03
    372.751  0.6534E+00  0.2671E+03
    372.877  0.6565E+00  0.2672E+03
    373.002  0.4952E+00  0.2674E+03
    373.127  0.6067E+00  0.2675E+03
    373.252  0.5419E+00  0.2676E+03
    373.378  0.8764E+00  0.2677E+03
    373.503  0.5817E+00  0.2679E+03
    373.628  0.3922E+00  0.2680E+03
    373.753  0.7112E+00  0.2681E+03
    373.878  0.7047E+00  0.2682E+03
    374.004  0.4106E+00  0.2684E+03
    374.129  0.3919E+00  0.2685E+03
    374.254  0.7345E+00  0.2686E+03
    374.379  0.5265E+00  0.2687E+03
    374.504  0.8642E+00  0.2689E+03
    374.630  0.8921E+00  0.2690E+03
    374.755  0.6534E+00  0.2691E+03
    374.880  0.5870E+00  0.2693E+03
    375.005  0.5615E+00  0.2694E+03
    375.131  0.7148E+00  0.2695E+03
    375.256  0.7140E+00  0.2696E+03
    375.381  0.6056E+00  0.2697E+03
    375.506  0.7440E+00  0.2699E+03
    375.631  0.6613E+00  0.2700E+03
    375.757  0.8693E+00  0.2701E+03
    375.882  0.5463E+00  0.2703E+03
    376.007  0.6651E+00  0.2704E+03
    376.132  0.6121E+00  0.2705E+03
    376.257  0.6291E+00  0.2706E+03
    376.383  0.7415E+00  0.2708E+03
    376.508  0.8900E+00  0.2710E+03
    376.633  0.9667E+00  0.2711E+03
    376.758  0.7352E+00  0.2713E+03
    376.884  0.8231E+00  0.2714E+03
    377.009  0.5922E+00  0.2715E+03
    377.134  0.7975E+00  0.2717E+03
    377.259  0.8659E+00  0.2718E+03
    377.384  0.7707E+00  0.2719E+03
    377.510  0.6891E+00  0.2721E+03
    377.635  0.6610E+00  0.2722E+03
    377.760  0.6233E+00  0.2723E+03
    377.885  0.6789E+00  0.2725E+03
    378.010  0.5663E+00  0.2726E+03
    378.136  0.7146E+00  0.2727E+03
    378.261  0.7316E+00  0.2728E+03
    378.386  0.7704E+00  0.2730E+03
    378.511  0.7683E+00  0.2731E+03
    378.637  0.6618E+00  0.2733E+03
    378.762  0.7185E+00  0.2734E+03
    378.887  0.7348E+00  0.2735E+03
    379.012  0.5660E+00  0.2737E+03
    379.137  0.4007E+00  0.2738E+03
    379.263  0.6737E+00  0.2739E+03
    379.388  0.8520E+00  0.2741E+03
    379.513  0.4747E+00  0.2742E+03
    379.638  0.6818E+00  0.2743E+03
    379.763  0.7797E+00  0.2745E+03
    379.889  0.7694E+00  0.2746E+03
    380.014  0.5654E+00  0.2747E+03
    380.139  0.5602E+00  0.2748E+03
    380.264  0.5941E+00  0.2749E+03
    380.390  0.4170E+00  0.2750E+03
    380.515  0.6948E+00  0.2751E+03
    380.640  0.6872E+00  0.2753E+03
    380.765  0.6266E+00  0.2754E+03
    380.890  0.8186E+00  0.2756E+03
    381.016  0.5461E+00  0.2757E+03
    381.141  0.6460E+00  0.2758E+03
    381.266  0.5907E+00  0.2760E+03
    381.391  0.6691E+00  0.2761E+03
    381.516  0.8374E+00  0.2762E+03
    381.642  0.5671E+00  0.2763E+03
    381.767  0.6710E+00  0.2765E+03
    381.892  0.5814E+00  0.2766E+03
    382.017  0.4763E+00  0.2767E+03
    382.143  0.6277E+00  0.2768E+03
    382.268  0.8552E+00  0.2770E+03
    382.393  0.7625E+00  0.2771E+03
    382.518  0.8043E+00  0.2773E+03
    382.643  0.8078E+00  0.2774E+03
    382.769  0.4498E+00  0.2775E+03
    382.894  0.5110E+00  0.2776E+03
    383.019  0.3126E+00  0.2777E+03
    383.144  0.7605E+00  0.2779E+03
    383.269  0.6178E+00  0.2780E+03
    383.395  0.7103E+00  0.2781E+03
    383.520  0.8417E+00  0.2783E+03
    383.645  0.5788E+00  0.2784E+03
    383.770  0.6781E+00  0.2786E+03
    383.896  0.4856E+00  0.2787E+03
    384.021  0.6924E+00  0.2788E+03
    384.146  0.7297E+00  0.2789E+03
    384.271  0.5277E+00  0.2791E+03
    384.396  0.8228E+00  0.2792E+03
    384.522  0.6672E+00  0.2793E+03
    384.647  0.6214E+00  0.2794E+03
    384.772  0.7794E+00  0.2796E+03
    384.897  0.4195E+00  0.2797E+03
    385.023  0.5746E+00  0.2799E+03
    385.148  0.7411E+00  0.2800E+03
    385.273  0.5469E+00  0.2801E+03
    385.398  0.7758E+00  0.2803E+03
    385.523  0.7784E+00  0.2804E+03
    385.649  0.5150E+00  0.2805E+03
    385.774  0.6961E+00  0.2806E+03
    385.899  0.6536E+00  0.2808E+03
    386.024  0.5808E+00  0.2809E+03
    386.149  0.7312E+00  0.2811E+03
    386.275  0.7738E+00  0.2812E+03
    386.400  0.5893E+00  0.2813E+03
    386.525  0.9481E+00  0.2815E+03
    386.650  0.6271E+00  0.2816E+03
    386.776  0.5218E+00  0.2817E+03
    386.901  0.6979E+00  0.2819E+03
    387.026  0.5863E+00  0.2820E+03
    387.151  0.6317E+00  0.2822E+03
    387.276  0.7937E+00  0.2823E+03
    387.402  0.6731E+00  0.2825E+03
    387.527  0.7540E+00  0.2826E+03
    387.652  0.6889E+00  0.2827E+03
    387.777  0.6820E+00  0.2829E+03
    387.902  0.4574E+00  0.2830E+03
    388.028  0.4644E+00  0.2831E+03
    388.153  0.7978E+00  0.2832E+03
    388.278  0.5663E+00  0.2834E+03
    388.403  0.5750E+00  0.2835E+03
    388.529  0.6617E+00  0.2836E+03
    388.654  0.5674E+00  0.2838E+03
    388.779  0.6111E+00  0.2839E+03
    388.904  0.8814E+00  0.2840E+03
    389.029  0.6281E+00  0.2842E+03
    389.155  0.5145E+00  0.2843E+03
    389.280  0.8420E+00  0.2844E+03
    389.405  0.5515E+00  0.2845E+03
    389.530  0.6175E+00  0.2847E+03
    389.655  0.6302E+00  0.2848E+03
    389.781  0.7238E+00  0.2849E+03
    389.906  0.6715E+00  0.2850E+03
    390.031  0.5681E+00  0.2851E+03
    390.156  0.8735E+00  0.2853E+03
    390.282  0.7133E+00  0.2855E+03
    390.407  0.6613E+00  0.2856E+03
    390.532  0.4792E+00  0.2857E+03
    390.657  0.5374E+00  0.2858E+03
    390.782  0.7741E+00  0.2859E+03
    390.908  0.6525E+00  0.2861E+03
    391.033  0.9432E+00  0.2863E+03
    391.158  0.5862E+00  0.2864E+03
    391.283  0.6101E+00  0.2865E+03
    391.408  0.6498E+00  0.2866E+03
    391.534  0.4363E+00  0.2867E+03
    391.659  0.6899E+00  0.2869E+03
    391.784  0.6581E+00  0.2870E+03
    391.909  0.6520E+00  0.2871E+03
    392.035  0.8375E+00  0.2873E+03
    392.160  0.6510E+00  0.2874E+03
    392.285  0.4557E+00  0.2875E+03
    392.410  0.6242E+00  0.2876E+03
    392.535  0.8110E+00  0.2878E+03
    392.661  0.4938E+00  0.2879E+03
    392.786  0.7042E+00  0.2880E+03
    392.911  0.8860E+00  0.2882E+03
    393.036  0.7136E+00  0.2883E+03
    393.161  0.6801E+00  0.2885E+03
    393.287  0.5595E+00  0.2886E+03
    393.412  0.1057E+01  0.2887E+03
    393.537  0.5958E+00  0.2889E+03
    393.662  0.7985E+00  0.2890E+03
    393.788  0.6872E+00  0.2891E+03
    393.913  0.6353E+00  0.2893E+03
    394.038  0.6455E+00  0.2894E+03
    394.163  0.6313E+00  0.2896E+03
    394.288  0.8214E+00  0.2897E+03
    394.414  0.7772E+00  0.2898E+03
    394.539  0.6799E+00  0.2900E+03
    394.664  0.6322E+00  0.2901E+03
    394.789  0.8773E+00  0.2902E+03
    394.914  0.6770E+00  0.2904E+03
    395.040  0.8222E+00  0.2905E+03
    395.165  0.7425E+00  0.2906E+03
    395.290  0.4727E+00  0.2907E+03
    395.415  0.4843E+00  0.2909E+03
    395.541  0.5920E+00  0.2910E+03
    395.666  0.7197E+00  0.2911E+03
    395.791  0.6565E+00  0.2913E+03
    395.916  0.8316E+00  0.2915E+03
    396.041  0.6681E+00  0.2916E+03
    396.167  0.7866E+00  0.2917E+03
    396.292  0.7262E+00  0.2918E+03
    396.417  0.9775E+00  0.2920E+03
    396.542  0.8623E+00  0.2922E+03
    396.668  0.6706E+00  0.2923E+03
    396.793  0.9824E+00  0.2925E+03
    396.918  0.7977E+00  0.2926E+03
    397.043  0.6830E+00  0.2927E+03
    397.168  0.6143E+00  0.2929E+03
    397.294  0.7968E+00  0.2930E+03
    397.419  0.6634E+00  0.2931E+03
    397.544  0.7717E+00  0.2933E+03
    397.669  0.6451E+00  0.2934E+03
    397.794  0.7095E+00  0.2935E+03
    397.920  0.4939E+00  0.2936E+03
    398.045  0.5751E+00  0.2938E+03
    398.170  0.8217E+00  0.2939E+03
    398.295  0.3645E+00  0.2940E+03
    398.421  0.5350E+00  0.2941E+03
    398.546  0.9000E+00  0.2943E+03
    398.671  0.4513E+00  0.2944E+03
    398.796  0.8299E+00  0.2945E+03
    398.921  0.7247E+00  0.2947E+03
    399.047  0.6811E+00  0.2948E+03
    399.172  0.4866E+00  0.2949E+03
    399.297  0.6832E+00  0.2950E+03
    399.422  0.6568E+00  0.2952E+03
    399.547  0.5597E+00  0.2953E+03
    399.673  0.5359E+00  0.2954E+03
    399.798  0.7076E+00  0.2955E+03
    399.923  0.4999E+00  0.2956E+03
    400.048  0.6611E+00  0.2957E+03
    400.174  0.7068E+00  0.2959E+03
    400.299  0.8452E+00  0.2961E+03
    400.424  0.7172E+00  0.2962E+03
    400.549  0.8317E+00  0.2964E+03
    400.674  0.4683E+00  0.2965E+03
    400.800  0.6430E+00  0.2966E+03
    400.925  0.8533E+00  0.2967E+03
    401.050  0.5108E+00  0.2968E+03
    401.175  0.8041E+00  0.2970E+03
    401.300  0.9855E+00  0.2972E+03
    401.426  0.7976E+00  0.2973E+03
    401.551  0.5797E+00  0.2974E+03
    401.676  0.4285E+00  0.2975E+03
    401.801  0.6874E+00  0.2976E+03
    401.927  0.5288E+00  0.2978E+03
    402.052  0.6677E+00  0.2979E+03
    402.177  0.8254E+00  0.2980E+03
    402.302  0.7508E+00  0.2982E+03
    402.427  0.9069E+00  0.2984E+03
    402.553  0.8025E+00  0.2985E+03
    402.678  0.3947E+00  0.2986E+03
    402.803  0.6930E+00  0.2988E+03
    402.928  0.8314E+00  0.2989E+03
    403.053  0.9583E+00  0.2991E+03
    403.179  0.1000E+01  0.2993E+03
    403.304  0.6258E+00  0.2994E+03
    403.429  0.8509E+00  0.2996E+03
    403.554  0.4436E+00  0.2997E+03
    403.680  0.7093E+00  0.2998E+03
    403.805  0.6742E+00  0.2999E+03
    403.930  0.8388E+00  0.3001E+03
    404.055  0.7887E+00  0.3002E+03
    404.180  0.9117E+00  0.3004E+03
    404.306  0.1015E+01  0.3005E+03
    404.431  0.7423E+00  0.3007E+03
    404.556  0.6133E+00  0.3008E+03
    404.681  0.5654E+00  0.3009E+03
    404.806  0.7181E+00  0.3011E+03
    404.932  0.6476E+00  0.3012E+03
    405.057  0.7405E+00  0.3013E+03
    405.182  0.4594E+00  0.3014E+03
    405.307  0.5921E+00  0.3016E+03
    405.433  0.6206E+00  0.3017E+03
    405.558  0.5197E+00  0.3018E+03
    405.683  0.7564E+00  0.3020E+03
    405.808  0.5482E+00  0.3021E+03
    405.933  0.5917E+00  0.3022E+03
    406.059  0.8609E+00  0.3024E+03
    406.184  0.6963E+00  0.3025E+03
    406.309  0.6358E+00  0.3027E+03
    406.434  0.5269E+00  0.3028E+03
    406.559  0.9416E+00  0.3030E+03
    406.685  0.7556E+00  0.3031E+03
    406.810  0.6585E+00  0.3032E+03
    406.935  0.6282E+00  0.3034E+03
    407.060  0.3658E+00  0.3035E+03
    407.186  0.6535E+00  0.3036E+03
    407.311  0.5190E+00  0.3037E+03
    407.436  0.6279E+00  0.3038E+03
    407.561  0.4578E+00  0.3039E+03
    407.686  0.6596E+00  0.3041E+03
    407.812  0.5489E+00  0.3042E+03
    407.937  0.6698E+00  0.3043E+03
    408.062  0.5235E+00  0.3045E+03
    408.187  0.5859E+00  0.3046E+03
    408.313  0.5833E+00  0.3047E+03
    408.438  0.8020E+00  0.3048E+03
    408.563  0.4660E+00  0.3049E+03
    408.688  0.6271E+00  0.3051E+03
    408.813  0.7439E+00  0.3052E+03
    408.939  0.1089E+01  0.3054E+03
    409.064  0.5850E+00  0.3055E+03
    409.189  0.4456E+00  0.3056E+03
    409.314  0.8476E+00  0.3058E+03
    409.439  0.5300E+00  0.3059E+03
    409.565  0.8339E+00  0.3061E+03
    409.690  0.7499E+00  0.3062E+03
    409.815  0.6923E+00  0.3063E+03
    409.940  0.5684E+00  0.3065E+03
    410.066  0.7661E+00  0.3066E+03
    410.191  0.4266E+00  0.3067E+03
    410.316  0.7882E+00  0.3068E+03
    410.441  0.6814E+00  0.3070E+03
    410.566  0.8422E+00  0.3071E+03
    410.692  0.7023E+00  0.3073E+03
    410.817  0.9990E+00  0.3074E+03
    410.942  0.9043E+00  0.3076E+03
    411.067  0.5920E+00  0.3077E+03
    411.192  0.8007E+00  0.3079E+03
    411.318  0.6673E+00  0.3080E+03
    411.443  0.8745E+00  0.3082E+03
    411.568  0.8374E+00  0.3083E+03
    411.693  0.7253E+00  0.3085E+03
    411.819  0.4068E+00  0.3086E+03
    411.944  0.9352E+00  0.3088E+03
    412.069  0.6593E+00  0.3089E+03
    412.194  0.6989E+00  0.3091E+03
    412.319  0.8338E+00  0.3092E+03
    412.445  0.5369E+00  0.3093E+03
    412.570  0.7878E+00  0.3095E+03
    412.695  0.8972E+00  0.3096E+03
    412.820  0.6898E+00  0.3098E+03
    412.945  0.7843E+00  0.3099E+03
    413.071  0.5360E+00  0.3100E+03
    413.196  0.5330E+00  0.3102E+03
    413.321  0.5612E+00  0.3103E+03
    413.446  0.7820E+00  0.3105E+03
    413.572  0.6622E+00  0.3106E+03
    413.697  0.7423E+00  0.3107E+03
    413.822  0.8756E+00  0.3109E+03
    413.947  0.4969E+00  0.3110E+03
    414.072  0.5474E+00  0.3111E+03
    414.198  0.5526E+00  0.3112E+03
    414.323  0.7000E+00  0.3114E+03
    414.448  0.7774E+00  0.3115E+03
    414.573  0.8321E+00  0.3117E+03
    414.698  0.6677E+00  0.3118E+03
    414.824  0.4856E+00  0.3119E+03
    414.949  0.8731E+00  0.3121E+03
    415.074  0.5579E+00  0.3122E+03
    415.199  0.7626E+00  0.3123E+03
    415.325  0.4710E+00  0.3124E+03
    415.450  0.7210E+00  0.3126E+03
    415.575  0.5978E+00  0.3127E+03
    415.700  0.7919E+00  0.3128E+03
    415.825  0.6135E+00  0.3129E+03
    415.951  0.9066E+00  0.3131E+03
    416.076  0.6126E+00  0.3133E+03
    416.201  0.8008E+00  0.3134E+03
    416.326  0.4947E+00  0.3135E+03
    416.451  0.5083E+00  0.3136E+03
    416.577  0.4482E+00  0.3137E+03
    416.702  0.7500E+00  0.3138E+03
    416.827  0.7551E+00  0.3140E+03
    416.952  0.7385E+00  0.3141E+03
    417.078  0.6009E+00  0.3143E+03
    417.203  0.5508E+00  0.3144E+03
    417.328  0.6501E+00  0.3145E+03
    417.453  0.6860E+00  0.3146E+03
    417.578  0.9077E+00  0.3148E+03
    417.704  0.5739E+00  0.3149E+03
    417.829  0.7664E+00  0.3150E+03
    417.954  0.7991E+00  0.3152E+03
    418.079  0.9929E+00  0.3154E+03
    418.204  0.5741E+00  0.3155E+03
    418.330  0.8222E+00  0.3156E+03
    418.455  0.4735E+00  0.3157E+03
    418.580  0.8061E+00  0.3159E+03
    418.705  0.7313E+00  0.3160E+03
    418.831  0.6649E+00  0.3162E+03
    418.956  0.7745E+00  0.3163E+03
    419.081  0.7324E+00  0.3165E+03
    419.206  0.8868E+00  0.3167E+03
    419.331  0.8579E+00  0.3168E+03
    419.457  0.5782E+00  0.3170E+03
    419.582  0.6246E+00  0.3171E+03
    419.707  0.6661E+00  0.3172E+03
    419.832  0.7508E+00  0.3174E+03
    419.958  0.7660E+00  0.3175E+03
    420.083  0.6272E+00  0.3177E+03
    420.208  0.7194E+00  0.3178E+03
    420.333  0.1057E+01  0.3180E+03
    420.458  0.7395E+00  0.3181E+03
    420.584  0.6495E+00  0.3182E+03
    420.709  0.8016E+00  0.3184E+03
    420.834  0.8264E+00  0.3186E+03
    420.959  0.5929E+00  0.3187E+03
    421.084  0.7585E+00  0.3189E+03
    421.210  0.7988E+00  0.3190E+03
    421.335  0.6777E+00  0.3191E+03
    421.460  0.5848E+00  0.3193E+03
    421.585  0.7290E+00  0.3194E+03
    421.711  0.6916E+00  0.3196E+03
    421.836  0.4443E+00  0.3197E+03
    421.961  0.4493E+00  0.3197E+03
    422.086  0.7863E+00  0.3199E+03
    422.211  0.8684E+00  0.3201E+03
    422.337  0.6238E+00  0.3202E+03
    422.462  0.9210E+00  0.3203E+03
    422.587  0.5974E+00  0.3205E+03
    422.712  0.5334E+00  0.3206E+03
    422.837  0.7247E+00  0.3207E+03
    422.963  0.7086E+00  0.3209E+03
    423.088  0.7294E+00  0.3210E+03
    423.213  0.6515E+00  0.3211E+03
    423.338  0.6255E+00  0.3212E+03
    423.464  0.7268E+00  0.3214E+03
    423.589  0.7933E+00  0.3215E+03
    423.714  0.6207E+00  0.3217E+03
    423.839  0.7212E+00  0.3218E+03
    423.964  0.6694E+00  0.3219E+03
    424.090  0.8283E+00  0.3221E+03
    424.215  0.6819E+00  0.3222E+03
    424.340  0.8231E+00  0.3224E+03
    424.465  0.5705E+00  0.3225E+03
    424.590  0.5379E+00  0.3226E+03
    424.716  0.5580E+00  0.3227E+03
    424.841  0.8537E+00  0.3229E+03
    424.966  0.6933E+00  0.3230E+03
    425.091  0.4856E+00  0.3231E+03
    425.217  0.6963E+00  0.3233E+03
    425.342  0.6606E+00  0.3234E+03
    425.467  0.6907E+00  0.3236E+03
    425.592  0.6841E+00  0.3237E+03
    425.717  0.5924E+00  0.3238E+03
    425.843  0.8565E+00  0.3239E+03
    425.968  0.4969E+00  0.3241E+03
    426.093  0.5223E+00  0.3241E+03
    426.218  0.5898E+00  0.3243E+03
    426.343  0.1036E+01  0.3244E+03
    426.469  0.6830E+00  0.3246E+03
    426.594  0.9132E+00  0.3248E+03
    426.719  0.5371E+00  0.3249E+03
    426.844  0.6953E+00  0.3250E+03
    426.970  0.9809E+00  0.3252E+03
    427.095  0.6030E+00  0.3253E+03
    427.220  0.8634E+00  0.3254E+03
    427.345  0.9667E+00  0.3256E+03
    427.470  0.8503E+00  0.3258E+03
    427.596  0.8069E+00  0.3259E+03
    427.721  0.7458E+00  0.3261E+03
    427.846  0.6133E+00  0.3262E+03
    427.971  0.5568E+00  0.3263E+03
    428.096  0.7636E+00  0.3265E+03
    428.222  0.6470E+00  0.3266E+03
    428.347  0.6962E+00  0.3268E+03
    428.472  0.7080E+00  0.3269E+03
    428.597  0.7696E+00  0.3270E+03
    428.723  0.8465E+00  0.3272E+03
    428.848  0.8306E+00  0.3274E+03
    428.973  0.7987E+00  0.3275E+03
    429.098  0.7601E+00  0.3277E+03
    429.223  0.7439E+00  0.3278E+03
    429.349  0.5704E+00  0.3280E+03
    429.474  0.8618E+00  0.3281E+03
    429.599  0.6532E+00  0.3282E+03
    429.724  0.1108E+01  0.3284E+03
    429.849  0.7420E+00  0.3286E+03
    429.975  0.4583E+00  0.3287E+03
    430.100  0.8063E+00  0.3288E+03
    430.225  0.8573E+00  0.3289E+03
    430.350  0.4949E+00  0.3290E+03
    430.476  0.6773E+00  0.3292E+03
    430.601  0.7587E+00  0.3293E+03
    430.726  0.5152E+00  0.3294E+03
    430.851  0.6584E+00  0.3295E+03
    430.976  0.8422E+00  0.3297E+03
    431.102  0.5684E+00  0.3298E+03
    431.227  0.4252E+00  0.3299E+03
    431.352  0.7004E+00  0.3300E+03
    431.477  0.5868E+00  0.3301E+03
    431.603  0.4796E+00  0.3302E+03
    431.728  0.6455E+00  0.3304E+03
    431.853  0.6303E+00  0.3305E+03
    431.978  0.4907E+00  0.3306E+03
    432.103  0.7447E+00  0.3308E+03
    432.229  0.5706E+00  0.3309E+03
    432.354  0.4391E+00  0.3310E+03
    432.479  0.4982E+00  0.3311E+03
    432.604  0.5389E+00  0.3312E+03
    432.729  0.4806E+00  0.3313E+03
    432.855  0.5233E+00  0.3314E+03
    432.980  0.6413E+00  0.3315E+03
    433.105  0.5337E+00  0.3317E+03
    433.230  0.8702E+00  0.3318E+03
    433.356  0.4283E+00  0.3319E+03
    433.481  0.6895E+00  0.3320E+03
    433.606  0.5790E+00  0.3321E+03
    433.731  0.4815E+00  0.3322E+03
    433.856  0.7127E+00  0.3324E+03
    433.982  0.5063E+00  0.3325E+03
    434.107  0.4691E+00  0.3326E+03
    434.232  0.3780E+00  0.3326E+03
    434.357  0.5506E+00  0.3328E+03
    434.482  0.5346E+00  0.3329E+03
    434.608  0.6187E+00  0.3330E+03
    434.733  0.3488E+00  0.3331E+03
    434.858  0.4902E+00  0.3332E+03
    434.983  0.3347E+00  0.3332E+03
    435.109  0.4285E+00  0.3333E+03
    435.234  0.5833E+00  0.3334E+03
    435.359  0.5071E+00  0.3335E+03
    435.484  0.5630E+00  0.3336E+03
    435.609  0.4016E+00  0.3337E+03
    435.735  0.2895E+00  0.3337E+03
    435.860  0.4110E+00  0.3338E+03
    435.985  0.4934E+00  0.3339E+03
    436.110  0.3987E+00  0.3340E+03
    436.235  0.4130E+00  0.3341E+03
    436.361  0.2562E+00  0.3342E+03
    436.486  0.4475E+00  0.3342E+03
    436.611  0.2730E+00  0.3343E+03
    436.736  0.1519E+00  0.3343E+03
    436.862  0.4875E+00  0.3345E+03
    436.987  0.1535E+00  0.3345E+03
    437.112  0.1919E+00  0.3345E+03
    437.237  0.3145E+00  0.3346E+03
    437.362  0.2713E+00  0.3347E+03
    437.488  0.3327E+00  0.3347E+03
    437.613  0.3186E+00  0.3348E+03
    437.738  0.3426E+00  0.3349E+03
    437.863  0.2218E+00  0.3349E+03
    437.988  0.1909E+00  0.3349E+03
    438.114  0.2247E+00  0.3350E+03
    438.239  0.2659E+00  0.3350E+03
    438.364  0.2570E+00  0.3351E+03
    438.489  0.1953E+00  0.3351E+03
    438.615  0.2510E+00  0.3352E+03
    438.740  0.1169E+00  0.3352E+03
    438.865  0.2085E+00  0.3353E+03
    438.990  0.1577E+00  0.3353E+03
    439.115  0.2634E+00  0.3353E+03
    439.241  0.1535E+00  0.3354E+03
    439.366  0.7314E-01  0.3354E+03
    439.491  0.9214E-01  0.3354E+03
    439.616  0.1395E+00  0.3354E+03
    439.741  0.1389E+00  0.3355E+03
    439.867  0.1722E+00  0.3355E+03
    439.992  0.1867E+00  0.3355E+03
    440.117  0.1087E+00  0.3356E+03
    440.242  0.4319E-01  0.3356E+03
    440.368  0.1794E+00  0.3356E+03
    440.493  0.6304E-02  0.3356E+03
    440.618  0.1220E+00  0.3356E+03
    440.743  0.1727E+00  0.3356E+03
    440.868  0.5843E-01  0.3357E+03
    440.994  0.3895E-01  0.3357E+03
    441.119  0.1875E+00  0.3357E+03
    441.244  0.2436E-01  0.3357E+03
    441.369  0.3524E-04  0.3357E+03
    441.494  0.1370E+00  0.3357E+03
    441.620  0.2011E-01  0.3358E+03
    441.745  0.5942E-01  0.3358E+03
    441.870  0.1557E+00  0.3358E+03
    441.995  0.1559E-02  0.3358E+03
    442.121  0.9742E-01  0.3358E+03
    442.246  0.1658E-01  0.3358E+03
    442.371  0.1947E-01  0.3358E+03
    442.496  0.7790E-01  0.3358E+03
    442.621  0.2113E-01  0.3358E+03
    442.747  0.1359E+00  0.3358E+03
    442.872  0.1171E-03  0.3358E+03
    442.997  0.1077E+00  0.3359E+03
    443.122  0.2455E-05  0.3359E+03
    443.248  0.9776E-01  0.3359E+03
    443.373  0.0000E+00  0.3359E+03
    443.498  0.3895E-01  0.3359E+03
    443.623  0.2987E-01  0.3359E+03
    443.748  0.0000E+00  0.3359E+03
    443.874  0.5829E-01  0.3359E+03
    443.999  0.0000E+00  0.3359E+03
    444.124  0.5842E-01  0.3359E+03
    444.249  0.1948E-01  0.3359E+03
    444.374  0.3895E-01  0.3359E+03
    444.500  0.9614E-06  0.3359E+03
    444.625  0.1944E-01  0.3359E+03
    444.750  0.0000E+00  0.3359E+03
    444.875  0.3904E-01  0.3359E+03
    445.001  0.1948E-01  0.3359E+03
    445.126  0.3895E-01  0.3359E+03
    445.251  0.0000E+00  0.3359E+03
    445.376  0.0000E+00  0.3359E+03
    445.501  0.1959E-01  0.3359E+03
    445.627  0.3895E-01  0.3360E+03
    445.752  0.3895E-01  0.3360E+03
    445.877  0.0000E+00  0.3360E+03
    446.002  0.0000E+00  0.3360E+03
    446.127  0.3895E-01  0.3360E+03
    446.253  0.3784E-16  0.3360E+03
    446.378  0.1948E-01  0.3360E+03
    446.503  0.0000E+00  0.3360E+03
    446.628  0.4687E-04  0.3360E+03
    446.754  0.3885E-01  0.3360E+03
    446.879  0.0000E+00  0.3360E+03
    447.004  0.0000E+00  0.3360E+03
    447.129  0.1663E-01  0.3360E+03
    447.254  0.0000E+00  0.3360E+03
    447.380  0.0000E+00  0.3360E+03
    447.505  0.1081E-16  0.3360E+03
    447.630  0.1948E-01  0.3360E+03
    447.755  0.0000E+00  0.3360E+03
    447.880  0.0000E+00  0.3360E+03
    448.006  0.0000E+00  0.3360E+03
    448.131  0.2862E-08  0.3360E+03
    448.256  0.0000E+00  0.3360E+03
    448.381  0.1948E-01  0.3360E+03
    448.507  0.0000E+00  0.3360E+03
    448.632  0.0000E+00  0.3360E+03
    448.757  0.0000E+00  0.3360E+03
    448.882  0.1947E-01  0.3360E+03
    449.007  0.0000E+00  0.3360E+03
    449.133  0.0000E+00  0.3360E+03
    449.258  0.0000E+00  0.3360E+03
    449.383  0.0000E+00  0.3360E+03
    449.508  0.0000E+00  0.3360E+03
    449.633  0.0000E+00  0.3360E+03
    449.759  0.0000E+00  0.3360E+03
    449.884  0.0000E+00  0.3360E+03
    450.009  0.0000E+00  0.3360E+03
    450.134  0.0000E+00  0.3360E+03
    450.260  0.0000E+00  0.3360E+03
    450.385  0.0000E+00  0.3360E+03
    450.510  0.0000E+00  0.3360E+03
    450.635  0.0000E+00  0.3360E+03
    450.760  0.0000E+00  0.3360E+03
    450.886  0.1853E-06  0.3360E+03
    451.011  0.0000E+00  0.3360E+03
    451.136  0.0000E+00  0.3360E+03
    451.261  0.0000E+00  0.3360E+03
    451.386  0.0000E+00  0.3360E+03
    451.512  0.0000E+00  0.3360E+03
    451.637  0.0000E+00  0.3360E+03
    451.762  0.0000E+00  0.3360E+03
    451.887  0.0000E+00  0.3360E+03
    452.013  0.0000E+00  0.3360E+03
    452.138  0.0000E+00  0.3360E+03
    452.263  0.0000E+00  0.3360E+03
    452.388  0.0000E+00  0.3360E+03
    452.513  0.0000E+00  0.3360E+03
    452.639  0.0000E+00  0.3360E+03
    452.764  0.0000E+00  0.3360E+03
    452.889  0.0000E+00  0.3360E+03
    453.014  0.0000E+00  0.3360E+03
    453.139  0.0000E+00  0.3360E+03
    453.265  0.0000E+00  0.3360E+03
    453.390  0.0000E+00  0.3360E+03
    453.515  0.0000E+00  0.3360E+03
    453.640  0.0000E+00  0.3360E+03
    453.766  0.0000E+00  0.3360E+03
    453.891  0.0000E+00  0.3360E+03
    454.016  0.0000E+00  0.3360E+03
    454.141  0.0000E+00  0.3360E+03
    454.266  0.0000E+00  0.3360E+03
    454.392  0.0000E+00  0.3360E+03
    454.517  0.0000E+00  0.3360E+03
    454.642  0.0000E+00  0.3360E+03
    454.767  0.0000E+00  0.3360E+03
    454.893  0.0000E+00  0.3360E+03
    455.018  0.0000E+00  0.3360E+03
    455.143  0.0000E+00  0.3360E+03
    455.268  0.0000E+00  0.3360E+03
    455.393  0.0000E+00  0.3360E+03
    455.519  0.0000E+00  0.3360E+03
    455.644  0.0000E+00  0.3360E+03
    455.769  0.0000E+00  0.3360E+03
    455.894  0.0000E+00  0.3360E+03
    456.019  0.0000E+00  0.3360E+03
    456.145  0.0000E+00  0.3360E+03
    456.270  0.0000E+00  0.3360E+03
    456.395  0.0000E+00  0.3360E+03
    456.520  0.0000E+00  0.3360E+03
    456.646  0.0000E+00  0.3360E+03
    456.771  0.0000E+00  0.3360E+03
    456.896  0.0000E+00  0.3360E+03
    457.021  0.0000E+00  0.3360E+03
    457.146  0.0000E+00  0.3360E+03
    457.272  0.0000E+00  0.3360E+03
    457.397  0.0000E+00  0.3360E+03
    457.522  0.0000E+00  0.3360E+03
    457.647  0.0000E+00  0.3360E+03
    457.772  0.0000E+00  0.3360E+03
    457.898  0.0000E+00  0.3360E+03
    458.023  0.0000E+00  0.3360E+03
    458.148  0.0000E+00  0.3360E+03
    458.273  0.0000E+00  0.3360E+03
    458.399  0.0000E+00  0.3360E+03
    458.524  0.0000E+00  0.3360E+03
    458.649  0.0000E+00  0.3360E+03
    458.774  0.0000E+00  0.3360E+03
    458.899  0.0000E+00  0.3360E+03
    459.025  0.0000E+00  0.3360E+03
    459.150  0.0000E+00  0.3360E+03
    459.275  0.0000E+00  0.3360E+03
    459.400  0.0000E+00  0.3360E+03
    459.525  0.0000E+00  0.3360E+03
    459.651  0.0000E+00  0.3360E+03
    459.776  0.0000E+00  0.3360E+03
    459.901  0.0000E+00  0.3360E+03
    460.026  0.0000E+00  0.3360E+03
    460.152  0.0000E+00  0.3360E+03
    460.277  0.0000E+00  0.3360E+03
    460.402  0.0000E+00  0.3360E+03
    460.527  0.0000E+00  0.3360E+03
    460.652  0.0000E+00  0.3360E+03
    460.778  0.0000E+00  0.3360E+03
    460.903  0.0000E+00  0.3360E+03
    461.028  0.0000E+00  0.3360E+03
    461.153  0.0000E+00  0.3360E+03
    461.278  0.0000E+00  0.3360E+03
    461.404  0.0000E+00  0.3360E+03
    461.529  0.0000E+00  0.3360E+03
    461.654  0.0000E+00  0.3360E+03
    461.779  0.0000E+00  0.3360E+03
    461.905  0.0000E+00  0.3360E+03
    462.030  0.0000E+00  0.3360E+03
    462.155  0.0000E+00  0.3360E+03
    462.280  0.0000E+00  0.3360E+03
    462.405  0.0000E+00  0.3360E+03
    462.531  0.0000E+00  0.3360E+03
    462.656  0.0000E+00  0.3360E+03
    462.781  0.0000E+00  0.3360E+03
    462.906  0.0000E+00  0.3360E+03
    463.031  0.0000E+00  0.3360E+03
    463.157  0.0000E+00  0.3360E+03
    463.282  0.0000E+00  0.3360E+03
    463.407  0.0000E+00  0.3360E+03
    463.532  0.0000E+00  0.3360E+03
    463.658  0.0000E+00  0.3360E+03
    463.783  0.0000E+00  0.3360E+03
    463.908  0.0000E+00  0.3360E+03
    464.033  0.0000E+00  0.3360E+03
    464.158  0.0000E+00  0.3360E+03
    464.284  0.0000E+00  0.3360E+03
    464.409  0.0000E+00  0.3360E+03
    464.534  0.0000E+00  0.3360E+03
    464.659  0.0000E+00  0.3360E+03
    464.784  0.0000E+00  0.3360E+03
    464.910  0.0000E+00  0.3360E+03
    465.035  0.0000E+00  0.3360E+03
    465.160  0.0000E+00  0.3360E+03
    465.285  0.0000E+00  0.3360E+03
    465.411  0.0000E+00  0.3360E+03
    465.536  0.0000E+00  0.3360E+03
    465.661  0.0000E+00  0.3360E+03
    465.786  0.0000E+00  0.3360E+03
    465.911  0.0000E+00  0.3360E+03
    466.037  0.0000E+00  0.3360E+03
    466.162  0.0000E+00  0.3360E+03
    466.287  0.0000E+00  0.3360E+03
    466.412  0.0000E+00  0.3360E+03
    466.538  0.0000E+00  0.3360E+03
    466.663  0.0000E+00  0.3360E+03
    466.788  0.0000E+00  0.3360E+03
    466.913  0.0000E+00  0.3360E+03
    467.038  0.0000E+00  0.3360E+03
    467.164  0.0000E+00  0.3360E+03
    467.289  0.0000E+00  0.3360E+03
    467.414  0.0000E+00  0.3360E+03
    467.539  0.0000E+00  0.3360E+03
    467.664  0.0000E+00  0.3360E+03
    467.790  0.0000E+00  0.3360E+03
    467.915  0.0000E+00  0.3360E+03
    468.040  0.0000E+00  0.3360E+03
    468.165  0.0000E+00  0.3360E+03
    468.291  0.0000E+00  0.3360E+03
    468.416  0.0000E+00  0.3360E+03
    468.541  0.0000E+00  0.3360E+03
    468.666  0.0000E+00  0.3360E+03
    468.791  0.0000E+00  0.3360E+03
    468.917  0.0000E+00  0.3360E+03
    469.042  0.0000E+00  0.3360E+03
    469.167  0.0000E+00  0.3360E+03
    469.292  0.0000E+00  0.3360E+03
    469.417  0.0000E+00  0.3360E+03
    469.543  0.0000E+00  0.3360E+03
    469.668  0.0000E+00  0.3360E+03
    469.793  0.0000E+00  0.3360E+03
    469.918  0.0000E+00  0.3360E+03
    470.044  0.0000E+00  0.3360E+03
    470.169  0.0000E+00  0.3360E+03
    470.294  0.0000E+00  0.3360E+03
    470.419  0.0000E+00  0.3360E+03
    470.544  0.0000E+00  0.3360E+03
    470.670  0.0000E+00  0.3360E+03
    470.795  0.0000E+00  0.3360E+03
    470.920  0.0000E+00  0.3360E+03
    471.045  0.0000E+00  0.3360E+03
    471.170  0.0000E+00  0.3360E+03
    471.296  0.0000E+00  0.3360E+03
    471.421  0.0000E+00  0.3360E+03
    471.546  0.0000E+00  0.3360E+03
    471.671  0.0000E+00  0.3360E+03
    471.797  0.0000E+00  0.3360E+03
    471.922  0.0000E+00  0.3360E+03
    472.047  0.0000E+00  0.3360E+03
    472.172  0.0000E+00  0.3360E+03
    472.297  0.0000E+00  0.3360E+03
    472.423  0.0000E+00  0.3360E+03
    472.548  0.0000E+00  0.3360E+03
    472.673  0.0000E+00  0.3360E+03
    472.798  0.0000E+00  0.3360E+03
    472.923  0.0000E+00  0.3360E+03
    473.049  0.0000E+00  0.3360E+03
    473.174  0.0000E+00  0.3360E+03
    473.299  0.0000E+00  0.3360E+03
    473.424  0.0000E+00  0.3360E+03
    473.550  0.0000E+00  0.3360E+03
    473.675  0.0000E+00  0.3360E+03
