 running   42 mpi-ranks, on    1 nodes
 distrk:  each k-point on   42 cores,    1 groups
 distr:  one band on    1 cores,   42 groups
 vasp.6.5.0 16Dec24 (build Jan 08 2025 16:17:04) complex                        
  
 POSCAR found type information on POSCAR Be
 POSCAR found :  1 types and       1 ions
 Reading from existing POTCAR
 scaLAPACK will be used
 -----------------------------------------------------------------------------
|                                                                             |
|           W    W    AA    RRRRR   N    N  II  N    N   GGGG   !!!           |
|           W    W   A  A   R    R  NN   N  II  NN   N  G    G  !!!           |
|           W    W  A    A  R    R  N N  N  II  N N  N  G       !!!           |
|           W WW W  AAAAAA  RRRRR   N  N N  II  N  N N  G  GGG   !            |
|           WW  WW  A    A  R   R   N   NN  II  N   NN  G    G                |
|           W    W  A    A  R    R  N    N  II  N    N   GGGG   !!!           |
|                                                                             |
|     For optimal performance we recommend to set                             |
|       NCORE = 2 up to number-of-cores-per-socket                            |
|     NCORE specifies how many cores store one orbital (NPAR=cpu/NCORE).      |
|     This setting can greatly improve the performance of VASP for DFT.       |
|     The default, NCORE=1 might be grossly inefficient on modern             |
|     multi-core architectures or massively parallel machines. Do your        |
|     own testing! More info at https://www.vasp.at/wiki/index.php/NCORE      |
|     Unfortunately you need to use the default for GW and RPA                |
|     calculations (for HF NCORE is supported but not extensively tested      |
|     yet).                                                                   |
|                                                                             |
 -----------------------------------------------------------------------------

 Reading from existing POTCAR
 LDA part: xc-table for (Slater+PW92), standard interpolation
 POSCAR, INCAR and KPOINTS ok, starting setup
 FFT: planning ... GRIDC
 FFT: planning ... GRID_SOFT
 FFT: planning ... GRID
 WAVECAR not read
 entering main loop
       N       E                     dE             d eps       ncg     rms          rms(c)
DAV:   1     0.172488033244E+00    0.17249E+00   -0.76255E+02  6552   0.340E+01
DAV:   2    -0.189605423413E+01   -0.20685E+01   -0.18378E+01  9366   0.330E+00
DAV:   3    -0.190057461906E+01   -0.45204E-02   -0.45202E-02  7266   0.177E-01
DAV:   4    -0.190058117978E+01   -0.65607E-05   -0.65604E-05 12222   0.665E-03
DAV:   5    -0.190058117971E+01    0.75463E-10   -0.11609E-09  7056   0.250E-05    0.110E+00
DAV:   6    -0.187070489840E+01    0.29876E-01   -0.13193E-02  9702   0.477E-02    0.686E-01
DAV:   7    -0.185086787274E+01    0.19837E-01   -0.39207E-02  9828   0.880E-02    0.733E-02
DAV:   8    -0.185088938542E+01   -0.21513E-04   -0.39151E-04  9702   0.140E-02    0.267E-02
DAV:   9    -0.185060469296E+01    0.28469E-03   -0.21451E-04 10458   0.713E-03    0.149E-02
DAV:  10    -0.185066765057E+01   -0.62958E-04   -0.26727E-04  9492   0.716E-03    0.701E-03
DAV:  11    -0.185082532010E+01   -0.15767E-03   -0.16290E-05  8232   0.345E-03    0.570E-03
DAV:  12    -0.185094632639E+01   -0.12101E-03   -0.23174E-05  9198   0.242E-03    0.171E-03
DAV:  13    -0.185101509377E+01   -0.68767E-04   -0.67206E-06  8862   0.107E-03    0.744E-04
DAV:  14    -0.185103108720E+01   -0.15993E-04   -0.11966E-06  8022   0.331E-04    0.451E-04
DAV:  15    -0.185104560729E+01   -0.14520E-04   -0.11779E-06  8694   0.295E-04    0.180E-04
DAV:  16    -0.185104927083E+01   -0.36635E-05   -0.15740E-07  8694   0.127E-04    0.129E-04
DAV:  17    -0.185105057191E+01   -0.13011E-05   -0.13888E-07  8736   0.872E-05    0.601E-05
DAV:  18    -0.185105125710E+01   -0.68519E-06   -0.22369E-08  8358   0.353E-05
   1 F= -.18510513E+01 E0= -.18507238E+01  d E =-.654977E-03
