   75   75    1    1
  0.5815868E+02  0.1161076E-08  0.1053976E-08  0.4000000E-08  0.5000000E-15
  1.000000000000000E-004
  CAR 
 Phonopy                                 
    125     25    102
 
  0.1276756E-14  0.1276756E-14  0.1276756E-14  0.2040816E-01
      1        -14.294843   1.000000
      2        -13.203822   1.000000
      3        -13.202127   1.000000
      4        -13.068454   1.000000
      5        -13.067781   1.000000
      6        -13.067608   1.000000
      7        -13.066468   1.000000
      8        -11.360413   1.000000
      9        -10.941629   1.000000
     10        -10.939780   1.000000
     11        -10.939599   1.000000
     12        -10.937195   1.000000
     13        -10.643387   1.000000
     14        -10.642418   1.000000
     15        -10.279468   1.000000
     16        -10.278642   1.000000
     17         -9.989265   1.000000
     18         -9.988215   1.000000
     19         -9.988062   1.000000
     20         -9.987710   1.000000
     21         -9.986335   1.000000
     22         -9.983785   1.000000
     23         -9.841635   1.000000
     24         -9.840843   1.000000
     25         -9.840377   1.000000
     26         -9.838994   1.000000
     27         -7.982167   1.000000
     28         -7.981016   1.000000
     29         -7.980859   1.000000
     30         -7.979756   1.000000
     31         -7.927933   1.000000
     32         -7.927273   1.000000
     33         -7.927054   1.000000
     34         -7.925878   1.000000
     35         -7.517430   1.000000
     36         -7.516896   1.000000
     37         -7.418790   1.000000
     38         -7.417764   1.000000
     39         -7.170135   1.000000
     40         -7.169456   1.000000
     41         -6.632389   1.000000
     42         -6.362754   1.000000
     43         -6.362455   1.000000
     44         -6.361890   1.000000
     45         -6.361254   1.000000
     46         -6.225247   1.000000
     47         -6.225081   1.000000
     48         -5.529643   1.000000
     49         -5.529588   1.000000
     50         -5.191255   1.000000
     51         -5.191165   1.000000
     52         -5.191074   1.000000
     53         -5.190812   1.000000
     54         -5.006669   1.000000
     55         -5.004971   1.000000
     56         -4.990739   1.000000
     57         -4.990231   1.000000
     58         -4.418245   1.000000
     59         -4.418055   1.000000
     60         -4.416897   1.000000
     61         -4.416439   1.000000
     62         -3.285210   0.000000
     63         -3.284683   0.000000
     64         -3.284490   0.000000
     65         -3.284405   0.000000
     66         -2.138948   0.000000
     67         -2.138364   0.000000
     68         -1.530968   0.000000
     69         -1.530120   0.000000
     70         -1.529634   0.000000
     71         -1.528530   0.000000
     72         -1.346792   0.000000
     73         -1.344233   0.000000
     74         -1.343881   0.000000
     75         -1.343503   0.000000
     76         -0.681777   0.000000
     77         -0.646698   0.000000
     78         -0.646466   0.000000
     79         -0.614045   0.000000
     80         -0.613625   0.000000
     81         -0.613268   0.000000
     82         -0.611906   0.000000
     83         -0.318384   0.000000
     84         -0.318205   0.000000
     85          0.338036   0.000000
     86          0.338338   0.000000
     87          0.684234   0.000000
     88          0.711357   0.000000
     89          0.711503   0.000000
     90          0.711586   0.000000
     91          0.712019   0.000000
     92          0.724005   0.000000
     93          0.724451   0.000000
     94          0.724812   0.000000
     95          0.726178   0.000000
     96          0.829695   0.000000
     97          0.831030   0.000000
     98          0.831087   0.000000
     99          0.832498   0.000000
    100          0.858415   0.000000
    101          1.165101   0.000000
    102          1.268540   0.000000
 
  0.1428571E+00  0.1290634E-14  0.1276756E-14  0.4081633E-01
      1        -14.272516   1.000000
      2        -13.492132   1.000000
      3        -13.198798   1.000000
      4        -13.198277   1.000000
      5        -12.893311   1.000000
      6        -12.892772   1.000000
      7        -12.869868   1.000000
      8        -11.371656   1.000000
      9        -11.371054   1.000000
     10        -11.337940   1.000000
     11        -10.626543   1.000000
     12        -10.625574   1.000000
     13        -10.565166   1.000000
     14        -10.561688   1.000000
     15        -10.467433   1.000000
     16        -10.466755   1.000000
     17        -10.120397   1.000000
     18        -10.119876   1.000000
     19        -10.048516   1.000000
     20        -10.047534   1.000000
     21         -9.957459   1.000000
     22         -9.813032   1.000000
     23         -9.812481   1.000000
     24         -9.607320   1.000000
     25         -9.606349   1.000000
     26         -9.374737   1.000000
     27         -8.329046   1.000000
     28         -8.328398   1.000000
     29         -8.231735   1.000000
     30         -8.231032   1.000000
     31         -7.927941   1.000000
     32         -7.772404   1.000000
     33         -7.771908   1.000000
     34         -7.703599   1.000000
     35         -7.702671   1.000000
     36         -7.502331   1.000000
     37         -7.501646   1.000000
     38         -7.180527   1.000000
     39         -7.152861   1.000000
     40         -7.152174   1.000000
     41         -6.608932   1.000000
     42         -6.568906   1.000000
     43         -6.567987   1.000000
     44         -6.131877   1.000000
     45         -6.130786   1.000000
     46         -6.054506   1.000000
     47         -6.054292   1.000000
     48         -5.810628   1.000000
     49         -5.581435   1.000000
     50         -5.329014   1.000000
     51         -5.328812   1.000000
     52         -5.221315   1.000000
     53         -5.009152   1.000000
     54         -5.008880   1.000000
     55         -4.949836   1.000000
     56         -4.949243   1.000000
     57         -4.727947   1.000000
     58         -4.726487   1.000000
     59         -4.543024   1.000000
     60         -4.108920   1.000000
     61         -4.107573   1.000000
     62         -3.576703   0.202763
     63         -3.576330   0.201280
     64         -3.110422   0.000000
     65         -3.110178   0.000000
     66         -2.123222   0.000000
     67         -2.122617   0.000000
     68         -1.655280   0.000000
     69         -1.654172   0.000000
     70         -1.537044   0.000000
     71         -1.535947   0.000000
     72         -1.422643   0.000000
     73         -1.421410   0.000000
     74         -1.275938   0.000000
     75         -1.274386   0.000000
     76         -0.820561   0.000000
     77         -0.790387   0.000000
     78         -0.789658   0.000000
     79         -0.657805   0.000000
     80         -0.421192   0.000000
     81         -0.335025   0.000000
     82         -0.333527   0.000000
     83         -0.222763   0.000000
     84         -0.222523   0.000000
     85          0.115757   0.000000
     86          0.232265   0.000000
     87          0.232635   0.000000
     88          0.489376   0.000000
     89          0.562635   0.000000
     90          0.563959   0.000000
     91          0.578302   0.000000
     92          0.578527   0.000000
     93          0.711411   0.000000
     94          0.868971   0.000000
     95          0.885424   0.000000
     96          0.885561   0.000000
     97          0.885870   0.000000
     98          0.943121   0.000000
     99          0.944278   0.000000
    100          1.193193   0.000000
    101          1.456503   0.000000
    102          1.457003   0.000000
 
  0.2857143E+00  0.1304512E-14  0.1276756E-14  0.4081633E-01
      1        -14.205531   1.000000
      2        -13.737120   1.000000
      3        -13.286119   1.000000
      4        -13.285601   1.000000
      5        -12.675271   1.000000
      6        -12.674722   1.000000
      7        -12.493210   1.000000
      8        -11.761670   1.000000
      9        -11.761075   1.000000
     10        -11.270652   1.000000
     11        -11.108018   1.000000
     12        -10.803444   1.000000
     13        -10.576034   1.000000
     14        -10.575061   1.000000
     15        -10.227397   1.000000
     16        -10.226417   1.000000
     17        -10.208709   1.000000
     18        -10.208199   1.000000
     19         -9.956317   1.000000
     20         -9.955626   1.000000
     21         -9.599806   1.000000
     22         -9.595284   1.000000
     23         -9.594717   1.000000
     24         -9.351188   1.000000
     25         -9.350241   1.000000
     26         -8.745717   1.000000
     27         -8.700464   1.000000
     28         -8.699821   1.000000
     29         -8.507268   1.000000
     30         -8.506473   1.000000
     31         -8.362187   1.000000
     32         -8.248893   1.000000
     33         -8.248080   1.000000
     34         -7.621641   1.000000
     35         -7.621254   1.000000
     36         -7.101242   1.000000
     37         -7.100536   1.000000
     38         -7.065017   1.000000
     39         -7.064352   1.000000
     40         -7.054272   1.000000
     41         -6.748032   1.000000
     42         -6.747183   1.000000
     43         -6.538733   1.000000
     44         -6.078461   1.000000
     45         -6.055977   1.000000
     46         -5.999006   1.000000
     47         -5.998526   1.000000
     48         -5.879989   1.000000
     49         -5.878810   1.000000
     50         -5.421445   1.000000
     51         -5.421270   1.000000
     52         -5.031661   1.000000
     53         -5.030236   1.000000
     54         -4.901091   1.000000
     55         -4.784811   1.000000
     56         -4.784502   1.000000
     57         -4.659837   1.000000
     58         -4.659132   1.000000
     59         -4.323183   1.000000
     60         -3.902958   0.999922
     61         -3.902574   0.999921
     62         -3.822901   0.995975
     63         -3.821797   0.995785
     64         -3.184901   0.000000
     65         -3.184504   0.000000
     66         -2.076718   0.000000
     67         -2.076053   0.000000
     68         -1.817396   0.000000
     69         -1.816640   0.000000
     70         -1.783126   0.000000
     71         -1.782151   0.000000
     72         -1.343227   0.000000
     73         -1.342016   0.000000
     74         -1.262715   0.000000
     75         -1.261337   0.000000
     76         -0.852002   0.000000
     77         -0.850937   0.000000
     78         -0.738034   0.000000
     79         -0.586286   0.000000
     80         -0.438741   0.000000
     81         -0.108756   0.000000
     82         -0.101221   0.000000
     83         -0.100896   0.000000
     84         -0.052364   0.000000
     85         -0.050320   0.000000
     86         -0.022219   0.000000
     87         -0.021952   0.000000
     88          0.431068   0.000000
     89          0.443788   0.000000
     90          0.445477   0.000000
     91          0.488429   0.000000
     92          0.488617   0.000000
     93          0.792622   0.000000
     94          0.966460   0.000000
     95          0.973379   0.000000
     96          1.095910   0.000000
     97          1.096254   0.000000
     98          1.218626   0.000000
     99          1.219873   0.000000
    100          1.277939   0.000000
    101          1.341768   0.000000
    102          1.416317   0.000000
 
  0.4285714E+00  0.1332268E-14  0.1276756E-14  0.4081633E-01
      1        -14.093930   1.000000
      2        -13.937761   1.000000
      3        -13.329784   1.000000
      4        -13.329269   1.000000
      5        -12.413850   1.000000
      6        -12.413291   1.000000
      7        -12.109232   1.000000
      8        -12.108674   1.000000
      9        -12.073409   1.000000
     10        -11.611365   1.000000
     11        -11.158779   1.000000
     12        -11.002806   1.000000
     13        -10.492246   1.000000
     14        -10.491271   1.000000
     15        -10.375727   1.000000
     16        -10.374745   1.000000
     17        -10.252951   1.000000
     18        -10.252443   1.000000
     19         -9.409956   1.000000
     20         -9.409260   1.000000
     21         -9.336170   1.000000
     22         -9.335588   1.000000
     23         -9.210139   1.000000
     24         -9.077550   1.000000
     25         -9.076648   1.000000
     26         -9.037183   1.000000
     27         -9.036558   1.000000
     28         -8.835273   1.000000
     29         -8.834523   1.000000
     30         -8.794530   1.000000
     31         -8.793139   1.000000
     32         -8.792293   1.000000
     33         -8.155548   1.000000
     34         -7.542480   1.000000
     35         -7.542153   1.000000
     36         -7.336029   1.000000
     37         -7.015832   1.000000
     38         -7.015089   1.000000
     39         -6.897627   1.000000
     40         -6.896837   1.000000
     41         -6.634742   1.000000
     42         -6.634072   1.000000
     43         -6.422356   1.000000
     44         -6.260853   1.000000
     45         -6.249638   1.000000
     46         -6.249030   1.000000
     47         -6.247702   1.000000
     48         -5.610427   1.000000
     49         -5.609155   1.000000
     50         -5.467814   1.000000
     51         -5.467654   1.000000
     52         -5.326634   1.000000
     53         -5.325276   1.000000
     54         -4.598715   1.000000
     55         -4.521338   1.000000
     56         -4.520995   1.000000
     57         -4.372790   1.000000
     58         -4.224140   1.000000
     59         -4.223771   1.000000
     60         -4.118777   1.000000
     61         -4.118060   1.000000
     62         -3.625812   0.445405
     63         -3.625195   0.441956
     64         -3.563024   0.152626
     65         -3.562409   0.150582
     66         -2.033873   0.000000
     67         -2.033486   0.000000
     68         -2.001544   0.000000
     69         -2.000792   0.000000
     70         -1.901620   0.000000
     71         -1.900756   0.000000
     72         -1.294679   0.000000
     73         -1.293466   0.000000
     74         -1.270268   0.000000
     75         -1.269090   0.000000
     76         -0.865589   0.000000
     77         -0.864382   0.000000
     78         -0.566479   0.000000
     79         -0.468578   0.000000
     80         -0.382410   0.000000
     81         -0.307513   0.000000
     82         -0.106260   0.000000
     83         -0.105758   0.000000
     84          0.025664   0.000000
     85          0.026085   0.000000
     86          0.086328   0.000000
     87          0.174341   0.000000
     88          0.176616   0.000000
     89          0.330663   0.000000
     90          0.332784   0.000000
     91          0.443200   0.000000
     92          0.443367   0.000000
     93          0.926787   0.000000
     94          1.101566   0.000000
     95          1.111512   0.000000
     96          1.290913   0.000000
     97          1.332835   0.000000
     98          1.333192   0.000000
     99          1.419208   0.000000
    100          1.480957   0.000000
    101          1.542941   0.000000
    102          1.544756   0.000000
 
  0.1332268E-14  0.1428571E+00  0.1276756E-14  0.4081633E-01
      1        -14.269437   1.000000
      2        -13.389312   1.000000
      3        -13.333483   1.000000
      4        -13.235260   1.000000
      5        -13.022439   1.000000
      6        -12.851778   1.000000
      7        -12.700806   1.000000
      8        -11.396328   1.000000
      9        -11.332041   1.000000
     10        -11.105776   1.000000
     11        -10.939888   1.000000
     12        -10.895550   1.000000
     13        -10.449548   1.000000
     14        -10.402740   1.000000
     15        -10.348234   1.000000
     16        -10.343993   1.000000
     17        -10.260720   1.000000
     18        -10.193496   1.000000
     19        -10.155255   1.000000
     20        -10.100390   1.000000
     21        -10.095277   1.000000
     22         -9.729446   1.000000
     23         -9.664813   1.000000
     24         -9.577063   1.000000
     25         -9.564640   1.000000
     26         -9.382802   1.000000
     27         -8.411481   1.000000
     28         -8.188753   1.000000
     29         -8.129716   1.000000
     30         -8.047399   1.000000
     31         -7.995565   1.000000
     32         -7.814873   1.000000
     33         -7.807387   1.000000
     34         -7.700834   1.000000
     35         -7.694374   1.000000
     36         -7.644476   1.000000
     37         -7.403171   1.000000
     38         -7.361966   1.000000
     39         -7.311473   1.000000
     40         -6.925958   1.000000
     41         -6.676702   1.000000
     42         -6.611083   1.000000
     43         -6.602719   1.000000
     44         -6.482047   1.000000
     45         -6.032969   1.000000
     46         -5.859551   1.000000
     47         -5.805118   1.000000
     48         -5.650313   1.000000
     49         -5.570627   1.000000
     50         -5.409715   1.000000
     51         -5.354254   1.000000
     52         -5.316875   1.000000
     53         -5.264908   1.000000
     54         -4.915640   1.000000
     55         -4.756772   1.000000
     56         -4.726384   1.000000
     57         -4.720536   1.000000
     58         -4.603727   1.000000
     59         -4.568272   1.000000
     60         -4.365405   1.000000
     61         -4.338043   1.000000
     62         -3.729166   0.907310
     63         -3.487231   0.017992
     64         -3.075439   0.000000
     65         -2.822522   0.000000
     66         -2.721889   0.000000
     67         -1.988276   0.000000
     68         -1.779083   0.000000
     69         -1.529186   0.000000
     70         -1.520865   0.000000
     71         -1.376607   0.000000
     72         -1.356043   0.000000
     73         -1.350679   0.000000
     74         -1.347322   0.000000
     75         -1.260579   0.000000
     76         -1.037138   0.000000
     77         -0.748213   0.000000
     78         -0.740369   0.000000
     79         -0.652249   0.000000
     80         -0.505327   0.000000
     81         -0.323264   0.000000
     82         -0.318713   0.000000
     83         -0.139660   0.000000
     84         -0.080973   0.000000
     85          0.253925   0.000000
     86          0.308665   0.000000
     87          0.354878   0.000000
     88          0.454308   0.000000
     89          0.512471   0.000000
     90          0.532186   0.000000
     91          0.629446   0.000000
     92          0.688905   0.000000
     93          0.717786   0.000000
     94          0.891858   0.000000
     95          0.902454   0.000000
     96          0.950263   0.000000
     97          0.957348   0.000000
     98          1.033633   0.000000
     99          1.104601   0.000000
    100          1.199356   0.000000
    101          1.214203   0.000000
    102          1.409417   0.000000
 
  0.1428571E+00  0.1428571E+00  0.1276756E-14  0.4081633E-01
      1        -14.224795   1.000000
      2        -13.600513   1.000000
      3        -13.499259   1.000000
      4        -13.037469   1.000000
      5        -12.959810   1.000000
      6        -12.667595   1.000000
      7        -12.506594   1.000000
      8        -11.810607   1.000000
      9        -11.301788   1.000000
     10        -11.287130   1.000000
     11        -11.068951   1.000000
     12        -10.822314   1.000000
     13        -10.665124   1.000000
     14        -10.559240   1.000000
     15        -10.459066   1.000000
     16        -10.443210   1.000000
     17        -10.125931   1.000000
     18         -9.995822   1.000000
     19         -9.964373   1.000000
     20         -9.838873   1.000000
     21         -9.816337   1.000000
     22         -9.760372   1.000000
     23         -9.727184   1.000000
     24         -9.381966   1.000000
     25         -9.184596   1.000000
     26         -9.042579   1.000000
     27         -8.800053   1.000000
     28         -8.478077   1.000000
     29         -8.360917   1.000000
     30         -8.199624   1.000000
     31         -8.147448   1.000000
     32         -8.121247   1.000000
     33         -7.942032   1.000000
     34         -7.777802   1.000000
     35         -7.662882   1.000000
     36         -7.561921   1.000000
     37         -7.540284   1.000000
     38         -7.142994   1.000000
     39         -7.052673   1.000000
     40         -6.972074   1.000000
     41         -6.581754   1.000000
     42         -6.555853   1.000000
     43         -6.399309   1.000000
     44         -6.261518   1.000000
     45         -6.189594   1.000000
     46         -5.914305   1.000000
     47         -5.832960   1.000000
     48         -5.686349   1.000000
     49         -5.670241   1.000000
     50         -5.662104   1.000000
     51         -5.205461   1.000000
     52         -5.174422   1.000000
     53         -5.078015   1.000000
     54         -5.037269   1.000000
     55         -5.030122   1.000000
     56         -4.803592   1.000000
     57         -4.554566   1.000000
     58         -4.473111   1.000000
     59         -4.372262   1.000000
     60         -4.129799   1.000000
     61         -4.042163   1.000000
     62         -4.027692   1.000000
     63         -3.425552   0.001492
     64         -3.394002   0.000318
     65         -2.749870   0.000000
     66         -2.684051   0.000000
     67         -2.183385   0.000000
     68         -1.919724   0.000000
     69         -1.571359   0.000000
     70         -1.511090   0.000000
     71         -1.427159   0.000000
     72         -1.368091   0.000000
     73         -1.362871   0.000000
     74         -1.343723   0.000000
     75         -1.171861   0.000000
     76         -1.168435   0.000000
     77         -0.799602   0.000000
     78         -0.604427   0.000000
     79         -0.382399   0.000000
     80         -0.355289   0.000000
     81         -0.201473   0.000000
     82         -0.158520   0.000000
     83         -0.143723   0.000000
     84         -0.142327   0.000000
     85         -0.008117   0.000000
     86          0.024970   0.000000
     87          0.163517   0.000000
     88          0.240508   0.000000
     89          0.446816   0.000000
     90          0.521757   0.000000
     91          0.708223   0.000000
     92          0.709099   0.000000
     93          0.772022   0.000000
     94          0.775454   0.000000
     95          0.850282   0.000000
     96          0.871876   0.000000
     97          0.945916   0.000000
     98          1.255857   0.000000
     99          1.289719   0.000000
    100          1.336341   0.000000
    101          1.449737   0.000000
    102          1.489837   0.000000
 
  0.2857143E+00  0.1428571E+00  0.1276756E-14  0.4081633E-01
      1        -14.135527   1.000000
      2        -13.823285   1.000000
      3        -13.565237   1.000000
      4        -13.024660   1.000000
      5        -12.795877   1.000000
      6        -12.269721   1.000000
      7        -12.269110   1.000000
      8        -12.182299   1.000000
      9        -11.666472   1.000000
     10        -11.345612   1.000000
     11        -11.197534   1.000000
     12        -10.995471   1.000000
     13        -10.885790   1.000000
     14        -10.740205   1.000000
     15        -10.525699   1.000000
     16        -10.067580   1.000000
     17         -9.908528   1.000000
     18         -9.904507   1.000000
     19         -9.866594   1.000000
     20         -9.755994   1.000000
     21         -9.509597   1.000000
     22         -9.443716   1.000000
     23         -9.386091   1.000000
     24         -9.156031   1.000000
     25         -9.145210   1.000000
     26         -8.976029   1.000000
     27         -8.832892   1.000000
     28         -8.744779   1.000000
     29         -8.557007   1.000000
     30         -8.555370   1.000000
     31         -8.551737   1.000000
     32         -8.418552   1.000000
     33         -8.326307   1.000000
     34         -7.877344   1.000000
     35         -7.587383   1.000000
     36         -7.360198   1.000000
     37         -7.326608   1.000000
     38         -7.129887   1.000000
     39         -7.124691   1.000000
     40         -6.536296   1.000000
     41         -6.523594   1.000000
     42         -6.462477   1.000000
     43         -6.375789   1.000000
     44         -6.325259   1.000000
     45         -6.178737   1.000000
     46         -6.139884   1.000000
     47         -6.096253   1.000000
     48         -5.787049   1.000000
     49         -5.756105   1.000000
     50         -5.468642   1.000000
     51         -5.430928   1.000000
     52         -5.099133   1.000000
     53         -5.033584   1.000000
     54         -4.960312   1.000000
     55         -4.720654   1.000000
     56         -4.714961   1.000000
     57         -4.368033   1.000000
     58         -4.311549   1.000000
     59         -4.293457   1.000000
     60         -4.047614   1.000000
     61         -3.978137   0.999999
     62         -3.739368   0.929035
     63         -3.721280   0.887405
     64         -3.654388   0.605207
     65         -2.984673   0.000000
     66         -2.609141   0.000000
     67         -2.355709   0.000000
     68         -2.283261   0.000000
     69         -1.478414   0.000000
     70         -1.477603   0.000000
     71         -1.393689   0.000000
     72         -1.384404   0.000000
     73         -1.375269   0.000000
     74         -1.356569   0.000000
     75         -1.239482   0.000000
     76         -1.167399   0.000000
     77         -0.567766   0.000000
     78         -0.509616   0.000000
     79         -0.500037   0.000000
     80         -0.282060   0.000000
     81         -0.260145   0.000000
     82         -0.188887   0.000000
     83         -0.036457   0.000000
     84         -0.021350   0.000000
     85         -0.006663   0.000000
     86          0.055059   0.000000
     87          0.093374   0.000000
     88          0.171225   0.000000
     89          0.314072   0.000000
     90          0.341084   0.000000
     91          0.485746   0.000000
     92          0.785426   0.000000
     93          0.879866   0.000000
     94          0.936592   0.000000
     95          0.994569   0.000000
     96          1.054049   0.000000
     97          1.179940   0.000000
     98          1.248011   0.000000
     99          1.307345   0.000000
    100          1.367899   0.000000
    101          1.368860   0.000000
    102          1.414576   0.000000
 
  0.4285714E+00  0.1428571E+00  0.1276756E-14  0.4081633E-01
      1        -14.002075   1.000000
      2        -14.001259   1.000000
      3        -13.587217   1.000000
      4        -13.046292   1.000000
      5        -12.511610   1.000000
      6        -12.509969   1.000000
      7        -11.990034   1.000000
      8        -11.988443   1.000000
      9        -11.829592   1.000000
     10        -11.827276   1.000000
     11        -11.063738   1.000000
     12        -11.063373   1.000000
     13        -10.886080   1.000000
     14        -10.885449   1.000000
     15        -10.547928   1.000000
     16         -9.980992   1.000000
     17         -9.980461   1.000000
     18         -9.926666   1.000000
     19         -9.475914   1.000000
     20         -9.475081   1.000000
     21         -9.340712   1.000000
     22         -9.338084   1.000000
     23         -9.180641   1.000000
     24         -9.178874   1.000000
     25         -8.982995   1.000000
     26         -8.981972   1.000000
     27         -8.894552   1.000000
     28         -8.891985   1.000000
     29         -8.868245   1.000000
     30         -8.867404   1.000000
     31         -8.764091   1.000000
     32         -8.762837   1.000000
     33         -7.993536   1.000000
     34         -7.855510   1.000000
     35         -7.475259   1.000000
     36         -7.474828   1.000000
     37         -7.432646   1.000000
     38         -7.296222   1.000000
     39         -6.711119   1.000000
     40         -6.710617   1.000000
     41         -6.437754   1.000000
     42         -6.437219   1.000000
     43         -6.323381   1.000000
     44         -6.323348   1.000000
     45         -6.229589   1.000000
     46         -6.122390   1.000000
     47         -6.121840   1.000000
     48         -5.779397   1.000000
     49         -5.772595   1.000000
     50         -5.771457   1.000000
     51         -5.256617   1.000000
     52         -5.255118   1.000000
     53         -5.122203   1.000000
     54         -4.678833   1.000000
     55         -4.678566   1.000000
     56         -4.446364   1.000000
     57         -4.446027   1.000000
     58         -4.138343   1.000000
     59         -4.136654   1.000000
     60         -4.031642   1.000000
     61         -4.031274   1.000000
     62         -3.921243   0.999973
     63         -3.606453   0.340516
     64         -3.480492   0.014175
     65         -3.478810   0.013339
     66         -2.499075   0.000000
     67         -2.498662   0.000000
     68         -2.446249   0.000000
     69         -1.500264   0.000000
     70         -1.435953   0.000000
     71         -1.435300   0.000000
     72         -1.371352   0.000000
     73         -1.370107   0.000000
     74         -1.261786   0.000000
     75         -1.243220   0.000000
     76         -1.242368   0.000000
     77         -0.578001   0.000000
     78         -0.369903   0.000000
     79         -0.369653   0.000000
     80         -0.285240   0.000000
     81         -0.158053   0.000000
     82         -0.157629   0.000000
     83         -0.126208   0.000000
     84         -0.125058   0.000000
     85          0.045717   0.000000
     86          0.046275   0.000000
     87          0.148044   0.000000
     88          0.214948   0.000000
     89          0.217634   0.000000
     90          0.260738   0.000000
     91          0.262754   0.000000
     92          0.763686   0.000000
     93          1.039663   0.000000
     94          1.039691   0.000000
     95          1.175304   0.000000
     96          1.175699   0.000000
     97          1.216354   0.000000
     98          1.216383   0.000000
     99          1.289974   0.000000
    100          1.291320   0.000000
    101          1.449261   0.000000
    102          1.507438   0.000000
 
 -0.4285714E+00  0.1428571E+00  0.1276756E-14  0.4081633E-01
      1        -14.135511   1.000000
      2        -13.823314   1.000000
      3        -13.565198   1.000000
      4        -13.024711   1.000000
      5        -12.796108   1.000000
      6        -12.269505   1.000000
      7        -12.268977   1.000000
      8        -12.181981   1.000000
      9        -11.666871   1.000000
     10        -11.345678   1.000000
     11        -11.197517   1.000000
     12        -10.995687   1.000000
     13        -10.885822   1.000000
     14        -10.739829   1.000000
     15        -10.525659   1.000000
     16        -10.067322   1.000000
     17         -9.908796   1.000000
     18         -9.904725   1.000000
     19         -9.867050   1.000000
     20         -9.756243   1.000000
     21         -9.510302   1.000000
     22         -9.443128   1.000000
     23         -9.386034   1.000000
     24         -9.155752   1.000000
     25         -9.144843   1.000000
     26         -8.975306   1.000000
     27         -8.832137   1.000000
     28         -8.744290   1.000000
     29         -8.557073   1.000000
     30         -8.556061   1.000000
     31         -8.552186   1.000000
     32         -8.418471   1.000000
     33         -8.326915   1.000000
     34         -7.877173   1.000000
     35         -7.587659   1.000000
     36         -7.360456   1.000000
     37         -7.326103   1.000000
     38         -7.129879   1.000000
     39         -7.125142   1.000000
     40         -6.535724   1.000000
     41         -6.523216   1.000000
     42         -6.462460   1.000000
     43         -6.375510   1.000000
     44         -6.325946   1.000000
     45         -6.178764   1.000000
     46         -6.139913   1.000000
     47         -6.097277   1.000000
     48         -5.787444   1.000000
     49         -5.756063   1.000000
     50         -5.467244   1.000000
     51         -5.429735   1.000000
     52         -5.099189   1.000000
     53         -5.035130   1.000000
     54         -4.960540   1.000000
     55         -4.720608   1.000000
     56         -4.715466   1.000000
     57         -4.367765   1.000000
     58         -4.311234   1.000000
     59         -4.293460   1.000000
     60         -4.046982   1.000000
     61         -3.977552   0.999999
     62         -3.740138   0.930501
     63         -3.721653   0.888409
     64         -3.654025   0.603225
     65         -2.985187   0.000000
     66         -2.609422   0.000000
     67         -2.355212   0.000000
     68         -2.282719   0.000000
     69         -1.478680   0.000000
     70         -1.477135   0.000000
     71         -1.394331   0.000000
     72         -1.385005   0.000000
     73         -1.375241   0.000000
     74         -1.355978   0.000000
     75         -1.239174   0.000000
     76         -1.167658   0.000000
     77         -0.567720   0.000000
     78         -0.509599   0.000000
     79         -0.500055   0.000000
     80         -0.282234   0.000000
     81         -0.260442   0.000000
     82         -0.188916   0.000000
     83         -0.036388   0.000000
     84         -0.020918   0.000000
     85         -0.004986   0.000000
     86          0.055015   0.000000
     87          0.091183   0.000000
     88          0.171273   0.000000
     89          0.314013   0.000000
     90          0.343194   0.000000
     91          0.484478   0.000000
     92          0.785353   0.000000
     93          0.879886   0.000000
     94          0.936356   0.000000
     95          0.993480   0.000000
     96          1.054068   0.000000
     97          1.179814   0.000000
     98          1.247978   0.000000
     99          1.307404   0.000000
    100          1.368005   0.000000
    101          1.368903   0.000000
    102          1.414368   0.000000
 
 -0.2857143E+00  0.1428571E+00  0.1276756E-14  0.4081633E-01
      1        -14.224785   1.000000
      2        -13.600547   1.000000
      3        -13.499182   1.000000
      4        -13.037656   1.000000
      5        -12.959920   1.000000
      6        -12.667543   1.000000
      7        -12.506337   1.000000
      8        -11.810271   1.000000
      9        -11.302215   1.000000
     10        -11.287132   1.000000
     11        -11.069081   1.000000
     12        -10.822389   1.000000
     13        -10.665160   1.000000
     14        -10.558793   1.000000
     15        -10.458995   1.000000
     16        -10.443624   1.000000
     17        -10.125775   1.000000
     18         -9.996034   1.000000
     19         -9.963802   1.000000
     20         -9.838970   1.000000
     21         -9.816996   1.000000
     22         -9.760313   1.000000
     23         -9.727721   1.000000
     24         -9.381686   1.000000
     25         -9.183897   1.000000
     26         -9.042500   1.000000
     27         -8.799701   1.000000
     28         -8.477337   1.000000
     29         -8.361581   1.000000
     30         -8.200106   1.000000
     31         -8.146984   1.000000
     32         -8.121307   1.000000
     33         -7.941696   1.000000
     34         -7.778338   1.000000
     35         -7.663057   1.000000
     36         -7.562330   1.000000
     37         -7.540747   1.000000
     38         -7.142389   1.000000
     39         -7.052646   1.000000
     40         -6.971499   1.000000
     41         -6.581525   1.000000
     42         -6.555843   1.000000
     43         -6.400235   1.000000
     44         -6.261508   1.000000
     45         -6.190438   1.000000
     46         -5.914339   1.000000
     47         -5.833038   1.000000
     48         -5.686272   1.000000
     49         -5.668964   1.000000
     50         -5.662162   1.000000
     51         -5.205657   1.000000
     52         -5.174711   1.000000
     53         -5.076766   1.000000
     54         -5.037225   1.000000
     55         -5.030235   1.000000
     56         -4.805142   1.000000
     57         -4.554296   1.000000
     58         -4.472765   1.000000
     59         -4.372227   1.000000
     60         -4.128763   1.000000
     61         -4.041896   1.000000
     62         -4.028801   1.000000
     63         -3.425444   0.001485
     64         -3.394366   0.000324
     65         -2.750034   0.000000
     66         -2.684222   0.000000
     67         -2.182790   0.000000
     68         -1.918987   0.000000
     69         -1.572056   0.000000
     70         -1.510845   0.000000
     71         -1.427583   0.000000
     72         -1.367752   0.000000
     73         -1.363611   0.000000
     74         -1.342964   0.000000
     75         -1.171614   0.000000
     76         -1.169120   0.000000
     77         -0.799598   0.000000
     78         -0.604416   0.000000
     79         -0.382406   0.000000
     80         -0.353860   0.000000
     81         -0.201675   0.000000
     82         -0.158653   0.000000
     83         -0.143513   0.000000
     84         -0.142234   0.000000
     85         -0.009955   0.000000
     86          0.024934   0.000000
     87          0.163612   0.000000
     88          0.240602   0.000000
     89          0.448559   0.000000
     90          0.521748   0.000000
     91          0.707177   0.000000
     92          0.708816   0.000000
     93          0.772042   0.000000
     94          0.774427   0.000000
     95          0.850135   0.000000
     96          0.871905   0.000000
     97          0.945927   0.000000
     98          1.255868   0.000000
     99          1.290068   0.000000
    100          1.336112   0.000000
    101          1.450134   0.000000
    102          1.490035   0.000000
 
 -0.1428571E+00  0.1428571E+00  0.1276756E-14  0.4081633E-01
      1        -14.269434   1.000000
      2        -13.389196   1.000000
      3        -13.333522   1.000000
      4        -13.235418   1.000000
      5        -13.022389   1.000000
      6        -12.851937   1.000000
      7        -12.700598   1.000000
      8        -11.395965   1.000000
      9        -11.332034   1.000000
     10        -11.105818   1.000000
     11        -10.940259   1.000000
     12        -10.896063   1.000000
     13        -10.449047   1.000000
     14        -10.402775   1.000000
     15        -10.348103   1.000000
     16        -10.343457   1.000000
     17        -10.260802   1.000000
     18        -10.193663   1.000000
     19        -10.155187   1.000000
     20        -10.100349   1.000000
     21        -10.095874   1.000000
     22         -9.729610   1.000000
     23         -9.664727   1.000000
     24         -9.576846   1.000000
     25         -9.565233   1.000000
     26         -9.382150   1.000000
     27         -8.411107   1.000000
     28         -8.189337   1.000000
     29         -8.129018   1.000000
     30         -8.046922   1.000000
     31         -7.995962   1.000000
     32         -7.815329   1.000000
     33         -7.808059   1.000000
     34         -7.700858   1.000000
     35         -7.694467   1.000000
     36         -7.644202   1.000000
     37         -7.402622   1.000000
     38         -7.362233   1.000000
     39         -7.311420   1.000000
     40         -6.925243   1.000000
     41         -6.677523   1.000000
     42         -6.611005   1.000000
     43         -6.602715   1.000000
     44         -6.482223   1.000000
     45         -6.033961   1.000000
     46         -5.858412   1.000000
     47         -5.804994   1.000000
     48         -5.650352   1.000000
     49         -5.570505   1.000000
     50         -5.409874   1.000000
     51         -5.354212   1.000000
     52         -5.316913   1.000000
     53         -5.264996   1.000000
     54         -4.915806   1.000000
     55         -4.756549   1.000000
     56         -4.726313   1.000000
     57         -4.719267   1.000000
     58         -4.603679   1.000000
     59         -4.569757   1.000000
     60         -4.366641   1.000000
     61         -4.336717   1.000000
     62         -3.728943   0.906784
     63         -3.487341   0.018060
     64         -3.075750   0.000000
     65         -2.822370   0.000000
     66         -2.721945   0.000000
     67         -1.987601   0.000000
     68         -1.779802   0.000000
     69         -1.529100   0.000000
     70         -1.519846   0.000000
     71         -1.377271   0.000000
     72         -1.355416   0.000000
     73         -1.351199   0.000000
     74         -1.346777   0.000000
     75         -1.261820   0.000000
     76         -1.037229   0.000000
     77         -0.747274   0.000000
     78         -0.740395   0.000000
     79         -0.652245   0.000000
     80         -0.505288   0.000000
     81         -0.323162   0.000000
     82         -0.318784   0.000000
     83         -0.139278   0.000000
     84         -0.082161   0.000000
     85          0.253893   0.000000
     86          0.309024   0.000000
     87          0.355017   0.000000
     88          0.454329   0.000000
     89          0.512287   0.000000
     90          0.533531   0.000000
     91          0.628367   0.000000
     92          0.688624   0.000000
     93          0.717791   0.000000
     94          0.891862   0.000000
     95          0.902017   0.000000
     96          0.949143   0.000000
     97          0.957120   0.000000
     98          1.033590   0.000000
     99          1.104887   0.000000
    100          1.199359   0.000000
    101          1.215418   0.000000
    102          1.409911   0.000000
 
  0.1387779E-14  0.2857143E+00  0.1276756E-14  0.4081633E-01
      1        -14.193291   1.000000
      2        -13.663858   1.000000
      3        -13.413805   1.000000
      4        -13.354279   1.000000
      5        -12.792291   1.000000
      6        -12.589155   1.000000
      7        -12.291481   1.000000
      8        -11.813114   1.000000
      9        -11.536248   1.000000
     10        -11.247005   1.000000
     11        -10.895991   1.000000
     12        -10.858597   1.000000
     13        -10.810089   1.000000
     14        -10.655340   1.000000
     15        -10.489400   1.000000
     16        -10.471193   1.000000
     17        -10.345123   1.000000
     18        -10.324034   1.000000
     19         -9.935255   1.000000
     20         -9.867259   1.000000
     21         -9.654317   1.000000
     22         -9.419097   1.000000
     23         -9.300632   1.000000
     24         -9.276186   1.000000
     25         -9.117823   1.000000
     26         -9.020139   1.000000
     27         -8.850527   1.000000
     28         -8.459763   1.000000
     29         -8.430071   1.000000
     30         -8.304462   1.000000
     31         -8.196006   1.000000
     32         -8.027293   1.000000
     33         -8.020405   1.000000
     34         -7.836655   1.000000
     35         -7.666642   1.000000
     36         -7.660608   1.000000
     37         -7.505494   1.000000
     38         -7.392851   1.000000
     39         -7.088964   1.000000
     40         -6.970004   1.000000
     41         -6.847362   1.000000
     42         -6.593696   1.000000
     43         -6.513759   1.000000
     44         -6.037224   1.000000
     45         -5.893523   1.000000
     46         -5.715401   1.000000
     47         -5.700391   1.000000
     48         -5.571535   1.000000
     49         -5.562350   1.000000
     50         -5.484738   1.000000
     51         -5.478723   1.000000
     52         -5.337721   1.000000
     53         -5.168385   1.000000
     54         -5.125562   1.000000
     55         -4.793350   1.000000
     56         -4.584151   1.000000
     57         -4.533302   1.000000
     58         -4.443174   1.000000
     59         -4.432102   1.000000
     60         -4.270107   1.000000
     61         -4.143405   1.000000
     62         -4.142408   1.000000
     63         -3.695462   0.801702
     64         -3.263403   0.000000
     65         -2.850632   0.000000
     66         -2.565958   0.000000
     67         -2.363144   0.000000
     68         -2.192219   0.000000
     69         -2.058699   0.000000
     70         -1.408673   0.000000
     71         -1.369252   0.000000
     72         -1.326311   0.000000
     73         -1.267865   0.000000
     74         -1.135131   0.000000
     75         -0.938808   0.000000
     76         -0.935959   0.000000
     77         -0.752974   0.000000
     78         -0.563876   0.000000
     79         -0.502359   0.000000
     80         -0.371854   0.000000
     81         -0.368509   0.000000
     82         -0.306748   0.000000
     83         -0.126242   0.000000
     84          0.044634   0.000000
     85          0.209956   0.000000
     86          0.288550   0.000000
     87          0.362106   0.000000
     88          0.397345   0.000000
     89          0.474186   0.000000
     90          0.510316   0.000000
     91          0.589436   0.000000
     92          0.645656   0.000000
     93          0.818315   0.000000
     94          0.902518   0.000000
     95          0.928419   0.000000
     96          0.992291   0.000000
     97          1.245114   0.000000
     98          1.270326   0.000000
     99          1.302605   0.000000
    100          1.412241   0.000000
    101          1.459600   0.000000
    102          1.513087   0.000000
 
  0.1428571E+00  0.2857143E+00  0.1276756E-14  0.4081633E-01
      1        -14.126400   1.000000
      2        -13.752305   1.000000
      3        -13.658511   1.000000
      4        -13.133420   1.000000
      5        -12.674355   1.000000
      6        -12.415994   1.000000
      7        -12.208246   1.000000
      8        -12.078974   1.000000
      9        -11.477760   1.000000
     10        -11.189122   1.000000
     11        -11.179732   1.000000
     12        -11.070593   1.000000
     13        -11.031831   1.000000
     14        -10.744446   1.000000
     15        -10.712802   1.000000
     16        -10.376686   1.000000
     17        -10.125506   1.000000
     18        -10.004743   1.000000
     19         -9.619732   1.000000
     20         -9.509691   1.000000
     21         -9.505717   1.000000
     22         -9.443571   1.000000
     23         -9.388512   1.000000
     24         -9.224157   1.000000
     25         -8.904265   1.000000
     26         -8.885454   1.000000
     27         -8.873774   1.000000
     28         -8.673527   1.000000
     29         -8.621104   1.000000
     30         -8.521729   1.000000
     31         -8.271542   1.000000
     32         -8.269482   1.000000
     33         -8.135863   1.000000
     34         -8.025652   1.000000
     35         -7.849664   1.000000
     36         -7.720069   1.000000
     37         -7.582972   1.000000
     38         -7.356943   1.000000
     39         -6.965121   1.000000
     40         -6.654189   1.000000
     41         -6.516246   1.000000
     42         -6.443590   1.000000
     43         -6.415229   1.000000
     44         -6.005372   1.000000
     45         -5.986605   1.000000
     46         -5.978016   1.000000
     47         -5.960827   1.000000
     48         -5.798037   1.000000
     49         -5.559862   1.000000
     50         -5.356009   1.000000
     51         -5.346104   1.000000
     52         -5.346058   1.000000
     53         -5.245935   1.000000
     54         -4.940440   1.000000
     55         -4.804576   1.000000
     56         -4.674956   1.000000
     57         -4.464727   1.000000
     58         -4.444022   1.000000
     59         -4.222318   1.000000
     60         -4.152475   1.000000
     61         -4.049523   1.000000
     62         -3.879491   0.999720
     63         -3.772405   0.973557
     64         -3.201484   0.000000
     65         -3.177624   0.000000
     66         -2.778951   0.000000
     67         -2.558925   0.000000
     68         -2.431769   0.000000
     69         -1.784954   0.000000
     70         -1.433043   0.000000
     71         -1.375746   0.000000
     72         -1.221048   0.000000
     73         -1.169682   0.000000
     74         -1.132706   0.000000
     75         -0.994443   0.000000
     76         -0.960858   0.000000
     77         -0.664406   0.000000
     78         -0.492505   0.000000
     79         -0.407880   0.000000
     80         -0.397723   0.000000
     81         -0.178578   0.000000
     82         -0.146146   0.000000
     83         -0.140330   0.000000
     84         -0.048615   0.000000
     85         -0.015205   0.000000
     86          0.088636   0.000000
     87          0.179342   0.000000
     88          0.263900   0.000000
     89          0.455444   0.000000
     90          0.533250   0.000000
     91          0.576610   0.000000
     92          0.747177   0.000000
     93          0.899373   0.000000
     94          0.961282   0.000000
     95          1.039142   0.000000
     96          1.073540   0.000000
     97          1.127952   0.000000
     98          1.166064   0.000000
     99          1.213325   0.000000
    100          1.376563   0.000000
    101          1.414223   0.000000
    102          1.435339   0.000000
 
  0.2857143E+00  0.2857143E+00  0.1276756E-14  0.4081633E-01
      1        -14.014943   1.000000
      2        -13.858920   1.000000
      3        -13.796525   1.000000
      4        -12.868616   1.000000
      5        -12.716974   1.000000
      6        -12.560277   1.000000
      7        -11.996636   1.000000
      8        -11.824283   1.000000
      9        -11.534810   1.000000
     10        -11.527238   1.000000
     11        -11.380408   1.000000
     12        -11.244763   1.000000
     13        -11.067968   1.000000
     14        -10.912050   1.000000
     15        -10.789071   1.000000
     16         -9.864258   1.000000
     17         -9.820024   1.000000
     18         -9.653625   1.000000
     19         -9.563203   1.000000
     20         -9.562932   1.000000
     21         -9.549179   1.000000
     22         -9.484925   1.000000
     23         -9.275123   1.000000
     24         -9.231286   1.000000
     25         -9.119942   1.000000
     26         -8.922392   1.000000
     27         -8.753967   1.000000
     28         -8.704043   1.000000
     29         -8.650083   1.000000
     30         -8.630617   1.000000
     31         -8.382142   1.000000
     32         -8.356257   1.000000
     33         -8.252476   1.000000
     34         -8.090723   1.000000
     35         -8.036005   1.000000
     36         -7.897370   1.000000
     37         -7.243019   1.000000
     38         -7.177421   1.000000
     39         -7.153501   1.000000
     40         -6.769192   1.000000
     41         -6.327248   1.000000
     42         -6.310333   1.000000
     43         -6.165718   1.000000
     44         -6.143880   1.000000
     45         -6.033291   1.000000
     46         -5.988524   1.000000
     47         -5.953602   1.000000
     48         -5.944024   1.000000
     49         -5.883202   1.000000
     50         -5.603996   1.000000
     51         -5.225597   1.000000
     52         -5.085557   1.000000
     53         -5.081725   1.000000
     54         -4.784582   1.000000
     55         -4.720527   1.000000
     56         -4.687746   1.000000
     57         -4.500914   1.000000
     58         -4.396649   1.000000
     59         -4.273168   1.000000
     60         -4.138743   1.000000
     61         -3.995739   1.000000
     62         -3.790101   0.985597
     63         -3.496298   0.024483
     64         -3.373076   0.000103
     65         -3.099064   0.000000
     66         -2.957780   0.000000
     67         -2.820941   0.000000
     68         -2.764313   0.000000
     69         -1.522826   0.000000
     70         -1.429936   0.000000
     71         -1.409186   0.000000
     72         -1.310692   0.000000
     73         -1.258895   0.000000
     74         -1.076539   0.000000
     75         -1.005538   0.000000
     76         -0.879138   0.000000
     77         -0.529157   0.000000
     78         -0.378936   0.000000
     79         -0.374990   0.000000
     80         -0.299030   0.000000
     81         -0.214033   0.000000
     82         -0.188192   0.000000
     83         -0.095578   0.000000
     84          0.024651   0.000000
     85          0.030075   0.000000
     86          0.136230   0.000000
     87          0.166791   0.000000
     88          0.181372   0.000000
     89          0.223502   0.000000
     90          0.335750   0.000000
     91          0.613799   0.000000
     92          0.811936   0.000000
     93          0.881701   0.000000
     94          1.030827   0.000000
     95          1.033305   0.000000
     96          1.086557   0.000000
     97          1.126131   0.000000
     98          1.209042   0.000000
     99          1.217829   0.000000
    100          1.325743   0.000000
    101          1.358043   0.000000
    102          1.399589   0.000000
 
  0.4285714E+00  0.2857143E+00  0.1276756E-14  0.4081633E-01
      1        -14.014905   1.000000
      2        -13.858971   1.000000
      3        -13.796509   1.000000
      4        -12.868819   1.000000
      5        -12.717010   1.000000
      6        -12.560039   1.000000
      7        -11.996513   1.000000
      8        -11.823914   1.000000
      9        -11.534939   1.000000
     10        -11.527652   1.000000
     11        -11.380654   1.000000
     12        -11.244452   1.000000
     13        -11.067926   1.000000
     14        -10.912103   1.000000
     15        -10.789055   1.000000
     16         -9.864472   1.000000
     17         -9.820404   1.000000
     18         -9.654295   1.000000
     19         -9.563446   1.000000
     20         -9.562160   1.000000
     21         -9.549205   1.000000
     22         -9.485354   1.000000
     23         -9.274406   1.000000
     24         -9.230882   1.000000
     25         -9.119816   1.000000
     26         -8.921734   1.000000
     27         -8.753234   1.000000
     28         -8.704173   1.000000
     29         -8.649682   1.000000
     30         -8.631300   1.000000
     31         -8.382795   1.000000
     32         -8.356721   1.000000
     33         -8.252415   1.000000
     34         -8.090605   1.000000
     35         -8.036290   1.000000
     36         -7.896982   1.000000
     37         -7.243105   1.000000
     38         -7.177578   1.000000
     39         -7.153831   1.000000
     40         -6.768914   1.000000
     41         -6.327208   1.000000
     42         -6.311252   1.000000
     43         -6.165770   1.000000
     44         -6.143895   1.000000
     45         -6.033275   1.000000
     46         -5.987875   1.000000
     47         -5.953056   1.000000
     48         -5.943029   1.000000
     49         -5.883938   1.000000
     50         -5.604562   1.000000
     51         -5.224000   1.000000
     52         -5.087170   1.000000
     53         -5.081926   1.000000
     54         -4.784366   1.000000
     55         -4.720556   1.000000
     56         -4.688182   1.000000
     57         -4.500844   1.000000
     58         -4.396442   1.000000
     59         -4.273203   1.000000
     60         -4.138373   1.000000
     61         -3.996002   1.000000
     62         -3.789718   0.985397
     63         -3.496715   0.024824
     64         -3.372333   0.000099
     65         -3.099352   0.000000
     66         -2.957398   0.000000
     67         -2.821654   0.000000
     68         -2.764144   0.000000
     69         -1.523304   0.000000
     70         -1.430438   0.000000
     71         -1.408536   0.000000
     72         -1.310576   0.000000
     73         -1.258698   0.000000
     74         -1.077266   0.000000
     75         -1.004916   0.000000
     76         -0.879032   0.000000
     77         -0.529178   0.000000
     78         -0.379130   0.000000
     79         -0.374949   0.000000
     80         -0.298909   0.000000
     81         -0.214087   0.000000
     82         -0.188008   0.000000
     83         -0.095558   0.000000
     84          0.025359   0.000000
     85          0.029765   0.000000
     86          0.133711   0.000000
     87          0.169278   0.000000
     88          0.181254   0.000000
     89          0.224934   0.000000
     90          0.335506   0.000000
     91          0.612551   0.000000
     92          0.811755   0.000000
     93          0.880661   0.000000
     94          1.030956   0.000000
     95          1.033349   0.000000
     96          1.088945   0.000000
     97          1.126085   0.000000
     98          1.209074   0.000000
     99          1.217771   0.000000
    100          1.325572   0.000000
    101          1.358542   0.000000
    102          1.409099   0.000000
 
 -0.4285714E+00  0.2857143E+00  0.1276756E-14  0.4081633E-01
      1        -14.126375   1.000000
      2        -13.752256   1.000000
      3        -13.658575   1.000000
      4        -13.133595   1.000000
      5        -12.674444   1.000000
      6        -12.415886   1.000000
      7        -12.207984   1.000000
      8        -12.078650   1.000000
      9        -11.477914   1.000000
     10        -11.189576   1.000000
     11        -11.179724   1.000000
     12        -11.070196   1.000000
     13        -11.031985   1.000000
     14        -10.744394   1.000000
     15        -10.712868   1.000000
     16        -10.377056   1.000000
     17        -10.125691   1.000000
     18        -10.005381   1.000000
     19         -9.619517   1.000000
     20         -9.509544   1.000000
     21         -9.505853   1.000000
     22         -9.442944   1.000000
     23         -9.389027   1.000000
     24         -9.223880   1.000000
     25         -8.903937   1.000000
     26         -8.884791   1.000000
     27         -8.872949   1.000000
     28         -8.673376   1.000000
     29         -8.620675   1.000000
     30         -8.522376   1.000000
     31         -8.271528   1.000000
     32         -8.269398   1.000000
     33         -8.136054   1.000000
     34         -8.026182   1.000000
     35         -7.850274   1.000000
     36         -7.719593   1.000000
     37         -7.583310   1.000000
     38         -7.357370   1.000000
     39         -6.965123   1.000000
     40         -6.655029   1.000000
     41         -6.516106   1.000000
     42         -6.443564   1.000000
     43         -6.414563   1.000000
     44         -6.005010   1.000000
     45         -5.986552   1.000000
     46         -5.978126   1.000000
     47         -5.960890   1.000000
     48         -5.798959   1.000000
     49         -5.558820   1.000000
     50         -5.354486   1.000000
     51         -5.346577   1.000000
     52         -5.346084   1.000000
     53         -5.246302   1.000000
     54         -4.942007   1.000000
     55         -4.804491   1.000000
     56         -4.675053   1.000000
     57         -4.464505   1.000000
     58         -4.443415   1.000000
     59         -4.222284   1.000000
     60         -4.153174   1.000000
     61         -4.049186   1.000000
     62         -3.878939   0.999712
     63         -3.772207   0.973386
     64         -3.201675   0.000000
     65         -3.178057   0.000000
     66         -2.778483   0.000000
     67         -2.558441   0.000000
     68         -2.432198   0.000000
     69         -1.785575   0.000000
     70         -1.433290   0.000000
     71         -1.375094   0.000000
     72         -1.221601   0.000000
     73         -1.170388   0.000000
     74         -1.132291   0.000000
     75         -0.994321   0.000000
     76         -0.960401   0.000000
     77         -0.664355   0.000000
     78         -0.492476   0.000000
     79         -0.407894   0.000000
     80         -0.397757   0.000000
     81         -0.177022   0.000000
     82         -0.146184   0.000000
     83         -0.140161   0.000000
     84         -0.048558   0.000000
     85         -0.015269   0.000000
     86          0.089221   0.000000
     87          0.177003   0.000000
     88          0.266339   0.000000
     89          0.455097   0.000000
     90          0.533185   0.000000
     91          0.576430   0.000000
     92          0.746026   0.000000
     93          0.899404   0.000000
     94          0.960092   0.000000
     95          1.039256   0.000000
     96          1.073571   0.000000
     97          1.126857   0.000000
     98          1.165924   0.000000
     99          1.213532   0.000000
    100          1.377778   0.000000
    101          1.387412   0.000000
    102          1.430422   0.000000
 
 -0.2857143E+00  0.2857143E+00  0.1276756E-14  0.4081633E-01
      1        -14.193279   1.000000
      2        -13.663777   1.000000
      3        -13.413876   1.000000
      4        -13.354428   1.000000
      5        -12.792190   1.000000
      6        -12.589304   1.000000
      7        -12.291221   1.000000
      8        -11.812818   1.000000
      9        -11.536327   1.000000
     10        -11.246991   1.000000
     11        -10.896330   1.000000
     12        -10.858125   1.000000
     13        -10.810625   1.000000
     14        -10.655255   1.000000
     15        -10.489552   1.000000
     16        -10.471268   1.000000
     17        -10.345281   1.000000
     18        -10.324629   1.000000
     19         -9.934648   1.000000
     20         -9.867156   1.000000
     21         -9.654208   1.000000
     22         -9.419258   1.000000
     23         -9.300453   1.000000
     24         -9.276792   1.000000
     25         -9.117537   1.000000
     26         -9.019446   1.000000
     27         -8.850224   1.000000
     28         -8.459024   1.000000
     29         -8.430643   1.000000
     30         -8.304103   1.000000
     31         -8.196101   1.000000
     32         -8.026919   1.000000
     33         -8.020750   1.000000
     34         -7.836784   1.000000
     35         -7.667147   1.000000
     36         -7.661281   1.000000
     37         -7.504919   1.000000
     38         -7.393290   1.000000
     39         -7.088873   1.000000
     40         -6.970761   1.000000
     41         -6.846706   1.000000
     42         -6.593840   1.000000
     43         -6.513746   1.000000
     44         -6.037042   1.000000
     45         -5.893439   1.000000
     46         -5.715475   1.000000
     47         -5.701493   1.000000
     48         -5.571682   1.000000
     49         -5.562466   1.000000
     50         -5.484908   1.000000
     51         -5.477313   1.000000
     52         -5.337689   1.000000
     53         -5.167312   1.000000
     54         -5.125475   1.000000
     55         -4.794797   1.000000
     56         -4.584311   1.000000
     57         -4.532341   1.000000
     58         -4.443073   1.000000
     59         -4.433041   1.000000
     60         -4.269826   1.000000
     61         -4.143149   1.000000
     62         -4.142284   1.000000
     63         -3.695472   0.801742
     64         -3.263500   0.000000
     65         -2.851034   0.000000
     66         -2.565411   0.000000
     67         -2.363139   0.000000
     68         -2.191486   0.000000
     69         -2.059346   0.000000
     70         -1.408632   0.000000
     71         -1.370324   0.000000
     72         -1.325781   0.000000
     73         -1.268449   0.000000
     74         -1.135168   0.000000
     75         -0.938566   0.000000
     76         -0.935709   0.000000
     77         -0.753010   0.000000
     78         -0.563862   0.000000
     79         -0.501078   0.000000
     80         -0.371653   0.000000
     81         -0.368461   0.000000
     82         -0.306847   0.000000
     83         -0.126020   0.000000
     84          0.044728   0.000000
     85          0.209890   0.000000
     86          0.286595   0.000000
     87          0.361943   0.000000
     88          0.399539   0.000000
     89          0.474363   0.000000
     90          0.510743   0.000000
     91          0.589461   0.000000
     92          0.644185   0.000000
     93          0.818331   0.000000
     94          0.902216   0.000000
     95          0.928403   0.000000
     96          0.992307   0.000000
     97          1.244884   0.000000
     98          1.282826   0.000000
     99          1.302620   0.000000
    100          1.411539   0.000000
    101          1.459201   0.000000
    102          1.513491   0.000000
 
 -0.1428571E+00  0.2857143E+00  0.1276756E-14  0.4081633E-01
      1        -14.215589   1.000000
      2        -13.531557   1.000000
      3        -13.530764   1.000000
      4        -13.125829   1.000000
      5        -13.124138   1.000000
      6        -12.461897   1.000000
      7        -12.461157   1.000000
      8        -11.555789   1.000000
      9        -11.376465   1.000000
     10        -11.374183   1.000000
     11        -11.269440   1.000000
     12        -10.610038   1.000000
     13        -10.608632   1.000000
     14        -10.522231   1.000000
     15        -10.521859   1.000000
     16        -10.392746   1.000000
     17        -10.390568   1.000000
     18        -10.189108   1.000000
     19        -10.188280   1.000000
     20         -9.911770   1.000000
     21         -9.909113   1.000000
     22         -9.665895   1.000000
     23         -9.289820   1.000000
     24         -9.289432   1.000000
     25         -9.152465   1.000000
     26         -9.151578   1.000000
     27         -8.447387   1.000000
     28         -8.446368   1.000000
     29         -8.357976   1.000000
     30         -8.357370   1.000000
     31         -8.216118   1.000000
     32         -8.049403   1.000000
     33         -8.047424   1.000000
     34         -7.673312   1.000000
     35         -7.425687   1.000000
     36         -7.425159   1.000000
     37         -7.266411   1.000000
     38         -7.265443   1.000000
     39         -7.255160   1.000000
     40         -7.254310   1.000000
     41         -7.187521   1.000000
     42         -6.831242   1.000000
     43         -6.537203   1.000000
     44         -6.047927   1.000000
     45         -5.754796   1.000000
     46         -5.754679   1.000000
     47         -5.606717   1.000000
     48         -5.594139   1.000000
     49         -5.592869   1.000000
     50         -5.434294   1.000000
     51         -5.434185   1.000000
     52         -5.424251   1.000000
     53         -4.909125   1.000000
     54         -4.907461   1.000000
     55         -4.784650   1.000000
     56         -4.783531   1.000000
     57         -4.654499   1.000000
     58         -4.653214   1.000000
     59         -4.448964   1.000000
     60         -4.448739   1.000000
     61         -4.186004   1.000000
     62         -3.859044   0.999214
     63         -3.858680   0.999200
     64         -3.284148   0.000000
     65         -2.552008   0.000000
     66         -2.551567   0.000000
     67         -2.323614   0.000000
     68         -2.322930   0.000000
     69         -1.751847   0.000000
     70         -1.750351   0.000000
     71         -1.352762   0.000000
     72         -1.351635   0.000000
     73         -1.249570   0.000000
     74         -1.248367   0.000000
     75         -0.932284   0.000000
     76         -0.726452   0.000000
     77         -0.725866   0.000000
     78         -0.587795   0.000000
     79         -0.583963   0.000000
     80         -0.583693   0.000000
     81         -0.471604   0.000000
     82         -0.393909   0.000000
     83          0.182476   0.000000
     84          0.182751   0.000000
     85          0.387951   0.000000
     86          0.389200   0.000000
     87          0.423594   0.000000
     88          0.425935   0.000000
     89          0.434193   0.000000
     90          0.434498   0.000000
     91          0.531843   0.000000
     92          0.534387   0.000000
     93          0.791198   0.000000
     94          0.965217   0.000000
     95          1.149396   0.000000
     96          1.152584   0.000000
     97          1.285065   0.000000
     98          1.322417   0.000000
     99          1.361383   0.000000
    100          1.367860   0.000000
    101          1.396284   0.000000
    102          1.397094   0.000000
 
  0.1276756E-14  0.4285714E+00  0.1276756E-14  0.4081633E-01
      1        -14.066653   1.000000
      2        -13.889952   1.000000
      3        -13.443947   1.000000
      4        -13.423953   1.000000
      5        -12.513202   1.000000
      6        -12.281007   1.000000
      7        -12.186253   1.000000
      8        -11.929184   1.000000
      9        -11.843618   1.000000
     10        -11.363050   1.000000
     11        -11.105549   1.000000
     12        -10.908108   1.000000
     13        -10.806702   1.000000
     14        -10.684734   1.000000
     15        -10.671306   1.000000
     16        -10.521746   1.000000
     17        -10.484312   1.000000
     18        -10.442206   1.000000
     19         -9.580408   1.000000
     20         -9.412566   1.000000
     21         -9.240956   1.000000
     22         -9.157926   1.000000
     23         -9.058538   1.000000
     24         -8.983992   1.000000
     25         -8.907173   1.000000
     26         -8.897241   1.000000
     27         -8.814621   1.000000
     28         -8.698331   1.000000
     29         -8.693869   1.000000
     30         -8.649884   1.000000
     31         -8.614627   1.000000
     32         -8.464916   1.000000
     33         -8.073842   1.000000
     34         -8.001706   1.000000
     35         -7.939914   1.000000
     36         -7.552715   1.000000
     37         -7.466499   1.000000
     38         -7.461301   1.000000
     39         -7.234975   1.000000
     40         -6.871959   1.000000
     41         -6.699148   1.000000
     42         -6.365680   1.000000
     43         -6.273086   1.000000
     44         -6.158777   1.000000
     45         -5.724221   1.000000
     46         -5.702017   1.000000
     47         -5.676852   1.000000
     48         -5.676209   1.000000
     49         -5.637242   1.000000
     50         -5.469208   1.000000
     51         -5.374787   1.000000
     52         -5.277055   1.000000
     53         -5.067985   1.000000
     54         -4.944765   1.000000
     55         -4.925787   1.000000
     56         -4.845419   1.000000
     57         -4.619953   1.000000
     58         -4.516473   1.000000
     59         -4.197319   1.000000
     60         -4.171211   1.000000
     61         -3.921213   0.999973
     62         -3.756389   0.956308
     63         -3.735697   0.921718
     64         -3.581570   0.222746
     65         -3.161901   0.000000
     66         -2.917622   0.000000
     67         -2.605243   0.000000
     68         -2.339218   0.000000
     69         -1.939525   0.000000
     70         -1.596914   0.000000
     71         -1.456191   0.000000
     72         -1.291306   0.000000
     73         -1.261864   0.000000
     74         -0.714198   0.000000
     75         -0.711503   0.000000
     76         -0.661683   0.000000
     77         -0.544671   0.000000
     78         -0.503825   0.000000
     79         -0.453278   0.000000
     80         -0.417330   0.000000
     81         -0.293976   0.000000
     82         -0.287801   0.000000
     83         -0.213831   0.000000
     84         -0.153375   0.000000
     85          0.170505   0.000000
     86          0.187673   0.000000
     87          0.211570   0.000000
     88          0.261821   0.000000
     89          0.529766   0.000000
     90          0.652512   0.000000
     91          0.725127   0.000000
     92          0.837651   0.000000
     93          0.985454   0.000000
     94          0.996419   0.000000
     95          1.025903   0.000000
     96          1.110783   0.000000
     97          1.159971   0.000000
     98          1.218563   0.000000
     99          1.220782   0.000000
    100          1.395350   0.000000
    101          1.400483   0.000000
    102          1.474354   0.000000
 
  0.1428571E+00  0.4285714E+00  0.1276756E-14  0.4081633E-01
      1        -13.977630   1.000000
      2        -13.956545   1.000000
      3        -13.666148   1.000000
      4        -13.180244   1.000000
      5        -12.561192   1.000000
      6        -12.343651   1.000000
      7        -12.115829   1.000000
      8        -11.848033   1.000000
      9        -11.614962   1.000000
     10        -11.564882   1.000000
     11        -11.193651   1.000000
     12        -11.034707   1.000000
     13        -11.016061   1.000000
     14        -10.975161   1.000000
     15        -10.704726   1.000000
     16        -10.266155   1.000000
     17        -10.201106   1.000000
     18        -10.166142   1.000000
     19         -9.598235   1.000000
     20         -9.354717   1.000000
     21         -9.206212   1.000000
     22         -9.130100   1.000000
     23         -9.122531   1.000000
     24         -9.083868   1.000000
     25         -9.040209   1.000000
     26         -8.925286   1.000000
     27         -8.770040   1.000000
     28         -8.711795   1.000000
     29         -8.695726   1.000000
     30         -8.566759   1.000000
     31         -8.384701   1.000000
     32         -8.376416   1.000000
     33         -8.281263   1.000000
     34         -8.278170   1.000000
     35         -7.915824   1.000000
     36         -7.808369   1.000000
     37         -7.565712   1.000000
     38         -7.226393   1.000000
     39         -6.951553   1.000000
     40         -6.887420   1.000000
     41         -6.817225   1.000000
     42         -6.272374   1.000000
     43         -6.228841   1.000000
     44         -6.113856   1.000000
     45         -5.973016   1.000000
     46         -5.949847   1.000000
     47         -5.847246   1.000000
     48         -5.452685   1.000000
     49         -5.430815   1.000000
     50         -5.403120   1.000000
     51         -5.233165   1.000000
     52         -5.195302   1.000000
     53         -5.124436   1.000000
     54         -5.100199   1.000000
     55         -4.926658   1.000000
     56         -4.839572   1.000000
     57         -4.526805   1.000000
     58         -4.482207   1.000000
     59         -4.264346   1.000000
     60         -4.145039   1.000000
     61         -4.092979   1.000000
     62         -3.669811   0.686149
     63         -3.499791   0.027461
     64         -3.371136   0.000092
     65         -3.197972   0.000000
     66         -3.178483   0.000000
     67         -2.925634   0.000000
     68         -2.173994   0.000000
     69         -2.030959   0.000000
     70         -1.550430   0.000000
     71         -1.454178   0.000000
     72         -1.381357   0.000000
     73         -1.107526   0.000000
     74         -0.925803   0.000000
     75         -0.717326   0.000000
     76         -0.560575   0.000000
     77         -0.472289   0.000000
     78         -0.426177   0.000000
     79         -0.413735   0.000000
     80         -0.322908   0.000000
     81         -0.284649   0.000000
     82         -0.262071   0.000000
     83         -0.223711   0.000000
     84         -0.047218   0.000000
     85         -0.002793   0.000000
     86          0.133327   0.000000
     87          0.226308   0.000000
     88          0.327367   0.000000
     89          0.488625   0.000000
     90          0.512677   0.000000
     91          0.817634   0.000000
     92          0.857217   0.000000
     93          0.886631   0.000000
     94          1.013633   0.000000
     95          1.092862   0.000000
     96          1.093756   0.000000
     97          1.137974   0.000000
     98          1.252774   0.000000
     99          1.268690   0.000000
    100          1.304733   0.000000
    101          1.313491   0.000000
    102          1.364756   0.000000
 
  0.2857143E+00  0.4285714E+00  0.1276756E-14  0.4081633E-01
      1        -13.978741   1.000000
      2        -13.844503   1.000000
      3        -13.843693   1.000000
      4        -12.893430   1.000000
      5        -12.891758   1.000000
      6        -12.364554   1.000000
      7        -11.726926   1.000000
      8        -11.726240   1.000000
      9        -11.676795   1.000000
     10        -11.674484   1.000000
     11        -11.345862   1.000000
     12        -11.344338   1.000000
     13        -10.997540   1.000000
     14        -10.882455   1.000000
     15        -10.882086   1.000000
     16         -9.919580   1.000000
     17         -9.918749   1.000000
     18         -9.777152   1.000000
     19         -9.775118   1.000000
     20         -9.691084   1.000000
     21         -9.688429   1.000000
     22         -9.143918   1.000000
     23         -9.090253   1.000000
     24         -9.089833   1.000000
     25         -8.802915   1.000000
     26         -8.801894   1.000000
     27         -8.735821   1.000000
     28         -8.735106   1.000000
     29         -8.696459   1.000000
     30         -8.442913   1.000000
     31         -8.442523   1.000000
     32         -8.420583   1.000000
     33         -8.418175   1.000000
     34         -8.115727   1.000000
     35         -8.114900   1.000000
     36         -7.879443   1.000000
     37         -7.233536   1.000000
     38         -7.153427   1.000000
     39         -7.152915   1.000000
     40         -7.098497   1.000000
     41         -6.512396   1.000000
     42         -6.511402   1.000000
     43         -6.252242   1.000000
     44         -6.133350   1.000000
     45         -6.133279   1.000000
     46         -6.021362   1.000000
     47         -5.439762   1.000000
     48         -5.439018   1.000000
     49         -5.430274   1.000000
     50         -5.429459   1.000000
     51         -5.182064   1.000000
     52         -5.180443   1.000000
     53         -5.149337   1.000000
     54         -5.149158   1.000000
     55         -4.920609   1.000000
     56         -4.618056   1.000000
     57         -4.616380   1.000000
     58         -4.465242   1.000000
     59         -4.286762   1.000000
     60         -4.249397   1.000000
     61         -4.249053   1.000000
     62         -3.541157   0.091024
     63         -3.540859   0.090335
     64         -3.243949   0.000000
     65         -3.227898   0.000000
     66         -3.227402   0.000000
     67         -2.666389   0.000000
     68         -2.664784   0.000000
     69         -1.745062   0.000000
     70         -1.744540   0.000000
     71         -1.431842   0.000000
     72         -1.430657   0.000000
     73         -1.013676   0.000000
     74         -0.918370   0.000000
     75         -0.917352   0.000000
     76         -0.507198   0.000000
     77         -0.407000   0.000000
     78         -0.406672   0.000000
     79         -0.354757   0.000000
     80         -0.308365   0.000000
     81         -0.183613   0.000000
     82         -0.183355   0.000000
     83         -0.111174   0.000000
     84         -0.110519   0.000000
     85          0.050556   0.000000
     86          0.051738   0.000000
     87          0.186571   0.000000
     88          0.189646   0.000000
     89          0.718666   0.000000
     90          0.719002   0.000000
     91          0.743397   0.000000
     92          0.748664   0.000000
     93          0.750195   0.000000
     94          0.929086   0.000000
     95          0.931035   0.000000
     96          1.111019   0.000000
     97          1.252192   0.000000
     98          1.252271   0.000000
     99          1.286225   0.000000
    100          1.426480   0.000000
    101          1.432002   0.000000
    102          1.432087   0.000000
 
  0.4285714E+00  0.4285714E+00  0.1276756E-14  0.4081633E-01
      1        -13.977585   1.000000
      2        -13.956517   1.000000
      3        -13.666234   1.000000
      4        -13.180396   1.000000
      5        -12.560995   1.000000
      6        -12.343714   1.000000
      7        -12.115656   1.000000
      8        -11.848212   1.000000
      9        -11.614595   1.000000
     10        -11.564542   1.000000
     11        -11.193859   1.000000
     12        -11.035191   1.000000
     13        -11.016017   1.000000
     14        -10.975137   1.000000
     15        -10.704815   1.000000
     16        -10.266462   1.000000
     17        -10.201264   1.000000
     18        -10.166765   1.000000
     19         -9.598032   1.000000
     20         -9.354031   1.000000
     21         -9.206034   1.000000
     22         -9.129824   1.000000
     23         -9.122623   1.000000
     24         -9.083522   1.000000
     25         -9.040684   1.000000
     26         -8.924594   1.000000
     27         -8.769314   1.000000
     28         -8.712438   1.000000
     29         -8.695592   1.000000
     30         -8.566972   1.000000
     31         -8.384286   1.000000
     32         -8.376586   1.000000
     33         -8.281243   1.000000
     34         -8.277570   1.000000
     35         -7.916483   1.000000
     36         -7.808941   1.000000
     37         -7.565977   1.000000
     38         -7.226750   1.000000
     39         -6.951643   1.000000
     40         -6.888189   1.000000
     41         -6.817048   1.000000
     42         -6.272324   1.000000
     43         -6.228814   1.000000
     44         -6.112984   1.000000
     45         -5.973093   1.000000
     46         -5.949933   1.000000
     47         -5.846471   1.000000
     48         -5.452110   1.000000
     49         -5.430964   1.000000
     50         -5.404140   1.000000
     51         -5.231522   1.000000
     52         -5.195645   1.000000
     53         -5.125944   1.000000
     54         -5.100785   1.000000
     55         -4.926357   1.000000
     56         -4.839396   1.000000
     57         -4.526685   1.000000
     58         -4.482462   1.000000
     59         -4.264420   1.000000
     60         -4.144809   1.000000
     61         -4.092982   1.000000
     62         -3.670021   0.687200
     63         -3.499378   0.027094
     64         -3.370767   0.000090
     65         -3.197260   0.000000
     66         -3.178247   0.000000
     67         -2.926126   0.000000
     68         -2.174706   0.000000
     69         -2.031479   0.000000
     70         -1.550507   0.000000
     71         -1.454760   0.000000
     72         -1.380971   0.000000
     73         -1.107983   0.000000
     74         -0.925519   0.000000
     75         -0.716707   0.000000
     76         -0.560657   0.000000
     77         -0.471884   0.000000
     78         -0.426233   0.000000
     79         -0.413597   0.000000
     80         -0.322854   0.000000
     81         -0.284619   0.000000
     82         -0.262041   0.000000
     83         -0.223639   0.000000
     84         -0.046213   0.000000
     85         -0.002883   0.000000
     86          0.136036   0.000000
     87          0.227497   0.000000
     88          0.324860   0.000000
     89          0.488484   0.000000
     90          0.512514   0.000000
     91          0.815947   0.000000
     92          0.857060   0.000000
     93          0.886672   0.000000
     94          1.014631   0.000000
     95          1.092908   0.000000
     96          1.093761   0.000000
     97          1.138006   0.000000
     98          1.251602   0.000000
     99          1.268745   0.000000
    100          1.304927   0.000000
    101          1.313524   0.000000
    102          1.364361   0.000000
 
 -0.4285714E+00  0.4285714E+00  0.1276756E-14  0.4081633E-01
      1        -14.066624   1.000000
      2        -13.889900   1.000000
      3        -13.444036   1.000000
      4        -13.424097   1.000000
      5        -12.513045   1.000000
      6        -12.281144   1.000000
      7        -12.186025   1.000000
      8        -11.929297   1.000000
      9        -11.843291   1.000000
     10        -11.362661   1.000000
     11        -11.105516   1.000000
     12        -10.908051   1.000000
     13        -10.806974   1.000000
     14        -10.685285   1.000000
     15        -10.671527   1.000000
     16        -10.522318   1.000000
     17        -10.484431   1.000000
     18        -10.442348   1.000000
     19         -9.580249   1.000000
     20         -9.411901   1.000000
     21         -9.240734   1.000000
     22         -9.157747   1.000000
     23         -9.058686   1.000000
     24         -8.984576   1.000000
     25         -8.906543   1.000000
     26         -8.896909   1.000000
     27         -8.813893   1.000000
     28         -8.698901   1.000000
     29         -8.693608   1.000000
     30         -8.650012   1.000000
     31         -8.614252   1.000000
     32         -8.464583   1.000000
     33         -8.073382   1.000000
     34         -8.001965   1.000000
     35         -7.940115   1.000000
     36         -7.553280   1.000000
     37         -7.467140   1.000000
     38         -7.461838   1.000000
     39         -7.235671   1.000000
     40         -6.871875   1.000000
     41         -6.699153   1.000000
     42         -6.365650   1.000000
     43         -6.272320   1.000000
     44         -6.158723   1.000000
     45         -5.724326   1.000000
     46         -5.701112   1.000000
     47         -5.677061   1.000000
     48         -5.676335   1.000000
     49         -5.637475   1.000000
     50         -5.468863   1.000000
     51         -5.376011   1.000000
     52         -5.275438   1.000000
     53         -5.069333   1.000000
     54         -4.944179   1.000000
     55         -4.926033   1.000000
     56         -4.845288   1.000000
     57         -4.620564   1.000000
     58         -4.516301   1.000000
     59         -4.197463   1.000000
     60         -4.171101   1.000000
     61         -3.921142   0.999973
     62         -3.756516   0.956474
     63         -3.735341   0.920980
     64         -3.581187   0.221131
     65         -3.161460   0.000000
     66         -2.917036   0.000000
     67         -2.605728   0.000000
     68         -2.339783   0.000000
     69         -1.939798   0.000000
     70         -1.597597   0.000000
     71         -1.456675   0.000000
     72         -1.291115   0.000000
     73         -1.262134   0.000000
     74         -0.713919   0.000000
     75         -0.711044   0.000000
     76         -0.661674   0.000000
     77         -0.544194   0.000000
     78         -0.503557   0.000000
     79         -0.453181   0.000000
     80         -0.417297   0.000000
     81         -0.293984   0.000000
     82         -0.287885   0.000000
     83         -0.213773   0.000000
     84         -0.152052   0.000000
     85          0.173132   0.000000
     86          0.188558   0.000000
     87          0.211476   0.000000
     88          0.261691   0.000000
     89          0.527470   0.000000
     90          0.650415   0.000000
     91          0.725087   0.000000
     92          0.837506   0.000000
     93          0.985487   0.000000
     94          0.996516   0.000000
     95          1.026489   0.000000
     96          1.111589   0.000000
     97          1.160006   0.000000
     98          1.218623   0.000000
     99          1.221033   0.000000
    100          1.395419   0.000000
    101          1.399880   0.000000
    102          1.454694   0.000000
 
 -0.2857143E+00  0.4285714E+00  0.1276756E-14  0.4081633E-01
      1        -14.111157   1.000000
      2        -13.778905   1.000000
      3        -13.623677   1.000000
      4        -13.177637   1.000000
      5        -12.867126   1.000000
      6        -12.176873   1.000000
      7        -12.030739   1.000000
      8        -11.969836   1.000000
      9        -11.768100   1.000000
     10        -11.308213   1.000000
     11        -11.150358   1.000000
     12        -11.121111   1.000000
     13        -10.841039   1.000000
     14        -10.796520   1.000000
     15        -10.641124   1.000000
     16        -10.296776   1.000000
     17        -10.222356   1.000000
     18        -10.111096   1.000000
     19         -9.920084   1.000000
     20         -9.870857   1.000000
     21         -9.516442   1.000000
     22         -9.172134   1.000000
     23         -8.952393   1.000000
     24         -8.925495   1.000000
     25         -8.866866   1.000000
     26         -8.851106   1.000000
     27         -8.803863   1.000000
     28         -8.693086   1.000000
     29         -8.691937   1.000000
     30         -8.691531   1.000000
     31         -8.442427   1.000000
     32         -8.435280   1.000000
     33         -7.980463   1.000000
     34         -7.908009   1.000000
     35         -7.830343   1.000000
     36         -7.550825   1.000000
     37         -7.512237   1.000000
     38         -7.160085   1.000000
     39         -7.128416   1.000000
     40         -7.093469   1.000000
     41         -6.960793   1.000000
     42         -6.692128   1.000000
     43         -6.412492   1.000000
     44         -6.042504   1.000000
     45         -5.881257   1.000000
     46         -5.832677   1.000000
     47         -5.477842   1.000000
     48         -5.460124   1.000000
     49         -5.346366   1.000000
     50         -5.312579   1.000000
     51         -5.291449   1.000000
     52         -5.163364   1.000000
     53         -5.071998   1.000000
     54         -5.017617   1.000000
     55         -4.974402   1.000000
     56         -4.945473   1.000000
     57         -4.913704   1.000000
     58         -4.529172   1.000000
     59         -4.208948   1.000000
     60         -4.086358   1.000000
     61         -3.976049   0.999999
     62         -3.931678   0.999986
     63         -3.799909   0.989959
     64         -3.715279   0.870335
     65         -2.915976   0.000000
     66         -2.639722   0.000000
     67         -2.468702   0.000000
     68         -2.289270   0.000000
     69         -2.027813   0.000000
     70         -1.965445   0.000000
     71         -1.432045   0.000000
     72         -1.369899   0.000000
     73         -1.149382   0.000000
     74         -0.951876   0.000000
     75         -0.680141   0.000000
     76         -0.612309   0.000000
     77         -0.488122   0.000000
     78         -0.464919   0.000000
     79         -0.444025   0.000000
     80         -0.430235   0.000000
     81         -0.390641   0.000000
     82         -0.327284   0.000000
     83         -0.097022   0.000000
     84         -0.056964   0.000000
     85          0.063036   0.000000
     86          0.290084   0.000000
     87          0.442777   0.000000
     88          0.459404   0.000000
     89          0.460976   0.000000
     90          0.649296   0.000000
     91          0.719719   0.000000
     92          0.763154   0.000000
     93          0.931429   0.000000
     94          0.977626   0.000000
     95          1.105656   0.000000
     96          1.141286   0.000000
     97          1.259533   0.000000
     98          1.351900   0.000000
     99          1.360934   0.000000
    100          1.399226   0.000000
    101          1.418440   0.000000
    102          1.434519   0.000000
 
 -0.1428571E+00  0.4285714E+00  0.1276756E-14  0.4081633E-01
      1        -14.111167   1.000000
      2        -13.778982   1.000000
      3        -13.623574   1.000000
      4        -13.177512   1.000000
      5        -12.867268   1.000000
      6        -12.176677   1.000000
      7        -12.030991   1.000000
      8        -11.969805   1.000000
      9        -11.768348   1.000000
     10        -11.307946   1.000000
     11        -11.150359   1.000000
     12        -11.121573   1.000000
     13        -10.840531   1.000000
     14        -10.796599   1.000000
     15        -10.641019   1.000000
     16        -10.296175   1.000000
     17        -10.222226   1.000000
     18        -10.110857   1.000000
     19         -9.920229   1.000000
     20         -9.871498   1.000000
     21         -9.516687   1.000000
     22         -9.172191   1.000000
     23         -8.952171   1.000000
     24         -8.924843   1.000000
     25         -8.867540   1.000000
     26         -8.851368   1.000000
     27         -8.804163   1.000000
     28         -8.692633   1.000000
     29         -8.692297   1.000000
     30         -8.691480   1.000000
     31         -8.443152   1.000000
     32         -8.435025   1.000000
     33         -7.979772   1.000000
     34         -7.908239   1.000000
     35         -7.830886   1.000000
     36         -7.550215   1.000000
     37         -7.512038   1.000000
     38         -7.159864   1.000000
     39         -7.128585   1.000000
     40         -7.092777   1.000000
     41         -6.960632   1.000000
     42         -6.692864   1.000000
     43         -6.412502   1.000000
     44         -6.042583   1.000000
     45         -5.881152   1.000000
     46         -5.832648   1.000000
     47         -5.477956   1.000000
     48         -5.460006   1.000000
     49         -5.344967   1.000000
     50         -5.314112   1.000000
     51         -5.292349   1.000000
     52         -5.163491   1.000000
     53         -5.071740   1.000000
     54         -5.016482   1.000000
     55         -4.975275   1.000000
     56         -4.945473   1.000000
     57         -4.912882   1.000000
     58         -4.529389   1.000000
     59         -4.209092   1.000000
     60         -4.086139   1.000000
     61         -3.975979   0.999999
     62         -3.931968   0.999986
     63         -3.799867   0.989943
     64         -3.715347   0.870538
     65         -2.916480   0.000000
     66         -2.639173   0.000000
     67         -2.469522   0.000000
     68         -2.288861   0.000000
     69         -2.027996   0.000000
     70         -1.964538   0.000000
     71         -1.431765   0.000000
     72         -1.369927   0.000000
     73         -1.149287   0.000000
     74         -0.952188   0.000000
     75         -0.680275   0.000000
     76         -0.612206   0.000000
     77         -0.487988   0.000000
     78         -0.464929   0.000000
     79         -0.444204   0.000000
     80         -0.430186   0.000000
     81         -0.390755   0.000000
     82         -0.328168   0.000000
     83         -0.097109   0.000000
     84         -0.057212   0.000000
     85          0.063148   0.000000
     86          0.287551   0.000000
     87          0.442868   0.000000
     88          0.460811   0.000000
     89          0.462191   0.000000
     90          0.649232   0.000000
     91          0.719131   0.000000
     92          0.765222   0.000000
     93          0.931418   0.000000
     94          0.975967   0.000000
     95          1.105645   0.000000
     96          1.141405   0.000000
     97          1.216330   0.000000
     98          1.351803   0.000000
     99          1.361232   0.000000
    100          1.399937   0.000000
    101          1.418718   0.000000
    102          1.434928   0.000000
