 vasp.6.5.0 16Dec24 (build Jan 08 2025 16:17:04) complex                        
  
 executed on             LinuxIFC date 2025.07.23  11:08:18
 running   42 mpi-ranks, on    1 nodes
 distrk:  each k-point on   42 cores,    1 groups
 distr:  one band on NCORE=   1 cores,   42 groups


--------------------------------------------------------------------------------------------------------


 INCAR:
   SYSTEM = Convergence
   ISTART = 0
   ICHARG = 2
   PREC = Accurate
   ENCUT = 600
   LCHARG = .FALSE.
   LWAVE = .FALSE.
   ALGO = Normal
   NELM = 100
   EDIFF = 1E-6
   EDIFFG = -1E-3
   SIGMA = 0.05
   ISMEAR = 0
   ISPIN = 1
   NSW = 0
   IBRION = -1
   POTIM = .5
   ISIF = 2
   GGA = PE
   LDIPOL = .TRUE.
   IDIPOL = 3
   DIPOL = 0.5 0.5 0.1

 POTCAR:    PAW_PBE Be 06Sep2000                  
 -----------------------------------------------------------------------------
|                                                                             |
|           W    W    AA    RRRRR   N    N  II  N    N   GGGG   !!!           |
|           W    W   A  A   R    R  NN   N  II  NN   N  G    G  !!!           |
|           W    W  A    A  R    R  N N  N  II  N N  N  G       !!!           |
|           W WW W  AAAAAA  RRRRR   N  N N  II  N  N N  G  GGG   !            |
|           WW  WW  A    A  R   R   N   NN  II  N   NN  G    G                |
|           W    W  A    A  R    R  N    N  II  N    N   GGGG   !!!           |
|                                                                             |
|     For optimal performance we recommend to set                             |
|       NCORE = 2 up to number-of-cores-per-socket                            |
|     NCORE specifies how many cores store one orbital (NPAR=cpu/NCORE).      |
|     This setting can greatly improve the performance of VASP for DFT.       |
|     The default, NCORE=1 might be grossly inefficient on modern             |
|     multi-core architectures or massively parallel machines. Do your        |
|     own testing! More info at https://www.vasp.at/wiki/index.php/NCORE      |
|     Unfortunately you need to use the default for GW and RPA                |
|     calculations (for HF NCORE is supported but not extensively tested      |
|     yet).                                                                   |
|                                                                             |
 -----------------------------------------------------------------------------

 POTCAR:    PAW_PBE Be 06Sep2000                  
   SHA256 =  98a2d1e63100a984719ed1fa4aa623d62d7fd86152f07ada9bb3796889d1bbc8 Be/POTCAR             
   COPYR  = (c) Copyright 06Sep2000 Georg Kresse                                                    
   COPYR  = This file is part of the software VASP. Any use, copying, and all other rights are regul
   COPYR  = If you do not have a valid VASP license, you may not use, copy or distribute this file. 
   VRHFIN =Be: s2p0                                                                                 
   LEXCH  = PE                                                                                      
   EATOM  =    27.4793 eV,    2.0197 Ry                                                             
                                                                                                    
   TITEL  = PAW_PBE Be 06Sep2000                                                                    
   LULTRA =        F    use ultrasoft PP ?                                                          
   IUNSCR =        1    unscreen: 0-lin 1-nonlin 2-no                                               
   RPACOR =    1.580    partial core radius                                                         
   POMASS =    9.013; ZVAL   =    2.000    mass and valenz                                          
   RCORE  =    1.900    outmost cutoff radius                                                       
   RWIGS  =    1.880; RWIGS  =    0.995    wigner-seitz radius (au A)                               
   ENMAX  =  247.543; ENMIN  =  185.658 eV                                                          
   ICORE  =        2    local potential                                                             
   LCOR   =        T    correct aug charges                                                         
   LPAW   =        T    paw PP                                                                      
   EAUG   =  318.781                                                                                
   DEXC   =    0.000                                                                                
   RMAX   =    1.944    core radius for proj-oper                                                   
   RAUG   =    1.300    factor for augmentation sphere                                              
   RDEP   =    2.003    radius for radial grids                                                     
   RDEPT  =    1.802    core radius for aug-charge                                                  
                                                                                                    
   Atomic configuration                                                                             
    4 entries                                                                                       
     n  l   j            E        occ.                                                              
     1  0  0.50      -106.2287   2.0000                                                             
     2  0  0.50        -5.6162   1.9900                                                             
     2  1  0.50        -2.0244   0.0100                                                             
     3  2  1.50        -1.3606   0.0000                                                             
   Description                                                                                      
     l       E           TYP  RCUT    TYP  RCUT                                                     
     0     -5.6161739     23  1.900                                                                 
     0     27.2116520     23  1.900                                                                 
     1     -2.0243505     23  1.900                                                                 
     1     27.2116520     23  1.900                                                                 
     2     -1.3605826     15  1.500                                                                 
  local pseudopotential read in
  partial core-charges read in
  partial kinetic energy density read in
  atomic valenz-charges read in
  non local Contribution for L=           0  read in
    real space projection operators read in
  non local Contribution for L=           0  read in
    real space projection operators read in
  non local Contribution for L=           1  read in
    real space projection operators read in
  non local Contribution for L=           1  read in
    real space projection operators read in
    PAW grid and wavefunctions read in
 
   number of l-projection  operators is LMAX  =           4
   number of lm-projection operators is LMMAX =           8
 
  PAW_PBE Be 06Sep2000                  :
 energy of atom  1       EATOM=  -27.4793
 kinetic energy error for atom=    0.0000 (will be added to EATOM!!)
 
 
 POSCAR: G-Beryllene with a=3.9837168574084174
  positions in direct lattice
  No initial velocities read in


 exchange-correlation table for PE
   RHO(1)=    0.500       N(1)  =     2000
   RHO(2)=  100.500       N(2)  =     4000
 


--------------------------------------------------------------------------------------------------------


 ion  position               nearest neighbor table
   1  0.333  0.667  0.100-   2 2.30   2 2.30   2 2.30
   2  0.667  0.333  0.100-   1 2.30   1 2.30   1 2.30
 
  LATTYP: Found a hexagonal cell.
 ALAT       =     3.9837168574
 C/A-ratio  =    10.0408742468
  
  Lattice vectors:
  
 A1 = (   3.4500000000,   1.9918584287,   0.0000000000)
 A2 = (  -3.4500000000,   1.9918584287,   0.0000000000)
 A3 = (   0.0000000000,   0.0000000000,  40.0000000000)


Analysis of symmetry for initial positions (statically):
=====================================================================
 Subroutine PRICEL returns:
 Original cell was already a primitive cell.
 

 Routine SETGRP: Setting up the symmetry group for a 
 hexagonal supercell.


 Subroutine GETGRP returns: Found 24 space group operations
 (whereof 12 operations were pure point group operations)
 out of a pool of 24 trial point group operations.


The static configuration has the point symmetry C_6v.
 The point group associated with its full space group is D_6h.


Analysis of symmetry for dynamics (positions and initial velocities):
=====================================================================
 Subroutine PRICEL returns:
 Original cell was already a primitive cell.
 

 Routine SETGRP: Setting up the symmetry group for a 
 hexagonal supercell.


 Subroutine GETGRP returns: Found 24 space group operations
 (whereof 12 operations were pure point group operations)
 out of a pool of 24 trial point group operations.


The dynamic configuration has the point symmetry C_6v.
 The point group associated with its full space group is D_6h.


 Subroutine INISYM returns: Found 24 space group operations
 (whereof 12 operations are pure point group operations),
 and found     1 'primitive' translations


----------------------------------------------------------------------------------------

                                     Primitive cell                                     

  volume of cell :     549.7529

  direct lattice vectors                    reciprocal lattice vectors
     3.450000000  1.991858429  0.000000000     0.144927536  0.251021856  0.000000000
    -3.450000000  1.991858429  0.000000000    -0.144927536  0.251021856  0.000000000
     0.000000000  0.000000000 40.000000000     0.000000000  0.000000000  0.025000000

  length of vectors
     3.983716857  3.983716857 40.000000000     0.289855072  0.289855072  0.025000000

  position of ions in fractional coordinates (direct lattice)
     0.333333333  0.666666667  0.100000000
     0.666666667  0.333333333  0.100000000

  ion indices of the primitive-cell ions
   primitive index   ion index
                 1           1
                 2           2

----------------------------------------------------------------------------------------

 
 
 KPOINTS: k-points                                

Automatic generation of k-mesh.
 Grid dimensions read from file:
 generate k-points for:    9    9    1

 Generating k-lattice:

  Cartesian coordinates                     Fractional coordinates (reciprocal lattice)
     0.016103060  0.027891317  0.000000000     0.111111111  0.000000000  0.000000000
    -0.016103060  0.027891317  0.000000000     0.000000000  0.111111111  0.000000000
     0.000000000  0.000000000  0.025000000     0.000000000  0.000000000  1.000000000

  Length of vectors
     0.032206119  0.032206119  0.025000000

  Shift w.r.t. Gamma in fractional coordinates (k-lattice)
     0.000000000  0.000000000  0.000000000

 
 Subroutine IBZKPT returns following result:
 ===========================================
 
 Found     12 irreducible k-points:
 
 Following reciprocal coordinates:
            Coordinates               Weight
  0.000000  0.000000  0.000000      1.000000
  0.111111  0.000000  0.000000      6.000000
  0.222222  0.000000  0.000000      6.000000
  0.333333  0.000000  0.000000      6.000000
  0.444444  0.000000  0.000000      6.000000
  0.111111  0.111111  0.000000      6.000000
  0.222222  0.111111  0.000000     12.000000
  0.333333  0.111111  0.000000     12.000000
  0.444444  0.111111  0.000000      6.000000
  0.222222  0.222222  0.000000      6.000000
  0.333333  0.222222  0.000000     12.000000
  0.333333  0.333333  0.000000      2.000000
 
 Following cartesian coordinates:
            Coordinates               Weight
  0.000000  0.000000  0.000000      1.000000
  0.016103  0.027891  0.000000      6.000000
  0.032206  0.055783  0.000000      6.000000
  0.048309  0.083674  0.000000      6.000000
  0.064412  0.111565  0.000000      6.000000
  0.000000  0.055783  0.000000      6.000000
  0.016103  0.083674  0.000000     12.000000
  0.032206  0.111565  0.000000     12.000000
  0.048309  0.139457  0.000000      6.000000
  0.000000  0.111565  0.000000      6.000000
  0.016103  0.139457  0.000000     12.000000
  0.000000  0.167348  0.000000      2.000000
 


--------------------------------------------------------------------------------------------------------




 Dimension of arrays:
   k-points           NKPTS =     12   k-points in BZ     NKDIM =     12   number of bands    NBANDS=     42
   number of dos      NEDOS =    301   number of ions     NIONS =      2
   non local maximal  LDIM  =      4   non local SUM 2l+1 LMDIM =      8
   total plane-waves  NPLWV = 327680
   max r-space proj   IRMAX =      1   max aug-charges    IRDMAX=  20435
   dimension x,y,z NGX =    32 NGY =   32 NGZ =  320
   dimension x,y,z NGXF=    64 NGYF=   64 NGZF=  640
   support grid    NGXF=    64 NGYF=   64 NGZF=  640
   ions per type =               2
   NGX,Y,Z   is equivalent  to a cutoff of  13.35, 13.35, 13.30 a.u.
   NGXF,Y,Z  is equivalent  to a cutoff of  26.71, 26.71, 26.60 a.u.

 SYSTEM =  Convergence                             
 POSCAR =  G-Beryllene with a=3.9837168574084174   

 Startparameter for this run:
   NWRITE =      2    write-flag & timer
   PREC   = accura    normal or accurate (medium, high low for compatibility)
   ISTART =      0    job   : 0-new  1-cont  2-samecut
   ICHARG =      2    charge: 1-file 2-atom 10-const
   ISPIN  =      1    spin polarized calculation?
   LNONCOLLINEAR =      F non collinear calculations
   LSORBIT =      F    spin-orbit coupling
   INIWAV =      1    electr: 0-lowe 1-rand  2-diag
   LASPH  =      F    aspherical Exc in radial PAW
 Electronic Relaxation 1
   ENCUT  =  600.0 eV  44.10 Ry    6.64 a.u.   7.96  7.96 79.89*2*pi/ulx,y,z
   ENINI  =  600.0     initial cutoff
   ENAUG  =  318.8 eV  augmentation charge cutoff
   NELM   =    100;   NELMIN=  2; NELMDL= -5     # of ELM steps 
   EDIFF  = 0.1E-05   stopping-criterion for ELM
   LREAL  =      F    real-space projection
   NLSPLINE    = F    spline interpolate recip. space projectors
   LCOMPAT=      F    compatible to vasp.4.4
   GGA_COMPAT  = T    GGA compatible to vasp.4.4-vasp.4.6
   LMAXPAW     = -100 max onsite density
   LMAXMIX     =    2 max onsite mixed and CHGCAR
   VOSKOWN=      0    Vosko Wilk Nusair interpolation
   ROPT   =    0.00000
 Ionic relaxation
   EDIFFG = -.1E-02   stopping-criterion for IOM
   NSW    =      0    number of steps for IOM
   NBLOCK =      1;   KBLOCK =      1    inner block; outer block 
   IBRION =     -1    ionic relax: 0-MD 1-quasi-New 2-CG
   NFREE  =      0    steps in history (QN), initial steepest desc. (CG)
   ISIF   =      2    stress and relaxation
   IWAVPR =     10    prediction:  0-non 1-charg 2-wave 3-comb
   ISYM   =      2    0-nonsym 1-usesym 2-fastsym
   LCORR  =      T    Harris-Foulkes like correction to forces

   POTIM  = 0.5000    time-step for ionic-motion
   TEIN   =    0.0    initial temperature
   TEBEG  =    0.0;   TEEND  =   0.0 temperature during run
   SMASS  =  -3.00    Nose mass-parameter (am)
   estimated Nose-frequenzy (Omega)   =  0.10E-29 period in steps = 0.13E+47 mass=  -0.363E-27a.u.
   SCALEE = 1.0000    scale energy and forces
   NPACO  =    256;   APACO  = 10.0  distance and # of slots for P.C.
   PSTRESS=    0.0 pullay stress

  Mass of Ions in am
   POMASS =   9.01
  Ionic Valenz
   ZVAL   =   2.00
  Atomic Wigner-Seitz radii
   RWIGS  =  -1.00
  virtual crystal weights 
   VCA    =   1.00
   NELECT =       4.0000    total number of electrons
   NUPDOWN=      -1.0000    fix difference up-down

 DOS related values:
   EMIN   =  10.00;   EMAX   =-10.00  energy-range for DOS
   EFERMI =   0.00;   METHOD = LEGACY      
   ISMEAR =     0;   SIGMA  =   0.05  broadening in eV -4-tet -1-fermi 0-gaus
   EFERMI_NEDOS =   21; number of points for ismear=-14 and -15

 Electronic relaxation 2 (details)
   IALGO  =     38    algorithm
   LDIAG  =      T    sub-space diagonalisation (order eigenvalues)
   LSUBROT=      F    optimize rotation matrix (better conditioning)
   TURBO    =      0    0=normal 1=particle mesh
   IRESTART =      0    0=no restart 2=restart with 2 vectors
   NREBOOT  =      0    no. of reboots
   NMIN     =      0    reboot dimension
   EREF     =   0.00    reference energy to select bands
   IMIX   =      4    mixing-type and parameters
     AMIX     =   0.40;   BMIX     =  1.00
     AMIX_MAG =   1.60;   BMIX_MAG =  1.00
     AMIN     =   0.10
     WC   =   100.;   INIMIX=   1;  MIXPRE=   1;  MAXMIX= -45

 Intra band minimization:
   WEIMIN = 0.0000     energy-eigenvalue tresh-hold
   EBREAK =  0.60E-08  absolut break condition
   DEPER  =   0.30     relativ break condition  

   TIME   =   0.40     timestep for ELM

  volume/ion in A,a.u.               =     274.88      1854.96
  Fermi-wavevector in a.u.,A,eV,Ry     =   0.317229  0.599475  1.369208  0.100634
  Thomas-Fermi vector in A             =   1.200992
 
 Write flags
   LWAVE        =      F    write WAVECAR
   LDOWNSAMPLE  =      F    k-point downsampling of WAVECAR
   LCHARG       =      F    write CHGCAR
   LVTOT        =      F    write LOCPOT, total local potential
   LVHAR        =      F    write LOCPOT, Hartree potential only
   WRT_POTENTIAL= false  ! write potential to hdf5 file
   LELF         =      F    write electronic localiz. function (ELF)
   LORBIT       =      0    0 simple, 1 ext, 2 COOP (PROOUT), +10 PAW based schemes


 Python interface
   PLUGINS active      =      F    recompile with -DPLUGINS to activate
 
 Dipole corrections
   LMONO      =      F    monopole corrections only (constant potential shift)
   LDIPOL     =      T    correct potential (dipole corrections)
   IDIPOL     =      3    1-x, 2-y, 3-z, 4-all directions 
   EPSILON    =  1.0000000 bulk dielectric constant
   LVACPOTAV  =      F  vacuum potentials using an averaging scheme for the charge density
   VACPOTFLAT =  0.1000000 required flatness to determine vacuum potential
 
Coulomb truncation method
  LTRUNCATE          =      F  Coulomb kernel truncation to be used
  IDIMENSIONALITY    =      3  Dimensionality of cutoff (0 molecules / 2 surfaces)
  ISURFACE           =     -1  Direction of surface normal
  LCOARSEN           =      F  Coarsen the charge grid before padding, preferred

 
 Exchange correlation treatment:
   GGA     = PE    functional components
   XC_C    = 1    coefficients multiplying the functional components
   LIBXC   =     F    Libxc                    
   VOSKOWN =     0    Vosko Wilk Nusair interpolation
   LHFCALC =     F    Hartree Fock is set to
   LHFONE  =     F    Hartree Fock one center treatment
   AEXX    =    0.0000 exact exchange contribution

 Parameters of functionals:
   PE:
     No parameter
 
 Van der Waals corrections
   IVDW    =     0    specifies the selected vdW correction

 Linear response parameters
   LEPSILON=     F    determine dielectric tensor
   LRPA    =     F    only Hartree local field effects (RPA)
   LNABLA  =     F    use nabla operator in PAW spheres
   LVEL    =     F    velocity operator in full k-point grid
   CSHIFT  =0.1000    complex shift for real part using Kramers Kronig
   OMEGAMAX=  -1.0    maximum frequency
   DEG_THRESHOLD= 0.2000000E-02 threshold for treating states as degnerate
   RTIME   =   -0.100 relaxation time in fs
  (WPLASMAI=    0.000 imaginary part of plasma frequency in eV, 0.658/RTIME)
   DFIELD  = 0.0000000 0.0000000 0.0000000 field for delta impulse in time
 
  Optional k-point grid parameters
   LKPOINTS_OPT  =     F    use optional k-point grid
   KPOINTS_OPT_MODE=     1    mode for optional k-point grid
 
 Orbital magnetization related:
   ORBITALMAG=     F  switch on orbital magnetization
   LCHIMAG   =     F  perturbation theory with respect to B field
   DQ        =  0.001000  dq finite difference perturbation B field
   LLRAUG    =     F  two centre corrections for induced B field
   LBONE     =     F  B-component reconstruction in AE one-centre
   LVGVCALC  =     T  calculate vGv susceptibility
   LVGVAPPL  =     F  apply vGv susceptibility instead of pGv for G=0

 Random number generation:
   RANDOM_GENERATOR = DEFAULT
   PCG_SEED         = not used


--------------------------------------------------------------------------------------------------------


 Static calculation
 charge density and potential will be updated during run
 non-spin polarized calculation
 Variant of blocked Davidson
 Davidson routine will perform the subspace rotation
 perform sub-space diagonalisation
    after iterative eigenvector-optimisation
 modified Broyden-mixing scheme, WC =      100.0
 initial mixing is a Kerker type mixing with AMIX =  0.4000 and BMIX =      1.0000
 Hartree-type preconditioning will be used
 using additional bands           40
 reciprocal scheme for non local part
 use partial core corrections
 calculate Harris-corrections to forces 
   (improved forces if not selfconsistent)
 use gradient corrections 
 use of overlap-Matrix (Vanderbilt PP)
 Gauss-broadening in eV      SIGMA  =   0.05


--------------------------------------------------------------------------------------------------------


  energy-cutoff  :      600.00
  volume of cell :      549.75
      direct lattice vectors                 reciprocal lattice vectors
     3.450000000  1.991858429  0.000000000     0.144927536  0.251021856  0.000000000
    -3.450000000  1.991858429  0.000000000    -0.144927536  0.251021856  0.000000000
     0.000000000  0.000000000 40.000000000     0.000000000  0.000000000  0.025000000

  length of vectors
     3.983716857  3.983716857 40.000000000     0.289855072  0.289855072  0.025000000


 
 k-points in units of 2pi/SCALE and weight: k-points                                
   0.00000000  0.00000000  0.00000000       0.012
   0.01610306  0.02789132  0.00000000       0.074
   0.03220612  0.05578263  0.00000000       0.074
   0.04830918  0.08367395  0.00000000       0.074
   0.06441224  0.11156527  0.00000000       0.074
   0.00000000  0.05578263  0.00000000       0.074
   0.01610306  0.08367395  0.00000000       0.148
   0.03220612  0.11156527  0.00000000       0.148
   0.04830918  0.13945659  0.00000000       0.074
   0.00000000  0.11156527  0.00000000       0.074
   0.01610306  0.13945659  0.00000000       0.148
   0.00000000  0.16734790  0.00000000       0.025
 
 k-points in reciprocal lattice and weights: k-points                                
   0.00000000  0.00000000  0.00000000       0.012
   0.11111111  0.00000000  0.00000000       0.074
   0.22222222  0.00000000  0.00000000       0.074
   0.33333333  0.00000000  0.00000000       0.074
   0.44444444  0.00000000  0.00000000       0.074
   0.11111111  0.11111111  0.00000000       0.074
   0.22222222  0.11111111  0.00000000       0.148
   0.33333333  0.11111111  0.00000000       0.148
   0.44444444  0.11111111  0.00000000       0.074
   0.22222222  0.22222222  0.00000000       0.074
   0.33333333  0.22222222  0.00000000       0.148
   0.33333333  0.33333333  0.00000000       0.025
 
 position of ions in fractional coordinates (direct lattice) 
   0.33333333  0.66666667  0.10000000
   0.66666667  0.33333333  0.10000000
 
 position of ions in cartesian coordinates  (Angst):
  -1.15000000  1.99185843  4.00000000
   1.15000000  1.99185843  4.00000000
 


--------------------------------------------------------------------------------------------------------


 k-point     1 :   0.0000 0.0000 0.0000  plane waves:   18177
 k-point     2 :   0.1111 0.0000 0.0000  plane waves:   18192
 k-point     3 :   0.2222 0.0000 0.0000  plane waves:   18298
 k-point     4 :   0.3333 0.0000 0.0000  plane waves:   18336
 k-point     5 :   0.4444 0.0000 0.0000  plane waves:   18358
 k-point     6 :   0.1111 0.1111 0.0000  plane waves:   18304
 k-point     7 :   0.2222 0.1111 0.0000  plane waves:   18353
 k-point     8 :   0.3333 0.1111 0.0000  plane waves:   18384
 k-point     9 :   0.4444 0.1111 0.0000  plane waves:   18404
 k-point    10 :   0.2222 0.2222 0.0000  plane waves:   18366
 k-point    11 :   0.3333 0.2222 0.0000  plane waves:   18395
 k-point    12 :   0.3333 0.3333 0.0000  plane waves:   18438

 maximum and minimum number of plane-waves per node :     18438    18177

 maximum number of plane-waves:     18438
 maximum index in each direction: 
   IXMAX=    7   IYMAX=    7   IZMAX=   79
   IXMIN=   -8   IYMIN=   -8   IZMIN=  -79


 serial   3D FFT for wavefunctions
 parallel 3D FFT for charge:
    minimum data exchange during FFTs selected (reduces bandwidth)


 total amount of memory used by VASP MPI-rank0    69276. kBytes
=======================================================================

   base                                    :      30000. kBytes
   nonl-proj                               :      14750. kBytes
   fftplans                                :       3909. kBytes
   grid                                    :      17063. kBytes
   one-center                              :          6. kBytes
   wavefun                                 :       3548. kBytes
 
     INWAV:  cpu time      0.0000: real time      0.0000
 Broyden mixing: mesh for mixing (old mesh)
   NGX = 15   NGY = 15   NGZ =159
  (NGX  = 64   NGY  = 64   NGZ  =640)
  gives a total of  35775 points

 initial charge density was supplied:
 charge density of overlapping atoms calculated
 number of electron       4.0000000 magnetization 
 keeping initial charge density in first step


--------------------------------------------------------------------------------------------------------


 Maximum index for augmentation-charges          793 (set IRDMAX)


--------------------------------------------------------------------------------------------------------


 First call to EWALD:  gamma=   0.216
 Maximum number of real-space cells   6x   6x   1
 Maximum number of reciprocal cells   2x   2x  12

    FEWALD:  cpu time      0.0005: real time      0.0005


--------------------------------------- Ionic step        1  -------------------------------------------




--------------------------------------- Iteration      1(   1)  ---------------------------------------


    POTLOK:  cpu time      0.0813: real time      0.0820
    SETDIJ:  cpu time      0.0050: real time      0.0050
     EDDAV:  cpu time      1.0760: real time      1.0831
       DOS:  cpu time      0.0008: real time      0.0008
    --------------------------------------------
      LOOP:  cpu time      1.1636: real time      1.1715

 eigenvalue-minimisations  :  1008
 total energy-change (2. order) : 0.3444717E+01  (-0.1074782E+03)
 number of electron       4.0000000 magnetization 
 augmentation part        4.0000000 magnetization 

 DIPCOR: dipole corrections for dipol
 direction  3 min pos   385,
 dipolmoment           0.000000      0.000000      0.000000 electrons x Angstroem
 Tr[quadrupol]       -11.629474

 energy correction for charged system         0.000000 eV
 dipol+quadrupol energy correction           -0.000000 eV
 added-field ion interaction         -0.000000 eV  (added to PSCEN)


 Free energy of the ion-electron system (eV)
  ---------------------------------------------------
  alpha Z        PSCENC =         0.12710513
  Ewald energy   TEWEN  =       267.87820229
  -Hartree energ DENC   =      -302.84367504
  -exchange      EXHF   =         0.00000000
  -V(xc)+E(xc)   XCENC  =         5.20344317
  PAW double counting   =        30.51246266      -29.24515235
  entropy T*S    EENTRO =        -0.00190497
  eigenvalues    EBANDS =       -23.14427145
  atomic energy  EATOM  =        54.95850721
  Solvation  Ediel_sol  =         0.00000000
  ---------------------------------------------------
  free energy    TOTEN  =         3.44471666 eV

  energy without entropy =        3.44662163  energy(sigma->0) =        3.44566914


--------------------------------------------------------------------------------------------------------




--------------------------------------- Iteration      1(   2)  ---------------------------------------


     EDDAV:  cpu time      1.3287: real time      1.3366
       DOS:  cpu time      0.0007: real time      0.0007
    --------------------------------------------
      LOOP:  cpu time      1.3294: real time      1.3373

 eigenvalue-minimisations  :  1470
 total energy-change (2. order) :-0.6728548E+01  (-0.6355975E+01)
 number of electron       4.0000000 magnetization 
 augmentation part        4.0000000 magnetization 

 DIPCOR: dipole corrections for dipol
 direction  3 min pos   385,
 dipolmoment           0.000000      0.000000      0.000000 electrons x Angstroem
 Tr[quadrupol]       -11.629474

 energy correction for charged system         0.000000 eV
 dipol+quadrupol energy correction           -0.000000 eV
 added-field ion interaction         -0.000000 eV  (added to PSCEN)


 Free energy of the ion-electron system (eV)
  ---------------------------------------------------
  alpha Z        PSCENC =         0.12710513
  Ewald energy   TEWEN  =       267.87820229
  -Hartree energ DENC   =      -302.84367504
  -exchange      EXHF   =         0.00000000
  -V(xc)+E(xc)   XCENC  =         5.20344317
  PAW double counting   =        30.51246266      -29.24515235
  entropy T*S    EENTRO =        -0.00132512
  eigenvalues    EBANDS =       -29.87339892
  atomic energy  EATOM  =        54.95850721
  Solvation  Ediel_sol  =         0.00000000
  ---------------------------------------------------
  free energy    TOTEN  =        -3.28383097 eV

  energy without entropy =       -3.28250584  energy(sigma->0) =       -3.28316840


--------------------------------------------------------------------------------------------------------




--------------------------------------- Iteration      1(   3)  ---------------------------------------


     EDDAV:  cpu time      1.1601: real time      1.1674
       DOS:  cpu time      0.0005: real time      0.0005
    --------------------------------------------
      LOOP:  cpu time      1.1604: real time      1.1676

 eigenvalue-minimisations  :  1302
 total energy-change (2. order) :-0.5492056E-01  (-0.5492031E-01)
 number of electron       4.0000000 magnetization 
 augmentation part        4.0000000 magnetization 

 DIPCOR: dipole corrections for dipol
 direction  3 min pos   385,
 dipolmoment           0.000000      0.000000      0.000000 electrons x Angstroem
 Tr[quadrupol]       -11.629474

 energy correction for charged system         0.000000 eV
 dipol+quadrupol energy correction           -0.000000 eV
 added-field ion interaction         -0.000000 eV  (added to PSCEN)


 Free energy of the ion-electron system (eV)
  ---------------------------------------------------
  alpha Z        PSCENC =         0.12710513
  Ewald energy   TEWEN  =       267.87820229
  -Hartree energ DENC   =      -302.84367504
  -exchange      EXHF   =         0.00000000
  -V(xc)+E(xc)   XCENC  =         5.20344317
  PAW double counting   =        30.51246266      -29.24515235
  entropy T*S    EENTRO =        -0.00133083
  eigenvalues    EBANDS =       -29.92831377
  atomic energy  EATOM  =        54.95850721
  Solvation  Ediel_sol  =         0.00000000
  ---------------------------------------------------
  free energy    TOTEN  =        -3.33875153 eV

  energy without entropy =       -3.33742069  energy(sigma->0) =       -3.33808611


--------------------------------------------------------------------------------------------------------




--------------------------------------- Iteration      1(   4)  ---------------------------------------


     EDDAV:  cpu time      1.2715: real time      1.2781
       DOS:  cpu time      0.0004: real time      0.0004
    --------------------------------------------
      LOOP:  cpu time      1.2718: real time      1.2784

 eigenvalue-minimisations  :  1764
 total energy-change (2. order) :-0.2196150E-03  (-0.2196148E-03)
 number of electron       4.0000000 magnetization 
 augmentation part        4.0000000 magnetization 

 DIPCOR: dipole corrections for dipol
 direction  3 min pos   385,
 dipolmoment           0.000000      0.000000      0.000000 electrons x Angstroem
 Tr[quadrupol]       -11.629474

 energy correction for charged system         0.000000 eV
 dipol+quadrupol energy correction           -0.000000 eV
 added-field ion interaction         -0.000000 eV  (added to PSCEN)


 Free energy of the ion-electron system (eV)
  ---------------------------------------------------
  alpha Z        PSCENC =         0.12710513
  Ewald energy   TEWEN  =       267.87820229
  -Hartree energ DENC   =      -302.84367504
  -exchange      EXHF   =         0.00000000
  -V(xc)+E(xc)   XCENC  =         5.20344317
  PAW double counting   =        30.51246266      -29.24515235
  entropy T*S    EENTRO =        -0.00133089
  eigenvalues    EBANDS =       -29.92853333
  atomic energy  EATOM  =        54.95850721
  Solvation  Ediel_sol  =         0.00000000
  ---------------------------------------------------
  free energy    TOTEN  =        -3.33897114 eV

  energy without entropy =       -3.33764025  energy(sigma->0) =       -3.33830570


--------------------------------------------------------------------------------------------------------




--------------------------------------- Iteration      1(   5)  ---------------------------------------


     EDDAV:  cpu time      0.9828: real time      0.9884
       DOS:  cpu time      0.0006: real time      0.0006
    CHARGE:  cpu time      0.0842: real time      0.0846
    MIXING:  cpu time      0.0010: real time      0.0010
    --------------------------------------------
      LOOP:  cpu time      1.0684: real time      1.0744

 eigenvalue-minimisations  :  1344
 total energy-change (2. order) :-0.6664381E-07  (-0.6637312E-07)
 number of electron       4.0000000 magnetization 
 augmentation part       -0.1065136 magnetization 

 DIPCOR: dipole corrections for dipol
 direction  3 min pos   385,
 dipolmoment           0.000000      0.000000      0.000000 electrons x Angstroem
 Tr[quadrupol]       -11.629474

 energy correction for charged system         0.000000 eV
 dipol+quadrupol energy correction           -0.000000 eV
 added-field ion interaction         -0.000000 eV  (added to PSCEN)


 Broyden mixing:
  rms(total) = 0.18266E+00    rms(broyden)= 0.18266E+00
  rms(prec ) = 0.19162E+00
  weight for this iteration     100.00

 Free energy of the ion-electron system (eV)
  ---------------------------------------------------
  alpha Z        PSCENC =         0.12710513
  Ewald energy   TEWEN  =       267.87820229
  -Hartree energ DENC   =      -302.84367504
  -exchange      EXHF   =         0.00000000
  -V(xc)+E(xc)   XCENC  =         5.20344317
  PAW double counting   =        30.51246266      -29.24515235
  entropy T*S    EENTRO =        -0.00133089
  eigenvalues    EBANDS =       -29.92853339
  atomic energy  EATOM  =        54.95850721
  Solvation  Ediel_sol  =         0.00000000
  ---------------------------------------------------
  free energy    TOTEN  =        -3.33897121 eV

  energy without entropy =       -3.33764032  energy(sigma->0) =       -3.33830576


--------------------------------------------------------------------------------------------------------




--------------------------------------- Iteration      1(   6)  ---------------------------------------


    POTLOK:  cpu time      0.0399: real time      0.0401
    SETDIJ:  cpu time      0.0009: real time      0.0009
     EDDAV:  cpu time      1.0985: real time      1.1044
       DOS:  cpu time      0.0004: real time      0.0004
    CHARGE:  cpu time      0.0882: real time      0.0887
    MIXING:  cpu time      0.0010: real time      0.0010
    --------------------------------------------
      LOOP:  cpu time      1.2291: real time      1.2356

 eigenvalue-minimisations  :  1512
 total energy-change (2. order) : 0.1136586E+00  (-0.4072830E-02)
 number of electron       4.0000000 magnetization 
 augmentation part       -0.1056313 magnetization 

 DIPCOR: dipole corrections for dipol
 direction  3 min pos   385,
 dipolmoment           0.000000      0.000000      0.000000 electrons x Angstroem
 Tr[quadrupol]       -11.735421

 energy correction for charged system         0.000000 eV
 dipol+quadrupol energy correction           -0.000000 eV
 added-field ion interaction         -0.000000 eV  (added to PSCEN)


 Broyden mixing:
  rms(total) = 0.11158E+00    rms(broyden)= 0.11158E+00
  rms(prec ) = 0.11803E+00
  weight for this iteration     100.00

 eigenvalues of (default mixing * dielectric matrix)
  average eigenvalue GAMMA=   2.5083
  2.5083

 Free energy of the ion-electron system (eV)
  ---------------------------------------------------
  alpha Z        PSCENC =         0.12710513
  Ewald energy   TEWEN  =       267.87820229
  -Hartree energ DENC   =      -304.24253381
  -exchange      EXHF   =         0.00000000
  -V(xc)+E(xc)   XCENC  =         5.26555059
  PAW double counting   =        40.47678257      -39.23834157
  entropy T*S    EENTRO =        -0.00205836
  eigenvalues    EBANDS =       -28.44852666
  atomic energy  EATOM  =        54.95850721
  Solvation  Ediel_sol  =         0.00000000
  ---------------------------------------------------
  free energy    TOTEN  =        -3.22531261 eV

  energy without entropy =       -3.22325425  energy(sigma->0) =       -3.22428343


--------------------------------------------------------------------------------------------------------




--------------------------------------- Iteration      1(   7)  ---------------------------------------


    POTLOK:  cpu time      0.0405: real time      0.0407
    SETDIJ:  cpu time      0.0011: real time      0.0011
     EDDAV:  cpu time      1.2866: real time      1.2934
       DOS:  cpu time      0.0006: real time      0.0006
    CHARGE:  cpu time      0.0858: real time      0.0862
    MIXING:  cpu time      0.0015: real time      0.0015
    --------------------------------------------
      LOOP:  cpu time      1.4161: real time      1.4235

 eigenvalue-minimisations  :  1638
 total energy-change (2. order) : 0.8497921E-01  (-0.1077880E-01)
 number of electron       4.0000000 magnetization 
 augmentation part       -0.1033373 magnetization 

 DIPCOR: dipole corrections for dipol
 direction  3 min pos   385,
 dipolmoment           0.000000      0.000000     -0.000000 electrons x Angstroem
 Tr[quadrupol]       -11.958293

 energy correction for charged system         0.000000 eV
 dipol+quadrupol energy correction           -0.000000 eV
 added-field ion interaction          0.000000 eV  (added to PSCEN)


 Broyden mixing:
  rms(total) = 0.23894E-01    rms(broyden)= 0.23894E-01
  rms(prec ) = 0.25305E-01
  weight for this iteration     100.00

 eigenvalues of (default mixing * dielectric matrix)
  average eigenvalue GAMMA=   1.7575
  1.7575  1.7575

 Free energy of the ion-electron system (eV)
  ---------------------------------------------------
  alpha Z        PSCENC =         0.12710513
  Ewald energy   TEWEN  =       267.87820229
  -Hartree energ DENC   =      -307.07129539
  -exchange      EXHF   =         0.00000000
  -V(xc)+E(xc)   XCENC  =         5.42097360
  PAW double counting   =        58.07003134      -56.86879748
  entropy T*S    EENTRO =        -0.00449036
  eigenvalues    EBANDS =       -25.65056973
  atomic energy  EATOM  =        54.95850721
  Solvation  Ediel_sol  =         0.00000000
  ---------------------------------------------------
  free energy    TOTEN  =        -3.14033340 eV

  energy without entropy =       -3.13584304  energy(sigma->0) =       -3.13808822


--------------------------------------------------------------------------------------------------------




--------------------------------------- Iteration      1(   8)  ---------------------------------------


    POTLOK:  cpu time      0.0444: real time      0.0449
    SETDIJ:  cpu time      0.0021: real time      0.0022
     EDDAV:  cpu time      1.2478: real time      1.2544
       DOS:  cpu time      0.0005: real time      0.0004
    CHARGE:  cpu time      0.0992: real time      0.0997
    MIXING:  cpu time      0.0015: real time      0.0015
    --------------------------------------------
      LOOP:  cpu time      1.3956: real time      1.4032

 eigenvalue-minimisations  :  1428
 total energy-change (2. order) :-0.7074419E-02  (-0.5112960E-03)
 number of electron       4.0000000 magnetization 
 augmentation part       -0.1041473 magnetization 

 DIPCOR: dipole corrections for dipol
 direction  3 min pos   385,
 dipolmoment           0.000000      0.000000     -0.000000 electrons x Angstroem
 Tr[quadrupol]       -11.971219

 energy correction for charged system         0.000000 eV
 dipol+quadrupol energy correction           -0.000000 eV
 added-field ion interaction          0.000000 eV  (added to PSCEN)


 Broyden mixing:
  rms(total) = 0.16488E-01    rms(broyden)= 0.16488E-01
  rms(prec ) = 0.18809E-01
  weight for this iteration     100.00

 eigenvalues of (default mixing * dielectric matrix)
  average eigenvalue GAMMA=   2.1134
  0.9435  2.6984  2.6984

 Free energy of the ion-electron system (eV)
  ---------------------------------------------------
  alpha Z        PSCENC =         0.12710513
  Ewald energy   TEWEN  =       267.87820229
  -Hartree energ DENC   =      -306.77338491
  -exchange      EXHF   =         0.00000000
  -V(xc)+E(xc)   XCENC  =         5.39166889
  PAW double counting   =        52.56681439      -51.34966130
  entropy T*S    EENTRO =        -0.00479069
  eigenvalues    EBANDS =       -25.94186883
  atomic energy  EATOM  =        54.95850721
  Solvation  Ediel_sol  =         0.00000000
  ---------------------------------------------------
  free energy    TOTEN  =        -3.14740781 eV

  energy without entropy =       -3.14261713  energy(sigma->0) =       -3.14501247


--------------------------------------------------------------------------------------------------------




--------------------------------------- Iteration      1(   9)  ---------------------------------------


    POTLOK:  cpu time      0.0460: real time      0.0465
    SETDIJ:  cpu time      0.0014: real time      0.0014
     EDDAV:  cpu time      1.3706: real time      1.3777
       DOS:  cpu time      0.0005: real time      0.0005
    CHARGE:  cpu time      0.1121: real time      0.1126
    MIXING:  cpu time      0.0018: real time      0.0018
    --------------------------------------------
      LOOP:  cpu time      1.5324: real time      1.5405

 eigenvalue-minimisations  :  1554
 total energy-change (2. order) : 0.4944758E-02  (-0.4149164E-03)
 number of electron       4.0000000 magnetization 
 augmentation part       -0.1034476 magnetization 

 DIPCOR: dipole corrections for dipol
 direction  3 min pos   385,
 dipolmoment           0.000000      0.000000     -0.000000 electrons x Angstroem
 Tr[quadrupol]       -12.085127

 energy correction for charged system         0.000000 eV
 dipol+quadrupol energy correction           -0.000000 eV
 added-field ion interaction          0.000000 eV  (added to PSCEN)


 Broyden mixing:
  rms(total) = 0.32886E-02    rms(broyden)= 0.32886E-02
  rms(prec ) = 0.46117E-02
  weight for this iteration     100.00

 eigenvalues of (default mixing * dielectric matrix)
  average eigenvalue GAMMA=   1.9956
  3.1467  2.3338  1.6379  0.8639

 Free energy of the ion-electron system (eV)
  ---------------------------------------------------
  alpha Z        PSCENC =         0.12710513
  Ewald energy   TEWEN  =       267.87820229
  -Hartree energ DENC   =      -307.62387049
  -exchange      EXHF   =         0.00000000
  -V(xc)+E(xc)   XCENC  =         5.42821647
  PAW double counting   =        53.52066951      -52.30178659
  entropy T*S    EENTRO =        -0.00436937
  eigenvalues    EBANDS =       -25.12513722
  atomic energy  EATOM  =        54.95850721
  Solvation  Ediel_sol  =         0.00000000
  ---------------------------------------------------
  free energy    TOTEN  =        -3.14246306 eV

  energy without entropy =       -3.13809369  energy(sigma->0) =       -3.14027837


--------------------------------------------------------------------------------------------------------




--------------------------------------- Iteration      1(  10)  ---------------------------------------


    POTLOK:  cpu time      0.0466: real time      0.0472
    SETDIJ:  cpu time      0.0009: real time      0.0009
     EDDAV:  cpu time      1.2910: real time      1.2976
       DOS:  cpu time      0.0006: real time      0.0006
    CHARGE:  cpu time      0.1146: real time      0.1151
    MIXING:  cpu time      0.0017: real time      0.0017
    --------------------------------------------
      LOOP:  cpu time      1.4554: real time      1.4631

 eigenvalue-minimisations  :  1428
 total energy-change (2. order) :-0.5497552E-03  (-0.3545218E-04)
 number of electron       4.0000000 magnetization 
 augmentation part       -0.1032822 magnetization 

 DIPCOR: dipole corrections for dipol
 direction  3 min pos   385,
 dipolmoment           0.000000      0.000000     -0.000000 electrons x Angstroem
 Tr[quadrupol]       -12.132713

 energy correction for charged system         0.000000 eV
 dipol+quadrupol energy correction           -0.000000 eV
 added-field ion interaction          0.000000 eV  (added to PSCEN)


 Broyden mixing:
  rms(total) = 0.21716E-02    rms(broyden)= 0.21716E-02
  rms(prec ) = 0.30386E-02
  weight for this iteration     100.00

 eigenvalues of (default mixing * dielectric matrix)
  average eigenvalue GAMMA=   2.3909
  4.6197  2.6838  2.6838  0.9593  1.0078

 Free energy of the ion-electron system (eV)
  ---------------------------------------------------
  alpha Z        PSCENC =         0.12710513
  Ewald energy   TEWEN  =       267.87820229
  -Hartree energ DENC   =      -307.88387142
  -exchange      EXHF   =         0.00000000
  -V(xc)+E(xc)   XCENC  =         5.43470391
  PAW double counting   =        53.81320727      -52.59638708
  entropy T*S    EENTRO =        -0.00417791
  eigenvalues    EBANDS =       -24.87030221
  atomic energy  EATOM  =        54.95850721
  Solvation  Ediel_sol  =         0.00000000
  ---------------------------------------------------
  free energy    TOTEN  =        -3.14301281 eV

  energy without entropy =       -3.13883490  energy(sigma->0) =       -3.14092386


--------------------------------------------------------------------------------------------------------




--------------------------------------- Iteration      1(  11)  ---------------------------------------


    POTLOK:  cpu time      0.0507: real time      0.0511
    SETDIJ:  cpu time      0.0017: real time      0.0017
     EDDAV:  cpu time      1.3393: real time      1.3465
       DOS:  cpu time      0.0005: real time      0.0005
    CHARGE:  cpu time      0.1057: real time      0.1062
    MIXING:  cpu time      0.0016: real time      0.0016
    --------------------------------------------
      LOOP:  cpu time      1.4994: real time      1.5075

 eigenvalue-minimisations  :  1512
 total energy-change (2. order) :-0.9127176E-03  (-0.3797459E-04)
 number of electron       4.0000000 magnetization 
 augmentation part       -0.1031719 magnetization 

 DIPCOR: dipole corrections for dipol
 direction  3 min pos   385,
 dipolmoment           0.000000      0.000000     -0.000000 electrons x Angstroem
 Tr[quadrupol]       -12.201808

 energy correction for charged system         0.000000 eV
 dipol+quadrupol energy correction           -0.000000 eV
 added-field ion interaction          0.000000 eV  (added to PSCEN)


 Broyden mixing:
  rms(total) = 0.99115E-03    rms(broyden)= 0.99115E-03
  rms(prec ) = 0.13162E-02
  weight for this iteration     100.00

 eigenvalues of (default mixing * dielectric matrix)
  average eigenvalue GAMMA=   2.7426
  5.9613  0.9219  1.0143  3.5443  2.5068  2.5068

 Free energy of the ion-electron system (eV)
  ---------------------------------------------------
  alpha Z        PSCENC =         0.12710513
  Ewald energy   TEWEN  =       267.87820229
  -Hartree energ DENC   =      -308.19910702
  -exchange      EXHF   =         0.00000000
  -V(xc)+E(xc)   XCENC  =         5.43924302
  PAW double counting   =        53.88671293      -52.67173256
  entropy T*S    EENTRO =        -0.00403507
  eigenvalues    EBANDS =       -24.55882145
  atomic energy  EATOM  =        54.95850721
  Solvation  Ediel_sol  =         0.00000000
  ---------------------------------------------------
  free energy    TOTEN  =        -3.14392553 eV

  energy without entropy =       -3.13989046  energy(sigma->0) =       -3.14190799


--------------------------------------------------------------------------------------------------------




--------------------------------------- Iteration      1(  12)  ---------------------------------------


    POTLOK:  cpu time      0.0478: real time      0.0483
    SETDIJ:  cpu time      0.0013: real time      0.0013
     EDDAV:  cpu time      1.2309: real time      1.2375
       DOS:  cpu time      0.0004: real time      0.0004
    CHARGE:  cpu time      0.1049: real time      0.1054
    MIXING:  cpu time      0.0013: real time      0.0013
    --------------------------------------------
      LOOP:  cpu time      1.3867: real time      1.3942

 eigenvalue-minimisations  :  1428
 total energy-change (2. order) :-0.6871329E-03  (-0.7632112E-05)
 number of electron       4.0000000 magnetization 
 augmentation part       -0.1031906 magnetization 

 DIPCOR: dipole corrections for dipol
 direction  3 min pos   385,
 dipolmoment           0.000000      0.000000     -0.000000 electrons x Angstroem
 Tr[quadrupol]       -12.232617

 energy correction for charged system         0.000000 eV
 dipol+quadrupol energy correction           -0.000000 eV
 added-field ion interaction          0.000000 eV  (added to PSCEN)


 Broyden mixing:
  rms(total) = 0.45920E-03    rms(broyden)= 0.45920E-03
  rms(prec ) = 0.57936E-03
  weight for this iteration     100.00

 eigenvalues of (default mixing * dielectric matrix)
  average eigenvalue GAMMA=   2.8498
  6.5511  4.3410  0.9243  1.0009  2.8673  2.4371  1.8267

 Free energy of the ion-electron system (eV)
  ---------------------------------------------------
  alpha Z        PSCENC =         0.12710513
  Ewald energy   TEWEN  =       267.87820229
  -Hartree energ DENC   =      -308.30133250
  -exchange      EXHF   =         0.00000000
  -V(xc)+E(xc)   XCENC  =         5.43841161
  PAW double counting   =        53.69674923      -52.47963334
  entropy T*S    EENTRO =        -0.00403274
  eigenvalues    EBANDS =       -24.45858955
  atomic energy  EATOM  =        54.95850721
  Solvation  Ediel_sol  =         0.00000000
  ---------------------------------------------------
  free energy    TOTEN  =        -3.14461266 eV

  energy without entropy =       -3.14057992  energy(sigma->0) =       -3.14259629


--------------------------------------------------------------------------------------------------------




--------------------------------------- Iteration      1(  13)  ---------------------------------------


    POTLOK:  cpu time      0.0472: real time      0.0479
    SETDIJ:  cpu time      0.0015: real time      0.0015
     EDDAV:  cpu time      1.2444: real time      1.2508
       DOS:  cpu time      0.0006: real time      0.0006
    CHARGE:  cpu time      0.0978: real time      0.0982
    MIXING:  cpu time      0.0015: real time      0.0015
    --------------------------------------------
      LOOP:  cpu time      1.3930: real time      1.4006

 eigenvalue-minimisations  :  1428
 total energy-change (2. order) :-0.2105515E-03  (-0.2256451E-05)
 number of electron       4.0000000 magnetization 
 augmentation part       -0.1031807 magnetization 

 DIPCOR: dipole corrections for dipol
 direction  3 min pos   385,
 dipolmoment           0.000000      0.000000     -0.000000 electrons x Angstroem
 Tr[quadrupol]       -12.241822

 energy correction for charged system         0.000000 eV
 dipol+quadrupol energy correction           -0.000000 eV
 added-field ion interaction          0.000000 eV  (added to PSCEN)


 Broyden mixing:
  rms(total) = 0.21278E-03    rms(broyden)= 0.21278E-03
  rms(prec ) = 0.28261E-03
  weight for this iteration     100.00

 eigenvalues of (default mixing * dielectric matrix)
  average eigenvalue GAMMA=   2.8662
  7.5455  4.4043  3.0795  2.5145  2.4532  0.9227  1.0376  0.9726

 Free energy of the ion-electron system (eV)
  ---------------------------------------------------
  alpha Z        PSCENC =         0.12710513
  Ewald energy   TEWEN  =       267.87820229
  -Hartree energ DENC   =      -308.33396494
  -exchange      EXHF   =         0.00000000
  -V(xc)+E(xc)   XCENC  =         5.43857310
  PAW double counting   =        53.70554340      -52.48855261
  entropy T*S    EENTRO =        -0.00401763
  eigenvalues    EBANDS =       -24.42621917
  atomic energy  EATOM  =        54.95850721
  Solvation  Ediel_sol  =         0.00000000
  ---------------------------------------------------
  free energy    TOTEN  =        -3.14482321 eV

  energy without entropy =       -3.14080558  energy(sigma->0) =       -3.14281440


--------------------------------------------------------------------------------------------------------




--------------------------------------- Iteration      1(  14)  ---------------------------------------


    POTLOK:  cpu time      0.0473: real time      0.0478
    SETDIJ:  cpu time      0.0013: real time      0.0013
     EDDAV:  cpu time      1.3204: real time      1.3271
       DOS:  cpu time      0.0006: real time      0.0006
    CHARGE:  cpu time      0.0894: real time      0.0898
    MIXING:  cpu time      0.0019: real time      0.0019
    --------------------------------------------
      LOOP:  cpu time      1.4609: real time      1.4686

 eigenvalue-minimisations  :  1554
 total energy-change (2. order) :-0.1333868E-03  (-0.1362714E-05)
 number of electron       4.0000000 magnetization 
 augmentation part       -0.1031679 magnetization 

 DIPCOR: dipole corrections for dipol
 direction  3 min pos   385,
 dipolmoment           0.000000      0.000000     -0.000000 electrons x Angstroem
 Tr[quadrupol]       -12.250098

 energy correction for charged system         0.000000 eV
 dipol+quadrupol energy correction           -0.000000 eV
 added-field ion interaction          0.000000 eV  (added to PSCEN)


 Broyden mixing:
  rms(total) = 0.11243E-03    rms(broyden)= 0.11243E-03
  rms(prec ) = 0.14079E-03
  weight for this iteration     100.00

 eigenvalues of (default mixing * dielectric matrix)
  average eigenvalue GAMMA=   3.0953
  7.9749  5.5341  3.4899  3.0833  2.4282  2.4282  0.9249  1.0193  0.9754

 Free energy of the ion-electron system (eV)
  ---------------------------------------------------
  alpha Z        PSCENC =         0.12710513
  Ewald energy   TEWEN  =       267.87820229
  -Hartree energ DENC   =      -308.36324617
  -exchange      EXHF   =         0.00000000
  -V(xc)+E(xc)   XCENC  =         5.43893290
  PAW double counting   =        53.70339946      -52.48699725
  entropy T*S    EENTRO =        -0.00400140
  eigenvalues    EBANDS =       -24.39685877
  atomic energy  EATOM  =        54.95850721
  Solvation  Ediel_sol  =         0.00000000
  ---------------------------------------------------
  free energy    TOTEN  =        -3.14495660 eV

  energy without entropy =       -3.14095520  energy(sigma->0) =       -3.14295590


--------------------------------------------------------------------------------------------------------




--------------------------------------- Iteration      1(  15)  ---------------------------------------


    POTLOK:  cpu time      0.0488: real time      0.0494
    SETDIJ:  cpu time      0.0015: real time      0.0015
     EDDAV:  cpu time      1.2213: real time      1.2274
       DOS:  cpu time      0.0006: real time      0.0006
    CHARGE:  cpu time      0.0837: real time      0.0841
    MIXING:  cpu time      0.0014: real time      0.0014
    --------------------------------------------
      LOOP:  cpu time      1.3573: real time      1.3644

 eigenvalue-minimisations  :  1470
 total energy-change (2. order) :-0.7418018E-04  (-0.1343894E-05)
 number of electron       4.0000000 magnetization 
 augmentation part       -0.1031711 magnetization 

 DIPCOR: dipole corrections for dipol
 direction  3 min pos   385,
 dipolmoment           0.000000      0.000000     -0.000000 electrons x Angstroem
 Tr[quadrupol]       -12.252970

 energy correction for charged system         0.000000 eV
 dipol+quadrupol energy correction           -0.000000 eV
 added-field ion interaction          0.000000 eV  (added to PSCEN)


 Broyden mixing:
  rms(total) = 0.37460E-04    rms(broyden)= 0.37460E-04
  rms(prec ) = 0.48714E-04
  weight for this iteration     100.00

 eigenvalues of (default mixing * dielectric matrix)
  average eigenvalue GAMMA=   2.9395
  8.1101  5.6266  3.4580  2.8854  2.5987  2.1677  0.9235  0.9913  1.0216  1.6118

 Free energy of the ion-electron system (eV)
  ---------------------------------------------------
  alpha Z        PSCENC =         0.12710513
  Ewald energy   TEWEN  =       267.87820229
  -Hartree energ DENC   =      -308.36511578
  -exchange      EXHF   =         0.00000000
  -V(xc)+E(xc)   XCENC  =         5.43874954
  PAW double counting   =        53.72098530      -52.50438773
  entropy T*S    EENTRO =        -0.00399943
  eigenvalues    EBANDS =       -24.39507730
  atomic energy  EATOM  =        54.95850721
  Solvation  Ediel_sol  =         0.00000000
  ---------------------------------------------------
  free energy    TOTEN  =        -3.14503078 eV

  energy without entropy =       -3.14103135  energy(sigma->0) =       -3.14303106


--------------------------------------------------------------------------------------------------------




--------------------------------------- Iteration      1(  16)  ---------------------------------------


    POTLOK:  cpu time      0.0471: real time      0.0475
    SETDIJ:  cpu time      0.0012: real time      0.0012
     EDDAV:  cpu time      1.1073: real time      1.1129
       DOS:  cpu time      0.0007: real time      0.0007
    CHARGE:  cpu time      0.0919: real time      0.0923
    MIXING:  cpu time      0.0016: real time      0.0016
    --------------------------------------------
      LOOP:  cpu time      1.2498: real time      1.2562

 eigenvalue-minimisations  :  1386
 total energy-change (2. order) :-0.6731983E-05  (-0.1356080E-07)
 number of electron       4.0000000 magnetization 
 augmentation part       -0.1031708 magnetization 

 DIPCOR: dipole corrections for dipol
 direction  3 min pos   385,
 dipolmoment           0.000000      0.000000     -0.000000 electrons x Angstroem
 Tr[quadrupol]       -12.253820

 energy correction for charged system         0.000000 eV
 dipol+quadrupol energy correction           -0.000000 eV
 added-field ion interaction          0.000000 eV  (added to PSCEN)


 Broyden mixing:
  rms(total) = 0.34756E-04    rms(broyden)= 0.34756E-04
  rms(prec ) = 0.41951E-04
  weight for this iteration     100.00

 eigenvalues of (default mixing * dielectric matrix)
  average eigenvalue GAMMA=   3.0582
  8.0916  6.7002  3.8905  3.4190  2.8535  2.3840  2.3840  0.9240  1.0105  0.9917
  0.9917

 Free energy of the ion-electron system (eV)
  ---------------------------------------------------
  alpha Z        PSCENC =         0.12710513
  Ewald energy   TEWEN  =       267.87820229
  -Hartree energ DENC   =      -308.36642469
  -exchange      EXHF   =         0.00000000
  -V(xc)+E(xc)   XCENC  =         5.43873439
  PAW double counting   =        53.72012557      -52.50355222
  entropy T*S    EENTRO =        -0.00399907
  eigenvalues    EBANDS =       -24.39373612
  atomic energy  EATOM  =        54.95850721
  Solvation  Ediel_sol  =         0.00000000
  ---------------------------------------------------
  free energy    TOTEN  =        -3.14503751 eV

  energy without entropy =       -3.14103844  energy(sigma->0) =       -3.14303798


--------------------------------------------------------------------------------------------------------




--------------------------------------- Iteration      1(  17)  ---------------------------------------


    POTLOK:  cpu time      0.0491: real time      0.0497
    SETDIJ:  cpu time      0.0014: real time      0.0014
     EDDAV:  cpu time      1.2468: real time      1.2533
       DOS:  cpu time      0.0004: real time      0.0004
    CHARGE:  cpu time      0.1022: real time      0.1027
    MIXING:  cpu time      0.0022: real time      0.0022
    --------------------------------------------
      LOOP:  cpu time      1.4021: real time      1.4097

 eigenvalue-minimisations  :  1428
 total energy-change (2. order) :-0.9863067E-05  (-0.8331612E-07)
 number of electron       4.0000000 magnetization 
 augmentation part       -0.1031715 magnetization 

 DIPCOR: dipole corrections for dipol
 direction  3 min pos   385,
 dipolmoment           0.000000      0.000000     -0.000000 electrons x Angstroem
 Tr[quadrupol]       -12.255075

 energy correction for charged system         0.000000 eV
 dipol+quadrupol energy correction           -0.000000 eV
 added-field ion interaction          0.000000 eV  (added to PSCEN)


 Broyden mixing:
  rms(total) = 0.10317E-04    rms(broyden)= 0.10317E-04
  rms(prec ) = 0.13796E-04
  weight for this iteration     100.00

 eigenvalues of (default mixing * dielectric matrix)
  average eigenvalue GAMMA=   3.1628
  7.7348  7.7348  4.3530  3.8416  2.8420  2.8420  2.3336  2.3336  0.9240  0.9969
  0.9969  1.0209

 Free energy of the ion-electron system (eV)
  ---------------------------------------------------
  alpha Z        PSCENC =         0.12710513
  Ewald energy   TEWEN  =       267.87820229
  -Hartree energ DENC   =      -308.36671638
  -exchange      EXHF   =         0.00000000
  -V(xc)+E(xc)   XCENC  =         5.43865026
  PAW double counting   =        53.70821793      -52.49163959
  entropy T*S    EENTRO =        -0.00400019
  eigenvalues    EBANDS =       -24.39337402
  atomic energy  EATOM  =        54.95850721
  Solvation  Ediel_sol  =         0.00000000
  ---------------------------------------------------
  free energy    TOTEN  =        -3.14504737 eV

  energy without entropy =       -3.14104718  energy(sigma->0) =       -3.14304728


--------------------------------------------------------------------------------------------------------




--------------------------------------- Iteration      1(  18)  ---------------------------------------


    POTLOK:  cpu time      0.0466: real time      0.0471
    SETDIJ:  cpu time      0.0014: real time      0.0014
     EDDAV:  cpu time      1.2749: real time      1.2816
       DOS:  cpu time      0.0007: real time      0.0007
    CHARGE:  cpu time      0.1019: real time      0.1024
    MIXING:  cpu time      0.0021: real time      0.0021
    --------------------------------------------
      LOOP:  cpu time      1.4276: real time      1.4353

 eigenvalue-minimisations  :  1428
 total energy-change (2. order) :-0.2302793E-05  (-0.5235168E-08)
 number of electron       4.0000000 magnetization 
 augmentation part       -0.1031717 magnetization 

 DIPCOR: dipole corrections for dipol
 direction  3 min pos   385,
 dipolmoment           0.000000      0.000000     -0.000000 electrons x Angstroem
 Tr[quadrupol]       -12.255733

 energy correction for charged system         0.000000 eV
 dipol+quadrupol energy correction           -0.000000 eV
 added-field ion interaction          0.000000 eV  (added to PSCEN)


 Broyden mixing:
  rms(total) = 0.80894E-05    rms(broyden)= 0.80894E-05
  rms(prec ) = 0.94569E-05
  weight for this iteration     100.00

 eigenvalues of (default mixing * dielectric matrix)
  average eigenvalue GAMMA=   3.1198
  8.2859  7.4555  5.2385  3.4055  3.4055  2.8186  2.4630  2.3245  0.9239  0.9890
  1.0048  1.0352  1.2074

 Free energy of the ion-electron system (eV)
  ---------------------------------------------------
  alpha Z        PSCENC =         0.12710513
  Ewald energy   TEWEN  =       267.87820229
  -Hartree energ DENC   =      -308.36707711
  -exchange      EXHF   =         0.00000000
  -V(xc)+E(xc)   XCENC  =         5.43864776
  PAW double counting   =        53.71044622      -52.49386335
  entropy T*S    EENTRO =        -0.00400027
  eigenvalues    EBANDS =       -24.39301756
  atomic energy  EATOM  =        54.95850721
  Solvation  Ediel_sol  =         0.00000000
  ---------------------------------------------------
  free energy    TOTEN  =        -3.14504968 eV

  energy without entropy =       -3.14104941  energy(sigma->0) =       -3.14304954


--------------------------------------------------------------------------------------------------------




--------------------------------------- Iteration      1(  19)  ---------------------------------------


    POTLOK:  cpu time      0.0516: real time      0.0521
    SETDIJ:  cpu time      0.0014: real time      0.0014
     EDDAV:  cpu time      1.2480: real time      1.2545
       DOS:  cpu time      0.0006: real time      0.0005
    --------------------------------------------
      LOOP:  cpu time      1.3018: real time      1.3089

 eigenvalue-minimisations  :  1386
 total energy-change (2. order) :-0.3572621E-06  (-0.5418726E-09)
 number of electron       4.0000000 magnetization 
 augmentation part       -0.1031717 magnetization 

 DIPCOR: dipole corrections for dipol
 direction  3 min pos   385,
 dipolmoment           0.000000      0.000000     -0.000000 electrons x Angstroem
 Tr[quadrupol]       -12.256104

 energy correction for charged system         0.000000 eV
 dipol+quadrupol energy correction           -0.000000 eV
 added-field ion interaction          0.000000 eV  (added to PSCEN)


 Free energy of the ion-electron system (eV)
  ---------------------------------------------------
  alpha Z        PSCENC =         0.12710513
  Ewald energy   TEWEN  =       267.87820229
  -Hartree energ DENC   =      -308.36803122
  -exchange      EXHF   =         0.00000000
  -V(xc)+E(xc)   XCENC  =         5.43867307
  PAW double counting   =        53.71261884      -52.49604674
  entropy T*S    EENTRO =        -0.00399974
  eigenvalues    EBANDS =       -24.39207886
  atomic energy  EATOM  =        54.95850721
  Solvation  Ediel_sol  =         0.00000000
  ---------------------------------------------------
  free energy    TOTEN  =        -3.14505003 eV

  energy without entropy =       -3.14105030  energy(sigma->0) =       -3.14305017


--------------------------------------------------------------------------------------------------------




 average (electrostatic) potential at core
  the test charge radii are     0.9943
  (the norm of the test charge is              1.0000)
       1 -44.1659       2 -44.1659
 
 
 
 E-fermi :  -3.8545     XC(G=0):  -0.8940     alpha+bet : -0.4630

 val. band max:       -3.8870881682   @ k =   0.2222   0.1111   0.0000
 cond. band min:      -3.8032397886   @ k =   0.2222   0.2222   0.0000
 fundamental gap:      0.0838483796
 Fermi energy:        -3.8545463006

 k-point     1 :       0.0000    0.0000    0.0000
  band No.  band energies     occupation 
      1      -8.6936      2.00000
      2      -4.0523      2.00000
      3      -1.5600      0.00000
      4      -1.5600      0.00000
      5      -0.1367      0.00000
      6       0.2734      0.00000
      7       0.3558      0.00000
      8       0.5709      0.00000
      9       0.6574      0.00000
     10       1.0944      0.00000
     11       1.2219      0.00000
     12       1.8082      0.00000
     13       1.9850      0.00000
     14       2.5974      0.00000
     15       2.5974      0.00000
     16       2.7474      0.00000
     17       2.9645      0.00000
     18       3.8292      0.00000
     19       3.8824      0.00000
     20       4.1334      0.00000
     21       4.1891      0.00000
     22       5.2073      0.00000
     23       5.4992      0.00000
     24       6.7159      0.00000
     25       7.0548      0.00000
     26       7.2885      0.00000
     27       8.3766      0.00000
     28       8.8169      0.00000
     29       9.1961      0.00000
     30       9.1961      0.00000
     31      10.0459      0.00000
     32      10.5534      0.00000
     33      10.5534      0.00000
     34      10.7568      0.00000
     35      11.1519      0.00000
     36      12.0652      0.00000
     37      12.0652      0.00000
     38      12.3565      0.00000
     39      12.3565      0.00000
     40      12.5232      0.00000
     41      12.5638      0.00000
     42      12.6683      0.00000

 k-point     2 :       0.1111    0.0000    0.0000
  band No.  band energies     occupation 
      1      -8.5733      2.00000
      2      -3.9129      1.90130
      3      -2.0929      0.00000
      4      -1.8096      0.00000
      5       0.0154      0.00000
      6       0.4274      0.00000
      7       0.5117      0.00000
      8       0.7257      0.00000
      9       0.8128      0.00000
     10       1.2489      0.00000
     11       1.3764      0.00000
     12       1.9616      0.00000
     13       2.1381      0.00000
     14       2.5300      0.00000
     15       2.8993      0.00000
     16       3.1125      0.00000
     17       3.1197      0.00000
     18       3.6742      0.00000
     19       4.0321      0.00000
     20       4.1620      0.00000
     21       4.2879      0.00000
     22       5.3504      0.00000
     23       5.6529      0.00000
     24       6.8349      0.00000
     25       7.2131      0.00000
     26       7.7901      0.00000
     27       8.1172      0.00000
     28       8.4829      0.00000
     29       8.7070      0.00000
     30       8.9666      0.00000
     31       9.8360      0.00000
     32       9.9994      0.00000
     33      10.3397      0.00000
     34      10.3506      0.00000
     35      10.6121      0.00000
     36      10.6345      0.00000
     37      10.7224      0.00000
     38      10.9045      0.00000
     39      10.9773      0.00000
     40      11.1522      0.00000
     41      11.1707      0.00000
     42      11.3753      0.00000

 k-point     3 :       0.2222    0.0000    0.0000
  band No.  band energies     occupation 
      1      -8.2146      2.00000
      2      -3.5002      0.00000
      3      -3.2492      0.00000
      4      -2.2980      0.00000
      5       0.4713      0.00000
      6       0.8875      0.00000
      7       0.9794      0.00000
      8       1.1892      0.00000
      9       1.2788      0.00000
     10       1.7098      0.00000
     11       1.8391      0.00000
     12       2.2325      0.00000
     13       2.3921      0.00000
     14       2.5061      0.00000
     15       2.6045      0.00000
     16       3.3568      0.00000
     17       3.5800      0.00000
     18       4.3790      0.00000
     19       4.4743      0.00000
     20       4.7448      0.00000
     21       4.9983      0.00000
     22       5.7413      0.00000
     23       6.1094      0.00000
     24       6.6930      0.00000
     25       7.4435      0.00000
     26       7.5543      0.00000
     27       7.6270      0.00000
     28       7.6647      0.00000
     29       8.0005      0.00000
     30       8.0444      0.00000
     31       8.2955      0.00000
     32       8.3194      0.00000
     33       8.7806      0.00000
     34       8.7923      0.00000
     35       9.1261      0.00000
     36       9.1447      0.00000
     37       9.4306      0.00000
     38       9.5830      0.00000
     39       9.6856      0.00000
     40      10.0529      0.00000
     41      10.2689      0.00000
     42      10.4872      0.00000

 k-point     4 :       0.3333    0.0000    0.0000
  band No.  band energies     occupation 
      1      -7.6257      2.00000
      2      -4.5243      2.00000
      3      -2.8398      0.00000
      4      -2.7191      0.00000
      5       1.0480      0.00000
      6       1.2287      0.00000
      7       1.6749      0.00000
      8       1.7588      0.00000
      9       1.9288      0.00000
     10       1.9696      0.00000
     11       2.0569      0.00000
     12       2.4869      0.00000
     13       2.6134      0.00000
     14       3.1863      0.00000
     15       3.3721      0.00000
     16       4.1010      0.00000
     17       4.3440      0.00000
     18       5.0220      0.00000
     19       5.1162      0.00000
     20       5.5060      0.00000
     21       5.5440      0.00000
     22       5.9586      0.00000
     23       6.0071      0.00000
     24       6.0597      0.00000
     25       6.1664      0.00000
     26       6.3197      0.00000
     27       6.5258      0.00000
     28       6.6348      0.00000
     29       6.8593      0.00000
     30       6.9932      0.00000
     31       7.0298      0.00000
     32       7.0691      0.00000
     33       7.5690      0.00000
     34       7.7479      0.00000
     35       8.1834      0.00000
     36       8.3919      0.00000
     37       8.5685      0.00000
     38       8.6664      0.00000
     39       9.4253      0.00000
     40       9.5094      0.00000
     41       9.5703      0.00000
     42       9.7930      0.00000

 k-point     5 :       0.4444    0.0000    0.0000
  band No.  band energies     occupation 
      1      -6.8452      2.00000
      2      -5.6801      2.00000
      3      -2.9490      0.00000
      4      -2.0662      0.00000
      5      -0.1293      0.00000
      6       1.7594      0.00000
      7       2.2822      0.00000
      8       2.7310      0.00000
      9       2.8500      0.00000
     10       3.0459      0.00000
     11       3.1415      0.00000
     12       3.5550      0.00000
     13       3.6074      0.00000
     14       3.6939      0.00000
     15       4.0469      0.00000
     16       4.2376      0.00000
     17       4.2523      0.00000
     18       4.4241      0.00000
     19       4.4440      0.00000
     20       4.5338      0.00000
     21       4.8778      0.00000
     22       5.0621      0.00000
     23       5.1119      0.00000
     24       5.4053      0.00000
     25       5.5107      0.00000
     26       5.7956      0.00000
     27       5.9902      0.00000
     28       6.4614      0.00000
     29       6.5484      0.00000
     30       6.7035      0.00000
     31       6.7277      0.00000
     32       6.9294      0.00000
     33       7.5189      0.00000
     34       7.6914      0.00000
     35       7.6917      0.00000
     36       7.8649      0.00000
     37       8.0697      0.00000
     38       8.5566      0.00000
     39       9.0749      0.00000
     40       9.1022      0.00000
     41       9.2198      0.00000
     42       9.3635      0.00000

 k-point     6 :       0.1111    0.1111    0.0000
  band No.  band energies     occupation 
      1      -8.3338      2.00000
      2      -3.6366      0.00000
      3      -2.8024      0.00000
      4      -2.3216      0.00000
      5       0.3195      0.00000
      6       0.7348      0.00000
      7       0.8235      0.00000
      8       1.0351      0.00000
      9       1.1235      0.00000
     10       1.5573      0.00000
     11       1.6854      0.00000
     12       2.2670      0.00000
     13       2.4446      0.00000
     14       2.7336      0.00000
     15       2.8630      0.00000
     16       3.2011      0.00000
     17       3.3794      0.00000
     18       3.4279      0.00000
     19       4.3231      0.00000
     20       4.5940      0.00000
     21       5.0311      0.00000
     22       5.6007      0.00000
     23       5.9576      0.00000
     24       6.5860      0.00000
     25       7.3253      0.00000
     26       7.5146      0.00000
     27       8.2858      0.00000
     28       8.4641      0.00000
     29       8.7276      0.00000
     30       8.8741      0.00000
     31       9.1369      0.00000
     32       9.2474      0.00000
     33       9.2552      0.00000
     34       9.2628      0.00000
     35       9.2954      0.00000
     36       9.3179      0.00000
     37       9.5397      0.00000
     38       9.5431      0.00000
     39       9.5983      0.00000
     40       9.6288      0.00000
     41      10.0281      0.00000
     42      10.1044      0.00000

 k-point     7 :       0.2222    0.1111    0.0000
  band No.  band energies     occupation 
      1      -7.8597      2.00000
      2      -3.8871      1.64265
      3      -3.0968      0.00000
      4      -2.9197      0.00000
      5       0.9264      0.00000
      6       1.3390      0.00000
      7       1.4471      0.00000
      8       1.6254      0.00000
      9       1.6950      0.00000
     10       1.7448      0.00000
     11       2.1745      0.00000
     12       2.3025      0.00000
     13       2.6331      0.00000
     14       2.8735      0.00000
     15       3.0658      0.00000
     16       3.7876      0.00000
     17       4.0377      0.00000
     18       4.2595      0.00000
     19       4.8000      0.00000
     20       5.2030      0.00000
     21       5.4173      0.00000
     22       6.0517      0.00000
     23       6.3713      0.00000
     24       6.5606      0.00000
     25       6.9171      0.00000
     26       6.9997      0.00000
     27       7.0792      0.00000
     28       7.2682      0.00000
     29       7.4013      0.00000
     30       7.7366      0.00000
     31       7.8090      0.00000
     32       7.9144      0.00000
     33       8.0236      0.00000
     34       8.1054      0.00000
     35       8.2405      0.00000
     36       8.4672      0.00000
     37       8.5134      0.00000
     38       8.7032      0.00000
     39       8.7378      0.00000
     40       8.7677      0.00000
     41       8.9385      0.00000
     42       9.2997      0.00000

 k-point     8 :       0.3333    0.1111    0.0000
  band No.  band energies     occupation 
      1      -7.1671      2.00000
      2      -5.0724      2.00000
      3      -3.2887      0.00000
      4      -2.3453      0.00000
      5       0.3898      0.00000
      6       1.8315      0.00000
      7       2.2618      0.00000
      8       2.3821      0.00000
      9       2.4112      0.00000
     10       2.5769      0.00000
     11       2.6766      0.00000
     12       3.0839      0.00000
     13       3.2291      0.00000
     14       3.7328      0.00000
     15       3.9842      0.00000
     16       4.3290      0.00000
     17       4.3845      0.00000
     18       4.8317      0.00000
     19       4.9517      0.00000
     20       5.1831      0.00000
     21       5.2290      0.00000
     22       5.4213      0.00000
     23       5.4689      0.00000
     24       5.7975      0.00000
     25       5.8851      0.00000
     26       6.0712      0.00000
     27       6.1029      0.00000
     28       6.2427      0.00000
     29       6.6573      0.00000
     30       6.8355      0.00000
     31       7.2257      0.00000
     32       7.3973      0.00000
     33       7.4398      0.00000
     34       7.4792      0.00000
     35       7.6935      0.00000
     36       7.9698      0.00000
     37       7.9984      0.00000
     38       8.1721      0.00000
     39       8.2600      0.00000
     40       8.3618      0.00000
     41       8.4074      0.00000
     42       8.6851      0.00000

 k-point     9 :       0.4444    0.1111    0.0000
  band No.  band energies     occupation 
      1      -6.4769      2.00000
      2      -5.9423      2.00000
      3      -3.4128      0.00000
      4      -1.7699      0.00000
      5      -0.3749      0.00000
      6       2.3267      0.00000
      7       2.9831      0.00000
      8       3.0594      0.00000
      9       3.3098      0.00000
     10       3.4971      0.00000
     11       3.6282      0.00000
     12       3.6300      0.00000
     13       3.7569      0.00000
     14       3.8235      0.00000
     15       3.9111      0.00000
     16       3.9193      0.00000
     17       4.1536      0.00000
     18       4.3413      0.00000
     19       4.4455      0.00000
     20       4.4613      0.00000
     21       4.6352      0.00000
     22       5.0421      0.00000
     23       5.1869      0.00000
     24       5.2050      0.00000
     25       5.3148      0.00000
     26       5.9765      0.00000
     27       6.1104      0.00000
     28       6.1425      0.00000
     29       6.1682      0.00000
     30       7.0478      0.00000
     31       7.1056      0.00000
     32       7.1292      0.00000
     33       7.2307      0.00000
     34       7.2996      0.00000
     35       7.6003      0.00000
     36       7.7871      0.00000
     37       7.8427      0.00000
     38       7.9960      0.00000
     39       8.1337      0.00000
     40       8.2397      0.00000
     41       8.3533      0.00000
     42       8.4294      0.00000

 k-point    10 :       0.2222    0.2222    0.0000
  band No.  band energies     occupation 
      1      -7.2795      2.00000
      2      -4.5545      2.00000
      3      -3.8032      0.14673
      4      -2.4507      0.00000
      5       0.7178      0.00000
      6       1.6808      0.00000
      7       2.0850      0.00000
      8       2.2265      0.00000
      9       2.4118      0.00000
     10       2.5210      0.00000
     11       2.9087      0.00000
     12       3.0738      0.00000
     13       3.5065      0.00000
     14       3.5961      0.00000
     15       3.8352      0.00000
     16       4.0346      0.00000
     17       4.0473      0.00000
     18       4.7236      0.00000
     19       4.8001      0.00000
     20       5.7785      0.00000
     21       5.8991      0.00000
     22       5.9534      0.00000
     23       6.0587      0.00000
     24       6.2486      0.00000
     25       6.4375      0.00000
     26       6.4432      0.00000
     27       6.4559      0.00000
     28       6.6124      0.00000
     29       6.7219      0.00000
     30       6.7259      0.00000
     31       6.7534      0.00000
     32       7.0764      0.00000
     33       7.1167      0.00000
     34       7.2402      0.00000
     35       7.2867      0.00000
     36       7.3240      0.00000
     37       7.3315      0.00000
     38       7.7885      0.00000
     39       7.9076      0.00000
     40       8.0245      0.00000
     41       8.0695      0.00000
     42       8.4751      0.00000

 k-point    11 :       0.3333    0.2222    0.0000
  band No.  band energies     occupation 
      1      -6.5165      2.00000
      2      -5.4496      2.00000
      3      -4.2351      2.00000
      4      -1.6669      0.00000
      5      -0.2397      0.00000
      6       2.7206      0.00000
      7       2.7820      0.00000
      8       3.3173      0.00000
      9       3.3642      0.00000
     10       3.6000      0.00000
     11       3.6173      0.00000
     12       3.6182      0.00000
     13       3.9486      0.00000
     14       4.0941      0.00000
     15       4.1477      0.00000
     16       4.6461      0.00000
     17       4.7160      0.00000
     18       4.8190      0.00000
     19       4.8900      0.00000
     20       4.9650      0.00000
     21       4.9891      0.00000
     22       5.3808      0.00000
     23       5.4655      0.00000
     24       5.7213      0.00000
     25       5.7244      0.00000
     26       5.8189      0.00000
     27       5.8973      0.00000
     28       6.0364      0.00000
     29       6.1302      0.00000
     30       6.2182      0.00000
     31       6.3901      0.00000
     32       6.4331      0.00000
     33       6.4860      0.00000
     34       6.8042      0.00000
     35       6.9084      0.00000
     36       6.9189      0.00000
     37       7.0018      0.00000
     38       7.1852      0.00000
     39       7.3702      0.00000
     40       7.6156      0.00000
     41       7.7371      0.00000
     42       7.9210      0.00000

 k-point    12 :       0.3333    0.3333    0.0000
  band No.  band energies     occupation 
      1      -5.8271      2.00000
      2      -5.8271      2.00000
      3      -4.8074      2.00000
      4      -0.9197      0.00000
      5      -0.9197      0.00000
      6       2.5225      0.00000
      7       3.7626      0.00000
      8       3.7626      0.00000
      9       3.8749      0.00000
     10       4.4219      0.00000
     11       4.4219      0.00000
     12       4.5595      0.00000
     13       4.5596      0.00000
     14       4.5621      0.00000
     15       4.6086      0.00000
     16       4.7553      0.00000
     17       4.7554      0.00000
     18       4.8063      0.00000
     19       4.8064      0.00000
     20       4.8211      0.00000
     21       4.9169      0.00000
     22       5.2200      0.00000
     23       5.2200      0.00000
     24       5.2708      0.00000
     25       5.2708      0.00000
     26       5.2771      0.00000
     27       5.4528      0.00000
     28       5.7126      0.00000
     29       5.7126      0.00000
     30       5.8740      0.00000
     31       5.9668      0.00000
     32       5.9668      0.00000
     33       6.2274      0.00000
     34       6.3192      0.00000
     35       6.3193      0.00000
     36       6.5279      0.00000
     37       6.8963      0.00000
     38       6.8964      0.00000
     39       7.1977      0.00000
     40       7.2259      0.00000
     41       7.2260      0.00000
     42       7.4000      0.00000


--------------------------------------------------------------------------------------------------------


 soft charge-density along one line, spin component           1
         0         1         2         3         4         5         6         7         8         9
 total charge-density along one line
 
 pseudopotential strength for first ion, spin component:           1
  5.239 -13.328  -0.000   0.000   0.000   0.000  -0.000  -0.000
-13.328  34.781   0.000  -0.000  -0.000  -0.000   0.000   0.000
 -0.000   0.000  -0.389   0.000  -0.000   0.919  -0.000  -0.000
  0.000  -0.000   0.000  -0.395  -0.000  -0.000   0.934   0.000
  0.000  -0.000  -0.000  -0.000  -0.389  -0.000   0.000   0.919
  0.000  -0.000   0.919  -0.000  -0.000  -0.515   0.000  -0.000
 -0.000   0.000  -0.000   0.934   0.000   0.000  -0.560  -0.000
 -0.000   0.000  -0.000   0.000   0.919  -0.000  -0.000  -0.515
 total augmentation occupancy for first ion, spin component:           1
  1.630   0.041   0.000   0.000  -0.000   0.000   0.000   0.000
  0.041   0.001   0.000  -0.000   0.000   0.000  -0.000  -0.000
  0.000   0.000   0.633  -0.000   0.000   0.023   0.000   0.000
  0.000  -0.000  -0.000   0.081   0.000  -0.000   0.002  -0.000
 -0.000   0.000  -0.000   0.000   0.633   0.000   0.000   0.023
  0.000   0.000   0.023  -0.000   0.000   0.001  -0.000   0.000
  0.000  -0.000   0.000   0.002   0.000  -0.000   0.000   0.000
  0.000  -0.000   0.000   0.000   0.023   0.000  -0.000   0.001


------------------------ aborting loop because EDIFF is reached ----------------------------------------


    CHARGE:  cpu time      0.0771: real time      0.0775
    FORLOC:  cpu time      0.0009: real time      0.0009
    FORNL :  cpu time      0.0284: real time      0.0285
    STRESS:  cpu time      0.4518: real time      0.4542
    FORCOR:  cpu time      0.0333: real time      0.0335
    FORHAR:  cpu time      0.0109: real time      0.0110
    MIXING:  cpu time      0.0020: real time      0.0020
    OFIELD:  cpu time      0.0000: real time      0.0000

  FORCE on cell =-STRESS in cart. coord.  units (eV):
  Direction    XX          YY          ZZ          XY          YZ          ZX
  --------------------------------------------------------------------------------------
  Alpha Z     0.12711     0.12711     0.12711
  Ewald     309.48760   309.48760  -351.09699    -0.00000     0.00000     0.00000
  Hartree   307.23714   307.23714  -306.10627    -0.00000    -0.00000    -0.00000
  E(xc)      -8.19748    -8.19748    -8.46893    -0.00000     0.00000    -0.00000
  Local    -639.82819  -639.82819   637.97460     0.00000     0.00000     0.00000
  n-local    13.01664    12.13955    11.54476    -0.59174     0.00000    -0.00000
  augment    -0.97243    -0.97243    -1.07244     0.00000     0.00000     0.00000
  Kinetic    14.53451    21.08178    17.09816     5.28239    -0.00000     0.00000
  Fock        0.00000     0.00000     0.00000     0.00000     0.00000     0.00000
  -------------------------------------------------------------------------------------
  Total      -1.76002    -1.76002    -0.00002     0.00000     0.00000    -0.00000
  in kB      -5.12933    -5.12933    -0.00005     0.00000     0.00000    -0.00000
  external pressure =       -3.42 kB  Pullay stress =        0.00 kB


 VOLUME and BASIS-vectors are now :
 -----------------------------------------------------------------------------
  energy-cutoff  :      600.00
  volume of cell :      549.75
      direct lattice vectors                 reciprocal lattice vectors
     3.450000000  1.991858429  0.000000000     0.144927536  0.251021856  0.000000000
    -3.450000000  1.991858429  0.000000000    -0.144927536  0.251021856  0.000000000
     0.000000000  0.000000000 40.000000000     0.000000000  0.000000000  0.025000000

  length of vectors
     3.983716857  3.983716857 40.000000000     0.289855072  0.289855072  0.025000000


 FORCES acting on ions
    electron-ion (+dipol)            ewald-force                    non-local-force                 convergence-correction
 -----------------------------------------------------------------------------------------------
   -.874E-08 -.227E-14 -.184E-10   -.352E-12 0.211E-14 0.000E+00   0.000E+00 -.139E-16 0.226E-25   -.638E-12 0.897E-16 0.157E-13
   0.874E-08 0.199E-14 -.187E-10   0.351E-12 -.169E-14 0.000E+00   0.000E+00 -.208E-16 0.162E-25   0.638E-12 0.801E-17 0.156E-13
 -----------------------------------------------------------------------------------------------
   -.864E-15 -.276E-15 -.371E-10   -.115E-15 0.414E-15 0.000E+00   0.000E+00 -.347E-16 0.388E-25   0.360E-16 0.977E-16 0.313E-13
 
 
 POSITION                                       TOTAL-FORCE (eV/Angst)
 -----------------------------------------------------------------------------------
     -1.15000      1.99186      4.00000         0.000000      0.000000     -0.000000
      1.15000      1.99186      4.00000         0.000000     -0.000000      0.000000
 -----------------------------------------------------------------------------------
    total drift:                               -0.000000      0.000000     -0.000000


--------------------------------------------------------------------------------------------------------



  FREE ENERGIE OF THE ION-ELECTRON SYSTEM (eV)
  ---------------------------------------------------
  free  energy   TOTEN  =        -3.14505003 eV

  energy  without entropy=       -3.14105030  energy(sigma->0) =       -3.14305017
 


--------------------------------------------------------------------------------------------------------


    POTLOK:  cpu time      0.0533: real time      0.0536


--------------------------------------------------------------------------------------------------------


     LOOP+:  cpu time     26.1635: real time     26.3074
 vacuum level on the upper side and lower side of the slab         0.304         0.304
    4ORBIT:  cpu time      0.0000: real time      0.0000

 total amount of memory used by VASP MPI-rank0    69276. kBytes
=======================================================================

   base                                    :      30000. kBytes
   nonl-proj                               :      14750. kBytes
   fftplans                                :       3909. kBytes
   grid                                    :      17063. kBytes
   one-center                              :          6. kBytes
   wavefun                                 :       3548. kBytes
 
  
  
 General timing and accounting informations for this job:
 ========================================================
  
                  Total CPU time used (sec):       28.661
                            User time (sec):       25.246
                          System time (sec):        3.415
                         Elapsed time (sec):       29.294
  
                   Maximum memory used (kb):      254312.
                   Average memory used (kb):          N/A
  
                          Minor page faults:        26645
                          Major page faults:           61
                 Voluntary context switches:          633
