 100 100   0   0
  0.4950731E+02  0.1297896E-08  0.1040914E-08  0.4000000E-08  0.5000000E-15
  1.000000000000000E-004
  CAR 
 Phonopy                                 
      3.02988505    -14.65179934  301     -3.06031404      1.00000000
    -14.652  0.0000E+00  0.0000E+00
    -14.593  0.0000E+00  0.0000E+00
    -14.534  0.0000E+00  0.0000E+00
    -14.475  0.0000E+00  0.0000E+00
    -14.416  0.0000E+00  0.0000E+00
    -14.357  0.0000E+00  0.0000E+00
    -14.298  0.0000E+00  0.0000E+00
    -14.239  0.3844E-16  0.2266E-17
    -14.180  0.4275E-13  0.2522E-14
    -14.121  0.1895E-10  0.1119E-11
    -14.062  0.4315E-08  0.2554E-09
    -14.003  0.5079E-06  0.3019E-07
    -13.945  0.3110E-04  0.1863E-05
    -13.886  0.9993E-03  0.6076E-04
    -13.827  0.1706E-01  0.1066E-02
    -13.768  0.1576E+00  0.1036E-01
    -13.709  0.8119E+00  0.5821E-01
    -13.650  0.2441E+01  0.2021E+00
    -13.591  0.4618E+01  0.4742E+00
    -13.532  0.6181E+01  0.8386E+00
    -13.473  0.6799E+01  0.1239E+01
    -13.414  0.6916E+01  0.1647E+01
    -13.355  0.6916E+01  0.2055E+01
    -13.296  0.7023E+01  0.2468E+01
    -13.237  0.6913E+01  0.2876E+01
    -13.178  0.6831E+01  0.3279E+01
    -13.119  0.7199E+01  0.3703E+01
    -13.060  0.7026E+01  0.4117E+01
    -13.002  0.6592E+01  0.4505E+01
    -12.943  0.7108E+01  0.4924E+01
    -12.884  0.7454E+01  0.5364E+01
    -12.825  0.6786E+01  0.5764E+01
    -12.766  0.6570E+01  0.6151E+01
    -12.707  0.7214E+01  0.6576E+01
    -12.648  0.7484E+01  0.7017E+01
    -12.589  0.6910E+01  0.7424E+01
    -12.530  0.6706E+01  0.7820E+01
    -12.471  0.7149E+01  0.8241E+01
    -12.412  0.7195E+01  0.8665E+01
    -12.353  0.7021E+01  0.9079E+01
    -12.294  0.7161E+01  0.9501E+01
    -12.235  0.7829E+01  0.9962E+01
    -12.176  0.9121E+01  0.1050E+02
    -12.117  0.1075E+02  0.1113E+02
    -12.058  0.1227E+02  0.1186E+02
    -12.000  0.1374E+02  0.1267E+02
    -11.941  0.1495E+02  0.1355E+02
    -11.882  0.1462E+02  0.1441E+02
    -11.823  0.1346E+02  0.1520E+02
    -11.764  0.1303E+02  0.1597E+02
    -11.705  0.1341E+02  0.1676E+02
    -11.646  0.1475E+02  0.1763E+02
    -11.587  0.1591E+02  0.1857E+02
    -11.528  0.1498E+02  0.1945E+02
    -11.469  0.1310E+02  0.2022E+02
    -11.410  0.1248E+02  0.2096E+02
    -11.351  0.1356E+02  0.2176E+02
    -11.292  0.1551E+02  0.2267E+02
    -11.233  0.1618E+02  0.2363E+02
    -11.174  0.1507E+02  0.2451E+02
    -11.115  0.1403E+02  0.2534E+02
    -11.057  0.1338E+02  0.2613E+02
    -10.998  0.1321E+02  0.2691E+02
    -10.939  0.1399E+02  0.2773E+02
    -10.880  0.1558E+02  0.2865E+02
    -10.821  0.1688E+02  0.2964E+02
    -10.762  0.1635E+02  0.3061E+02
    -10.703  0.1427E+02  0.3145E+02
    -10.644  0.1249E+02  0.3219E+02
    -10.585  0.1249E+02  0.3292E+02
    -10.526  0.1489E+02  0.3380E+02
    -10.467  0.1779E+02  0.3485E+02
    -10.408  0.1805E+02  0.3591E+02
    -10.349  0.1546E+02  0.3682E+02
    -10.290  0.1314E+02  0.3760E+02
    -10.231  0.1325E+02  0.3838E+02
    -10.172  0.1480E+02  0.3925E+02
    -10.114  0.1642E+02  0.4022E+02
    -10.055  0.1694E+02  0.4122E+02
     -9.996  0.1647E+02  0.4219E+02
     -9.937  0.1639E+02  0.4315E+02
     -9.878  0.1632E+02  0.4412E+02
     -9.819  0.1498E+02  0.4500E+02
     -9.760  0.1395E+02  0.4582E+02
     -9.701  0.1541E+02  0.4673E+02
     -9.642  0.1803E+02  0.4779E+02
     -9.583  0.1895E+02  0.4891E+02
     -9.524  0.1769E+02  0.4995E+02
     -9.465  0.1614E+02  0.5090E+02
     -9.406  0.1549E+02  0.5182E+02
     -9.347  0.1560E+02  0.5274E+02
     -9.288  0.1730E+02  0.5375E+02
     -9.229  0.1986E+02  0.5493E+02
     -9.170  0.2033E+02  0.5612E+02
     -9.112  0.1833E+02  0.5720E+02
     -9.053  0.1694E+02  0.5820E+02
     -8.994  0.1869E+02  0.5930E+02
     -8.935  0.2274E+02  0.6064E+02
     -8.876  0.2598E+02  0.6218E+02
     -8.817  0.2761E+02  0.6380E+02
     -8.758  0.2884E+02  0.6550E+02
     -8.699  0.2941E+02  0.6724E+02
     -8.640  0.2847E+02  0.6891E+02
     -8.581  0.2739E+02  0.7053E+02
     -8.522  0.2816E+02  0.7219E+02
     -8.463  0.2961E+02  0.7393E+02
     -8.404  0.2932E+02  0.7566E+02
     -8.345  0.2821E+02  0.7733E+02
     -8.286  0.2924E+02  0.7905E+02
     -8.227  0.3058E+02  0.8085E+02
     -8.169  0.2876E+02  0.8255E+02
     -8.110  0.2643E+02  0.8410E+02
     -8.051  0.2584E+02  0.8563E+02
     -7.992  0.2530E+02  0.8712E+02
     -7.933  0.2535E+02  0.8861E+02
     -7.874  0.2577E+02  0.9013E+02
     -7.815  0.2470E+02  0.9159E+02
     -7.756  0.2333E+02  0.9296E+02
     -7.697  0.2414E+02  0.9438E+02
     -7.638  0.2660E+02  0.9595E+02
     -7.579  0.2720E+02  0.9756E+02
     -7.520  0.2629E+02  0.9911E+02
     -7.461  0.2882E+02  0.1008E+03
     -7.402  0.3238E+02  0.1027E+03
     -7.343  0.3060E+02  0.1045E+03
     -7.284  0.2728E+02  0.1061E+03
     -7.225  0.2722E+02  0.1077E+03
     -7.167  0.2794E+02  0.1094E+03
     -7.108  0.2800E+02  0.1110E+03
     -7.049  0.2868E+02  0.1127E+03
     -6.990  0.2840E+02  0.1144E+03
     -6.931  0.2410E+02  0.1158E+03
     -6.872  0.1812E+02  0.1169E+03
     -6.813  0.1499E+02  0.1178E+03
     -6.754  0.1388E+02  0.1186E+03
     -6.695  0.1284E+02  0.1193E+03
     -6.636  0.1238E+02  0.1201E+03
     -6.577  0.1140E+02  0.1207E+03
     -6.518  0.9515E+01  0.1213E+03
     -6.459  0.9260E+01  0.1218E+03
     -6.400  0.1051E+02  0.1225E+03
     -6.341  0.1088E+02  0.1231E+03
     -6.282  0.1024E+02  0.1237E+03
     -6.224  0.9611E+01  0.1243E+03
     -6.165  0.9601E+01  0.1248E+03
     -6.106  0.9963E+01  0.1254E+03
     -6.047  0.9612E+01  0.1260E+03
     -5.988  0.8975E+01  0.1265E+03
     -5.929  0.8872E+01  0.1270E+03
     -5.870  0.8885E+01  0.1276E+03
     -5.811  0.8782E+01  0.1281E+03
     -5.752  0.9095E+01  0.1286E+03
     -5.693  0.9302E+01  0.1292E+03
     -5.634  0.8342E+01  0.1297E+03
     -5.575  0.7492E+01  0.1301E+03
     -5.516  0.8164E+01  0.1306E+03
     -5.457  0.9602E+01  0.1312E+03
     -5.398  0.1079E+02  0.1318E+03
     -5.339  0.1013E+02  0.1324E+03
     -5.281  0.7357E+01  0.1328E+03
     -5.222  0.5499E+01  0.1331E+03
     -5.163  0.6183E+01  0.1335E+03
     -5.104  0.7918E+01  0.1340E+03
     -5.045  0.9096E+01  0.1345E+03
     -4.986  0.9628E+01  0.1351E+03
     -4.927  0.9786E+01  0.1357E+03
     -4.868  0.9219E+01  0.1362E+03
     -4.809  0.8142E+01  0.1367E+03
     -4.750  0.7424E+01  0.1371E+03
     -4.691  0.6929E+01  0.1375E+03
     -4.632  0.6468E+01  0.1379E+03
     -4.573  0.7171E+01  0.1383E+03
     -4.514  0.8628E+01  0.1388E+03
     -4.455  0.8993E+01  0.1394E+03
     -4.396  0.8173E+01  0.1398E+03
     -4.337  0.7426E+01  0.1403E+03
     -4.279  0.7591E+01  0.1407E+03
     -4.220  0.8307E+01  0.1412E+03
     -4.161  0.8295E+01  0.1417E+03
     -4.102  0.7931E+01  0.1422E+03
     -4.043  0.8642E+01  0.1427E+03
     -3.984  0.9126E+01  0.1432E+03
     -3.925  0.7620E+01  0.1437E+03
     -3.866  0.6075E+01  0.1440E+03
     -3.807  0.6180E+01  0.1444E+03
     -3.748  0.6754E+01  0.1448E+03
     -3.689  0.6859E+01  0.1452E+03
     -3.630  0.7011E+01  0.1456E+03
     -3.571  0.8467E+01  0.1461E+03
     -3.512  0.1084E+02  0.1468E+03
     -3.453  0.1164E+02  0.1474E+03
     -3.394  0.9786E+01  0.1480E+03
     -3.336  0.7046E+01  0.1484E+03
     -3.277  0.5521E+01  0.1488E+03
     -3.218  0.5249E+01  0.1491E+03
     -3.159  0.5310E+01  0.1494E+03
     -3.100  0.5879E+01  0.1497E+03
     -3.041  0.7242E+01  0.1502E+03
     -2.982  0.8344E+01  0.1506E+03
     -2.923  0.9340E+01  0.1512E+03
     -2.864  0.1109E+02  0.1518E+03
     -2.805  0.1167E+02  0.1525E+03
     -2.746  0.9826E+01  0.1531E+03
     -2.687  0.7392E+01  0.1535E+03
     -2.628  0.5855E+01  0.1539E+03
     -2.569  0.5557E+01  0.1542E+03
     -2.510  0.6245E+01  0.1546E+03
     -2.451  0.6811E+01  0.1550E+03
     -2.392  0.6994E+01  0.1554E+03
     -2.334  0.8092E+01  0.1559E+03
     -2.275  0.1002E+02  0.1565E+03
     -2.216  0.1069E+02  0.1571E+03
     -2.157  0.1010E+02  0.1577E+03
     -2.098  0.9695E+01  0.1583E+03
     -2.039  0.9363E+01  0.1588E+03
     -1.980  0.8806E+01  0.1593E+03
     -1.921  0.8408E+01  0.1598E+03
     -1.862  0.8359E+01  0.1603E+03
     -1.803  0.8593E+01  0.1608E+03
     -1.744  0.9238E+01  0.1614E+03
     -1.685  0.1058E+02  0.1620E+03
     -1.626  0.1300E+02  0.1628E+03
     -1.567  0.1501E+02  0.1637E+03
     -1.508  0.1374E+02  0.1645E+03
     -1.449  0.1068E+02  0.1651E+03
     -1.391  0.9511E+01  0.1657E+03
     -1.332  0.9825E+01  0.1662E+03
     -1.273  0.9259E+01  0.1668E+03
     -1.214  0.7992E+01  0.1672E+03
     -1.155  0.7710E+01  0.1677E+03
     -1.096  0.8054E+01  0.1682E+03
     -1.037  0.7596E+01  0.1686E+03
     -0.978  0.6093E+01  0.1690E+03
     -0.919  0.4180E+01  0.1692E+03
     -0.860  0.2912E+01  0.1694E+03
     -0.801  0.2658E+01  0.1696E+03
     -0.742  0.2995E+01  0.1697E+03
     -0.683  0.3981E+01  0.1700E+03
     -0.624  0.6763E+01  0.1704E+03
     -0.565  0.1183E+02  0.1711E+03
     -0.506  0.1770E+02  0.1721E+03
     -0.448  0.2295E+02  0.1735E+03
     -0.389  0.2685E+02  0.1750E+03
     -0.330  0.2966E+02  0.1768E+03
     -0.271  0.3214E+02  0.1787E+03
     -0.212  0.3288E+02  0.1806E+03
     -0.153  0.2993E+02  0.1824E+03
     -0.094  0.2535E+02  0.1839E+03
     -0.035  0.2353E+02  0.1853E+03
      0.024  0.2480E+02  0.1867E+03
      0.083  0.2576E+02  0.1883E+03
      0.142  0.2597E+02  0.1898E+03
      0.201  0.2620E+02  0.1913E+03
      0.260  0.2458E+02  0.1928E+03
      0.319  0.2139E+02  0.1940E+03
      0.378  0.1912E+02  0.1952E+03
      0.437  0.1862E+02  0.1963E+03
      0.496  0.1966E+02  0.1974E+03
      0.554  0.2080E+02  0.1986E+03
      0.613  0.2106E+02  0.1999E+03
      0.672  0.2208E+02  0.2012E+03
      0.731  0.2502E+02  0.2027E+03
      0.790  0.2813E+02  0.2043E+03
      0.849  0.2942E+02  0.2061E+03
      0.908  0.2967E+02  0.2078E+03
      0.967  0.3164E+02  0.2097E+03
      1.026  0.3567E+02  0.2118E+03
      1.085  0.3772E+02  0.2140E+03
      1.144  0.3661E+02  0.2161E+03
      1.203  0.3615E+02  0.2183E+03
      1.262  0.3810E+02  0.2205E+03
      1.321  0.4123E+02  0.2230E+03
      1.380  0.4386E+02  0.2255E+03
      1.439  0.4568E+02  0.2282E+03
      1.497  0.4781E+02  0.2311E+03
      1.556  0.5129E+02  0.2341E+03
      1.615  0.5484E+02  0.2373E+03
      1.674  0.5550E+02  0.2406E+03
      1.733  0.5137E+02  0.2436E+03
      1.792  0.4350E+02  0.2462E+03
      1.851  0.3498E+02  0.2482E+03
      1.910  0.2660E+02  0.2498E+03
      1.969  0.1836E+02  0.2509E+03
      2.028  0.1122E+02  0.2515E+03
      2.087  0.5511E+01  0.2519E+03
      2.146  0.1848E+01  0.2520E+03
      2.205  0.3723E+00  0.2520E+03
      2.264  0.4200E-01  0.2520E+03
      2.323  0.2561E-02  0.2520E+03
      2.382  0.8273E-04  0.2520E+03
      2.440  0.1398E-05  0.2520E+03
      2.499  0.1223E-07  0.2520E+03
      2.558  0.5510E-10  0.2520E+03
      2.617  0.1275E-12  0.2520E+03
      2.676  0.0000E+00  0.2520E+03
      2.735  0.0000E+00  0.2520E+03
      2.794  0.0000E+00  0.2520E+03
      2.853  0.0000E+00  0.2520E+03
      2.912  0.0000E+00  0.2520E+03
      2.971  0.0000E+00  0.2520E+03
      3.030  0.0000E+00  0.2520E+03
