G-Beryllene bilayer AB 5 by 5 0.100000
1.0
       14.9703655974         8.6431446075         0.0000000000
      -14.9703655974         8.6431446075         0.0000000000
        0.0000000000         0.0000000000        40.0000000000
   Be
  100
Direct
     0.000000000         0.000000000         0.099997196
     0.000000000         0.200000000         0.099997196
     0.000000000         0.400000000         0.099997196
     0.000000000         0.600000000         0.099997196
     0.000000000         0.800000000         0.099997196
     0.200000000         0.000000000         0.099997196
     0.200000000         0.200000000         0.099997196
     0.200000000         0.400000000         0.099997196
     0.200000000         0.600000000         0.099997196
     0.200000000         0.800000000         0.099997196
     0.400000000         0.000000000         0.099997196
     0.400000000         0.200000000         0.099997196
     0.400000000         0.400000000         0.099997196
     0.400000000         0.600000000         0.099997196
     0.400000000         0.800000000         0.099997196
     0.600000000         0.000000000         0.099997196
     0.600000000         0.200000000         0.099997196
     0.600000000         0.400000000         0.099997196
     0.600000000         0.600000000         0.099997196
     0.600000000         0.800000000         0.099997196
     0.800000000         0.000000000         0.099997196
     0.800000000         0.200000000         0.099997196
     0.800000000         0.400000000         0.099997196
     0.800000000         0.600000000         0.099997196
     0.800000000         0.800000000         0.099997196
     0.133333333         0.066666667         0.123803044
     0.133333333         0.266666667         0.123803044
     0.133333333         0.466666667         0.123803044
     0.133333333         0.666666667         0.123803044
     0.133333333         0.866666667         0.123803044
     0.333333333         0.066666667         0.123803044
     0.333333333         0.266666667         0.123803044
     0.333333333         0.466666667         0.123803044
     0.333333333         0.666666667         0.123803044
     0.333333333         0.866666667         0.123803044
     0.533333333         0.066666667         0.123803044
     0.533333333         0.266666667         0.123803044
     0.533333333         0.466666667         0.123803044
     0.533333333         0.666666667         0.123803044
     0.533333333         0.866666667         0.123803044
     0.733333333         0.066666667         0.123803044
     0.733333333         0.266666667         0.123803044
     0.733333333         0.466666667         0.123803044
     0.733333333         0.666666667         0.123803044
     0.733333333         0.866666667         0.123803044
     0.933333333         0.066666667         0.123803044
     0.933333333         0.266666667         0.123803044
     0.933333333         0.466666667         0.123803044
     0.933333333         0.666666667         0.123803044
     0.933333333         0.866666667         0.123803044
     0.066666667         0.133333333         0.100002804
     0.066666667         0.333333333         0.100002804
     0.066666667         0.533333333         0.100002804
     0.066666667         0.733333333         0.100002804
     0.066666667         0.933333333         0.100002804
     0.266666667         0.133333333         0.100002804
     0.266666667         0.333333333         0.100002804
     0.266666667         0.533333333         0.100002804
     0.266666667         0.733333333         0.100002804
     0.266666667         0.933333333         0.100002804
     0.466666667         0.133333333         0.100002804
     0.466666667         0.333333333         0.100002804
     0.466666667         0.533333333         0.100002804
     0.466666667         0.733333333         0.100002804
     0.466666667         0.933333333         0.100002804
     0.666666667         0.133333333         0.100002804
     0.666666667         0.333333333         0.100002804
     0.666666667         0.533333333         0.100002804
     0.666666667         0.733333333         0.100002804
     0.666666667         0.933333333         0.100002804
     0.866666667         0.133333333         0.100002804
     0.866666667         0.333333333         0.100002804
     0.866666667         0.533333333         0.100002804
     0.866666667         0.733333333         0.100002804
     0.866666667         0.933333333         0.100002804
     0.133333333         0.066666667         0.076196956
     0.133333333         0.266666667         0.076196956
     0.133333333         0.466666667         0.076196956
     0.133333333         0.666666667         0.076196956
     0.133333333         0.866666667         0.076196956
     0.333333333         0.066666667         0.076196956
     0.333333333         0.266666667         0.076196956
     0.333333333         0.466666667         0.076196956
     0.333333333         0.666666667         0.076196956
     0.333333333         0.866666667         0.076196956
     0.533333333         0.066666667         0.076196956
     0.533333333         0.266666667         0.076196956
     0.533333333         0.466666667         0.076196956
     0.533333333         0.666666667         0.076196956
     0.533333333         0.866666667         0.076196956
     0.733333333         0.066666667         0.076196956
     0.733333333         0.266666667         0.076196956
     0.733333333         0.466666667         0.076196956
     0.733333333         0.666666667         0.076196956
     0.733333333         0.866666667         0.076196956
     0.933333333         0.066666667         0.076196956
     0.933333333         0.266666667         0.076196956
     0.933333333         0.466666667         0.076196956
     0.933333333         0.666666667         0.076196956
     0.933333333         0.866666667         0.076196956
