 vasp.6.5.1 10Mar25 (build Mar 14 2025 17:12:02) complex                        
  
 executed on             LinuxIFC date 2026.05.12  09:29:49
 running   84 mpi-ranks, on    1 nodes
 distrk:  each k-point on   84 cores,    1 groups
 distr:  one band on NCORE=   7 cores,   12 groups


--------------------------------------------------------------------------------------------------------


 INCAR:
   SYSTEM = Phonopy
   PREC = Accurate
   ENCUT = 600
   LCHARG = .FALSE.
   LWAVE = .FALSE.
   ALGO = Normal
   NELM = 150
   EDIFF = 1E-8
   SIGMA = 0.1
   ISMEAR = 0
   NSW = 0
   IBRION = -1
   NCORE = 7
   LREAL = .FALSE.
   GGA = PE
   IVDW = 12
   LDIPOL = .TRUE.
   IDIPOL = 3
   DIPOL = 0.5 0.5 0.1

 POTCAR:    PAW_PBE Be 06Sep2000                  
 POTCAR:    PAW_PBE H 15Jun2001                   
 POTCAR:    PAW_PBE Be 06Sep2000                  
   SHA256 =  98a2d1e63100a984719ed1fa4aa623d62d7fd86152f07ada9bb3796889d1bbc8 Be/POTCAR             
   COPYR  = (c) Copyright 06Sep2000 Georg Kresse                                                    
   COPYR  = This file is part of the software VASP. Any use, copying, and all other rights are regul
   COPYR  = If you do not have a valid VASP license, you may not use, copy or distribute this file. 
   VRHFIN =Be: s2p0                                                                                 
   LEXCH  = PE                                                                                      
   EATOM  =    27.4793 eV,    2.0197 Ry                                                             
                                                                                                    
   TITEL  = PAW_PBE Be 06Sep2000                                                                    
   LULTRA =        F    use ultrasoft PP ?                                                          
   IUNSCR =        1    unscreen: 0-lin 1-nonlin 2-no                                               
   RPACOR =    1.580    partial core radius                                                         
   POMASS =    9.013; ZVAL   =    2.000    mass and valenz                                          
   RCORE  =    1.900    outmost cutoff radius                                                       
   RWIGS  =    1.880; RWIGS  =    0.995    wigner-seitz radius (au A)                               
   ENMAX  =  247.543; ENMIN  =  185.658 eV                                                          
   ICORE  =        2    local potential                                                             
   LCOR   =        T    correct aug charges                                                         
   LPAW   =        T    paw PP                                                                      
   EAUG   =  318.781                                                                                
   DEXC   =    0.000                                                                                
   RMAX   =    1.944    core radius for proj-oper                                                   
   RAUG   =    1.300    factor for augmentation sphere                                              
   RDEP   =    2.003    radius for radial grids                                                     
   RDEPT  =    1.802    core radius for aug-charge                                                  
                                                                                                    
   Atomic configuration                                                                             
    4 entries                                                                                       
     n  l   j            E        occ.                                                              
     1  0  0.50      -106.2287   2.0000                                                             
     2  0  0.50        -5.6162   1.9900                                                             
     2  1  0.50        -2.0244   0.0100                                                             
     3  2  1.50        -1.3606   0.0000                                                             
   Description                                                                                      
     l       E           TYP  RCUT    TYP  RCUT                                                     
     0     -5.6161739     23  1.900                                                                 
     0     27.2116520     23  1.900                                                                 
     1     -2.0243505     23  1.900                                                                 
     1     27.2116520     23  1.900                                                                 
     2     -1.3605826     15  1.500                                                                 
  local pseudopotential read in
  partial core-charges read in
  partial kinetic energy density read in
  atomic valenz-charges read in
  non local Contribution for L=           0  read in
    real space projection operators read in
  non local Contribution for L=           0  read in
    real space projection operators read in
  non local Contribution for L=           1  read in
    real space projection operators read in
  non local Contribution for L=           1  read in
    real space projection operators read in
    PAW grid and wavefunctions read in
 
   number of l-projection  operators is LMAX  =           4
   number of lm-projection operators is LMMAX =           8
 
 POTCAR:    PAW_PBE H 15Jun2001                   
   SHA256 =  030f79b5d3ab3cf0e668861823c8fb652ff669f3e15e46930bd03bfd63a607b6 H/POTCAR              
   COPYR  = (c) Copyright 15Jun2001 Georg Kresse                                                    
   COPYR  = This file is part of the software VASP. Any use, copying, and all other rights are regul
   COPYR  = If you do not have a valid VASP license, you may not use, copy or distribute this file. 
   VRHFIN =H: ultrasoft test                                                                        
   LEXCH  = PE                                                                                      
   EATOM  =    12.4884 eV,    0.9179 Ry                                                             
                                                                                                    
   TITEL  = PAW_PBE H 15Jun2001                                                                     
   LULTRA =        F    use ultrasoft PP ?                                                          
   IUNSCR =        0    unscreen: 0-lin 1-nonlin 2-no                                               
   RPACOR =    0.000    partial core radius                                                         
   POMASS =    1.000; ZVAL   =    1.000    mass and valenz                                          
   RCORE  =    1.100    outmost cutoff radius                                                       
   RWIGS  =    0.700; RWIGS  =    0.370    wigner-seitz radius (au A)                               
   ENMAX  =  250.000; ENMIN  =  200.000 eV                                                          
   RCLOC  =    0.701    cutoff for local pot                                                        
   LCOR   =        T    correct aug charges                                                         
   LPAW   =        T    paw PP                                                                      
   EAUG   =  400.000                                                                                
   RMAX   =    1.123    core radius for proj-oper                                                   
   RAUG   =    1.200    factor for augmentation sphere                                              
   RDEP   =    1.112    radius for radial grids                                                     
   RDEPT  =    0.926    core radius for aug-charge                                                  
                                                                                                    
   Atomic configuration                                                                             
    2 entries                                                                                       
     n  l   j            E        occ.                                                              
     1  0  0.50        -6.4927   1.0000                                                             
     2  1  0.50        -3.4015   0.0000                                                             
   Description                                                                                      
     l       E           TYP  RCUT    TYP  RCUT                                                     
     0     -6.4927494     23  1.100                                                                 
     0      6.8029130     23  1.100                                                                 
     1     -4.0817478     23  1.100                                                                 
  local pseudopotential read in
  atomic valenz-charges read in
  non local Contribution for L=           0  read in
    real space projection operators read in
  non local Contribution for L=           0  read in
    real space projection operators read in
  non local Contribution for L=           1  read in
    real space projection operators read in
    PAW grid and wavefunctions read in
 
   number of l-projection  operators is LMAX  =           3
   number of lm-projection operators is LMMAX =           5
 
 -----------------------------------------------------------------------------
|                                                                             |
|               ----> ADVICE to this user running VASP <----                  |
|                                                                             |
|     You have a (more or less) 'large supercell' and for larger cells it     |
|     might be more efficient to use real-space projection operators.         |
|     Therefore, try LREAL= Auto in the INCAR file.                           |
|     Mind: For very accurate calculation, you might also keep the            |
|     reciprocal projection scheme (i.e. LREAL=.FALSE.).                      |
|                                                                             |
 -----------------------------------------------------------------------------

  PAW_PBE Be 06Sep2000                  :
 energy of atom  1       EATOM=  -27.4793
 kinetic energy error for atom=    0.0000 (will be added to EATOM!!)
  PAW_PBE H 15Jun2001                   :
 energy of atom  2       EATOM=  -12.4884
 kinetic energy error for atom=    0.0004 (will be added to EATOM!!)
 
 
 POSCAR: generated by phonopy
  positions in direct lattice
  No initial velocities read in
 IVDW         = 12
 VDW_S6       =    1.0000
 VDW_S8       =    0.7875
 VDW_A1       =    0.4289
 VDW_A2       =    4.4407
 VDW_RADIUS   =   50.2022 A
 VDW_CNRADIUS =   21.1671 A


 exchange-correlation table for PE
   RHO(1)=    0.500       N(1)  =     2000
   RHO(2)=  100.500       N(2)  =     4000
 


--------------------------------------------------------------------------------------------------------


 ion  position               nearest neighbor table
   1  0.029  0.072  0.122-  51 1.44  75 1.45   7 2.08  25 2.09  30 2.25  26 2.30  50 2.30
   2  0.228  0.072  0.122-  71 1.45  52 1.45   8 2.08  21 2.08  26 2.24  27 2.31  46 2.31
   3  0.428  0.072  0.122-  72 1.45  53 1.45   9 2.08  22 2.08  27 2.24  28 2.31  47 2.31
   4  0.628  0.072  0.122-  73 1.45  54 1.45  23 2.08  10 2.08  28 2.24  29 2.31  48 2.31
   5  0.828  0.072  0.122-  74 1.45  55 1.45   6 2.08  24 2.08  29 2.24  30 2.31  49 2.31
   6  0.028  0.272  0.122-  55 1.45  56 1.45   5 2.08  12 2.08  35 2.24  31 2.31  30 2.31
   7  0.228  0.272  0.122-  51 1.45  57 1.45   1 2.08  13 2.08  31 2.24  32 2.31  26 2.31
   8  0.428  0.272  0.122-  52 1.45  58 1.45  14 2.08   2 2.08  32 2.24  33 2.31  27 2.31
   9  0.628  0.272  0.122-  53 1.45  59 1.45   3 2.08  15 2.08  33 2.24  34 2.31  28 2.31
  10  0.828  0.272  0.122-  54 1.45  60 1.45  11 2.08   4 2.08  34 2.24  35 2.31  29 2.31
  11  0.028  0.472  0.122-  60 1.45  61 1.45  10 2.08  17 2.08  40 2.24  36 2.31  35 2.31
  12  0.228  0.472  0.122-  56 1.45  62 1.45   6 2.08  18 2.08  36 2.24  37 2.31  31 2.31
  13  0.428  0.472  0.122-  57 1.45  63 1.45   7 2.08  19 2.08  37 2.24  38 2.31  32 2.31
  14  0.628  0.472  0.122-  58 1.45  64 1.45   8 2.08  20 2.08  38 2.24  39 2.31  33 2.31
  15  0.828  0.472  0.122-  59 1.45  65 1.45   9 2.08  16 2.08  39 2.24  40 2.31  34 2.31
  16  0.028  0.672  0.122-  65 1.45  66 1.45  15 2.08  22 2.08  45 2.24  41 2.31  40 2.31
  17  0.228  0.672  0.122-  61 1.45  67 1.45  23 2.08  11 2.08  41 2.24  42 2.31  36 2.31
  18  0.428  0.672  0.122-  62 1.45  68 1.45  24 2.08  12 2.08  42 2.24  43 2.31  37 2.31
  19  0.628  0.672  0.122-  63 1.45  69 1.45  13 2.08  25 2.08  43 2.24  44 2.31  38 2.31
  20  0.828  0.672  0.122-  64 1.45  70 1.45  21 2.08  14 2.08  44 2.24  45 2.31  39 2.31
  21  0.028  0.872  0.122-  70 1.45  71 1.45  20 2.08   2 2.08  50 2.24  46 2.31  45 2.31
  22  0.228  0.872  0.122-  66 1.45  72 1.45  16 2.08   3 2.08  46 2.24  47 2.31  41 2.31
  23  0.428  0.872  0.122-  67 1.45  73 1.45   4 2.08  17 2.08  47 2.24  48 2.31  42 2.31
  24  0.628  0.872  0.122-  68 1.45  74 1.45  18 2.08   5 2.08  48 2.24  49 2.31  43 2.31
  25  0.828  0.872  0.122-  69 1.45  75 1.45  19 2.08   1 2.09  49 2.24  50 2.31  44 2.31
  26  0.172  0.128  0.078-  82 1.45  76 1.45  32 2.08  50 2.08   2 2.24   1 2.30   7 2.31
  27  0.372  0.128  0.078-  83 1.45  77 1.45  33 2.08  46 2.08   3 2.24   2 2.31   8 2.31
  28  0.572  0.128  0.078-  84 1.45  78 1.45  34 2.08  47 2.08   4 2.24   3 2.31   9 2.31
  29  0.772  0.128  0.078-  85 1.45  79 1.45  35 2.08  48 2.08   5 2.24   4 2.31  10 2.31
  30  0.972  0.128  0.078-  81 1.45  80 1.45  31 2.08  49 2.08   1 2.25   5 2.31   6 2.31
  31  0.172  0.328  0.078-  87 1.45  81 1.45  30 2.08  37 2.08   7 2.24   6 2.31  12 2.31
  32  0.372  0.328  0.078-  88 1.45  82 1.45  26 2.08  38 2.08   8 2.24   7 2.31  13 2.31
  33  0.572  0.328  0.078-  89 1.45  83 1.45  27 2.08  39 2.08   9 2.24   8 2.31  14 2.31
  34  0.772  0.328  0.078-  90 1.45  84 1.45  28 2.08  40 2.08  10 2.24   9 2.31  15 2.31
  35  0.972  0.328  0.078-  86 1.45  85 1.45  29 2.08  36 2.08   6 2.24  10 2.31  11 2.31
  36  0.172  0.528  0.078-  92 1.45  86 1.45  42 2.08  35 2.08  12 2.24  11 2.31  17 2.31
  37  0.372  0.528  0.078-  93 1.45  87 1.45  43 2.08  31 2.08  13 2.24  12 2.31  18 2.31
  38  0.572  0.528  0.078-  94 1.45  88 1.45  32 2.08  44 2.08  14 2.24  13 2.31  19 2.31
  39  0.772  0.528  0.078-  95 1.45  89 1.45  45 2.08  33 2.08  15 2.24  14 2.31  20 2.31
  40  0.972  0.528  0.078-  91 1.45  90 1.45  34 2.08  41 2.08  11 2.24  15 2.31  16 2.31
  41  0.172  0.728  0.078-  97 1.45  91 1.45  40 2.08  47 2.08  17 2.24  16 2.31  22 2.31
  42  0.372  0.728  0.078-  98 1.45  92 1.45  36 2.08  48 2.08  18 2.24  17 2.31  23 2.31
  43  0.572  0.728  0.078-  99 1.45  93 1.45  37 2.08  49 2.08  19 2.24  18 2.31  24 2.31
  44  0.772  0.728  0.078- 100 1.45  94 1.45  38 2.08  50 2.08  20 2.24  19 2.31  25 2.31
  45  0.972  0.728  0.078-  96 1.45  95 1.45  39 2.08  46 2.08  16 2.24  20 2.31  21 2.31
  46  0.172  0.928  0.078-  77 1.45  96 1.45  45 2.08  27 2.08  22 2.24  21 2.31   2 2.31
  47  0.372  0.928  0.078-  78 1.45  97 1.45  28 2.08  41 2.08  23 2.24  22 2.31   3 2.31
  48  0.572  0.928  0.078-  79 1.45  98 1.45  42 2.08  29 2.08  24 2.24  23 2.31   4 2.31
  49  0.772  0.928  0.078-  80 1.45  99 1.45  30 2.08  43 2.08  25 2.24  24 2.31   5 2.31
  50  0.972  0.928  0.078-  76 1.45 100 1.45  26 2.08  44 2.08  21 2.24   1 2.30  25 2.31
  51  0.127  0.173  0.147-   1 1.44   7 1.45
  52  0.327  0.173  0.147-   8 1.45   2 1.45
  53  0.527  0.173  0.147-   9 1.45   3 1.45
  54  0.727  0.173  0.147-  10 1.45   4 1.45
  55  0.927  0.173  0.147-   6 1.45   5 1.45
  56  0.127  0.373  0.147-  12 1.45   6 1.45
  57  0.327  0.373  0.147-  13 1.45   7 1.45
  58  0.527  0.373  0.147-  14 1.45   8 1.45
  59  0.727  0.373  0.147-  15 1.45   9 1.45
  60  0.927  0.373  0.147-  11 1.45  10 1.45
  61  0.127  0.573  0.147-  17 1.45  11 1.45
  62  0.327  0.573  0.147-  18 1.45  12 1.45
  63  0.527  0.573  0.147-  19 1.45  13 1.45
  64  0.727  0.573  0.147-  20 1.45  14 1.45
  65  0.927  0.573  0.147-  16 1.45  15 1.45
  66  0.127  0.773  0.147-  22 1.45  16 1.45
  67  0.327  0.773  0.147-  23 1.45  17 1.45
  68  0.527  0.773  0.147-  24 1.45  18 1.45
  69  0.727  0.773  0.147-  25 1.45  19 1.45
  70  0.927  0.773  0.147-  21 1.45  20 1.45
  71  0.127  0.973  0.147-   2 1.45  21 1.45
  72  0.327  0.973  0.147-   3 1.45  22 1.45
  73  0.527  0.973  0.147-   4 1.45  23 1.45
  74  0.727  0.973  0.147-   5 1.45  24 1.45
  75  0.927  0.973  0.147-  25 1.45   1 1.45
  76  0.073  0.027  0.053-  50 1.45  26 1.45
  77  0.273  0.027  0.053-  46 1.45  27 1.45
  78  0.473  0.027  0.053-  47 1.45  28 1.45
  79  0.673  0.027  0.053-  48 1.45  29 1.45
  80  0.873  0.027  0.053-  49 1.45  30 1.45
  81  0.073  0.227  0.053-  30 1.45  31 1.45
  82  0.273  0.227  0.053-  26 1.45  32 1.45
  83  0.473  0.227  0.053-  27 1.45  33 1.45
  84  0.673  0.227  0.053-  28 1.45  34 1.45
  85  0.873  0.227  0.053-  29 1.45  35 1.45
  86  0.073  0.427  0.053-  35 1.45  36 1.45
  87  0.273  0.427  0.053-  31 1.45  37 1.45
  88  0.473  0.427  0.053-  32 1.45  38 1.45
  89  0.673  0.427  0.053-  33 1.45  39 1.45
  90  0.873  0.427  0.053-  34 1.45  40 1.45
  91  0.073  0.627  0.053-  40 1.45  41 1.45
  92  0.273  0.627  0.053-  36 1.45  42 1.45
  93  0.473  0.627  0.053-  37 1.45  43 1.45
  94  0.673  0.627  0.053-  38 1.45  44 1.45
  95  0.873  0.627  0.053-  39 1.45  45 1.45
  96  0.073  0.827  0.053-  45 1.45  46 1.45
  97  0.273  0.827  0.053-  41 1.45  47 1.45
  98  0.473  0.827  0.053-  42 1.45  48 1.45
  99  0.673  0.827  0.053-  43 1.45  49 1.45
 100  0.873  0.827  0.053-  44 1.45  50 1.45
 
  LATTYP: Found a simple monoclinic cell.
 ALAT       =    10.4095183790
 B/A-ratio  =     3.8426369543
 C/A-ratio  =     1.2469529670
 COS(beta)  =    -0.4007584197
  
  Lattice vectors:
  
 A1 = (   0.0532212709,  10.4093823246,   0.0000000000)
 A2 = (   0.0000000000,   0.0000000000, -40.0000000000)
 A3 = ( -11.9186706769,  -5.1410463590,   0.0000000000)


Analysis of symmetry for initial positions (statically):
=====================================================================
 Subroutine PRICEL returns:
 Original cell was already a primitive cell.
 

 Routine SETGRP: Setting up the symmetry group for a 
 simple monoclinic supercell.


 Subroutine GETGRP returns: Found  1 space group operations
 (whereof  1 operations were pure point group operations)
 out of a pool of  4 trial point group operations.


The static configuration has the point symmetry C_1 .


Analysis of symmetry for dynamics (positions and initial velocities):
=====================================================================
 Subroutine PRICEL returns:
 Original cell was already a primitive cell.
 

 Routine SETGRP: Setting up the symmetry group for a 
 simple monoclinic supercell.


 Subroutine GETGRP returns: Found  1 space group operations
 (whereof  1 operations were pure point group operations)
 out of a pool of  4 trial point group operations.


The dynamic configuration has the point symmetry C_1 .


 Subroutine INISYM returns: Found  1 space group operations
 (whereof  1 operations are pure point group operations),
 and found     1 'primitive' translations


----------------------------------------------------------------------------------------

                                     Primitive cell                                     

  volume of cell :    4951.6955

  direct lattice vectors                    reciprocal lattice vectors
    11.918670677  5.141046359  0.000000000     0.042557835  0.095849589  0.000000000
   -11.865449406  5.268335966  0.000000000    -0.041529584  0.096279513  0.000000000
     0.000000000  0.000000000 40.000000000     0.000000000  0.000000000  0.025000000

  length of vectors
    12.980179828 12.982459453 40.000000000     0.104872842  0.104854427  0.025000000

  position of ions in fractional coordinates (direct lattice)
     0.029252966  0.071542382  0.122322624
     0.228482560  0.071542382  0.122322624
     0.428482560  0.071542382  0.122322624
     0.628482560  0.071542382  0.122322624
     0.828482560  0.071542382  0.122322624
     0.028482560  0.271542382  0.122322624
     0.228482560  0.271542382  0.122322624
     0.428482560  0.271542382  0.122322624
     0.628482560  0.271542382  0.122322624
     0.828482560  0.271542382  0.122322624
     0.028482560  0.471542382  0.122322624
     0.228482560  0.471542382  0.122322624
     0.428482560  0.471542382  0.122322624
     0.628482560  0.471542382  0.122322624
     0.828482560  0.471542382  0.122322624
     0.028482560  0.671542382  0.122322624
     0.228482560  0.671542382  0.122322624
     0.428482560  0.671542382  0.122322624
     0.628482560  0.671542382  0.122322624
     0.828482560  0.671542382  0.122322624
     0.028482560  0.871542382  0.122322624
     0.228482560  0.871542382  0.122322624
     0.428482560  0.871542382  0.122322624
     0.628482560  0.871542382  0.122322624
     0.828482560  0.871542382  0.122322624
     0.171517440  0.128457618  0.077677376
     0.371517440  0.128457618  0.077677376
     0.571517440  0.128457618  0.077677376
     0.771517440  0.128457618  0.077677376
     0.971517440  0.128457618  0.077677376
     0.171517440  0.328457618  0.077677376
     0.371517440  0.328457618  0.077677376
     0.571517440  0.328457618  0.077677376
     0.771517440  0.328457618  0.077677376
     0.971517440  0.328457618  0.077677376
     0.171517440  0.528457618  0.077677376
     0.371517440  0.528457618  0.077677376
     0.571517440  0.528457618  0.077677376
     0.771517440  0.528457618  0.077677376
     0.971517440  0.528457618  0.077677376
     0.171517440  0.728457618  0.077677376
     0.371517440  0.728457618  0.077677376
     0.571517440  0.728457618  0.077677376
     0.771517440  0.728457618  0.077677376
     0.971517440  0.728457618  0.077677376
     0.171517440  0.928457618  0.077677376
     0.371517440  0.928457618  0.077677376
     0.571517440  0.928457618  0.077677376
     0.771517440  0.928457618  0.077677376
     0.971517440  0.928457618  0.077677376
     0.126737893  0.173299731  0.147410393
     0.326737893  0.173299731  0.147410393
     0.526737893  0.173299731  0.147410393
     0.726737893  0.173299731  0.147410393
     0.926737893  0.173299731  0.147410393
     0.126737893  0.373299731  0.147410393
     0.326737893  0.373299731  0.147410393
     0.526737893  0.373299731  0.147410393
     0.726737893  0.373299731  0.147410393
     0.926737893  0.373299731  0.147410393
     0.126737893  0.573299731  0.147410393
     0.326737893  0.573299731  0.147410393
     0.526737893  0.573299731  0.147410393
     0.726737893  0.573299731  0.147410393
     0.926737893  0.573299731  0.147410393
     0.126737893  0.773299731  0.147410393
     0.326737893  0.773299731  0.147410393
     0.526737893  0.773299731  0.147410393
     0.726737893  0.773299731  0.147410393
     0.926737893  0.773299731  0.147410393
     0.126737893  0.973299731  0.147410393
     0.326737893  0.973299731  0.147410393
     0.526737893  0.973299731  0.147410393
     0.726737893  0.973299731  0.147410393
     0.926737893  0.973299731  0.147410393
     0.073262107  0.026700269  0.052589607
     0.273262107  0.026700269  0.052589607
     0.473262107  0.026700269  0.052589607
     0.673262107  0.026700269  0.052589607
     0.873262107  0.026700269  0.052589607
     0.073262107  0.226700269  0.052589607
     0.273262107  0.226700269  0.052589607
     0.473262107  0.226700269  0.052589607
     0.673262107  0.226700269  0.052589607
     0.873262107  0.226700269  0.052589607
     0.073262107  0.426700269  0.052589607
     0.273262107  0.426700269  0.052589607
     0.473262107  0.426700269  0.052589607
     0.673262107  0.426700269  0.052589607
     0.873262107  0.426700269  0.052589607
     0.073262107  0.626700269  0.052589607
     0.273262107  0.626700269  0.052589607
     0.473262107  0.626700269  0.052589607
     0.673262107  0.626700269  0.052589607
     0.873262107  0.626700269  0.052589607
     0.073262107  0.826700269  0.052589607
     0.273262107  0.826700269  0.052589607
     0.473262107  0.826700269  0.052589607
     0.673262107  0.826700269  0.052589607
     0.873262107  0.826700269  0.052589607

  ion indices of the primitive-cell ions
   primitive index   ion index
                 1           1
                 2           2
                 3           3
                 4           4
                 5           5
                 6           6
                 7           7
                 8           8
                 9           9
                10          10
                11          11
                12          12
                13          13
                14          14
                15          15
                16          16
                17          17
                18          18
                19          19
                20          20
                21          21
                22          22
                23          23
                24          24
                25          25
                26          26
                27          27
                28          28
                29          29
                30          30
                31          31
                32          32
                33          33
                34          34
                35          35
                36          36
                37          37
                38          38
                39          39
                40          40
                41          41
                42          42
                43          43
                44          44
                45          45
                46          46
                47          47
                48          48
                49          49
                50          50
                51          51
                52          52
                53          53
                54          54
                55          55
                56          56
                57          57
                58          58
                59          59
                60          60
                61          61
                62          62
                63          63
                64          64
                65          65
                66          66
                67          67
                68          68
                69          69
                70          70
                71          71
                72          72
                73          73
                74          74
                75          75
                76          76
                77          77
                78          78
                79          79
                80          80
                81          81
                82          82
                83          83
                84          84
                85          85
                86          86
                87          87
                88          88
                89          89
                90          90
                91          91
                92          92
                93          93
                94          94
                95          95
                96          96
                97          97
                98          98
                99          99
               100         100

----------------------------------------------------------------------------------------

 
 
 KPOINTS: k-points                                

Automatic generation of k-mesh.
 Grid dimensions read from file:
 generate k-points for:    5    5    1

 Generating k-lattice:

  Cartesian coordinates                     Fractional coordinates (reciprocal lattice)
     0.008511567  0.019169918  0.000000000     0.200000000  0.000000000  0.000000000
    -0.008305917  0.019255903  0.000000000     0.000000000  0.200000000  0.000000000
     0.000000000  0.000000000  0.025000000     0.000000000  0.000000000  1.000000000

  Length of vectors
     0.020974568  0.020970885  0.025000000

  Shift w.r.t. Gamma in fractional coordinates (k-lattice)
     0.000000000  0.000000000  0.000000000

 
 Subroutine IBZKPT returns following result:
 ===========================================
 
 Found     13 irreducible k-points:
 
 Following reciprocal coordinates:
            Coordinates               Weight
  0.000000  0.000000  0.000000      1.000000
  0.200000  0.000000  0.000000      2.000000
  0.400000  0.000000  0.000000      2.000000
  0.000000  0.200000  0.000000      2.000000
  0.200000  0.200000  0.000000      2.000000
  0.400000  0.200000  0.000000      2.000000
 -0.400000  0.200000  0.000000      2.000000
 -0.200000  0.200000  0.000000      2.000000
  0.000000  0.400000  0.000000      2.000000
  0.200000  0.400000  0.000000      2.000000
  0.400000  0.400000  0.000000      2.000000
 -0.400000  0.400000  0.000000      2.000000
 -0.200000  0.400000  0.000000      2.000000
 
 Following cartesian coordinates:
            Coordinates               Weight
  0.000000  0.000000  0.000000      1.000000
  0.008512  0.019170  0.000000      2.000000
  0.017023  0.038340  0.000000      2.000000
 -0.008306  0.019256  0.000000      2.000000
  0.000206  0.038426  0.000000      2.000000
  0.008717  0.057596  0.000000      2.000000
 -0.025329 -0.019084  0.000000      2.000000
 -0.016817  0.000086  0.000000      2.000000
 -0.016612  0.038512  0.000000      2.000000
 -0.008100  0.057682  0.000000      2.000000
  0.000411  0.076852  0.000000      2.000000
 -0.033635  0.000172  0.000000      2.000000
 -0.025123  0.019342  0.000000      2.000000
 


--------------------------------------------------------------------------------------------------------




 Dimension of arrays:
   k-points           NKPTS =     13   k-points in BZ     NKDIM =     13   number of bands    NBANDS=    132
   number of dos      NEDOS =    301   number of ions     NIONS =    100
   non local maximal  LDIM  =      4   non local SUM 2l+1 LMDIM =      8
   total plane-waves  NPLWV = ******
   max r-space proj   IRMAX =      1   max aug-charges    IRDMAX=  25790
   dimension x,y,z NGX =   108 NGY =  108 NGZ =  320
   dimension x,y,z NGXF=   216 NGYF=  216 NGZF=  640
   support grid    NGXF=   216 NGYF=  216 NGZF=  640
   ions per type =              50  50
   NGX,Y,Z   is equivalent  to a cutoff of  13.83, 13.83, 13.30 a.u.
   NGXF,Y,Z  is equivalent  to a cutoff of  27.66, 27.66, 26.60 a.u.

 SYSTEM =  Phonopy                                 
 POSCAR =  generated by phonopy                    

 Startparameter for this run:
   NWRITE =      2    write-flag & timer
   PREC   = accura    normal or accurate (medium, high low for compatibility)
   ISTART =      0    job   : 0-new  1-cont  2-samecut
   ICHARG =      2    charge: 1-file 2-atom 10-const
   ISPIN  =      1    spin polarized calculation?
   LNONCOLLINEAR =      F non collinear calculations
   LSORBIT =      F    spin-orbit coupling
   INIWAV =      1    electr: 0-lowe 1-rand  2-diag
   LASPH  =      F    aspherical Exc in radial PAW
 Electronic Relaxation 1
   ENCUT  =  600.0 eV  44.10 Ry    6.64 a.u.  25.92 25.93 79.89*2*pi/ulx,y,z
   ENINI  =  600.0     initial cutoff
   ENAUG  =  400.0 eV  augmentation charge cutoff
   NELM   =    150;   NELMIN=  2; NELMDL= -5     # of ELM steps 
   EDIFF  = 0.1E-07   stopping-criterion for ELM
   LREAL  =      F    real-space projection
   NLSPLINE    = F    spline interpolate recip. space projectors
   LCOMPAT=      F    compatible to vasp.4.4
   GGA_COMPAT  = T    GGA compatible to vasp.4.4-vasp.4.6
   LMAXPAW     = -100 max onsite density
   LMAXMIX     =    2 max onsite mixed and CHGCAR
   VOSKOWN=      0    Vosko Wilk Nusair interpolation
   ROPT   =    0.00000   0.00000
 Ionic relaxation
   EDIFFG = 0.1E-06   stopping-criterion for IOM
   NSW    =      0    number of steps for IOM
   NBLOCK =      1;   KBLOCK =      1    inner block; outer block 
   IBRION =     -1    ionic relax: 0-MD 1-quasi-New 2-CG
   NFREE  =      0    steps in history (QN), initial steepest desc. (CG)
   ISIF   =      2    stress and relaxation
   IWAVPR =     10    prediction:  0-non 1-charg 2-wave 3-comb
   ISYM   =      2    0-nonsym 1-usesym 2-fastsym
   LCORR  =      T    Harris-Foulkes like correction to forces

   POTIM  = 0.5000    time-step for ionic-motion
   TEIN   =    0.0    initial temperature
   TEBEG  =    0.0;   TEEND  =   0.0 temperature during run
   SMASS  =  -3.00    Nose mass-parameter (am)
   estimated Nose-frequenzy (Omega)   =  0.10E-29 period in steps = 0.13E+47 mass=  -0.385E-26a.u.
   SCALEE = 1.0000    scale energy and forces
   NPACO  =    256;   APACO  = 10.0  distance and # of slots for P.C.
   PSTRESS=    0.0 pullay stress

  Mass of Ions in am
   POMASS =   9.01  1.00
  Ionic Valenz
   ZVAL   =   2.00  1.00
  Atomic Wigner-Seitz radii
   RWIGS  =  -1.00 -1.00
  virtual crystal weights 
   VCA    =   1.00  1.00
   NELECT =     150.0000    total number of electrons
   NUPDOWN=      -1.0000    fix difference up-down

 DOS related values:
   EMIN   =  10.00;   EMAX   =-10.00  energy-range for DOS
   EFERMI =   0.00;   METHOD = LEGACY      
   ISMEAR =     0;   SIGMA  =   0.10  broadening in eV -4-tet -1-fermi 0-gaus
   EFERMI_NEDOS =   21; number of points for ismear=-14 and -15

 Electronic relaxation 2 (details)
   IALGO  =     38    algorithm
   LDIAG  =      T    sub-space diagonalisation (order eigenvalues)
   LSUBROT=      F    optimize rotation matrix (better conditioning)
   LROBUST=      F    robust break criterion during scf (extrapolated energy error)
   ISEARCH=      0    line search for conjugate gradient (0, 1=use gradient)
   TURBO    =      0    0=normal 1=particle mesh
   IRESTART =      0    0=no restart 2=restart with 2 vectors
   NREBOOT  =      0    no. of reboots
   NMIN     =      0    reboot dimension
   EREF     =   0.00    reference energy to select bands
   IMIX   =      4    mixing-type and parameters
     AMIX     =   0.40;   BMIX     =  1.00
     AMIX_MAG =   1.60;   BMIX_MAG =  1.00
     AMIN     =   0.10
     WC   =   100.;   INIMIX=   1;  MIXPRE=   1;  MAXMIX= -45

 Intra band minimization:
   WEIMIN = 0.0000     energy-eigenvalue tresh-hold
   EBREAK =  0.19E-10  absolut break condition
   DEPER  =   0.30     relativ break condition  

   TIME   =   0.40     timestep for ELM

  volume/ion in A,a.u.               =      49.52       334.16
  Fermi-wavevector in a.u.,A,eV,Ry     =   0.510333  0.964390  3.543503  0.260440
  Thomas-Fermi vector in A             =   1.523284
 
 Write flags
   LWAVE        =      F    write WAVECAR
   LDOWNSAMPLE  =      F    k-point downsampling of WAVECAR
   LCHARG       =      F    write CHGCAR
   LVTOT        =      F    write LOCPOT, total local potential
   LVHAR        =      F    write LOCPOT, Hartree potential only
   WRT_POTENTIAL= false  ! write potential to hdf5 file
   LELF         =      F    write electronic localiz. function (ELF)
   LORBIT       =      0    0 simple, 1 ext, 2 COOP (PROOUT), +10 PAW based schemes


 Python interface
   PLUGINS active      =      F    recompile with -DPLUGINS to activate
 
 Dipole corrections
   LMONO      =      F    monopole corrections only (constant potential shift)
   LDIPOL     =      T    correct potential (dipole corrections)
   IDIPOL     =      3    1-x, 2-y, 3-z, 4-all directions 
   EPSILON    =  1.0000000 bulk dielectric constant
   LVACPOTAV  =      F  vacuum potentials using an averaging scheme for the charge density
   VACPOTFLAT =  0.1000000 required flatness to determine vacuum potential
 
Coulomb truncation method
  LTRUNCATE          =      F  Coulomb kernel truncation to be used

 
 Exchange correlation treatment:
   GGA     = PE    functional components
   XC_C    = 1    coefficients multiplying the functional components
   LIBXC   =     F    Libxc                    
   VOSKOWN =     0    Vosko Wilk Nusair interpolation
   LHFCALC =     F    Hartree Fock is set to
   LHFONE  =     F    Hartree Fock one center treatment
   AEXX    =    0.0000 exact exchange contribution

 Parameters of functionals:
   PE:
     No parameter
 
 Van der Waals corrections
   IVDW    =    12    specifies the selected vdW correction

 Linear response parameters
   LEPSILON=     F    determine dielectric tensor
   LRPA    =     F    only Hartree local field effects (RPA)
   LNABLA  =     F    use nabla operator in PAW spheres
   LVEL    =     F    velocity operator in full k-point grid
   CSHIFT  =0.1000    complex shift for real part using Kramers Kronig
   OMEGAMAX=  -1.0    maximum frequency
   DEG_THRESHOLD= 0.2000000E-02 threshold for treating states as degnerate
   RTIME   =   -0.100 relaxation time in fs
  (WPLASMAI=    0.000 imaginary part of plasma frequency in eV, 0.658/RTIME)
   DFIELD  = 0.0000000 0.0000000 0.0000000 field for delta impulse in time
 
  Optional k-point grid parameters
   LKPOINTS_OPT  =     F    use optional k-point grid
   KPOINTS_OPT_MODE=     1    mode for optional k-point grid
 
 Orbital magnetization related:
   ORBITALMAG=     F  switch on orbital magnetization
   LCHIMAG   =     F  perturbation theory with respect to B field
   DQ        =  0.001000  dq finite difference perturbation B field
   LLRAUG    =     F  two centre corrections for induced B field
   LBONE     =     F  B-component reconstruction in AE one-centre
   LVGVCALC  =     T  calculate vGv susceptibility
   LVGVAPPL  =     F  apply vGv susceptibility instead of pGv for G=0

 Random number generation:
   RANDOM_GENERATOR = DEFAULT
   PCG_SEED         = not used


--------------------------------------------------------------------------------------------------------


 Static calculation
 charge density and potential will be updated during run
 non-spin polarized calculation
 Variant of blocked Davidson
 Davidson routine will perform the subspace rotation
 perform sub-space diagonalisation
    after iterative eigenvector-optimisation
 modified Broyden-mixing scheme, WC =      100.0
 initial mixing is a Kerker type mixing with AMIX =  0.4000 and BMIX =      1.0000
 Hartree-type preconditioning will be used
 using additional bands           57
 reciprocal scheme for non local part
 use partial core corrections
 calculate Harris-corrections to forces 
   (improved forces if not selfconsistent)
 use gradient corrections 
 use of overlap-Matrix (Vanderbilt PP)
 Gauss-broadening in eV      SIGMA  =   0.10


--------------------------------------------------------------------------------------------------------


  energy-cutoff  :      600.00
  volume of cell :     4951.70
      direct lattice vectors                 reciprocal lattice vectors
    11.918670677  5.141046359  0.000000000     0.042557835  0.095849589  0.000000000
   -11.865449406  5.268335966  0.000000000    -0.041529584  0.096279513  0.000000000
     0.000000000  0.000000000 40.000000000     0.000000000  0.000000000  0.025000000

  length of vectors
    12.980179828 12.982459453 40.000000000     0.104872842  0.104854427  0.025000000


 
 k-points in units of 2pi/SCALE and weight: k-points                                
   0.00000000  0.00000000  0.00000000       0.040
   0.00851157  0.01916992  0.00000000       0.080
   0.01702313  0.03833984  0.00000000       0.080
  -0.00830592  0.01925590  0.00000000       0.080
   0.00020565  0.03842582  0.00000000       0.080
   0.00871722  0.05759574  0.00000000       0.080
  -0.02532905 -0.01908393  0.00000000       0.080
  -0.01681748  0.00008598  0.00000000       0.080
  -0.01661183  0.03851181  0.00000000       0.080
  -0.00810027  0.05768172  0.00000000       0.080
   0.00041130  0.07685164  0.00000000       0.080
  -0.03363497  0.00017197  0.00000000       0.080
  -0.02512340  0.01934189  0.00000000       0.080
 
 k-points in reciprocal lattice and weights: k-points                                
   0.00000000  0.00000000  0.00000000       0.040
   0.20000000  0.00000000  0.00000000       0.080
   0.40000000  0.00000000  0.00000000       0.080
   0.00000000  0.20000000  0.00000000       0.080
   0.20000000  0.20000000  0.00000000       0.080
   0.40000000  0.20000000  0.00000000       0.080
  -0.40000000  0.20000000  0.00000000       0.080
  -0.20000000  0.20000000  0.00000000       0.080
   0.00000000  0.40000000  0.00000000       0.080
   0.20000000  0.40000000  0.00000000       0.080
   0.40000000  0.40000000  0.00000000       0.080
  -0.40000000  0.40000000  0.00000000       0.080
  -0.20000000  0.40000000  0.00000000       0.080
 
 position of ions in fractional coordinates (direct lattice) 
   0.02925297  0.07154238  0.12232262
   0.22848256  0.07154238  0.12232262
   0.42848256  0.07154238  0.12232262
   0.62848256  0.07154238  0.12232262
   0.82848256  0.07154238  0.12232262
   0.02848256  0.27154238  0.12232262
   0.22848256  0.27154238  0.12232262
   0.42848256  0.27154238  0.12232262
   0.62848256  0.27154238  0.12232262
   0.82848256  0.27154238  0.12232262
   0.02848256  0.47154238  0.12232262
   0.22848256  0.47154238  0.12232262
   0.42848256  0.47154238  0.12232262
   0.62848256  0.47154238  0.12232262
   0.82848256  0.47154238  0.12232262
   0.02848256  0.67154238  0.12232262
   0.22848256  0.67154238  0.12232262
   0.42848256  0.67154238  0.12232262
   0.62848256  0.67154238  0.12232262
   0.82848256  0.67154238  0.12232262
   0.02848256  0.87154238  0.12232262
   0.22848256  0.87154238  0.12232262
   0.42848256  0.87154238  0.12232262
   0.62848256  0.87154238  0.12232262
   0.82848256  0.87154238  0.12232262
   0.17151744  0.12845762  0.07767738
   0.37151744  0.12845762  0.07767738
   0.57151744  0.12845762  0.07767738
   0.77151744  0.12845762  0.07767738
   0.97151744  0.12845762  0.07767738
   0.17151744  0.32845762  0.07767738
   0.37151744  0.32845762  0.07767738
   0.57151744  0.32845762  0.07767738
   0.77151744  0.32845762  0.07767738
   0.97151744  0.32845762  0.07767738
   0.17151744  0.52845762  0.07767738
   0.37151744  0.52845762  0.07767738
   0.57151744  0.52845762  0.07767738
   0.77151744  0.52845762  0.07767738
   0.97151744  0.52845762  0.07767738
   0.17151744  0.72845762  0.07767738
   0.37151744  0.72845762  0.07767738
   0.57151744  0.72845762  0.07767738
   0.77151744  0.72845762  0.07767738
   0.97151744  0.72845762  0.07767738
   0.17151744  0.92845762  0.07767738
   0.37151744  0.92845762  0.07767738
   0.57151744  0.92845762  0.07767738
   0.77151744  0.92845762  0.07767738
   0.97151744  0.92845762  0.07767738
   0.12673789  0.17329973  0.14741039
   0.32673789  0.17329973  0.14741039
   0.52673789  0.17329973  0.14741039
   0.72673789  0.17329973  0.14741039
   0.92673789  0.17329973  0.14741039
   0.12673789  0.37329973  0.14741039
   0.32673789  0.37329973  0.14741039
   0.52673789  0.37329973  0.14741039
   0.72673789  0.37329973  0.14741039
   0.92673789  0.37329973  0.14741039
   0.12673789  0.57329973  0.14741039
   0.32673789  0.57329973  0.14741039
   0.52673789  0.57329973  0.14741039
   0.72673789  0.57329973  0.14741039
   0.92673789  0.57329973  0.14741039
   0.12673789  0.77329973  0.14741039
   0.32673789  0.77329973  0.14741039
   0.52673789  0.77329973  0.14741039
   0.72673789  0.77329973  0.14741039
   0.92673789  0.77329973  0.14741039
   0.12673789  0.97329973  0.14741039
   0.32673789  0.97329973  0.14741039
   0.52673789  0.97329973  0.14741039
   0.72673789  0.97329973  0.14741039
   0.92673789  0.97329973  0.14741039
   0.07326211  0.02670027  0.05258961
   0.27326211  0.02670027  0.05258961
   0.47326211  0.02670027  0.05258961
   0.67326211  0.02670027  0.05258961
   0.87326211  0.02670027  0.05258961
   0.07326211  0.22670027  0.05258961
   0.27326211  0.22670027  0.05258961
   0.47326211  0.22670027  0.05258961
   0.67326211  0.22670027  0.05258961
   0.87326211  0.22670027  0.05258961
   0.07326211  0.42670027  0.05258961
   0.27326211  0.42670027  0.05258961
   0.47326211  0.42670027  0.05258961
   0.67326211  0.42670027  0.05258961
   0.87326211  0.42670027  0.05258961
   0.07326211  0.62670027  0.05258961
   0.27326211  0.62670027  0.05258961
   0.47326211  0.62670027  0.05258961
   0.67326211  0.62670027  0.05258961
   0.87326211  0.62670027  0.05258961
   0.07326211  0.82670027  0.05258961
   0.27326211  0.82670027  0.05258961
   0.47326211  0.82670027  0.05258961
   0.67326211  0.82670027  0.05258961
   0.87326211  0.82670027  0.05258961
 
 position of ions in cartesian coordinates  (Angst):
  -0.50022606  0.52730016  4.89290496
   1.87432587  1.55154874  4.89290496
   4.25806001  2.57975801  4.89290496
   6.64179414  3.60796728  4.89290496
   9.02552828  4.63617656  4.89290496
  -2.88249815  1.57700666  4.89290496
  -0.49876401  2.60521593  4.89290496
   1.88497013  3.63342521  4.89290496
   4.26870426  4.66163448  4.89290496
   6.65243840  5.68984375  4.89290496
  -5.25558803  2.63067386  4.89290496
  -2.87185389  3.65888313  4.89290496
  -0.48811976  4.68709240  4.89290496
   1.89561438  5.71530167  4.89290496
   4.27934851  6.74351094  4.89290496
  -7.62867791  3.68434105  4.89290496
  -5.24494377  4.71255032  4.89290496
  -2.86120964  5.74075959  4.89290496
  -0.47747550  6.76896886  4.89290496
   1.90625863  7.79717814  4.89290496
 -10.00176779  4.73800824  4.89290496
  -7.61803365  5.76621751  4.89290496
  -5.23429952  6.79442678  4.89290496
  -2.85056538  7.82263606  4.89290496
  -0.46683125  8.85084533  4.89290496
   0.52005252  1.55853700  3.10709504
   2.90378665  2.58674627  3.10709504
   5.28752079  3.61495554  3.10709504
   7.67125492  4.64316481  3.10709504
  10.05498906  5.67137408  3.10709504
  -1.85303736  2.61220419  3.10709504
   0.53069677  3.64041346  3.10709504
   2.91443091  4.66862273  3.10709504
   5.29816504  5.69683200  3.10709504
   7.68189918  6.72504128  3.10709504
  -4.22612724  3.66587138  3.10709504
  -1.84239311  4.69408065  3.10709504
   0.54134103  5.72228993  3.10709504
   2.92507516  6.75049920  3.10709504
   5.30880930  7.77870847  3.10709504
  -6.59921713  4.71953858  3.10709504
  -4.21548299  5.74774785  3.10709504
  -1.83174885  6.77595712  3.10709504
   0.55198528  7.80416639  3.10709504
   2.93571942  8.83237566  3.10709504
  -8.97230701  5.77320577  3.10709504
  -6.58857287  6.80141504  3.10709504
  -4.20483874  7.82962431  3.10709504
  -1.82110460  8.85783358  3.10709504
   0.56262954  9.88604286  3.10709504
  -0.54573199  1.56456659  5.89641571
   1.83800215  2.59277586  5.89641571
   4.22173628  3.62098513  5.89641571
   6.60547042  4.64919440  5.89641571
   8.98920455  5.67740367  5.89641571
  -2.91882187  2.61823378  5.89641571
  -0.53508774  3.64644305  5.89641571
   1.84864640  4.67465232  5.89641571
   4.23238054  5.70286160  5.89641571
   6.61611467  6.73107087  5.89641571
  -5.29191175  3.67190097  5.89641571
  -2.90817762  4.70011025  5.89641571
  -0.52444348  5.72831952  5.89641571
   1.85929065  6.75652879  5.89641571
   4.24302479  7.78473806  5.89641571
  -7.66500163  4.72556817  5.89641571
  -5.28126750  5.75377744  5.89641571
  -2.89753336  6.78198671  5.89641571
  -0.51379923  7.81019598  5.89641571
   1.86993491  8.83840525  5.89641571
 -10.03809151  5.77923536  5.89641571
  -7.65435738  6.80744463  5.89641571
  -5.27062324  7.83565390  5.89641571
  -2.88688911  8.86386318  5.89641571
  -0.50315497  9.89207245  5.89641571
   0.55637624  0.51730988  2.10358429
   2.94011038  1.54551915  2.10358429
   5.32384451  2.57372842  2.10358429
   7.70757865  3.60193769  2.10358429
  10.09131279  4.63014696  2.10358429
  -1.81671364  1.57097707  2.10358429
   0.56702050  2.59918634  2.10358429
   2.95075463  3.62739561  2.10358429
   5.33448877  4.65560489  2.10358429
   7.71822290  5.68381416  2.10358429
  -4.18980352  2.62464426  2.10358429
  -1.80606938  3.65285354  2.10358429
   0.57766475  4.68106281  2.10358429
   2.96139889  5.70927208  2.10358429
   5.34513302  6.73748135  2.10358429
  -6.56289340  3.67831146  2.10358429
  -4.17915926  4.70652073  2.10358429
  -1.79542513  5.73473000  2.10358429
   0.58830901  6.76293927  2.10358429
   2.97204314  7.79114854  2.10358429
  -8.93598328  4.73197865  2.10358429
  -6.55224915  5.76018792  2.10358429
  -4.16851501  6.78839719  2.10358429
  -1.78478087  7.81660647  2.10358429
   0.59895326  8.84481574  2.10358429
 


--------------------------------------------------------------------------------------------------------


 k-point     1 :   0.0000 0.0000 0.0000  plane waves:  165169
 k-point     2 :   0.2000 0.0000 0.0000  plane waves:  165219
 k-point     3 :   0.4000 0.0000 0.0000  plane waves:  165249
 k-point     4 :   0.0000 0.2000 0.0000  plane waves:  165207
 k-point     5 :   0.2000 0.2000 0.0000  plane waves:  165217
 k-point     6 :   0.4000 0.2000 0.0000  plane waves:  165286
 k-point     7 :  -0.4000 0.2000 0.0000  plane waves:  165224
 k-point     8 :  -0.2000 0.2000 0.0000  plane waves:  165223
 k-point     9 :   0.0000 0.4000 0.0000  plane waves:  165254
 k-point    10 :   0.2000 0.4000 0.0000  plane waves:  165284
 k-point    11 :   0.4000 0.4000 0.0000  plane waves:  165260
 k-point    12 :  -0.4000 0.4000 0.0000  plane waves:  165340
 k-point    13 :  -0.2000 0.4000 0.0000  plane waves:  165224

 maximum and minimum number of plane-waves per node :     23675    23535

 maximum number of plane-waves:    165340
 maximum index in each direction: 
   IXMAX=   26   IYMAX=   25   IZMAX=   79
   IXMIN=  -26   IYMIN=  -26   IZMIN=  -79


 parallel 3D FFT for wavefunctions:
    minimum data exchange during FFTs selected (reduces bandwidth)
 parallel 3D FFT for charge:
    minimum data exchange during FFTs selected (reduces bandwidth)


 total amount of memory used by VASP MPI-rank0   236787. kBytes
=======================================================================

   base                                    :      30000. kBytes
   nonl-proj                               :      77121. kBytes
   fftplans                                :      29891. kBytes
   grid                                    :      45422. kBytes
   one-center                              :         46. kBytes
   wavefun                                 :      54307. kBytes
 
     INWAV:  cpu time      0.0000: real time      0.0000
 Broyden mixing: mesh for mixing (old mesh)
   NGX = 51   NGY = 51   NGZ =159
  (NGX  =216   NGY  =216   NGZ  =640)
  gives a total of 413559 points

 initial charge density was supplied:
 charge density of overlapping atoms calculated
 number of electron     150.0000000 magnetization 
 keeping initial charge density in first step


--------------------------------------------------------------------------------------------------------


 Maximum index for augmentation-charges          829 (set IRDMAX)


--------------------------------------------------------------------------------------------------------


 First call to EWALD:  gamma=   0.104
 Maximum number of real-space cells   5x   5x   1
 Maximum number of reciprocal cells   2x   2x   6

    FEWALD:  cpu time      0.0441: real time      0.0443


--------------------------------------- Ionic step        1  -------------------------------------------




--------------------------------------- Iteration      1(   1)  ---------------------------------------


    POTLOK:  cpu time      0.5176: real time      0.5257
    SETDIJ:  cpu time      0.0149: real time      0.0149
     EDDAV:  cpu time     40.9251: real time     41.3153
       DOS:  cpu time      0.0007: real time      0.0007
    --------------------------------------------
      LOOP:  cpu time     41.4585: real time     41.8569

 eigenvalue-minimisations  :  3432
 total energy-change (2. order) : 0.9633968E+03  (-0.4141545E+04)
 number of electron     150.0000000 magnetization 
 augmentation part      150.0000000 magnetization 

 DIPCOR: dipole corrections for dipol
 direction  3 min pos   385,
 dipolmoment           0.000000      0.000000      0.000000 electrons x Angstroem
 Tr[quadrupol]     -4120.557821

 energy correction for charged system         0.000000 eV
 dipol+quadrupol energy correction           -0.000000 eV
 added-field ion interaction         -0.000000 eV  (added to PSCEN)


 Free energy of the ion-electron system (eV)
  ---------------------------------------------------
  alpha Z        PSCENC =        16.91953745
  Ewald energy   TEWEN  =     40449.27459315
  -Hartree energ DENC   =    -41321.94306232
  -exchange      EXHF   =         0.00000000
  -V(xc)+E(xc)   XCENC  =       303.14981789
  PAW double counting   =       869.51293836     -838.27406964
  entropy T*S    EENTRO =        -0.13810806
  eigenvalues    EBANDS =      -513.46694404
  atomic energy  EATOM  =      1998.36210175
  Solvation  Ediel_sol  =         0.00000000
  ---------------------------------------------------
  free energy    TOTEN  =       963.39680453 eV

  energy without entropy =      963.53491259  energy(sigma->0) =      963.46585856


--------------------------------------------------------------------------------------------------------




--------------------------------------- Iteration      1(   2)  ---------------------------------------


     EDDAV:  cpu time     57.4516: real time     58.0555
       DOS:  cpu time      0.0004: real time      0.0004
    --------------------------------------------
      LOOP:  cpu time     57.4521: real time     58.0559

 eigenvalue-minimisations  :  5424
 total energy-change (2. order) :-0.1177334E+04  (-0.1133158E+04)
 number of electron     150.0000000 magnetization 
 augmentation part      150.0000000 magnetization 

 DIPCOR: dipole corrections for dipol
 direction  3 min pos   385,
 dipolmoment           0.000000      0.000000      0.000000 electrons x Angstroem
 Tr[quadrupol]     -4120.557821

 energy correction for charged system         0.000000 eV
 dipol+quadrupol energy correction           -0.000000 eV
 added-field ion interaction         -0.000000 eV  (added to PSCEN)


 Free energy of the ion-electron system (eV)
  ---------------------------------------------------
  alpha Z        PSCENC =        16.91953745
  Ewald energy   TEWEN  =     40449.27459315
  -Hartree energ DENC   =    -41321.94306232
  -exchange      EXHF   =         0.00000000
  -V(xc)+E(xc)   XCENC  =       303.14981789
  PAW double counting   =       869.51293836     -838.27406964
  entropy T*S    EENTRO =        -0.05239165
  eigenvalues    EBANDS =     -1690.88701952
  atomic energy  EATOM  =      1998.36210175
  Solvation  Ediel_sol  =         0.00000000
  ---------------------------------------------------
  free energy    TOTEN  =      -213.93755453 eV

  energy without entropy =     -213.88516288  energy(sigma->0) =     -213.91135871


--------------------------------------------------------------------------------------------------------




--------------------------------------- Iteration      1(   3)  ---------------------------------------


     EDDAV:  cpu time     48.8599: real time     49.2720
       DOS:  cpu time      0.0004: real time      0.0004
    --------------------------------------------
      LOOP:  cpu time     48.8603: real time     49.2724

 eigenvalue-minimisations  :  4380
 total energy-change (2. order) :-0.1454766E+03  (-0.1433075E+03)
 number of electron     150.0000000 magnetization 
 augmentation part      150.0000000 magnetization 

 DIPCOR: dipole corrections for dipol
 direction  3 min pos   385,
 dipolmoment           0.000000      0.000000      0.000000 electrons x Angstroem
 Tr[quadrupol]     -4120.557821

 energy correction for charged system         0.000000 eV
 dipol+quadrupol energy correction           -0.000000 eV
 added-field ion interaction         -0.000000 eV  (added to PSCEN)


 Free energy of the ion-electron system (eV)
  ---------------------------------------------------
  alpha Z        PSCENC =        16.91953745
  Ewald energy   TEWEN  =     40449.27459315
  -Hartree energ DENC   =    -41321.94306232
  -exchange      EXHF   =         0.00000000
  -V(xc)+E(xc)   XCENC  =       303.14981789
  PAW double counting   =       869.51293836     -838.27406964
  entropy T*S    EENTRO =        -0.06493529
  eigenvalues    EBANDS =     -1836.35106875
  atomic energy  EATOM  =      1998.36210175
  Solvation  Ediel_sol  =         0.00000000
  ---------------------------------------------------
  free energy    TOTEN  =      -359.41414741 eV

  energy without entropy =     -359.34921212  energy(sigma->0) =     -359.38167976


--------------------------------------------------------------------------------------------------------




--------------------------------------- Iteration      1(   4)  ---------------------------------------


     EDDAV:  cpu time     49.4229: real time     49.8336
       DOS:  cpu time      0.0007: real time      0.0007
    --------------------------------------------
      LOOP:  cpu time     49.4235: real time     49.8343

 eigenvalue-minimisations  :  4452
 total energy-change (2. order) :-0.3900527E+01  (-0.3888411E+01)
 number of electron     150.0000000 magnetization 
 augmentation part      150.0000000 magnetization 

 DIPCOR: dipole corrections for dipol
 direction  3 min pos   385,
 dipolmoment           0.000000      0.000000      0.000000 electrons x Angstroem
 Tr[quadrupol]     -4120.557821

 energy correction for charged system         0.000000 eV
 dipol+quadrupol energy correction           -0.000000 eV
 added-field ion interaction         -0.000000 eV  (added to PSCEN)


 Free energy of the ion-electron system (eV)
  ---------------------------------------------------
  alpha Z        PSCENC =        16.91953745
  Ewald energy   TEWEN  =     40449.27459315
  -Hartree energ DENC   =    -41321.94306232
  -exchange      EXHF   =         0.00000000
  -V(xc)+E(xc)   XCENC  =       303.14981789
  PAW double counting   =       869.51293836     -838.27406964
  entropy T*S    EENTRO =        -0.06493984
  eigenvalues    EBANDS =     -1840.25159105
  atomic energy  EATOM  =      1998.36210175
  Solvation  Ediel_sol  =         0.00000000
  ---------------------------------------------------
  free energy    TOTEN  =      -363.31467426 eV

  energy without entropy =     -363.24973442  energy(sigma->0) =     -363.28220434


--------------------------------------------------------------------------------------------------------




--------------------------------------- Iteration      1(   5)  ---------------------------------------


     EDDAV:  cpu time     53.7135: real time     54.2033
       DOS:  cpu time      0.0004: real time      0.0004
    CHARGE:  cpu time      2.2440: real time      2.2702
    MIXING:  cpu time      0.0078: real time      0.0078
    --------------------------------------------
      LOOP:  cpu time     55.9654: real time     56.4815

 eigenvalue-minimisations  :  4968
 total energy-change (2. order) :-0.8682045E-01  (-0.8671491E-01)
 number of electron     149.9999989 magnetization 
 augmentation part        0.0491722 magnetization 

 DIPCOR: dipole corrections for dipol
 direction  3 min pos   385,
 dipolmoment           0.000000      0.000000      0.000000 electrons x Angstroem
 Tr[quadrupol]     -4120.557821

 energy correction for charged system         0.000000 eV
 dipol+quadrupol energy correction           -0.000000 eV
 added-field ion interaction         -0.000000 eV  (added to PSCEN)


 Broyden mixing:
  rms(total) = 0.21036E+01    rms(broyden)= 0.21035E+01
  rms(prec ) = 0.21594E+01
  weight for this iteration     100.00

 Free energy of the ion-electron system (eV)
  ---------------------------------------------------
  alpha Z        PSCENC =        16.91953745
  Ewald energy   TEWEN  =     40449.27459315
  -Hartree energ DENC   =    -41321.94306232
  -exchange      EXHF   =         0.00000000
  -V(xc)+E(xc)   XCENC  =       303.14981789
  PAW double counting   =       869.51293836     -838.27406964
  entropy T*S    EENTRO =        -0.06493021
  eigenvalues    EBANDS =     -1840.33842113
  atomic energy  EATOM  =      1998.36210175
  Solvation  Ediel_sol  =         0.00000000
  ---------------------------------------------------
  free energy    TOTEN  =      -363.40149471 eV

  energy without entropy =     -363.33656449  energy(sigma->0) =     -363.36902960


--------------------------------------------------------------------------------------------------------




--------------------------------------- Iteration      1(   6)  ---------------------------------------


    POTLOK:  cpu time      0.2976: real time      0.3038
    SETDIJ:  cpu time      0.0034: real time      0.0034
     EDDAV:  cpu time     43.1960: real time     43.5376
       DOS:  cpu time      0.0015: real time      0.0016
    CHARGE:  cpu time      2.3983: real time      2.4444
    MIXING:  cpu time      0.0105: real time      0.0106
    --------------------------------------------
      LOOP:  cpu time     45.9073: real time     46.3014

 eigenvalue-minimisations  :  3732
 total energy-change (2. order) : 0.1123380E+02  (-0.4197385E+00)
 number of electron     149.9999990 magnetization 
 augmentation part        0.0115725 magnetization 

 DIPCOR: dipole corrections for dipol
 direction  3 min pos   385,
 dipolmoment           0.000000      0.000000     -0.000026 electrons x Angstroem
 Tr[quadrupol]     -4124.951284

 energy correction for charged system         0.000000 eV
 dipol+quadrupol energy correction           -0.000000 eV
 added-field ion interaction          0.000000 eV  (added to PSCEN)


 Broyden mixing:
  rms(total) = 0.12146E+01    rms(broyden)= 0.12146E+01
  rms(prec ) = 0.12536E+01
  weight for this iteration     100.00

 eigenvalues of (default mixing * dielectric matrix)
  average eigenvalue GAMMA=   2.3357
  2.3357

 Free energy of the ion-electron system (eV)
  ---------------------------------------------------
  alpha Z        PSCENC =        16.91953745
  Ewald energy   TEWEN  =     40449.27459315
  -Hartree energ DENC   =    -41439.36411996
  -exchange      EXHF   =         0.00000000
  -V(xc)+E(xc)   XCENC  =       309.36558281
  PAW double counting   =      1856.77738904    -1827.45527443
  entropy T*S    EENTRO =        -0.06914082
  eigenvalues    EBANDS =     -1715.97836761
  atomic energy  EATOM  =      1998.36210175
  Solvation  Ediel_sol  =         0.00000000
  ---------------------------------------------------
  free energy    TOTEN  =      -352.16769863 eV

  energy without entropy =     -352.09855781  energy(sigma->0) =     -352.13312822


--------------------------------------------------------------------------------------------------------




--------------------------------------- Iteration      1(   7)  ---------------------------------------


    POTLOK:  cpu time      0.3042: real time      0.3164
    SETDIJ:  cpu time      0.0034: real time      0.0034
     EDDAV:  cpu time     43.5102: real time     43.8787
       DOS:  cpu time      0.0005: real time      0.0005
    CHARGE:  cpu time      2.2808: real time      2.2958
    MIXING:  cpu time      0.0097: real time      0.0097
    --------------------------------------------
      LOOP:  cpu time     46.1087: real time     46.5045

 eigenvalue-minimisations  :  3768
 total energy-change (2. order) : 0.7181618E+01  (-0.9636716E+00)
 number of electron     149.9999990 magnetization 
 augmentation part       -0.0425210 magnetization 

 DIPCOR: dipole corrections for dipol
 direction  3 min pos   385,
 dipolmoment           0.000000      0.000000     -0.000040 electrons x Angstroem
 Tr[quadrupol]     -4133.321502

 energy correction for charged system         0.000000 eV
 dipol+quadrupol energy correction           -0.000000 eV
 added-field ion interaction          0.000000 eV  (added to PSCEN)


 Broyden mixing:
  rms(total) = 0.14342E+00    rms(broyden)= 0.14342E+00
  rms(prec ) = 0.17268E+00
  weight for this iteration     100.00

 eigenvalues of (default mixing * dielectric matrix)
  average eigenvalue GAMMA=   2.6507
  2.6507  2.6507

 Free energy of the ion-electron system (eV)
  ---------------------------------------------------
  alpha Z        PSCENC =        16.91953745
  Ewald energy   TEWEN  =     40449.27459315
  -Hartree energ DENC   =    -41654.75509870
  -exchange      EXHF   =         0.00000000
  -V(xc)+E(xc)   XCENC  =       320.69643971
  PAW double counting   =      3926.30919676    -3899.31452795
  entropy T*S    EENTRO =        -0.07165475
  eigenvalues    EBANDS =     -1502.40666845
  atomic energy  EATOM  =      1998.36210175
  Solvation  Ediel_sol  =         0.00000000
  ---------------------------------------------------
  free energy    TOTEN  =      -344.98608104 eV

  energy without entropy =     -344.91442630  energy(sigma->0) =     -344.95025367


--------------------------------------------------------------------------------------------------------




--------------------------------------- Iteration      1(   8)  ---------------------------------------


    POTLOK:  cpu time      0.3028: real time      0.3074
    SETDIJ:  cpu time      0.0034: real time      0.0034
     EDDAV:  cpu time     48.0669: real time     48.4556
       DOS:  cpu time      0.0005: real time      0.0005
    CHARGE:  cpu time      2.2833: real time      2.2980
    MIXING:  cpu time      0.0098: real time      0.0099
    --------------------------------------------
      LOOP:  cpu time     50.6666: real time     51.0749

 eigenvalue-minimisations  :  4308
 total energy-change (2. order) : 0.4244667E+00  (-0.1021695E+00)
 number of electron     149.9999990 magnetization 
 augmentation part       -0.0311338 magnetization 

 DIPCOR: dipole corrections for dipol
 direction  3 min pos   385,
 dipolmoment           0.000000      0.000000      0.000027 electrons x Angstroem
 Tr[quadrupol]     -4139.243593

 energy correction for charged system         0.000000 eV
 dipol+quadrupol energy correction           -0.000000 eV
 added-field ion interaction         -0.000000 eV  (added to PSCEN)


 Broyden mixing:
  rms(total) = 0.87005E-01    rms(broyden)= 0.87004E-01
  rms(prec ) = 0.99200E-01
  weight for this iteration     100.00

 eigenvalues of (default mixing * dielectric matrix)
  average eigenvalue GAMMA=   2.0822
  3.1026  2.4980  0.6461

 Free energy of the ion-electron system (eV)
  ---------------------------------------------------
  alpha Z        PSCENC =        16.91953745
  Ewald energy   TEWEN  =     40449.27459315
  -Hartree energ DENC   =    -41753.94627249
  -exchange      EXHF   =         0.00000000
  -V(xc)+E(xc)   XCENC  =       321.77078119
  PAW double counting   =      3953.33060005    -3925.97168429
  entropy T*S    EENTRO =        -0.06999274
  eigenvalues    EBANDS =     -1404.23127840
  atomic energy  EATOM  =      1998.36210175
  Solvation  Ediel_sol  =         0.00000000
  ---------------------------------------------------
  free energy    TOTEN  =      -344.56161434 eV

  energy without entropy =     -344.49162160  energy(sigma->0) =     -344.52661797


--------------------------------------------------------------------------------------------------------




--------------------------------------- Iteration      1(   9)  ---------------------------------------


    POTLOK:  cpu time      0.3050: real time      0.3147
    SETDIJ:  cpu time      0.0034: real time      0.0034
     EDDAV:  cpu time     49.6903: real time     50.0865
       DOS:  cpu time      0.0004: real time      0.0004
    CHARGE:  cpu time      2.3026: real time      2.3174
    MIXING:  cpu time      0.0096: real time      0.0097
    --------------------------------------------
      LOOP:  cpu time     52.3113: real time     52.7322

 eigenvalue-minimisations  :  4488
 total energy-change (2. order) : 0.7485864E-01  (-0.1422711E-01)
 number of electron     149.9999990 magnetization 
 augmentation part       -0.0310002 magnetization 

 DIPCOR: dipole corrections for dipol
 direction  3 min pos   385,
 dipolmoment           0.000000      0.000000     -0.000004 electrons x Angstroem
 Tr[quadrupol]     -4140.619401

 energy correction for charged system         0.000000 eV
 dipol+quadrupol energy correction           -0.000000 eV
 added-field ion interaction          0.000000 eV  (added to PSCEN)


 Broyden mixing:
  rms(total) = 0.63231E-01    rms(broyden)= 0.63230E-01
  rms(prec ) = 0.73912E-01
  weight for this iteration     100.00

 eigenvalues of (default mixing * dielectric matrix)
  average eigenvalue GAMMA=   2.0619
  2.7063  2.7063  1.4175  1.4175

 Free energy of the ion-electron system (eV)
  ---------------------------------------------------
  alpha Z        PSCENC =        16.91953745
  Ewald energy   TEWEN  =     40449.27459315
  -Hartree energ DENC   =    -41778.79208071
  -exchange      EXHF   =         0.00000000
  -V(xc)+E(xc)   XCENC  =       322.48412618
  PAW double counting   =      4011.57208406    -3984.25650903
  entropy T*S    EENTRO =        -0.07016941
  eigenvalues    EBANDS =     -1379.98043913
  atomic energy  EATOM  =      1998.36210175
  Solvation  Ediel_sol  =         0.00000000
  ---------------------------------------------------
  free energy    TOTEN  =      -344.48675570 eV

  energy without entropy =     -344.41658629  energy(sigma->0) =     -344.45167099


--------------------------------------------------------------------------------------------------------




--------------------------------------- Iteration      1(  10)  ---------------------------------------


    POTLOK:  cpu time      0.3055: real time      0.3098
    SETDIJ:  cpu time      0.0034: real time      0.0035
     EDDAV:  cpu time     45.7766: real time     46.1440
       DOS:  cpu time      0.0004: real time      0.0004
    CHARGE:  cpu time      2.3053: real time      2.3197
    MIXING:  cpu time      0.0108: real time      0.0108
    --------------------------------------------
      LOOP:  cpu time     48.4020: real time     48.7882

 eigenvalue-minimisations  :  4032
 total energy-change (2. order) : 0.3763404E-01  (-0.5302204E-02)
 number of electron     149.9999990 magnetization 
 augmentation part       -0.0373882 magnetization 

 DIPCOR: dipole corrections for dipol
 direction  3 min pos   385,
 dipolmoment           0.000000      0.000000      0.000009 electrons x Angstroem
 Tr[quadrupol]     -4142.598726

 energy correction for charged system         0.000000 eV
 dipol+quadrupol energy correction           -0.000000 eV
 added-field ion interaction         -0.000000 eV  (added to PSCEN)


 Broyden mixing:
  rms(total) = 0.23012E-01    rms(broyden)= 0.23012E-01
  rms(prec ) = 0.34669E-01
  weight for this iteration     100.00

 eigenvalues of (default mixing * dielectric matrix)
  average eigenvalue GAMMA=   1.9674
  2.9127  2.9127  2.1270  0.9422  0.9422

 Free energy of the ion-electron system (eV)
  ---------------------------------------------------
  alpha Z        PSCENC =        16.91953745
  Ewald energy   TEWEN  =     40449.27459315
  -Hartree energ DENC   =    -41810.32816020
  -exchange      EXHF   =         0.00000000
  -V(xc)+E(xc)   XCENC  =       323.18288021
  PAW double counting   =      3980.23306453    -3952.94069090
  entropy T*S    EENTRO =        -0.07082189
  eigenvalues    EBANDS =     -1349.08162575
  atomic energy  EATOM  =      1998.36210175
  Solvation  Ediel_sol  =         0.00000000
  ---------------------------------------------------
  free energy    TOTEN  =      -344.44912165 eV

  energy without entropy =     -344.37829976  energy(sigma->0) =     -344.41371071


--------------------------------------------------------------------------------------------------------




--------------------------------------- Iteration      1(  11)  ---------------------------------------


    POTLOK:  cpu time      0.3137: real time      0.3238
    SETDIJ:  cpu time      0.0034: real time      0.0035
     EDDAV:  cpu time     46.6699: real time     47.0860
       DOS:  cpu time      0.0005: real time      0.0005
    CHARGE:  cpu time      2.3187: real time      2.3365
    MIXING:  cpu time      0.0098: real time      0.0099
    --------------------------------------------
      LOOP:  cpu time     49.3160: real time     49.7602

 eigenvalue-minimisations  :  4152
 total energy-change (2. order) : 0.4198904E-02  (-0.2362834E-02)
 number of electron     149.9999990 magnetization 
 augmentation part       -0.0390460 magnetization 

 DIPCOR: dipole corrections for dipol
 direction  3 min pos   385,
 dipolmoment           0.000000      0.000000     -0.000000 electrons x Angstroem
 Tr[quadrupol]     -4143.961429

 energy correction for charged system         0.000000 eV
 dipol+quadrupol energy correction           -0.000000 eV
 added-field ion interaction          0.000000 eV  (added to PSCEN)


 Broyden mixing:
  rms(total) = 0.23971E-01    rms(broyden)= 0.23971E-01
  rms(prec ) = 0.30693E-01
  weight for this iteration     100.00

 eigenvalues of (default mixing * dielectric matrix)
  average eigenvalue GAMMA=   2.4052
  5.3498  3.0320  2.3436  0.9859  1.3598  1.3598

 Free energy of the ion-electron system (eV)
  ---------------------------------------------------
  alpha Z        PSCENC =        16.91953745
  Ewald energy   TEWEN  =     40449.27459315
  -Hartree energ DENC   =    -41830.94924360
  -exchange      EXHF   =         0.00000000
  -V(xc)+E(xc)   XCENC  =       323.42737945
  PAW double counting   =      3968.97384895    -3941.68504147
  entropy T*S    EENTRO =        -0.07075835
  eigenvalues    EBANDS =     -1328.69734006
  atomic energy  EATOM  =      1998.36210175
  Solvation  Ediel_sol  =         0.00000000
  ---------------------------------------------------
  free energy    TOTEN  =      -344.44492275 eV

  energy without entropy =     -344.37416440  energy(sigma->0) =     -344.40954357


--------------------------------------------------------------------------------------------------------




--------------------------------------- Iteration      1(  12)  ---------------------------------------


    POTLOK:  cpu time      0.3024: real time      0.3083
    SETDIJ:  cpu time      0.0034: real time      0.0035
     EDDAV:  cpu time     43.8294: real time     44.2247
       DOS:  cpu time      0.0005: real time      0.0005
    CHARGE:  cpu time      2.2829: real time      2.3012
    MIXING:  cpu time      0.0104: real time      0.0105
    --------------------------------------------
      LOOP:  cpu time     46.4290: real time     46.8486

 eigenvalue-minimisations  :  3816
 total energy-change (2. order) :-0.1115000E-01  (-0.2321098E-02)
 number of electron     149.9999990 magnetization 
 augmentation part       -0.0379356 magnetization 

 DIPCOR: dipole corrections for dipol
 direction  3 min pos   385,
 dipolmoment           0.000000      0.000000     -0.000011 electrons x Angstroem
 Tr[quadrupol]     -4146.619767

 energy correction for charged system         0.000000 eV
 dipol+quadrupol energy correction           -0.000000 eV
 added-field ion interaction          0.000000 eV  (added to PSCEN)


 Broyden mixing:
  rms(total) = 0.83180E-02    rms(broyden)= 0.83180E-02
  rms(prec ) = 0.10619E-01
  weight for this iteration     100.00

 eigenvalues of (default mixing * dielectric matrix)
  average eigenvalue GAMMA=   2.4860
  5.9302  3.2125  2.7222  2.0959  0.9789  1.2312  1.2312

 Free energy of the ion-electron system (eV)
  ---------------------------------------------------
  alpha Z        PSCENC =        16.91953745
  Ewald energy   TEWEN  =     40449.27459315
  -Hartree energ DENC   =    -41867.64494133
  -exchange      EXHF   =         0.00000000
  -V(xc)+E(xc)   XCENC  =       323.53338697
  PAW double counting   =      3952.13859457    -3924.86516956
  entropy T*S    EENTRO =        -0.07036837
  eigenvalues    EBANDS =     -1292.10380738
  atomic energy  EATOM  =      1998.36210175
  Solvation  Ediel_sol  =         0.00000000
  ---------------------------------------------------
  free energy    TOTEN  =      -344.45607275 eV

  energy without entropy =     -344.38570438  energy(sigma->0) =     -344.42088857


--------------------------------------------------------------------------------------------------------




--------------------------------------- Iteration      1(  13)  ---------------------------------------


    POTLOK:  cpu time      0.3020: real time      0.3172
    SETDIJ:  cpu time      0.0034: real time      0.0034
     EDDAV:  cpu time     45.4792: real time     45.8851
       DOS:  cpu time      0.0004: real time      0.0004
    CHARGE:  cpu time      2.2773: real time      2.3046
    MIXING:  cpu time      0.0102: real time      0.0105
    --------------------------------------------
      LOOP:  cpu time     48.0725: real time     48.5213

 eigenvalue-minimisations  :  3984
 total energy-change (2. order) :-0.1674693E-01  (-0.8487252E-03)
 number of electron     149.9999990 magnetization 
 augmentation part       -0.0363525 magnetization 

 DIPCOR: dipole corrections for dipol
 direction  3 min pos   385,
 dipolmoment           0.000000      0.000000     -0.000001 electrons x Angstroem
 Tr[quadrupol]     -4147.516686

 energy correction for charged system         0.000000 eV
 dipol+quadrupol energy correction           -0.000000 eV
 added-field ion interaction          0.000000 eV  (added to PSCEN)


 Broyden mixing:
  rms(total) = 0.13074E-01    rms(broyden)= 0.13074E-01
  rms(prec ) = 0.14014E-01
  weight for this iteration     100.00

 eigenvalues of (default mixing * dielectric matrix)
  average eigenvalue GAMMA=   2.5919
  6.6021  4.2262  2.6069  2.5125  1.4213  1.4213  1.0031  0.9419

 Free energy of the ion-electron system (eV)
  ---------------------------------------------------
  alpha Z        PSCENC =        16.91953745
  Ewald energy   TEWEN  =     40449.27459315
  -Hartree energ DENC   =    -41879.10664388
  -exchange      EXHF   =         0.00000000
  -V(xc)+E(xc)   XCENC  =       323.55625708
  PAW double counting   =      3973.53729672    -3946.26468438
  entropy T*S    EENTRO =        -0.07008864
  eigenvalues    EBANDS =     -1280.68118893
  atomic energy  EATOM  =      1998.36210175
  Solvation  Ediel_sol  =         0.00000000
  ---------------------------------------------------
  free energy    TOTEN  =      -344.47281968 eV

  energy without entropy =     -344.40273105  energy(sigma->0) =     -344.43777537


--------------------------------------------------------------------------------------------------------




--------------------------------------- Iteration      1(  14)  ---------------------------------------


    POTLOK:  cpu time      0.3055: real time      0.3110
    SETDIJ:  cpu time      0.0033: real time      0.0033
     EDDAV:  cpu time     43.4266: real time     43.7990
       DOS:  cpu time      0.0005: real time      0.0005
    CHARGE:  cpu time      2.2876: real time      2.3059
    MIXING:  cpu time      0.0104: real time      0.0105
    --------------------------------------------
      LOOP:  cpu time     46.0339: real time     46.4300

 eigenvalue-minimisations  :  3744
 total energy-change (2. order) :-0.1367535E-01  (-0.6194753E-03)
 number of electron     149.9999990 magnetization 
 augmentation part       -0.0374537 magnetization 

 DIPCOR: dipole corrections for dipol
 direction  3 min pos   385,
 dipolmoment           0.000000      0.000000      0.000010 electrons x Angstroem
 Tr[quadrupol]     -4147.796135

 energy correction for charged system         0.000000 eV
 dipol+quadrupol energy correction           -0.000000 eV
 added-field ion interaction         -0.000000 eV  (added to PSCEN)


 Broyden mixing:
  rms(total) = 0.57320E-02    rms(broyden)= 0.57320E-02
  rms(prec ) = 0.60288E-02
  weight for this iteration     100.00

 eigenvalues of (default mixing * dielectric matrix)
  average eigenvalue GAMMA=   2.4572
  6.6155  4.2178  2.7506  2.5156  1.4975  1.3157  1.3157  0.9433  0.9433

 Free energy of the ion-electron system (eV)
  ---------------------------------------------------
  alpha Z        PSCENC =        16.91953745
  Ewald energy   TEWEN  =     40449.27459315
  -Hartree energ DENC   =    -41881.27939014
  -exchange      EXHF   =         0.00000000
  -V(xc)+E(xc)   XCENC  =       323.63268915
  PAW double counting   =      3959.21397091    -3931.91712160
  entropy T*S    EENTRO =        -0.07039717
  eigenvalues    EBANDS =     -1278.62247851
  atomic energy  EATOM  =      1998.36210175
  Solvation  Ediel_sol  =         0.00000000
  ---------------------------------------------------
  free energy    TOTEN  =      -344.48649503 eV

  energy without entropy =     -344.41609786  energy(sigma->0) =     -344.45129645


--------------------------------------------------------------------------------------------------------




--------------------------------------- Iteration      1(  15)  ---------------------------------------


    POTLOK:  cpu time      0.3045: real time      0.3127
    SETDIJ:  cpu time      0.0033: real time      0.0033
     EDDAV:  cpu time     48.1500: real time     48.5766
       DOS:  cpu time      0.0005: real time      0.0005
    CHARGE:  cpu time      2.2858: real time      2.3029
    MIXING:  cpu time      0.0115: real time      0.0115
    --------------------------------------------
      LOOP:  cpu time     50.7555: real time     51.2076

 eigenvalue-minimisations  :  4320
 total energy-change (2. order) :-0.2361643E-02  (-0.6378837E-04)
 number of electron     149.9999990 magnetization 
 augmentation part       -0.0377472 magnetization 

 DIPCOR: dipole corrections for dipol
 direction  3 min pos   385,
 dipolmoment           0.000000      0.000000      0.000001 electrons x Angstroem
 Tr[quadrupol]     -4147.913450

 energy correction for charged system         0.000000 eV
 dipol+quadrupol energy correction           -0.000000 eV
 added-field ion interaction         -0.000000 eV  (added to PSCEN)


 Broyden mixing:
  rms(total) = 0.52502E-02    rms(broyden)= 0.52501E-02
  rms(prec ) = 0.54926E-02
  weight for this iteration     100.00

 eigenvalues of (default mixing * dielectric matrix)
  average eigenvalue GAMMA=   2.5871
  7.4754  4.8197  2.8010  2.5111  2.5111  1.4266  1.4266  0.9910  0.9910  0.9173

 Free energy of the ion-electron system (eV)
  ---------------------------------------------------
  alpha Z        PSCENC =        16.91953745
  Ewald energy   TEWEN  =     40449.27459315
  -Hartree energ DENC   =    -41882.45390346
  -exchange      EXHF   =         0.00000000
  -V(xc)+E(xc)   XCENC  =       323.63387089
  PAW double counting   =      3959.31192025    -3932.01795369
  entropy T*S    EENTRO =        -0.07037816
  eigenvalues    EBANDS =     -1277.44864485
  atomic energy  EATOM  =      1998.36210175
  Solvation  Ediel_sol  =         0.00000000
  ---------------------------------------------------
  free energy    TOTEN  =      -344.48885667 eV

  energy without entropy =     -344.41847852  energy(sigma->0) =     -344.45366760


--------------------------------------------------------------------------------------------------------




--------------------------------------- Iteration      1(  16)  ---------------------------------------


    POTLOK:  cpu time      0.3039: real time      0.3107
    SETDIJ:  cpu time      0.0036: real time      0.0036
     EDDAV:  cpu time     43.2809: real time     43.6672
       DOS:  cpu time      0.0004: real time      0.0005
    CHARGE:  cpu time      2.3062: real time      2.3233
    MIXING:  cpu time      0.0439: real time      0.0442
    --------------------------------------------
      LOOP:  cpu time     45.9390: real time     46.3494

 eigenvalue-minimisations  :  3732
 total energy-change (2. order) :-0.3217240E-02  (-0.5100671E-04)
 number of electron     149.9999990 magnetization 
 augmentation part       -0.0373189 magnetization 

 DIPCOR: dipole corrections for dipol
 direction  3 min pos   385,
 dipolmoment           0.000000      0.000000     -0.000006 electrons x Angstroem
 Tr[quadrupol]     -4148.096108

 energy correction for charged system         0.000000 eV
 dipol+quadrupol energy correction           -0.000000 eV
 added-field ion interaction          0.000000 eV  (added to PSCEN)


 Broyden mixing:
  rms(total) = 0.24259E-02    rms(broyden)= 0.24259E-02
  rms(prec ) = 0.25257E-02
  weight for this iteration     100.00

 eigenvalues of (default mixing * dielectric matrix)
  average eigenvalue GAMMA=   2.5900
  7.7071  5.2834  3.3683  2.4504  2.4504  1.4090  1.4090  1.3801  1.0425  1.0425
  0.9474

 Free energy of the ion-electron system (eV)
  ---------------------------------------------------
  alpha Z        PSCENC =        16.91953745
  Ewald energy   TEWEN  =     40449.27459315
  -Hartree energ DENC   =    -41883.73573852
  -exchange      EXHF   =         0.00000000
  -V(xc)+E(xc)   XCENC  =       323.58238609
  PAW double counting   =      3961.95742464    -3934.67240545
  entropy T*S    EENTRO =        -0.07028160
  eigenvalues    EBANDS =     -1276.10969142
  atomic energy  EATOM  =      1998.36210175
  Solvation  Ediel_sol  =         0.00000000
  ---------------------------------------------------
  free energy    TOTEN  =      -344.49207391 eV

  energy without entropy =     -344.42179232  energy(sigma->0) =     -344.45693312


--------------------------------------------------------------------------------------------------------




--------------------------------------- Iteration      1(  17)  ---------------------------------------


    POTLOK:  cpu time      0.3063: real time      0.3173
    SETDIJ:  cpu time      0.0034: real time      0.0035
     EDDAV:  cpu time     46.9010: real time     47.3204
       DOS:  cpu time      0.0005: real time      0.0005
    CHARGE:  cpu time      2.2722: real time      2.2890
    MIXING:  cpu time      0.0471: real time      0.0473
    --------------------------------------------
      LOOP:  cpu time     49.5305: real time     49.9779

 eigenvalue-minimisations  :  4188
 total energy-change (2. order) :-0.8761172E-03  (-0.1291001E-04)
 number of electron     149.9999990 magnetization 
 augmentation part       -0.0374064 magnetization 

 DIPCOR: dipole corrections for dipol
 direction  3 min pos   385,
 dipolmoment           0.000000      0.000000      0.000001 electrons x Angstroem
 Tr[quadrupol]     -4148.152798

 energy correction for charged system         0.000000 eV
 dipol+quadrupol energy correction           -0.000000 eV
 added-field ion interaction         -0.000000 eV  (added to PSCEN)


 Broyden mixing:
  rms(total) = 0.57289E-03    rms(broyden)= 0.57289E-03
  rms(prec ) = 0.67948E-03
  weight for this iteration     100.00

 eigenvalues of (default mixing * dielectric matrix)
  average eigenvalue GAMMA=   2.6752
  7.9228  5.8476  3.7322  2.9970  2.3664  2.3664  1.4233  1.4233  0.9858  0.9858
  1.0258  1.0258

 Free energy of the ion-electron system (eV)
  ---------------------------------------------------
  alpha Z        PSCENC =        16.91953745
  Ewald energy   TEWEN  =     40449.27459315
  -Hartree energ DENC   =    -41884.10087612
  -exchange      EXHF   =         0.00000000
  -V(xc)+E(xc)   XCENC  =       323.60210929
  PAW double counting   =      3960.66389497    -3933.37693377
  entropy T*S    EENTRO =        -0.07031993
  eigenvalues    EBANDS =     -1275.76705681
  atomic energy  EATOM  =      1998.36210175
  Solvation  Ediel_sol  =         0.00000000
  ---------------------------------------------------
  free energy    TOTEN  =      -344.49295003 eV

  energy without entropy =     -344.42263010  energy(sigma->0) =     -344.45779007


--------------------------------------------------------------------------------------------------------




--------------------------------------- Iteration      1(  18)  ---------------------------------------


    POTLOK:  cpu time      0.4346: real time      0.4469
    SETDIJ:  cpu time      0.0034: real time      0.0034
     EDDAV:  cpu time     44.0148: real time     44.4153
       DOS:  cpu time      0.0005: real time      0.0005
    CHARGE:  cpu time      2.2897: real time      2.3044
    MIXING:  cpu time      0.0102: real time      0.0102
    --------------------------------------------
      LOOP:  cpu time     46.7532: real time     47.1807

 eigenvalue-minimisations  :  3840
 total energy-change (2. order) :-0.5779145E-03  (-0.2526324E-05)
 number of electron     149.9999990 magnetization 
 augmentation part       -0.0373956 magnetization 

 DIPCOR: dipole corrections for dipol
 direction  3 min pos   385,
 dipolmoment           0.000000      0.000000      0.000004 electrons x Angstroem
 Tr[quadrupol]     -4148.226811

 energy correction for charged system         0.000000 eV
 dipol+quadrupol energy correction           -0.000000 eV
 added-field ion interaction         -0.000000 eV  (added to PSCEN)


 Broyden mixing:
  rms(total) = 0.66895E-03    rms(broyden)= 0.66895E-03
  rms(prec ) = 0.69340E-03
  weight for this iteration     100.00

 eigenvalues of (default mixing * dielectric matrix)
  average eigenvalue GAMMA=   2.6420
  7.9799  6.2178  3.8534  2.8782  2.5170  2.5170  1.4128  1.4128  1.4510  1.1911
  0.9843  0.9654  0.9654

 Free energy of the ion-electron system (eV)
  ---------------------------------------------------
  alpha Z        PSCENC =        16.91953745
  Ewald energy   TEWEN  =     40449.27459315
  -Hartree energ DENC   =    -41884.56022359
  -exchange      EXHF   =         0.00000000
  -V(xc)+E(xc)   XCENC  =       323.60604085
  PAW double counting   =      3960.75860323    -3933.47119023
  entropy T*S    EENTRO =        -0.07031759
  eigenvalues    EBANDS =     -1275.31267296
  atomic energy  EATOM  =      1998.36210175
  Solvation  Ediel_sol  =         0.00000000
  ---------------------------------------------------
  free energy    TOTEN  =      -344.49352795 eV

  energy without entropy =     -344.42321036  energy(sigma->0) =     -344.45836915


--------------------------------------------------------------------------------------------------------




--------------------------------------- Iteration      1(  19)  ---------------------------------------


    POTLOK:  cpu time      0.3056: real time      0.3165
    SETDIJ:  cpu time      0.0034: real time      0.0034
     EDDAV:  cpu time     49.3964: real time     49.8276
       DOS:  cpu time      0.0005: real time      0.0005
    CHARGE:  cpu time      2.2837: real time      2.2987
    MIXING:  cpu time      0.0105: real time      0.0105
    --------------------------------------------
      LOOP:  cpu time     52.0000: real time     52.4573

 eigenvalue-minimisations  :  4440
 total energy-change (2. order) :-0.1176031E-03  (-0.2361559E-06)
 number of electron     149.9999990 magnetization 
 augmentation part       -0.0373596 magnetization 

 DIPCOR: dipole corrections for dipol
 direction  3 min pos   385,
 dipolmoment           0.000000      0.000000     -0.000000 electrons x Angstroem
 Tr[quadrupol]     -4148.245829

 energy correction for charged system         0.000000 eV
 dipol+quadrupol energy correction           -0.000000 eV
 added-field ion interaction          0.000000 eV  (added to PSCEN)


 Broyden mixing:
  rms(total) = 0.18309E-03    rms(broyden)= 0.18308E-03
  rms(prec ) = 0.21186E-03
  weight for this iteration     100.00

 eigenvalues of (default mixing * dielectric matrix)
  average eigenvalue GAMMA=   2.7101
  8.1968  6.7044  4.5023  3.4023  2.6009  2.3063  2.2387  1.4190  1.4190  1.1079
  1.1079  0.9736  0.9813  0.9813

 Free energy of the ion-electron system (eV)
  ---------------------------------------------------
  alpha Z        PSCENC =        16.91953745
  Ewald energy   TEWEN  =     40449.27459315
  -Hartree energ DENC   =    -41884.58783635
  -exchange      EXHF   =         0.00000000
  -V(xc)+E(xc)   XCENC  =       323.60209577
  PAW double counting   =      3960.94897730    -3933.66136969
  entropy T*S    EENTRO =        -0.07031313
  eigenvalues    EBANDS =     -1275.28143178
  atomic energy  EATOM  =      1998.36210175
  Solvation  Ediel_sol  =         0.00000000
  ---------------------------------------------------
  free energy    TOTEN  =      -344.49364555 eV

  energy without entropy =     -344.42333242  energy(sigma->0) =     -344.45848898


--------------------------------------------------------------------------------------------------------




--------------------------------------- Iteration      1(  20)  ---------------------------------------


    POTLOK:  cpu time      0.3063: real time      0.3121
    SETDIJ:  cpu time      0.0472: real time      0.0474
     EDDAV:  cpu time     44.3250: real time     44.6848
       DOS:  cpu time      0.0005: real time      0.0005
    CHARGE:  cpu time      2.2872: real time      2.3021
    MIXING:  cpu time      0.0111: real time      0.0112
    --------------------------------------------
      LOOP:  cpu time     46.9773: real time     47.3582

 eigenvalue-minimisations  :  3852
 total energy-change (2. order) :-0.1059097E-03  (-0.1098661E-06)
 number of electron     149.9999990 magnetization 
 augmentation part       -0.0373503 magnetization 

 DIPCOR: dipole corrections for dipol
 direction  3 min pos   385,
 dipolmoment           0.000000      0.000000     -0.000001 electrons x Angstroem
 Tr[quadrupol]     -4148.272994

 energy correction for charged system         0.000000 eV
 dipol+quadrupol energy correction           -0.000000 eV
 added-field ion interaction          0.000000 eV  (added to PSCEN)


 Broyden mixing:
  rms(total) = 0.20163E-03    rms(broyden)= 0.20163E-03
  rms(prec ) = 0.20960E-03
  weight for this iteration     100.00

 eigenvalues of (default mixing * dielectric matrix)
  average eigenvalue GAMMA=   2.6543
  8.3401  6.8897  4.7138  3.4545  2.6800  2.3103  2.3103  1.4150  1.4150  1.2082
  1.2082  1.0019  1.0019  0.9324  0.9324

 Free energy of the ion-electron system (eV)
  ---------------------------------------------------
  alpha Z        PSCENC =        16.91953745
  Ewald energy   TEWEN  =     40449.27459315
  -Hartree energ DENC   =    -41884.68833449
  -exchange      EXHF   =         0.00000000
  -V(xc)+E(xc)   XCENC  =       323.60017134
  PAW double counting   =      3961.06927738    -3933.78192627
  entropy T*S    EENTRO =        -0.07031139
  eigenvalues    EBANDS =     -1275.17886037
  atomic energy  EATOM  =      1998.36210175
  Solvation  Ediel_sol  =         0.00000000
  ---------------------------------------------------
  free energy    TOTEN  =      -344.49375146 eV

  energy without entropy =     -344.42344007  energy(sigma->0) =     -344.45859576


--------------------------------------------------------------------------------------------------------




--------------------------------------- Iteration      1(  21)  ---------------------------------------


    POTLOK:  cpu time      0.3082: real time      0.3202
    SETDIJ:  cpu time      0.0033: real time      0.0033
     EDDAV:  cpu time     43.6972: real time     44.0433
       DOS:  cpu time      0.0005: real time      0.0005
    CHARGE:  cpu time      2.2809: real time      2.3022
    MIXING:  cpu time      0.0102: real time      0.0102
    --------------------------------------------
      LOOP:  cpu time     46.3003: real time     46.6796

 eigenvalue-minimisations  :  3768
 total energy-change (2. order) :-0.2704818E-04  (-0.7073270E-08)
 number of electron     149.9999990 magnetization 
 augmentation part       -0.0373492 magnetization 

 DIPCOR: dipole corrections for dipol
 direction  3 min pos   385,
 dipolmoment           0.000000      0.000000      0.000001 electrons x Angstroem
 Tr[quadrupol]     -4148.280916

 energy correction for charged system         0.000000 eV
 dipol+quadrupol energy correction           -0.000000 eV
 added-field ion interaction         -0.000000 eV  (added to PSCEN)


 Broyden mixing:
  rms(total) = 0.17192E-03    rms(broyden)= 0.17192E-03
  rms(prec ) = 0.17782E-03
  weight for this iteration     100.00

 eigenvalues of (default mixing * dielectric matrix)
  average eigenvalue GAMMA=   2.7793
  8.6104  7.5224  5.2583  3.9496  3.0988  2.5926  2.3657  2.0136  1.4195  1.4195
  1.1989  1.1104  1.0011  1.0011  0.9530  0.9530

 Free energy of the ion-electron system (eV)
  ---------------------------------------------------
  alpha Z        PSCENC =        16.91953745
  Ewald energy   TEWEN  =     40449.27459315
  -Hartree energ DENC   =    -41884.72410246
  -exchange      EXHF   =         0.00000000
  -V(xc)+E(xc)   XCENC  =       323.60051943
  PAW double counting   =      3961.04172181    -3933.75441591
  entropy T*S    EENTRO =        -0.07031103
  eigenvalues    EBANDS =     -1275.14342269
  atomic energy  EATOM  =      1998.36210175
  Solvation  Ediel_sol  =         0.00000000
  ---------------------------------------------------
  free energy    TOTEN  =      -344.49377851 eV

  energy without entropy =     -344.42346748  energy(sigma->0) =     -344.45862299


--------------------------------------------------------------------------------------------------------




--------------------------------------- Iteration      1(  22)  ---------------------------------------


    POTLOK:  cpu time      0.3075: real time      0.3125
    SETDIJ:  cpu time      0.0033: real time      0.0034
     EDDAV:  cpu time     41.7327: real time     42.0526
       DOS:  cpu time      0.0005: real time      0.0005
    CHARGE:  cpu time      2.2897: real time      2.3054
    MIXING:  cpu time      0.0109: real time      0.0110
    --------------------------------------------
      LOOP:  cpu time     44.3446: real time     44.6854

 eigenvalue-minimisations  :  3552
 total energy-change (2. order) :-0.3029641E-04  (-0.3732639E-07)
 number of electron     149.9999990 magnetization 
 augmentation part       -0.0373619 magnetization 

 DIPCOR: dipole corrections for dipol
 direction  3 min pos   385,
 dipolmoment           0.000000      0.000000      0.000001 electrons x Angstroem
 Tr[quadrupol]     -4148.289954

 energy correction for charged system         0.000000 eV
 dipol+quadrupol energy correction           -0.000000 eV
 added-field ion interaction         -0.000000 eV  (added to PSCEN)


 Broyden mixing:
  rms(total) = 0.51095E-04    rms(broyden)= 0.51095E-04
  rms(prec ) = 0.53077E-04
  weight for this iteration     100.00

 eigenvalues of (default mixing * dielectric matrix)
  average eigenvalue GAMMA=   2.7882
  8.9698  7.5429  5.6626  3.9837  3.3308  2.4908  2.4908  2.2394  1.4189  1.4189
  1.4412  1.4412  0.9631  0.9631  0.9834  1.0295  1.0295

 Free energy of the ion-electron system (eV)
  ---------------------------------------------------
  alpha Z        PSCENC =        16.91953745
  Ewald energy   TEWEN  =     40449.27459315
  -Hartree energ DENC   =    -41884.75554543
  -exchange      EXHF   =         0.00000000
  -V(xc)+E(xc)   XCENC  =       323.60204737
  PAW double counting   =      3960.90998247    -3933.62265271
  entropy T*S    EENTRO =        -0.07031347
  eigenvalues    EBANDS =     -1275.11355937
  atomic energy  EATOM  =      1998.36210175
  Solvation  Ediel_sol  =         0.00000000
  ---------------------------------------------------
  free energy    TOTEN  =      -344.49380880 eV

  energy without entropy =     -344.42349534  energy(sigma->0) =     -344.45865207


--------------------------------------------------------------------------------------------------------




--------------------------------------- Iteration      1(  23)  ---------------------------------------


    POTLOK:  cpu time      0.3058: real time      0.3151
    SETDIJ:  cpu time      0.0034: real time      0.0034
     EDDAV:  cpu time     45.0926: real time     45.4603
       DOS:  cpu time      0.0005: real time      0.0006
    CHARGE:  cpu time      2.2805: real time      2.2950
    MIXING:  cpu time      0.0109: real time      0.0109
    --------------------------------------------
      LOOP:  cpu time     47.6936: real time     48.0852

 eigenvalue-minimisations  :  3948
 total energy-change (2. order) :-0.6687797E-05  (-0.5048640E-08)
 number of electron     149.9999990 magnetization 
 augmentation part       -0.0373628 magnetization 

 DIPCOR: dipole corrections for dipol
 direction  3 min pos   385,
 dipolmoment           0.000000      0.000000      0.000000 electrons x Angstroem
 Tr[quadrupol]     -4148.292205

 energy correction for charged system         0.000000 eV
 dipol+quadrupol energy correction           -0.000000 eV
 added-field ion interaction         -0.000000 eV  (added to PSCEN)


 Broyden mixing:
  rms(total) = 0.34319E-04    rms(broyden)= 0.34318E-04
  rms(prec ) = 0.35138E-04
  weight for this iteration     100.00

 eigenvalues of (default mixing * dielectric matrix)
  average eigenvalue GAMMA=   2.7937
  9.1175  7.9139  5.7363  4.4565  3.2244  2.8707  2.3922  2.3922  1.8571  1.4199
  1.4199  1.4424  0.9594  0.9594  1.0109  1.0109  1.0510  1.0510

 Free energy of the ion-electron system (eV)
  ---------------------------------------------------
  alpha Z        PSCENC =        16.91953745
  Ewald energy   TEWEN  =     40449.27459315
  -Hartree energ DENC   =    -41884.76736634
  -exchange      EXHF   =         0.00000000
  -V(xc)+E(xc)   XCENC  =       323.60197957
  PAW double counting   =      3960.94738683    -3933.66003618
  entropy T*S    EENTRO =        -0.07031298
  eigenvalues    EBANDS =     -1275.10169873
  atomic energy  EATOM  =      1998.36210175
  Solvation  Ediel_sol  =         0.00000000
  ---------------------------------------------------
  free energy    TOTEN  =      -344.49381549 eV

  energy without entropy =     -344.42350251  energy(sigma->0) =     -344.45865900


--------------------------------------------------------------------------------------------------------




--------------------------------------- Iteration      1(  24)  ---------------------------------------


    POTLOK:  cpu time      0.3039: real time      0.3102
    SETDIJ:  cpu time      0.0047: real time      0.0048
     EDDAV:  cpu time     39.9070: real time     40.2375
       DOS:  cpu time      0.0004: real time      0.0005
    CHARGE:  cpu time      2.2940: real time      2.3087
    MIXING:  cpu time      0.0111: real time      0.0112
    --------------------------------------------
      LOOP:  cpu time     42.5211: real time     42.8728

 eigenvalue-minimisations  :  3324
 total energy-change (2. order) :-0.2978524E-05  (-0.5990243E-09)
 number of electron     149.9999990 magnetization 
 augmentation part       -0.0373619 magnetization 

 DIPCOR: dipole corrections for dipol
 direction  3 min pos   385,
 dipolmoment           0.000000      0.000000      0.000000 electrons x Angstroem
 Tr[quadrupol]     -4148.292645

 energy correction for charged system         0.000000 eV
 dipol+quadrupol energy correction           -0.000000 eV
 added-field ion interaction         -0.000000 eV  (added to PSCEN)


 Broyden mixing:
  rms(total) = 0.46265E-05    rms(broyden)= 0.46265E-05
  rms(prec ) = 0.51258E-05
  weight for this iteration     100.00

 eigenvalues of (default mixing * dielectric matrix)
  average eigenvalue GAMMA=   2.7818
  9.2710  7.9543  5.8693  4.5809  3.3817  2.9661  2.4594  2.4594  1.4202  1.4202
  1.7774  1.7774  1.5270  1.0762  1.0045  1.0045  0.9749  0.9749  0.9552

 Free energy of the ion-electron system (eV)
  ---------------------------------------------------
  alpha Z        PSCENC =        16.91953745
  Ewald energy   TEWEN  =     40449.27459315
  -Hartree energ DENC   =    -41884.76210329
  -exchange      EXHF   =         0.00000000
  -V(xc)+E(xc)   XCENC  =       323.60165667
  PAW double counting   =      3960.95260484    -3933.66524707
  entropy T*S    EENTRO =        -0.07031284
  eigenvalues    EBANDS =     -1275.10664912
  atomic energy  EATOM  =      1998.36210175
  Solvation  Ediel_sol  =         0.00000000
  ---------------------------------------------------
  free energy    TOTEN  =      -344.49381847 eV

  energy without entropy =     -344.42350563  energy(sigma->0) =     -344.45866205


--------------------------------------------------------------------------------------------------------




--------------------------------------- Iteration      1(  25)  ---------------------------------------


    POTLOK:  cpu time      0.3071: real time      0.3159
    SETDIJ:  cpu time      0.0034: real time      0.0034
     EDDAV:  cpu time     36.2424: real time     36.5700
       DOS:  cpu time      0.0005: real time      0.0005
    CHARGE:  cpu time      2.2827: real time      2.2998
    MIXING:  cpu time      0.0117: real time      0.0118
    --------------------------------------------
      LOOP:  cpu time     38.8477: real time     39.2013

 eigenvalue-minimisations  :  2868
 total energy-change (2. order) :-0.9958126E-06  ( 0.4908648E-09)
 number of electron     149.9999990 magnetization 
 augmentation part       -0.0373618 magnetization 

 DIPCOR: dipole corrections for dipol
 direction  3 min pos   385,
 dipolmoment           0.000000      0.000000      0.000001 electrons x Angstroem
 Tr[quadrupol]     -4148.292839

 energy correction for charged system         0.000000 eV
 dipol+quadrupol energy correction           -0.000000 eV
 added-field ion interaction         -0.000000 eV  (added to PSCEN)


 Broyden mixing:
  rms(total) = 0.25881E-05    rms(broyden)= 0.25881E-05
  rms(prec ) = 0.28133E-05
  weight for this iteration     100.00

 eigenvalues of (default mixing * dielectric matrix)
  average eigenvalue GAMMA=   2.7695
  9.3603  7.9784  6.0066  4.7455  3.6450  3.1632  2.6190  2.2997  2.2997  1.4202
  1.4202  1.6511  1.6511  1.1206  1.1206  1.0018  1.0018  0.9632  0.9632  0.9600

 Free energy of the ion-electron system (eV)
  ---------------------------------------------------
  alpha Z        PSCENC =        16.91953745
  Ewald energy   TEWEN  =     40449.27459315
  -Hartree energ DENC   =    -41884.76274371
  -exchange      EXHF   =         0.00000000
  -V(xc)+E(xc)   XCENC  =       323.60165428
  PAW double counting   =      3960.95448719    -3933.66712784
  entropy T*S    EENTRO =        -0.07031284
  eigenvalues    EBANDS =     -1275.10600889
  atomic energy  EATOM  =      1998.36210175
  Solvation  Ediel_sol  =         0.00000000
  ---------------------------------------------------
  free energy    TOTEN  =      -344.49381946 eV

  energy without entropy =     -344.42350663  energy(sigma->0) =     -344.45866305


--------------------------------------------------------------------------------------------------------




--------------------------------------- Iteration      1(  26)  ---------------------------------------


    POTLOK:  cpu time      0.3080: real time      0.3138
    SETDIJ:  cpu time      0.0035: real time      0.0035
     EDDAV:  cpu time     33.4142: real time     33.6966
       DOS:  cpu time      0.0005: real time      0.0005
    CHARGE:  cpu time      2.2862: real time      2.3067
    MIXING:  cpu time      0.0115: real time      0.0116
    --------------------------------------------
      LOOP:  cpu time     36.0238: real time     36.3327

 eigenvalue-minimisations  :  2544
 total energy-change (2. order) :-0.3479563E-06  ( 0.6146495E-09)
 number of electron     149.9999990 magnetization 
 augmentation part       -0.0373614 magnetization 

 DIPCOR: dipole corrections for dipol
 direction  3 min pos   385,
 dipolmoment           0.000000      0.000000      0.000001 electrons x Angstroem
 Tr[quadrupol]     -4148.292958

 energy correction for charged system         0.000000 eV
 dipol+quadrupol energy correction           -0.000000 eV
 added-field ion interaction         -0.000000 eV  (added to PSCEN)


 Broyden mixing:
  rms(total) = 0.43409E-05    rms(broyden)= 0.43409E-05
  rms(prec ) = 0.44196E-05
  weight for this iteration     100.00

 eigenvalues of (default mixing * dielectric matrix)
  average eigenvalue GAMMA=   2.7661
  9.3846  7.9907  6.0667  4.8237  3.8804  3.0015  2.8796  2.4160  2.2361  2.2361
  1.4199  1.4199  1.6324  1.6324  1.0820  1.0072  1.0072  1.0555  0.9661  0.9661
  0.9835

 Free energy of the ion-electron system (eV)
  ---------------------------------------------------
  alpha Z        PSCENC =        16.91953745
  Ewald energy   TEWEN  =     40449.27459315
  -Hartree energ DENC   =    -41884.76361080
  -exchange      EXHF   =         0.00000000
  -V(xc)+E(xc)   XCENC  =       323.60162085
  PAW double counting   =      3960.95776808    -3933.67041484
  entropy T*S    EENTRO =        -0.07031276
  eigenvalues    EBANDS =     -1275.10510268
  atomic energy  EATOM  =      1998.36210175
  Solvation  Ediel_sol  =         0.00000000
  ---------------------------------------------------
  free energy    TOTEN  =      -344.49381981 eV

  energy without entropy =     -344.42350706  energy(sigma->0) =     -344.45866343


--------------------------------------------------------------------------------------------------------




--------------------------------------- Iteration      1(  27)  ---------------------------------------


    POTLOK:  cpu time      0.3060: real time      0.3156
    SETDIJ:  cpu time      0.0037: real time      0.0037
     EDDAV:  cpu time     35.2445: real time     35.5561
       DOS:  cpu time      0.0004: real time      0.0004
    CHARGE:  cpu time      2.2797: real time      2.2961
    MIXING:  cpu time      0.0119: real time      0.0120
    --------------------------------------------
      LOOP:  cpu time     37.8462: real time     38.1839

 eigenvalue-minimisations  :  2760
 total energy-change (2. order) :-0.1199351E-06  ( 0.6825211E-09)
 number of electron     149.9999990 magnetization 
 augmentation part       -0.0373615 magnetization 

 DIPCOR: dipole corrections for dipol
 direction  3 min pos   385,
 dipolmoment           0.000000      0.000000      0.000000 electrons x Angstroem
 Tr[quadrupol]     -4148.292966

 energy correction for charged system         0.000000 eV
 dipol+quadrupol energy correction           -0.000000 eV
 added-field ion interaction         -0.000000 eV  (added to PSCEN)


 Broyden mixing:
  rms(total) = 0.40321E-06    rms(broyden)= 0.40320E-06
  rms(prec ) = 0.44729E-06
  weight for this iteration     100.00

 eigenvalues of (default mixing * dielectric matrix)
  average eigenvalue GAMMA=   2.7057
  9.3872  8.0061  6.0815  4.9422  3.9361  3.1940  2.8329  2.5013  2.4383  1.8753
  1.4200  1.4200  1.6642  1.6642  1.2450  1.0296  1.0296  0.9799  0.9799  0.9591
  0.9591  0.9810

 Free energy of the ion-electron system (eV)
  ---------------------------------------------------
  alpha Z        PSCENC =        16.91953745
  Ewald energy   TEWEN  =     40449.27459315
  -Hartree energ DENC   =    -41884.76390958
  -exchange      EXHF   =         0.00000000
  -V(xc)+E(xc)   XCENC  =       323.60165444
  PAW double counting   =      3960.95535434    -3933.66800027
  entropy T*S    EENTRO =        -0.07031280
  eigenvalues    EBANDS =     -1275.10483841
  atomic energy  EATOM  =      1998.36210175
  Solvation  Ediel_sol  =         0.00000000
  ---------------------------------------------------
  free energy    TOTEN  =      -344.49381993 eV

  energy without entropy =     -344.42350713  energy(sigma->0) =     -344.45866353


--------------------------------------------------------------------------------------------------------




--------------------------------------- Iteration      1(  28)  ---------------------------------------


    POTLOK:  cpu time      0.3046: real time      0.3110
    SETDIJ:  cpu time      0.0036: real time      0.0037
     EDDAV:  cpu time     32.8962: real time     33.2045
       DOS:  cpu time      0.0005: real time      0.0005
    CHARGE:  cpu time      2.2922: real time      2.3098
    MIXING:  cpu time      0.0119: real time      0.0120
    --------------------------------------------
      LOOP:  cpu time     35.5090: real time     35.8415

 eigenvalue-minimisations  :  2496
 total energy-change (2. order) :-0.2282968E-07  ( 0.7054080E-09)
 number of electron     149.9999990 magnetization 
 augmentation part       -0.0373616 magnetization 

 DIPCOR: dipole corrections for dipol
 direction  3 min pos   385,
 dipolmoment           0.000000      0.000000      0.000001 electrons x Angstroem
 Tr[quadrupol]     -4148.292969

 energy correction for charged system         0.000000 eV
 dipol+quadrupol energy correction           -0.000000 eV
 added-field ion interaction         -0.000000 eV  (added to PSCEN)


 Broyden mixing:
  rms(total) = 0.21544E-06    rms(broyden)= 0.21543E-06
  rms(prec ) = 0.23989E-06
  weight for this iteration     100.00

 eigenvalues of (default mixing * dielectric matrix)
  average eigenvalue GAMMA=   2.6783
  9.3909  8.0047  6.0982  4.9633  4.0032  3.2997  2.6774  2.4867  2.2822  2.2822
  1.4198  1.4198  1.8243  1.7137  1.3752  1.3752  1.0612  1.0612  0.9879  0.9879
  0.9844  0.9506  0.9506

 Free energy of the ion-electron system (eV)
  ---------------------------------------------------
  alpha Z        PSCENC =        16.91953745
  Ewald energy   TEWEN  =     40449.27459315
  -Hartree energ DENC   =    -41884.76395230
  -exchange      EXHF   =         0.00000000
  -V(xc)+E(xc)   XCENC  =       323.60165444
  PAW double counting   =      3960.95486188    -3933.66750940
  entropy T*S    EENTRO =        -0.07031280
  eigenvalues    EBANDS =     -1275.10479412
  atomic energy  EATOM  =      1998.36210175
  Solvation  Ediel_sol  =         0.00000000
  ---------------------------------------------------
  free energy    TOTEN  =      -344.49381996 eV

  energy without entropy =     -344.42350715  energy(sigma->0) =     -344.45866355


--------------------------------------------------------------------------------------------------------




--------------------------------------- Iteration      1(  29)  ---------------------------------------


    POTLOK:  cpu time      0.3088: real time      0.3175
    SETDIJ:  cpu time      0.0035: real time      0.0035
     EDDAV:  cpu time     34.3181: real time     34.5987
       DOS:  cpu time      0.0005: real time      0.0005
    CHARGE:  cpu time      2.2815: real time      2.3020
    MIXING:  cpu time      0.0125: real time      0.0126
    --------------------------------------------
      LOOP:  cpu time     36.9250: real time     37.2349

 eigenvalue-minimisations  :  2640
 total energy-change (2. order) :-0.1356648E-07  ( 0.7068802E-09)
 number of electron     149.9999990 magnetization 
 augmentation part       -0.0373616 magnetization 

 DIPCOR: dipole corrections for dipol
 direction  3 min pos   385,
 dipolmoment           0.000000      0.000000      0.000001 electrons x Angstroem
 Tr[quadrupol]     -4148.292973

 energy correction for charged system         0.000000 eV
 dipol+quadrupol energy correction           -0.000000 eV
 added-field ion interaction         -0.000000 eV  (added to PSCEN)


 Broyden mixing:
  rms(total) = 0.49064E-06    rms(broyden)= 0.49064E-06
  rms(prec ) = 0.50800E-06
  weight for this iteration     100.00

 eigenvalues of (default mixing * dielectric matrix)
  average eigenvalue GAMMA=   2.6465
  9.3897  8.0115  6.0947  5.0298  4.0722  3.3980  3.0089  2.6653  2.3275  2.3275
  1.4200  1.4200  1.7345  1.6594  1.6594  1.2982  1.0920  1.0920  1.0018  1.0018
  0.9685  0.9685  0.9373  0.9373

 Free energy of the ion-electron system (eV)
  ---------------------------------------------------
  alpha Z        PSCENC =        16.91953745
  Ewald energy   TEWEN  =     40449.27459315
  -Hartree energ DENC   =    -41884.76401741
  -exchange      EXHF   =         0.00000000
  -V(xc)+E(xc)   XCENC  =       323.60165105
  PAW double counting   =      3960.95505846    -3933.66770517
  entropy T*S    EENTRO =        -0.07031280
  eigenvalues    EBANDS =     -1275.10472645
  atomic energy  EATOM  =      1998.36210175
  Solvation  Ediel_sol  =         0.00000000
  ---------------------------------------------------
  free energy    TOTEN  =      -344.49381997 eV

  energy without entropy =     -344.42350717  energy(sigma->0) =     -344.45866357


--------------------------------------------------------------------------------------------------------




--------------------------------------- Iteration      1(  30)  ---------------------------------------


    POTLOK:  cpu time      0.3069: real time      0.3116
    SETDIJ:  cpu time      0.0035: real time      0.0035
     EDDAV:  cpu time     33.6113: real time     33.9139
       DOS:  cpu time      0.0004: real time      0.0004
    --------------------------------------------
      LOOP:  cpu time     33.9224: real time     34.2297

 eigenvalue-minimisations  :  2556
 total energy-change (2. order) :-0.3388777E-08  ( 0.7078967E-09)
 number of electron     149.9999990 magnetization 
 augmentation part       -0.0373616 magnetization 

 DIPCOR: dipole corrections for dipol
 direction  3 min pos   385,
 dipolmoment           0.000000      0.000000      0.000001 electrons x Angstroem
 Tr[quadrupol]     -4148.292974

 energy correction for charged system         0.000000 eV
 dipol+quadrupol energy correction           -0.000000 eV
 added-field ion interaction         -0.000000 eV  (added to PSCEN)


 Free energy of the ion-electron system (eV)
  ---------------------------------------------------
  alpha Z        PSCENC =        16.91953745
  Ewald energy   TEWEN  =     40449.27459315
  -Hartree energ DENC   =    -41884.76406060
  -exchange      EXHF   =         0.00000000
  -V(xc)+E(xc)   XCENC  =       323.60165497
  PAW double counting   =      3960.95480993    -3933.66745669
  entropy T*S    EENTRO =        -0.07031280
  eigenvalues    EBANDS =     -1275.10468711
  atomic energy  EATOM  =      1998.36210175
  Solvation  Ediel_sol  =         0.00000000
  ---------------------------------------------------
  free energy    TOTEN  =      -344.49381997 eV

  energy without entropy =     -344.42350717  energy(sigma->0) =     -344.45866357


--------------------------------------------------------------------------------------------------------




 average (electrostatic) potential at core
  the test charge radii are     0.9943  0.5201
  (the norm of the test charge is              1.0000)
       1 -43.0043       2 -43.0034       3 -43.0043       4 -43.0026       5 -43.0035
       6 -43.0029       7 -43.0044       8 -43.0036       9 -43.0036      10 -43.0031
      11 -43.0029      12 -43.0036      13 -43.0036      14 -43.0035      15 -43.0037
      16 -43.0041      17 -43.0033      18 -43.0035      19 -43.0033      20 -43.0035
      21 -43.0041      22 -43.0038      23 -43.0034      24 -43.0032      25 -43.0026
      26 -43.0027      27 -43.0035      28 -43.0034      29 -43.0037      30 -43.0047
      31 -43.0037      32 -43.0036      33 -43.0035      34 -43.0034      35 -43.0037
      36 -43.0037      37 -43.0035      38 -43.0036      39 -43.0034      40 -43.0035
      41 -43.0036      42 -43.0037      43 -43.0032      44 -43.0036      45 -43.0035
      46 -43.0034      47 -43.0035      48 -43.0034      49 -43.0022      50 -43.0040
      51 -40.3421      52 -40.3350      53 -40.3353      54 -40.3347      55 -40.3313
      56 -40.3347      57 -40.3345      58 -40.3350      59 -40.3353      60 -40.3347
      61 -40.3346      62 -40.3347      63 -40.3353      64 -40.3352      65 -40.3353
      66 -40.3352      67 -40.3344      68 -40.3349      69 -40.3359      70 -40.3351
      71 -40.3401      72 -40.3352      73 -40.3346      74 -40.3349      75 -40.3271
      76 -40.3351      77 -40.3351      78 -40.3351      79 -40.3352      80 -40.3349
      81 -40.3345      82 -40.3361      83 -40.3351      84 -40.3352      85 -40.3349
      86 -40.3349      87 -40.3351      88 -40.3353      89 -40.3349      90 -40.3350
      91 -40.3349      92 -40.3350      93 -40.3355      94 -40.3345      95 -40.3346
      96 -40.3348      97 -40.3352      98 -40.3351      99 -40.3356     100 -40.3343
 
 
 
 E-fermi :  -3.1049     XC(G=0):  -1.5755     alpha+bet : -1.5639

 val. band max:       -3.1176088671   @ k =   0.2000   0.0000   0.0000
 cond. band min:      -3.1041564043   @ k =   0.4000   0.4000   0.0000
 fundamental gap:      0.0134524628
 Fermi energy:        -3.1049184566

 k-point     1 :       0.0000    0.0000    0.0000
  band No.  band energies     occupation 
      1     -13.6528      2.00000
      2     -12.8176      2.00000
      3     -12.8164      2.00000
      4     -12.4769      2.00000
      5     -12.4761      2.00000
      6     -12.4756      2.00000
      7     -12.4747      2.00000
      8     -12.1613      2.00000
      9     -11.3611      2.00000
     10     -11.3603      2.00000
     11     -10.9387      2.00000
     12     -10.9379      2.00000
     13     -10.9376      2.00000
     14     -10.9366      2.00000
     15     -10.8469      2.00000
     16     -10.8465      2.00000
     17     -10.8452      2.00000
     18     -10.8444      2.00000
     19     -10.3611      2.00000
     20     -10.3610      2.00000
     21     -10.0107      2.00000
     22     -10.0104      2.00000
     23      -9.4571      2.00000
     24      -9.4566      2.00000
     25      -9.4558      2.00000
     26      -9.4550      2.00000
     27      -9.3763      2.00000
     28      -9.3762      2.00000
     29      -9.3742      2.00000
     30      -9.3738      2.00000
     31      -9.2634      2.00000
     32      -9.2632      2.00000
     33      -8.9477      2.00000
     34      -8.5092      2.00000
     35      -8.5088      2.00000
     36      -8.2092      2.00000
     37      -8.2077      2.00000
     38      -8.1501      2.00000
     39      -8.1489      2.00000
     40      -8.1145      2.00000
     41      -8.1136      2.00000
     42      -8.0389      2.00000
     43      -8.0385      2.00000
     44      -8.0375      2.00000
     45      -8.0369      2.00000
     46      -7.8424      2.00000
     47      -7.8407      2.00000
     48      -7.8394      2.00000
     49      -7.8386      2.00000
     50      -7.4345      2.00000
     51      -7.4334      2.00000
     52      -7.4331      2.00000
     53      -7.4317      2.00000
     54      -7.1087      2.00000
     55      -7.1076      2.00000
     56      -7.1075      2.00000
     57      -7.1067      2.00000
     58      -7.0274      2.00000
     59      -7.0262      2.00000
     60      -6.1779      2.00000
     61      -6.1765      2.00000
     62      -6.1760      2.00000
     63      -6.1742      2.00000
     64      -5.9854      2.00000
     65      -5.9843      2.00000
     66      -5.7867      2.00000
     67      -5.7856      2.00000
     68      -5.7728      2.00000
     69      -5.7705      2.00000
     70      -3.7709      2.00000
     71      -3.7699      2.00000
     72      -3.1306      1.28361
     73      -3.1299      1.27591
     74      -3.1285      1.26156
     75      -3.1271      1.24612
     76      -2.3276      0.00000
     77      -2.3264      0.00000
     78      -2.3255      0.00000
     79      -2.3242      0.00000
     80      -2.0947      0.00000
     81      -2.0920      0.00000
     82      -2.0908      0.00000
     83      -2.0871      0.00000
     84      -1.0523      0.00000
     85      -1.0515      0.00000
     86      -1.0501      0.00000
     87      -1.0479      0.00000
     88      -0.8499      0.00000
     89      -0.8470      0.00000
     90      -0.5779      0.00000
     91      -0.3226      0.00000
     92      -0.3196      0.00000
     93       0.1626      0.00000
     94       0.1637      0.00000
     95       0.1643      0.00000
     96       0.1657      0.00000
     97       0.3459      0.00000
     98       0.3466      0.00000
     99       0.3495      0.00000
    100       0.3518      0.00000
    101       0.5751      0.00000
    102       0.6000      0.00000
    103       0.6026      0.00000
    104       0.6117      0.00000
    105       0.6121      0.00000
    106       0.6125      0.00000
    107       0.6131      0.00000
    108       1.1206      0.00000
    109       1.1878      0.00000
    110       1.2957      0.00000
    111       1.2968      0.00000
    112       1.4672      0.00000
    113       1.5369      0.00000
    114       1.5946      0.00000
    115       1.5947      0.00000
    116       1.6343      0.00000
    117       1.6363      0.00000
    118       1.9222      0.00000
    119       1.9261      0.00000
    120       1.9265      0.00000
    121       1.9284      0.00000
    122       1.9344      0.00000
    123       1.9409      0.00000
    124       1.9756      0.00000
    125       1.9774      0.00000
    126       2.0252      0.00000
    127       2.0259      0.00000
    128       2.0274      0.00000
    129       2.0284      0.00000
    130       2.1355      0.00000
    131       2.2531      0.00000
    132       2.2542      0.00000

 k-point     2 :       0.2000    0.0000    0.0000
  band No.  band energies     occupation 
      1     -13.6050      2.00000
      2     -12.9365      2.00000
      3     -12.8948      2.00000
      4     -12.7294      2.00000
      5     -12.6029      2.00000
      6     -12.1346      2.00000
      7     -12.1110      2.00000
      8     -11.9718      2.00000
      9     -11.4691      2.00000
     10     -11.4105      2.00000
     11     -11.3695      2.00000
     12     -11.2115      2.00000
     13     -11.1555      2.00000
     14     -10.9235      2.00000
     15     -10.6874      2.00000
     16     -10.6350      2.00000
     17     -10.6334      2.00000
     18     -10.5779      2.00000
     19     -10.4253      2.00000
     20     -10.2130      2.00000
     21     -10.0615      2.00000
     22     -10.0056      2.00000
     23      -9.9953      2.00000
     24      -9.7826      2.00000
     25      -9.5732      2.00000
     26      -9.4536      2.00000
     27      -9.3571      2.00000
     28      -9.2678      2.00000
     29      -9.0824      2.00000
     30      -9.0143      2.00000
     31      -8.9500      2.00000
     32      -8.8867      2.00000
     33      -8.8695      2.00000
     34      -8.7600      2.00000
     35      -8.6024      2.00000
     36      -8.5963      2.00000
     37      -8.3784      2.00000
     38      -8.2877      2.00000
     39      -8.2594      2.00000
     40      -8.2465      2.00000
     41      -8.0464      2.00000
     42      -8.0150      2.00000
     43      -7.9761      2.00000
     44      -7.9564      2.00000
     45      -7.9488      2.00000
     46      -7.8395      2.00000
     47      -7.8242      2.00000
     48      -7.8111      2.00000
     49      -7.7462      2.00000
     50      -7.7238      2.00000
     51      -7.6205      2.00000
     52      -7.3231      2.00000
     53      -7.1583      2.00000
     54      -7.1361      2.00000
     55      -7.0530      2.00000
     56      -7.0067      2.00000
     57      -6.9826      2.00000
     58      -6.9247      2.00000
     59      -6.7839      2.00000
     60      -6.7731      2.00000
     61      -6.5095      2.00000
     62      -6.4179      2.00000
     63      -6.2209      2.00000
     64      -6.1577      2.00000
     65      -5.7512      2.00000
     66      -5.4852      2.00000
     67      -5.3796      2.00000
     68      -5.2574      2.00000
     69      -5.1576      2.00000
     70      -4.7136      2.00000
     71      -4.1539      2.00000
     72      -3.9096      2.00000
     73      -3.1176      1.14243
     74      -3.0902      0.83505
     75      -3.0360      0.32998
     76      -2.7586      0.00000
     77      -2.3214      0.00000
     78      -2.2274      0.00000
     79      -2.1589      0.00000
     80      -2.1407      0.00000
     81      -1.9631      0.00000
     82      -1.7123      0.00000
     83      -1.5981      0.00000
     84      -1.5736      0.00000
     85      -1.1808      0.00000
     86      -1.0575      0.00000
     87      -0.5333      0.00000
     88      -0.5278      0.00000
     89      -0.3941      0.00000
     90      -0.2615      0.00000
     91      -0.2484      0.00000
     92      -0.1221      0.00000
     93      -0.1009      0.00000
     94      -0.0710      0.00000
     95       0.0008      0.00000
     96       0.1754      0.00000
     97       0.2004      0.00000
     98       0.2147      0.00000
     99       0.2915      0.00000
    100       0.4930      0.00000
    101       0.5602      0.00000
    102       0.6397      0.00000
    103       0.8686      0.00000
    104       0.9736      0.00000
    105       0.9983      0.00000
    106       1.0781      0.00000
    107       1.1590      0.00000
    108       1.1867      0.00000
    109       1.2530      0.00000
    110       1.3094      0.00000
    111       1.3325      0.00000
    112       1.3812      0.00000
    113       1.4182      0.00000
    114       1.4280      0.00000
    115       1.4769      0.00000
    116       1.5331      0.00000
    117       1.5571      0.00000
    118       1.6003      0.00000
    119       1.6021      0.00000
    120       1.6425      0.00000
    121       1.7103      0.00000
    122       1.7871      0.00000
    123       1.8043      0.00000
    124       1.8444      0.00000
    125       1.8979      0.00000
    126       1.9498      0.00000
    127       1.9586      0.00000
    128       1.9705      0.00000
    129       2.0367      0.00000
    130       2.0728      0.00000
    131       2.1263      0.00000
    132       2.1735      0.00000

 k-point     3 :       0.4000    0.0000    0.0000
  band No.  band energies     occupation 
      1     -13.4619      2.00000
      2     -13.2246      2.00000
      3     -12.9612      2.00000
      4     -12.8918      2.00000
      5     -12.2953      2.00000
      6     -11.9608      2.00000
      7     -11.8964      2.00000
      8     -11.7125      2.00000
      9     -11.7092      2.00000
     10     -11.4797      2.00000
     11     -11.3933      2.00000
     12     -11.3914      2.00000
     13     -11.2062      2.00000
     14     -10.9149      2.00000
     15     -10.8559      2.00000
     16     -10.8184      2.00000
     17     -10.7472      2.00000
     18     -10.4666      2.00000
     19     -10.4515      2.00000
     20     -10.1463      2.00000
     21     -10.1396      2.00000
     22      -9.8473      2.00000
     23      -9.6351      2.00000
     24      -9.6122      2.00000
     25      -9.5770      2.00000
     26      -9.5718      2.00000
     27      -9.5368      2.00000
     28      -9.2268      2.00000
     29      -9.0951      2.00000
     30      -9.0153      2.00000
     31      -8.8568      2.00000
     32      -8.7327      2.00000
     33      -8.7162      2.00000
     34      -8.7125      2.00000
     35      -8.7041      2.00000
     36      -8.5388      2.00000
     37      -8.4638      2.00000
     38      -8.4003      2.00000
     39      -8.3593      2.00000
     40      -8.2748      2.00000
     41      -8.2509      2.00000
     42      -8.1886      2.00000
     43      -8.1593      2.00000
     44      -8.0966      2.00000
     45      -7.9686      2.00000
     46      -7.8942      2.00000
     47      -7.7319      2.00000
     48      -7.7101      2.00000
     49      -7.4843      2.00000
     50      -7.4638      2.00000
     51      -7.4556      2.00000
     52      -7.4234      2.00000
     53      -7.2979      2.00000
     54      -7.2757      2.00000
     55      -7.2524      2.00000
     56      -7.1668      2.00000
     57      -6.9181      2.00000
     58      -6.8736      2.00000
     59      -6.7546      2.00000
     60      -6.6934      2.00000
     61      -6.4291      2.00000
     62      -6.3919      2.00000
     63      -6.2995      2.00000
     64      -6.0009      2.00000
     65      -5.5606      2.00000
     66      -5.2306      2.00000
     67      -5.1231      2.00000
     68      -4.7285      2.00000
     69      -4.6614      2.00000
     70      -4.6260      2.00000
     71      -4.6150      2.00000
     72      -4.3374      2.00000
     73      -3.9291      2.00000
     74      -3.8869      2.00000
     75      -3.8837      2.00000
     76      -3.3448      1.99931
     77      -2.0943      0.00000
     78      -1.9281      0.00000
     79      -1.7606      0.00000
     80      -1.7598      0.00000
     81      -1.6352      0.00000
     82      -1.6076      0.00000
     83      -1.4942      0.00000
     84      -1.4177      0.00000
     85      -1.1334      0.00000
     86      -0.3787      0.00000
     87      -0.3193      0.00000
     88      -0.3107      0.00000
     89      -0.2809      0.00000
     90      -0.2537      0.00000
     91      -0.1875      0.00000
     92      -0.1339      0.00000
     93      -0.1074      0.00000
     94      -0.0634      0.00000
     95       0.0099      0.00000
     96       0.0321      0.00000
     97       0.2573      0.00000
     98       0.6411      0.00000
     99       0.7366      0.00000
    100       0.7454      0.00000
    101       0.8331      0.00000
    102       0.9364      0.00000
    103       1.0062      0.00000
    104       1.0210      0.00000
    105       1.0642      0.00000
    106       1.0746      0.00000
    107       1.1545      0.00000
    108       1.2938      0.00000
    109       1.3568      0.00000
    110       1.3588      0.00000
    111       1.3639      0.00000
    112       1.3851      0.00000
    113       1.4418      0.00000
    114       1.4448      0.00000
    115       1.4487      0.00000
    116       1.5024      0.00000
    117       1.5034      0.00000
    118       1.5229      0.00000
    119       1.5278      0.00000
    120       1.5620      0.00000
    121       1.6919      0.00000
    122       1.7145      0.00000
    123       1.7157      0.00000
    124       1.7309      0.00000
    125       1.7410      0.00000
    126       1.7450      0.00000
    127       1.7498      0.00000
    128       1.7743      0.00000
    129       1.7902      0.00000
    130       1.9508      0.00000
    131       1.9730      0.00000
    132       2.0225      0.00000

 k-point     4 :       0.0000    0.2000    0.0000
  band No.  band energies     occupation 
      1     -13.6050      2.00000
      2     -12.9364      2.00000
      3     -12.8951      2.00000
      4     -12.7290      2.00000
      5     -12.6031      2.00000
      6     -12.1342      2.00000
      7     -12.1110      2.00000
      8     -11.9725      2.00000
      9     -11.4689      2.00000
     10     -11.4115      2.00000
     11     -11.3698      2.00000
     12     -11.2110      2.00000
     13     -11.1557      2.00000
     14     -10.9223      2.00000
     15     -10.6859      2.00000
     16     -10.6351      2.00000
     17     -10.6328      2.00000
     18     -10.5775      2.00000
     19     -10.4259      2.00000
     20     -10.2147      2.00000
     21     -10.0630      2.00000
     22     -10.0060      2.00000
     23      -9.9962      2.00000
     24      -9.7808      2.00000
     25      -9.5722      2.00000
     26      -9.4533      2.00000
     27      -9.3574      2.00000
     28      -9.2666      2.00000
     29      -9.0822      2.00000
     30      -9.0145      2.00000
     31      -8.9481      2.00000
     32      -8.8868      2.00000
     33      -8.8708      2.00000
     34      -8.7622      2.00000
     35      -8.6037      2.00000
     36      -8.5973      2.00000
     37      -8.3771      2.00000
     38      -8.2876      2.00000
     39      -8.2591      2.00000
     40      -8.2489      2.00000
     41      -8.0450      2.00000
     42      -8.0151      2.00000
     43      -7.9764      2.00000
     44      -7.9565      2.00000
     45      -7.9465      2.00000
     46      -7.8372      2.00000
     47      -7.8238      2.00000
     48      -7.8128      2.00000
     49      -7.7467      2.00000
     50      -7.7226      2.00000
     51      -7.6218      2.00000
     52      -7.3241      2.00000
     53      -7.1575      2.00000
     54      -7.1356      2.00000
     55      -7.0536      2.00000
     56      -7.0066      2.00000
     57      -6.9826      2.00000
     58      -6.9243      2.00000
     59      -6.7845      2.00000
     60      -6.7739      2.00000
     61      -6.5089      2.00000
     62      -6.4176      2.00000
     63      -6.2205      2.00000
     64      -6.1572      2.00000
     65      -5.7502      2.00000
     66      -5.4861      2.00000
     67      -5.3799      2.00000
     68      -5.2579      2.00000
     69      -5.1582      2.00000
     70      -4.7135      2.00000
     71      -4.1552      2.00000
     72      -3.9081      2.00000
     73      -3.1186      1.15386
     74      -3.0895      0.82771
     75      -3.0383      0.34592
     76      -2.7589      0.00000
     77      -2.3194      0.00000
     78      -2.2298      0.00000
     79      -2.1613      0.00000
     80      -2.1374      0.00000
     81      -1.9608      0.00000
     82      -1.7093      0.00000
     83      -1.5952      0.00000
     84      -1.5764      0.00000
     85      -1.1803      0.00000
     86      -1.0610      0.00000
     87      -0.5336      0.00000
     88      -0.5278      0.00000
     89      -0.3940      0.00000
     90      -0.2599      0.00000
     91      -0.2516      0.00000
     92      -0.1207      0.00000
     93      -0.1011      0.00000
     94      -0.0674      0.00000
     95       0.0009      0.00000
     96       0.1737      0.00000
     97       0.2002      0.00000
     98       0.2145      0.00000
     99       0.2917      0.00000
    100       0.4905      0.00000
    101       0.5621      0.00000
    102       0.6397      0.00000
    103       0.8719      0.00000
    104       0.9740      0.00000
    105       0.9989      0.00000
    106       1.0778      0.00000
    107       1.1557      0.00000
    108       1.1867      0.00000
    109       1.2530      0.00000
    110       1.3080      0.00000
    111       1.3325      0.00000
    112       1.3783      0.00000
    113       1.4182      0.00000
    114       1.4286      0.00000
    115       1.4769      0.00000
    116       1.5331      0.00000
    117       1.5527      0.00000
    118       1.6003      0.00000
    119       1.6017      0.00000
    120       1.6429      0.00000
    121       1.7137      0.00000
    122       1.7882      0.00000
    123       1.8049      0.00000
    124       1.8442      0.00000
    125       1.8971      0.00000
    126       1.9503      0.00000
    127       1.9592      0.00000
    128       1.9775      0.00000
    129       2.0370      0.00000
    130       2.0729      0.00000
    131       2.1259      0.00000
    132       2.1472      0.00000

 k-point     5 :       0.2000    0.2000    0.0000
  band No.  band energies     occupation 
      1     -13.4954      2.00000
      2     -13.0919      2.00000
      3     -13.0908      2.00000
      4     -12.6618      2.00000
      5     -12.6605      2.00000
      6     -11.9933      2.00000
      7     -11.5847      2.00000
      8     -11.5839      2.00000
      9     -11.5826      2.00000
     10     -11.5813      2.00000
     11     -11.4367      2.00000
     12     -11.4354      2.00000
     13     -11.2368      2.00000
     14     -11.1966      2.00000
     15     -11.1957      2.00000
     16     -10.4763      2.00000
     17     -10.4743      2.00000
     18     -10.2137      2.00000
     19     -10.2130      2.00000
     20     -10.0571      2.00000
     21     -10.0562      2.00000
     22     -10.0227      2.00000
     23     -10.0217      2.00000
     24     -10.0207      2.00000
     25     -10.0186      2.00000
     26      -9.6626      2.00000
     27      -9.1150      2.00000
     28      -9.1145      2.00000
     29      -8.9916      2.00000
     30      -8.9902      2.00000
     31      -8.7356      2.00000
     32      -8.7297      2.00000
     33      -8.6555      2.00000
     34      -8.6540      2.00000
     35      -8.6111      2.00000
     36      -8.5669      2.00000
     37      -8.4504      2.00000
     38      -8.4479      2.00000
     39      -8.3683      2.00000
     40      -8.3660      2.00000
     41      -8.2776      2.00000
     42      -8.2764      2.00000
     43      -8.1690      2.00000
     44      -8.1672      2.00000
     45      -7.9979      2.00000
     46      -7.9964      2.00000
     47      -7.6226      2.00000
     48      -7.5465      2.00000
     49      -7.4860      2.00000
     50      -7.4486      2.00000
     51      -7.4474      2.00000
     52      -7.4413      2.00000
     53      -7.4403      2.00000
     54      -7.2155      2.00000
     55      -7.2145      2.00000
     56      -7.0063      2.00000
     57      -7.0045      2.00000
     58      -6.8262      2.00000
     59      -6.8225      2.00000
     60      -6.8212      2.00000
     61      -6.6414      2.00000
     62      -6.1788      2.00000
     63      -6.1775      2.00000
     64      -5.5909      2.00000
     65      -5.5814      2.00000
     66      -5.5790      2.00000
     67      -4.9566      2.00000
     68      -4.9546      2.00000
     69      -4.8835      2.00000
     70      -4.8816      2.00000
     71      -4.7339      2.00000
     72      -4.5095      2.00000
     73      -3.8617      2.00000
     74      -3.8605      2.00000
     75      -2.8314      0.00011
     76      -2.8277      0.00009
     77      -2.7323      0.00000
     78      -2.7291      0.00000
     79      -1.7748      0.00000
     80      -1.6190      0.00000
     81      -1.6151      0.00000
     82      -1.2768      0.00000
     83      -1.2729      0.00000
     84      -1.0649      0.00000
     85      -1.0604      0.00000
     86      -0.6457      0.00000
     87      -0.6427      0.00000
     88      -0.4034      0.00000
     89      -0.3391      0.00000
     90      -0.3371      0.00000
     91      -0.1659      0.00000
     92      -0.1629      0.00000
     93      -0.1554      0.00000
     94      -0.1549      0.00000
     95      -0.0561      0.00000
     96      -0.0520      0.00000
     97      -0.0512      0.00000
     98       0.7917      0.00000
     99       0.9078      0.00000
    100       0.9086      0.00000
    101       0.9777      0.00000
    102       0.9803      0.00000
    103       1.1076      0.00000
    104       1.1215      0.00000
    105       1.1475      0.00000
    106       1.1508      0.00000
    107       1.2001      0.00000
    108       1.3182      0.00000
    109       1.3186      0.00000
    110       1.3426      0.00000
    111       1.4078      0.00000
    112       1.4307      0.00000
    113       1.4316      0.00000
    114       1.4430      0.00000
    115       1.4442      0.00000
    116       1.4475      0.00000
    117       1.4504      0.00000
    118       1.5113      0.00000
    119       1.6129      0.00000
    120       1.6157      0.00000
    121       1.6884      0.00000
    122       1.7116      0.00000
    123       1.7179      0.00000
    124       1.7532      0.00000
    125       1.8056      0.00000
    126       1.8061      0.00000
    127       1.8316      0.00000
    128       1.8339      0.00000
    129       1.8855      0.00000
    130       1.8858      0.00000
    131       1.9313      0.00000
    132       1.9316      0.00000

 k-point     6 :       0.4000    0.2000    0.0000
  band No.  band energies     occupation 
      1     -13.3616      2.00000
      2     -13.2913      2.00000
      3     -13.1948      2.00000
      4     -12.6258      2.00000
      5     -12.2934      2.00000
      6     -11.8648      2.00000
      7     -11.8636      2.00000
      8     -11.7770      2.00000
      9     -11.7727      2.00000
     10     -11.7030      2.00000
     11     -11.3716      2.00000
     12     -11.1412      2.00000
     13     -11.1385      2.00000
     14     -11.1144      2.00000
     15     -10.9607      2.00000
     16     -10.8304      2.00000
     17     -10.8255      2.00000
     18     -10.4648      2.00000
     19     -10.3380      2.00000
     20     -10.1985      2.00000
     21     -10.0319      2.00000
     22      -9.7625      2.00000
     23      -9.7182      2.00000
     24      -9.6184      2.00000
     25      -9.5524      2.00000
     26      -9.4152      2.00000
     27      -9.3398      2.00000
     28      -9.3279      2.00000
     29      -9.1549      2.00000
     30      -9.0146      2.00000
     31      -8.9760      2.00000
     32      -8.7314      2.00000
     33      -8.6773      2.00000
     34      -8.6181      2.00000
     35      -8.6168      2.00000
     36      -8.6107      2.00000
     37      -8.4770      2.00000
     38      -8.4629      2.00000
     39      -8.4581      2.00000
     40      -8.3993      2.00000
     41      -8.2816      2.00000
     42      -8.2258      2.00000
     43      -8.1570      2.00000
     44      -8.0638      2.00000
     45      -7.9051      2.00000
     46      -7.8653      2.00000
     47      -7.6005      2.00000
     48      -7.5932      2.00000
     49      -7.5105      2.00000
     50      -7.4800      2.00000
     51      -7.4738      2.00000
     52      -7.4109      2.00000
     53      -7.3866      2.00000
     54      -7.3366      2.00000
     55      -7.2391      2.00000
     56      -7.1405      2.00000
     57      -7.1319      2.00000
     58      -7.0443      2.00000
     59      -6.8592      2.00000
     60      -6.5961      2.00000
     61      -6.5746      2.00000
     62      -6.3608      2.00000
     63      -5.7752      2.00000
     64      -5.7678      2.00000
     65      -5.5132      2.00000
     66      -5.4703      2.00000
     67      -5.3221      2.00000
     68      -4.8788      2.00000
     69      -4.5950      2.00000
     70      -4.5809      2.00000
     71      -4.3431      2.00000
     72      -4.0997      2.00000
     73      -3.9491      2.00000
     74      -3.8051      2.00000
     75      -3.6762      2.00000
     76      -3.5965      2.00000
     77      -3.0260      0.26443
     78      -2.5325      0.00000
     79      -1.7207      0.00000
     80      -1.6734      0.00000
     81      -1.5827      0.00000
     82      -1.5245      0.00000
     83      -1.0480      0.00000
     84      -1.0005      0.00000
     85      -0.7762      0.00000
     86      -0.3117      0.00000
     87      -0.2838      0.00000
     88      -0.2556      0.00000
     89      -0.2341      0.00000
     90      -0.2127      0.00000
     91      -0.1826      0.00000
     92      -0.1350      0.00000
     93      -0.0986      0.00000
     94      -0.0769      0.00000
     95       0.0126      0.00000
     96       0.1393      0.00000
     97       0.2008      0.00000
     98       0.2161      0.00000
     99       0.4417      0.00000
    100       0.9084      0.00000
    101       0.9383      0.00000
    102       0.9567      0.00000
    103       0.9611      0.00000
    104       0.9853      0.00000
    105       1.0722      0.00000
    106       1.1165      0.00000
    107       1.1467      0.00000
    108       1.1521      0.00000
    109       1.1616      0.00000
    110       1.2055      0.00000
    111       1.2270      0.00000
    112       1.3176      0.00000
    113       1.3364      0.00000
    114       1.5127      0.00000
    115       1.5693      0.00000
    116       1.5879      0.00000
    117       1.5891      0.00000
    118       1.5952      0.00000
    119       1.6306      0.00000
    120       1.6395      0.00000
    121       1.6929      0.00000
    122       1.7188      0.00000
    123       1.7201      0.00000
    124       1.7250      0.00000
    125       1.7514      0.00000
    126       1.7532      0.00000
    127       1.8534      0.00000
    128       1.8580      0.00000
    129       1.8762      0.00000
    130       1.8879      0.00000
    131       1.8959      0.00000
    132       1.9755      0.00000

 k-point     7 :      -0.4000    0.2000    0.0000
  band No.  band energies     occupation 
      1     -13.5380      2.00000
      2     -13.2037      2.00000
      3     -12.9944      2.00000
      4     -12.4977      2.00000
      5     -12.2319      2.00000
      6     -12.2039      2.00000
      7     -12.0460      2.00000
      8     -11.8370      2.00000
      9     -11.7451      2.00000
     10     -11.7236      2.00000
     11     -11.4651      2.00000
     12     -11.2157      2.00000
     13     -11.1020      2.00000
     14     -10.9918      2.00000
     15     -10.7877      2.00000
     16     -10.6697      2.00000
     17     -10.5773      2.00000
     18     -10.3787      2.00000
     19     -10.3780      2.00000
     20     -10.2891      2.00000
     21     -10.2146      2.00000
     22      -9.9209      2.00000
     23      -9.6885      2.00000
     24      -9.6309      2.00000
     25      -9.4527      2.00000
     26      -9.3675      2.00000
     27      -9.3144      2.00000
     28      -9.1669      2.00000
     29      -9.1271      2.00000
     30      -9.1084      2.00000
     31      -9.0331      2.00000
     32      -8.8241      2.00000
     33      -8.7900      2.00000
     34      -8.7212      2.00000
     35      -8.6697      2.00000
     36      -8.5548      2.00000
     37      -8.5512      2.00000
     38      -8.5196      2.00000
     39      -8.4583      2.00000
     40      -8.3421      2.00000
     41      -8.1292      2.00000
     42      -8.1231      2.00000
     43      -8.0693      2.00000
     44      -7.9310      2.00000
     45      -7.8121      2.00000
     46      -7.7868      2.00000
     47      -7.7292      2.00000
     48      -7.7182      2.00000
     49      -7.6178      2.00000
     50      -7.5728      2.00000
     51      -7.5093      2.00000
     52      -7.4972      2.00000
     53      -7.2749      2.00000
     54      -7.1692      2.00000
     55      -7.1050      2.00000
     56      -7.0800      2.00000
     57      -7.0508      2.00000
     58      -7.0170      2.00000
     59      -6.9777      2.00000
     60      -6.8445      2.00000
     61      -6.5688      2.00000
     62      -6.3017      2.00000
     63      -6.2625      2.00000
     64      -6.0404      2.00000
     65      -5.7884      2.00000
     66      -5.2898      2.00000
     67      -5.2559      2.00000
     68      -4.7736      2.00000
     69      -4.6545      2.00000
     70      -4.3679      2.00000
     71      -4.2599      2.00000
     72      -4.0649      2.00000
     73      -3.6523      2.00000
     74      -3.2238      1.90725
     75      -3.1530      1.50360
     76      -3.0999      0.94390
     77      -2.7084      0.00000
     78      -2.6629      0.00000
     79      -2.4789      0.00000
     80      -2.1505      0.00000
     81      -2.0182      0.00000
     82      -1.8161      0.00000
     83      -1.4025      0.00000
     84      -0.9038      0.00000
     85      -0.8405      0.00000
     86      -0.6038      0.00000
     87      -0.4807      0.00000
     88      -0.4387      0.00000
     89      -0.3579      0.00000
     90      -0.3162      0.00000
     91      -0.2033      0.00000
     92       0.0303      0.00000
     93       0.0358      0.00000
     94       0.1292      0.00000
     95       0.1591      0.00000
     96       0.2159      0.00000
     97       0.3099      0.00000
     98       0.4500      0.00000
     99       0.5095      0.00000
    100       0.5126      0.00000
    101       0.5432      0.00000
    102       0.6461      0.00000
    103       0.6826      0.00000
    104       0.7224      0.00000
    105       0.8792      0.00000
    106       0.9025      0.00000
    107       1.0561      0.00000
    108       1.0570      0.00000
    109       1.0848      0.00000
    110       1.1327      0.00000
    111       1.1616      0.00000
    112       1.1677      0.00000
    113       1.2446      0.00000
    114       1.2718      0.00000
    115       1.3343      0.00000
    116       1.4342      0.00000
    117       1.4795      0.00000
    118       1.5116      0.00000
    119       1.6179      0.00000
    120       1.6590      0.00000
    121       1.6729      0.00000
    122       1.6969      0.00000
    123       1.8289      0.00000
    124       1.8587      0.00000
    125       1.8598      0.00000
    126       1.9131      0.00000
    127       2.0416      0.00000
    128       2.0510      0.00000
    129       2.0633      0.00000
    130       2.0728      0.00000
    131       2.0830      0.00000
    132       2.0900      0.00000

 k-point     8 :      -0.2000    0.2000    0.0000
  band No.  band energies     occupation 
      1     -13.6193      2.00000
      2     -13.1175      2.00000
      3     -12.6078      2.00000
      4     -12.6070      2.00000
      5     -12.4505      2.00000
      6     -12.2791      2.00000
      7     -12.2782      2.00000
      8     -12.1287      2.00000
      9     -11.6454      2.00000
     10     -11.2990      2.00000
     11     -11.2976      2.00000
     12     -11.0632      2.00000
     13     -11.0625      2.00000
     14     -11.0191      2.00000
     15     -10.9689      2.00000
     16     -10.7519      2.00000
     17     -10.7509      2.00000
     18     -10.3359      2.00000
     19     -10.3342      2.00000
     20      -9.9847      2.00000
     21      -9.9842      2.00000
     22      -9.8526      2.00000
     23      -9.8513      2.00000
     24      -9.7260      2.00000
     25      -9.7198      2.00000
     26      -9.6003      2.00000
     27      -9.5988      2.00000
     28      -9.1099      2.00000
     29      -9.1077      2.00000
     30      -9.0312      2.00000
     31      -9.0298      2.00000
     32      -8.9162      2.00000
     33      -8.8712      2.00000
     34      -8.5934      2.00000
     35      -8.5917      2.00000
     36      -8.4892      2.00000
     37      -8.4886      2.00000
     38      -8.4624      2.00000
     39      -8.2003      2.00000
     40      -8.1990      2.00000
     41      -8.1529      2.00000
     42      -8.1503      2.00000
     43      -8.0006      2.00000
     44      -7.9997      2.00000
     45      -7.9211      2.00000
     46      -7.8541      2.00000
     47      -7.8526      2.00000
     48      -7.5883      2.00000
     49      -7.5862      2.00000
     50      -7.5564      2.00000
     51      -7.5554      2.00000
     52      -7.2670      2.00000
     53      -7.2658      2.00000
     54      -7.2542      2.00000
     55      -7.2531      2.00000
     56      -7.1248      2.00000
     57      -7.0782      2.00000
     58      -6.9950      2.00000
     59      -6.9944      2.00000
     60      -6.5921      2.00000
     61      -6.4639      2.00000
     62      -6.4626      2.00000
     63      -5.9337      2.00000
     64      -5.9324      2.00000
     65      -5.8749      2.00000
     66      -5.8737      2.00000
     67      -5.5950      2.00000
     68      -5.5934      2.00000
     69      -4.8151      2.00000
     70      -3.7425      2.00000
     71      -3.7414      2.00000
     72      -3.3425      1.99922
     73      -3.3407      1.99915
     74      -3.1498      1.47454
     75      -3.1469      1.44735
     76      -2.9042      0.00452
     77      -2.9020      0.00410
     78      -2.3999      0.00000
     79      -2.3977      0.00000
     80      -2.2675      0.00000
     81      -2.2657      0.00000
     82      -1.6939      0.00000
     83      -1.5039      0.00000
     84      -1.5016      0.00000
     85      -1.0040      0.00000
     86      -1.0008      0.00000
     87      -0.5536      0.00000
     88      -0.5331      0.00000
     89      -0.5312      0.00000
     90      -0.4831      0.00000
     91      -0.4465      0.00000
     92       0.1046      0.00000
     93       0.1075      0.00000
     94       0.1083      0.00000
     95       0.1332      0.00000
     96       0.1350      0.00000
     97       0.2319      0.00000
     98       0.2333      0.00000
     99       0.5216      0.00000
    100       0.5220      0.00000
    101       0.5273      0.00000
    102       0.5295      0.00000
    103       0.6165      0.00000
    104       0.6576      0.00000
    105       0.6617      0.00000
    106       0.7042      0.00000
    107       0.7046      0.00000
    108       1.1631      0.00000
    109       1.2286      0.00000
    110       1.2304      0.00000
    111       1.2424      0.00000
    112       1.2442      0.00000
    113       1.2889      0.00000
    114       1.3739      0.00000
    115       1.5064      0.00000
    116       1.5077      0.00000
    117       1.5096      0.00000
    118       1.5468      0.00000
    119       1.5737      0.00000
    120       1.7880      0.00000
    121       1.7913      0.00000
    122       1.8008      0.00000
    123       1.8737      0.00000
    124       1.8756      0.00000
    125       1.9398      0.00000
    126       1.9772      0.00000
    127       2.0100      0.00000
    128       2.0103      0.00000
    129       2.0953      0.00000
    130       2.0964      0.00000
    131       2.1302      0.00000
    132       2.1451      0.00000

 k-point     9 :       0.0000    0.4000    0.0000
  band No.  band energies     occupation 
      1     -13.4620      2.00000
      2     -13.2248      2.00000
      3     -12.9610      2.00000
      4     -12.8914      2.00000
      5     -12.2957      2.00000
      6     -11.9609      2.00000
      7     -11.8970      2.00000
      8     -11.7127      2.00000
      9     -11.7088      2.00000
     10     -11.4794      2.00000
     11     -11.3930      2.00000
     12     -11.3922      2.00000
     13     -11.2059      2.00000
     14     -10.9140      2.00000
     15     -10.8563      2.00000
     16     -10.8178      2.00000
     17     -10.7484      2.00000
     18     -10.4672      2.00000
     19     -10.4499      2.00000
     20     -10.1446      2.00000
     21     -10.1392      2.00000
     22      -9.8482      2.00000
     23      -9.6348      2.00000
     24      -9.6115      2.00000
     25      -9.5777      2.00000
     26      -9.5713      2.00000
     27      -9.5388      2.00000
     28      -9.2278      2.00000
     29      -9.0961      2.00000
     30      -9.0140      2.00000
     31      -8.8591      2.00000
     32      -8.7330      2.00000
     33      -8.7167      2.00000
     34      -8.7111      2.00000
     35      -8.7042      2.00000
     36      -8.5368      2.00000
     37      -8.4640      2.00000
     38      -8.4005      2.00000
     39      -8.3619      2.00000
     40      -8.2762      2.00000
     41      -8.2506      2.00000
     42      -8.1865      2.00000
     43      -8.1603      2.00000
     44      -8.0962      2.00000
     45      -7.9668      2.00000
     46      -7.8921      2.00000
     47      -7.7332      2.00000
     48      -7.7105      2.00000
     49      -7.4847      2.00000
     50      -7.4627      2.00000
     51      -7.4557      2.00000
     52      -7.4246      2.00000
     53      -7.2984      2.00000
     54      -7.2748      2.00000
     55      -7.2521      2.00000
     56      -7.1673      2.00000
     57      -6.9179      2.00000
     58      -6.8735      2.00000
     59      -6.7543      2.00000
     60      -6.6932      2.00000
     61      -6.4284      2.00000
     62      -6.3912      2.00000
     63      -6.2991      2.00000
     64      -6.0017      2.00000
     65      -5.5603      2.00000
     66      -5.2294      2.00000
     67      -5.1241      2.00000
     68      -4.7294      2.00000
     69      -4.6616      2.00000
     70      -4.6270      2.00000
     71      -4.6137      2.00000
     72      -4.3387      2.00000
     73      -3.9300      2.00000
     74      -3.8870      2.00000
     75      -3.8852      2.00000
     76      -3.3468      1.99937
     77      -2.0908      0.00000
     78      -1.9247      0.00000
     79      -1.7607      0.00000
     80      -1.7587      0.00000
     81      -1.6322      0.00000
     82      -1.6116      0.00000
     83      -1.4931      0.00000
     84      -1.4136      0.00000
     85      -1.1363      0.00000
     86      -0.3788      0.00000
     87      -0.3193      0.00000
     88      -0.3120      0.00000
     89      -0.2786      0.00000
     90      -0.2539      0.00000
     91      -0.1870      0.00000
     92      -0.1340      0.00000
     93      -0.1075      0.00000
     94      -0.0638      0.00000
     95       0.0099      0.00000
     96       0.0281      0.00000
     97       0.2568      0.00000
     98       0.6370      0.00000
     99       0.7358      0.00000
    100       0.7463      0.00000
    101       0.8330      0.00000
    102       0.9381      0.00000
    103       1.0039      0.00000
    104       1.0178      0.00000
    105       1.0609      0.00000
    106       1.0767      0.00000
    107       1.1543      0.00000
    108       1.2956      0.00000
    109       1.3571      0.00000
    110       1.3623      0.00000
    111       1.3647      0.00000
    112       1.3850      0.00000
    113       1.4424      0.00000
    114       1.4452      0.00000
    115       1.4486      0.00000
    116       1.5013      0.00000
    117       1.5031      0.00000
    118       1.5245      0.00000
    119       1.5274      0.00000
    120       1.5625      0.00000
    121       1.6901      0.00000
    122       1.7149      0.00000
    123       1.7155      0.00000
    124       1.7308      0.00000
    125       1.7408      0.00000
    126       1.7493      0.00000
    127       1.7496      0.00000
    128       1.7741      0.00000
    129       1.7902      0.00000
    130       1.9527      0.00000
    131       1.9714      0.00000
    132       2.0253      0.00000

 k-point    10 :       0.2000    0.4000    0.0000
  band No.  band energies     occupation 
      1     -13.3618      2.00000
      2     -13.2914      2.00000
      3     -13.1946      2.00000
      4     -12.6253      2.00000
      5     -12.2940      2.00000
      6     -11.8652      2.00000
      7     -11.8638      2.00000
      8     -11.7770      2.00000
      9     -11.7725      2.00000
     10     -11.7028      2.00000
     11     -11.3710      2.00000
     12     -11.1408      2.00000
     13     -11.1396      2.00000
     14     -11.1138      2.00000
     15     -10.9616      2.00000
     16     -10.8310      2.00000
     17     -10.8241      2.00000
     18     -10.4653      2.00000
     19     -10.3370      2.00000
     20     -10.1984      2.00000
     21     -10.0315      2.00000
     22      -9.7606      2.00000
     23      -9.7192      2.00000
     24      -9.6194      2.00000
     25      -9.5519      2.00000
     26      -9.4160      2.00000
     27      -9.3386      2.00000
     28      -9.3301      2.00000
     29      -9.1542      2.00000
     30      -9.0167      2.00000
     31      -8.9766      2.00000
     32      -8.7320      2.00000
     33      -8.6783      2.00000
     34      -8.6174      2.00000
     35      -8.6157      2.00000
     36      -8.6108      2.00000
     37      -8.4749      2.00000
     38      -8.4630      2.00000
     39      -8.4578      2.00000
     40      -8.3978      2.00000
     41      -8.2843      2.00000
     42      -8.2233      2.00000
     43      -8.1574      2.00000
     44      -8.0653      2.00000
     45      -7.9063      2.00000
     46      -7.8649      2.00000
     47      -7.5997      2.00000
     48      -7.5937      2.00000
     49      -7.5091      2.00000
     50      -7.4806      2.00000
     51      -7.4729      2.00000
     52      -7.4113      2.00000
     53      -7.3877      2.00000
     54      -7.3355      2.00000
     55      -7.2396      2.00000
     56      -7.1407      2.00000
     57      -7.1316      2.00000
     58      -7.0442      2.00000
     59      -6.8590      2.00000
     60      -6.5959      2.00000
     61      -6.5745      2.00000
     62      -6.3607      2.00000
     63      -5.7763      2.00000
     64      -5.7665      2.00000
     65      -5.5121      2.00000
     66      -5.4697      2.00000
     67      -5.3229      2.00000
     68      -4.8803      2.00000
     69      -4.5956      2.00000
     70      -4.5808      2.00000
     71      -4.3417      2.00000
     72      -4.1009      2.00000
     73      -3.9492      2.00000
     74      -3.8076      2.00000
     75      -3.6769      2.00000
     76      -3.5977      2.00000
     77      -3.0229      0.24621
     78      -2.5313      0.00000
     79      -1.7221      0.00000
     80      -1.6712      0.00000
     81      -1.5869      0.00000
     82      -1.5203      0.00000
     83      -1.0490      0.00000
     84      -0.9969      0.00000
     85      -0.7747      0.00000
     86      -0.3118      0.00000
     87      -0.2838      0.00000
     88      -0.2567      0.00000
     89      -0.2341      0.00000
     90      -0.2119      0.00000
     91      -0.1827      0.00000
     92      -0.1357      0.00000
     93      -0.0956      0.00000
     94      -0.0767      0.00000
     95       0.0088      0.00000
     96       0.1381      0.00000
     97       0.2001      0.00000
     98       0.2125      0.00000
     99       0.4434      0.00000
    100       0.9076      0.00000
    101       0.9407      0.00000
    102       0.9566      0.00000
    103       0.9583      0.00000
    104       0.9856      0.00000
    105       1.0721      0.00000
    106       1.1126      0.00000
    107       1.1442      0.00000
    108       1.1534      0.00000
    109       1.1619      0.00000
    110       1.2066      0.00000
    111       1.2259      0.00000
    112       1.3177      0.00000
    113       1.3390      0.00000
    114       1.5125      0.00000
    115       1.5692      0.00000
    116       1.5880      0.00000
    117       1.5891      0.00000
    118       1.5952      0.00000
    119       1.6306      0.00000
    120       1.6431      0.00000
    121       1.6928      0.00000
    122       1.7175      0.00000
    123       1.7210      0.00000
    124       1.7252      0.00000
    125       1.7509      0.00000
    126       1.7534      0.00000
    127       1.8515      0.00000
    128       1.8578      0.00000
    129       1.8781      0.00000
    130       1.8920      0.00000
    131       1.9042      0.00000
    132       1.9224      0.00000

 k-point    11 :       0.4000    0.4000    0.0000
  band No.  band energies     occupation 
      1     -13.4048      2.00000
      2     -13.4037      2.00000
      3     -13.0276      2.00000
      4     -12.2643      2.00000
      5     -12.2007      2.00000
      6     -12.1992      2.00000
      7     -11.9169      2.00000
      8     -11.9161      2.00000
      9     -11.7413      2.00000
     10     -11.7402      2.00000
     11     -11.4971      2.00000
     12     -11.4558      2.00000
     13     -11.4541      2.00000
     14     -10.7134      2.00000
     15     -10.7124      2.00000
     16     -10.7002      2.00000
     17     -10.4625      2.00000
     18     -10.4611      2.00000
     19     -10.3727      2.00000
     20     -10.3721      2.00000
     21      -9.9491      2.00000
     22      -9.9479      2.00000
     23      -9.7851      2.00000
     24      -9.7838      2.00000
     25      -9.2315      2.00000
     26      -9.2300      2.00000
     27      -9.1271      2.00000
     28      -9.1252      2.00000
     29      -9.0793      2.00000
     30      -9.0767      2.00000
     31      -8.9354      2.00000
     32      -8.9343      2.00000
     33      -8.8677      2.00000
     34      -8.8123      2.00000
     35      -8.7011      2.00000
     36      -8.6999      2.00000
     37      -8.6913      2.00000
     38      -8.6904      2.00000
     39      -8.3372      2.00000
     40      -8.3345      2.00000
     41      -8.1007      2.00000
     42      -8.0719      2.00000
     43      -8.0708      2.00000
     44      -7.8827      2.00000
     45      -7.8816      2.00000
     46      -7.8492      2.00000
     47      -7.8477      2.00000
     48      -7.7023      2.00000
     49      -7.4242      2.00000
     50      -7.4225      2.00000
     51      -7.3938      2.00000
     52      -7.3926      2.00000
     53      -7.3660      2.00000
     54      -7.3644      2.00000
     55      -7.3360      2.00000
     56      -7.2481      2.00000
     57      -7.0700      2.00000
     58      -7.0535      2.00000
     59      -7.0479      2.00000
     60      -6.9500      2.00000
     61      -6.3209      2.00000
     62      -6.3192      2.00000
     63      -6.2116      2.00000
     64      -6.2104      2.00000
     65      -5.2098      2.00000
     66      -5.2086      2.00000
     67      -5.0083      2.00000
     68      -5.0055      2.00000
     69      -4.5384      2.00000
     70      -4.5370      2.00000
     71      -4.0567      2.00000
     72      -4.0535      2.00000
     73      -3.4127      1.99999
     74      -3.4104      1.99998
     75      -3.2110      1.86656
     76      -3.2076      1.85362
     77      -3.1042      0.99140
     78      -2.8258      0.00008
     79      -2.6131      0.00000
     80      -2.6116      0.00000
     81      -1.9105      0.00000
     82      -1.9071      0.00000
     83      -1.2858      0.00000
     84      -0.7871      0.00000
     85      -0.4042      0.00000
     86      -0.4034      0.00000
     87      -0.3943      0.00000
     88      -0.2882      0.00000
     89      -0.2858      0.00000
     90      -0.0452      0.00000
     91      -0.0433      0.00000
     92      -0.0399      0.00000
     93      -0.0368      0.00000
     94       0.0435      0.00000
     95       0.1036      0.00000
     96       0.2865      0.00000
     97       0.2892      0.00000
     98       0.5953      0.00000
     99       0.5997      0.00000
    100       0.6702      0.00000
    101       0.6726      0.00000
    102       0.6834      0.00000
    103       0.7954      0.00000
    104       0.8067      0.00000
    105       0.8082      0.00000
    106       0.8779      0.00000
    107       0.8870      0.00000
    108       0.8873      0.00000
    109       0.9301      0.00000
    110       0.9327      0.00000
    111       0.9338      0.00000
    112       0.9351      0.00000
    113       1.1753      0.00000
    114       1.1783      0.00000
    115       1.4385      0.00000
    116       1.4417      0.00000
    117       1.4418      0.00000
    118       1.4912      0.00000
    119       1.4914      0.00000
    120       1.6754      0.00000
    121       1.6780      0.00000
    122       1.7869      0.00000
    123       1.7870      0.00000
    124       1.8029      0.00000
    125       1.8031      0.00000
    126       1.8175      0.00000
    127       1.8185      0.00000
    128       2.0083      0.00000
    129       2.0443      0.00000
    130       2.0446      0.00000
    131       2.0670      0.00000
    132       2.1390      0.00000

 k-point    12 :      -0.4000    0.4000    0.0000
  band No.  band energies     occupation 
      1     -13.5189      2.00000
      2     -13.3516      2.00000
      3     -12.6736      2.00000
      4     -12.6729      2.00000
      5     -12.0313      2.00000
      6     -12.0191      2.00000
      7     -12.0167      2.00000
      8     -12.0157      2.00000
      9     -11.8697      2.00000
     10     -11.6897      2.00000
     11     -11.6885      2.00000
     12     -11.5240      2.00000
     13     -11.1261      2.00000
     14     -11.1253      2.00000
     15     -10.6259      2.00000
     16     -10.5065      2.00000
     17     -10.5054      2.00000
     18     -10.2051      2.00000
     19     -10.2039      2.00000
     20     -10.1899      2.00000
     21      -9.9069      2.00000
     22      -9.9061      2.00000
     23      -9.7783      2.00000
     24      -9.7773      2.00000
     25      -9.7743      2.00000
     26      -9.7727      2.00000
     27      -9.1793      2.00000
     28      -9.1775      2.00000
     29      -9.1097      2.00000
     30      -8.8228      2.00000
     31      -8.8090      2.00000
     32      -8.8065      2.00000
     33      -8.7441      2.00000
     34      -8.6699      2.00000
     35      -8.6006      2.00000
     36      -8.5993      2.00000
     37      -8.4842      2.00000
     38      -8.4816      2.00000
     39      -8.4295      2.00000
     40      -8.4288      2.00000
     41      -8.3322      2.00000
     42      -8.3312      2.00000
     43      -8.2175      2.00000
     44      -8.2164      2.00000
     45      -7.6557      2.00000
     46      -7.6542      2.00000
     47      -7.6213      2.00000
     48      -7.6185      2.00000
     49      -7.6175      2.00000
     50      -7.4552      2.00000
     51      -7.4537      2.00000
     52      -7.4412      2.00000
     53      -7.4399      2.00000
     54      -7.3403      2.00000
     55      -7.2535      2.00000
     56      -7.0720      2.00000
     57      -7.0246      2.00000
     58      -7.0234      2.00000
     59      -6.9382      2.00000
     60      -6.9376      2.00000
     61      -6.7555      2.00000
     62      -6.7542      2.00000
     63      -5.7840      2.00000
     64      -5.7829      2.00000
     65      -5.7668      2.00000
     66      -5.7656      2.00000
     67      -4.9859      2.00000
     68      -4.9836      2.00000
     69      -4.1313      2.00000
     70      -4.1287      2.00000
     71      -3.7865      2.00000
     72      -3.6585      2.00000
     73      -3.6572      2.00000
     74      -3.5226      2.00000
     75      -3.5212      2.00000
     76      -2.7253      0.00000
     77      -2.6908      0.00000
     78      -2.6885      0.00000
     79      -2.5177      0.00000
     80      -2.5153      0.00000
     81      -2.1991      0.00000
     82      -2.1977      0.00000
     83      -1.7975      0.00000
     84      -1.7958      0.00000
     85      -0.4881      0.00000
     86      -0.4530      0.00000
     87      -0.4151      0.00000
     88      -0.1891      0.00000
     89      -0.1868      0.00000
     90      -0.0602      0.00000
     91      -0.0569      0.00000
     92       0.0147      0.00000
     93       0.0175      0.00000
     94       0.2737      0.00000
     95       0.2748      0.00000
     96       0.3806      0.00000
     97       0.3821      0.00000
     98       0.4711      0.00000
     99       0.4715      0.00000
    100       0.5185      0.00000
    101       0.5202      0.00000
    102       0.6344      0.00000
    103       0.6357      0.00000
    104       0.7404      0.00000
    105       0.7506      0.00000
    106       0.7523      0.00000
    107       0.7654      0.00000
    108       0.8260      0.00000
    109       0.9333      0.00000
    110       0.9347      0.00000
    111       0.9460      0.00000
    112       1.0223      0.00000
    113       1.0265      0.00000
    114       1.2907      0.00000
    115       1.3491      0.00000
    116       1.4167      0.00000
    117       1.4207      0.00000
    118       1.4567      0.00000
    119       1.5031      0.00000
    120       1.5333      0.00000
    121       1.6366      0.00000
    122       1.6786      0.00000
    123       1.8136      0.00000
    124       1.8490      0.00000
    125       1.9085      0.00000
    126       1.9293      0.00000
    127       1.9295      0.00000
    128       1.9518      0.00000
    129       1.9526      0.00000
    130       2.2003      0.00000
    131       2.2300      0.00000
    132       2.2574      0.00000

 k-point    13 :      -0.2000    0.4000    0.0000
  band No.  band energies     occupation 
      1     -13.5381      2.00000
      2     -13.2036      2.00000
      3     -12.9945      2.00000
      4     -12.4971      2.00000
      5     -12.2317      2.00000
      6     -12.2042      2.00000
      7     -12.0460      2.00000
      8     -11.8378      2.00000
      9     -11.7460      2.00000
     10     -11.7235      2.00000
     11     -11.4653      2.00000
     12     -11.2154      2.00000
     13     -11.1007      2.00000
     14     -10.9913      2.00000
     15     -10.7879      2.00000
     16     -10.6695      2.00000
     17     -10.5768      2.00000
     18     -10.3795      2.00000
     19     -10.3769      2.00000
     20     -10.2903      2.00000
     21     -10.2154      2.00000
     22      -9.9206      2.00000
     23      -9.6903      2.00000
     24      -9.6298      2.00000
     25      -9.4506      2.00000
     26      -9.3679      2.00000
     27      -9.3151      2.00000
     28      -9.1682      2.00000
     29      -9.1262      2.00000
     30      -9.1068      2.00000
     31      -9.0326      2.00000
     32      -8.8241      2.00000
     33      -8.7910      2.00000
     34      -8.7213      2.00000
     35      -8.6722      2.00000
     36      -8.5538      2.00000
     37      -8.5530      2.00000
     38      -8.5195      2.00000
     39      -8.4595      2.00000
     40      -8.3426      2.00000
     41      -8.1266      2.00000
     42      -8.1216      2.00000
     43      -8.0694      2.00000
     44      -7.9315      2.00000
     45      -7.8111      2.00000
     46      -7.7863      2.00000
     47      -7.7301      2.00000
     48      -7.7184      2.00000
     49      -7.6173      2.00000
     50      -7.5742      2.00000
     51      -7.5105      2.00000
     52      -7.4955      2.00000
     53      -7.2739      2.00000
     54      -7.1690      2.00000
     55      -7.1049      2.00000
     56      -7.0807      2.00000
     57      -7.0509      2.00000
     58      -7.0168      2.00000
     59      -6.9780      2.00000
     60      -6.8443      2.00000
     61      -6.5696      2.00000
     62      -6.3012      2.00000
     63      -6.2623      2.00000
     64      -6.0394      2.00000
     65      -5.7870      2.00000
     66      -5.2904      2.00000
     67      -5.2561      2.00000
     68      -4.7754      2.00000
     69      -4.6540      2.00000
     70      -4.3690      2.00000
     71      -4.2604      2.00000
     72      -4.0670      2.00000
     73      -3.6507      2.00000
     74      -3.2252      1.91094
     75      -3.1500      1.47651
     76      -3.0995      0.93922
     77      -2.7090      0.00000
     78      -2.6644      0.00000
     79      -2.4773      0.00000
     80      -2.1500      0.00000
     81      -2.0210      0.00000
     82      -1.8130      0.00000
     83      -1.4049      0.00000
     84      -0.9016      0.00000
     85      -0.8375      0.00000
     86      -0.6016      0.00000
     87      -0.4807      0.00000
     88      -0.4387      0.00000
     89      -0.3579      0.00000
     90      -0.3189      0.00000
     91      -0.2015      0.00000
     92       0.0301      0.00000
     93       0.0324      0.00000
     94       0.1291      0.00000
     95       0.1590      0.00000
     96       0.2199      0.00000
     97       0.3096      0.00000
     98       0.4496      0.00000
     99       0.5069      0.00000
    100       0.5125      0.00000
    101       0.5451      0.00000
    102       0.6472      0.00000
    103       0.6817      0.00000
    104       0.7223      0.00000
    105       0.8798      0.00000
    106       0.9027      0.00000
    107       1.0515      0.00000
    108       1.0572      0.00000
    109       1.0826      0.00000
    110       1.1328      0.00000
    111       1.1616      0.00000
    112       1.1661      0.00000
    113       1.2451      0.00000
    114       1.2717      0.00000
    115       1.3342      0.00000
    116       1.4311      0.00000
    117       1.4793      0.00000
    118       1.5115      0.00000
    119       1.6178      0.00000
    120       1.6591      0.00000
    121       1.6728      0.00000
    122       1.6970      0.00000
    123       1.8285      0.00000
    124       1.8599      0.00000
    125       1.8614      0.00000
    126       1.9132      0.00000
    127       2.0418      0.00000
    128       2.0508      0.00000
    129       2.0634      0.00000
    130       2.0763      0.00000
    131       2.0840      0.00000
    132       2.1028      0.00000


--------------------------------------------------------------------------------------------------------


 soft charge-density along one line, spin component           1
         0         1         2         3         4         5         6         7         8         9
 total charge-density along one line
 
 pseudopotential strength for first ion, spin component:           1
  5.210 -13.241   0.000   0.001  -0.001  -0.000  -0.002   0.002
-13.241  34.525  -0.000  -0.002   0.001   0.001   0.004  -0.003
  0.000  -0.000  -0.363   0.000   0.000   0.817  -0.000  -0.000
  0.001  -0.002   0.000  -0.362  -0.000  -0.000   0.813   0.001
 -0.001   0.001   0.000  -0.000  -0.365  -0.000   0.001   0.819
 -0.000   0.001   0.817  -0.000  -0.000  -0.135   0.000   0.000
 -0.002   0.004  -0.000   0.813   0.001   0.000  -0.120  -0.003
  0.002  -0.003  -0.000   0.001   0.819   0.000  -0.003  -0.136
 total augmentation occupancy for first ion, spin component:           1
  1.503   0.100   0.008   0.114   0.012   0.001   0.013   0.000
  0.100   0.007   0.000   0.014  -0.000   0.000   0.001  -0.000
  0.008   0.000   1.507   0.005   0.004   0.102   0.000   0.000
  0.114   0.014   0.005   1.377  -0.057   0.000   0.083  -0.004
  0.012  -0.000   0.004  -0.057   0.804   0.000  -0.004   0.045
  0.001   0.000   0.102   0.000   0.000   0.007   0.000   0.000
  0.013   0.001   0.000   0.083  -0.004   0.000   0.005  -0.000
  0.000  -0.000   0.000  -0.004   0.045   0.000  -0.000   0.003


------------------------ aborting loop because EDIFF is reached ----------------------------------------


    CHARGE:  cpu time      2.2938: real time      2.3109
    FORLOC:  cpu time      0.0601: real time      0.0606
    FORNL :  cpu time     13.2384: real time     13.3419
    STRESS:  cpu time     26.5910: real time     26.8265
    FORCOR:  cpu time      0.2757: real time      0.2776
    FORHAR:  cpu time      0.1266: real time      0.1280
    MIXING:  cpu time      0.0136: real time      0.0137
    OFIELD:  cpu time      0.0001: real time      0.0001

 ---------------------------------------------------------------------------------------------

         DFTD3 V3.0 Rev 1        
 DF pbe       
 parameters
 k1-k3        =   16.0000    1.3333   -4.0000
 Edisp (eV)  -12.34200

 E6    (eV) :    -8.2226
 E8    (eV) :    -4.1194
 % E8        : 33.38
    FORVDW:  cpu time      0.3011: real time      0.3032

  FORCE on cell =-STRESS in cart. coord.  units (eV):
  Direction    XX          YY          ZZ          XY          YZ          ZX
  --------------------------------------------------------------------------------------
  Alpha Z    16.91954    16.91954    16.91954
  Ewald   41641.87335 42499.99808-43692.60599     4.42059     0.15144   -34.05090
  Hartree 41730.98992 41820.44927-41666.67496     0.45880     0.02328    -4.28229
  E(xc)    -405.82398  -404.04231  -410.56340     0.00861    -0.00006     0.08077
  Local  -84223.81688-85061.25382 84529.11004    -4.30008    -0.19571    40.92786
  n-local    39.68812    96.17817    69.57221     0.29486     0.00697    -1.87408
  augment    -4.44585    -2.96805    -3.11177     0.00781     0.00052    -0.12583
  Kinetic  1207.26070  1035.15693  1156.76018    -0.87249    -0.00515    -0.33880
  Fock        0.00000     0.00000     0.00000     0.00000     0.00000     0.00000
  vdW       -12.48701   -13.12426    -4.90221    -0.00330    -0.00032     0.06622
  -------------------------------------------------------------------------------------
  Total      -9.84210   -12.68645    -5.49636     0.01478    -0.01903     0.40294
  in kB      -3.18452    -4.10485    -1.77841     0.00478    -0.00616     0.13038
  external pressure =       -3.02 kB  Pullay stress =        0.00 kB


 VOLUME and BASIS-vectors are now :
 -----------------------------------------------------------------------------
  energy-cutoff  :      600.00
  volume of cell :     4951.70
      direct lattice vectors                 reciprocal lattice vectors
    11.918670677  5.141046359  0.000000000     0.042557835  0.095849589  0.000000000
   -11.865449406  5.268335966  0.000000000    -0.041529584  0.096279513  0.000000000
     0.000000000  0.000000000 40.000000000     0.000000000  0.000000000  0.025000000

  length of vectors
    12.980179828 12.982459453 40.000000000     0.104872842  0.104854427  0.025000000


 FORCES acting on ions
    electron-ion (+dipol)            ewald-force                    non-local-force                 convergence-correction
 -----------------------------------------------------------------------------------------------
   0.167E+00 0.206E+00 -.618E+02   0.370E-01 -.184E+00 0.625E+02   -.225E+00 -.847E-01 -.673E+00   0.549E-07 -.561E-07 -.320E-07
   0.138E-01 -.251E-01 -.618E+02   0.189E+00 0.270E-01 0.625E+02   -.203E+00 -.114E-02 -.682E+00   -.286E-08 -.690E-07 -.789E-07
   0.693E-01 -.505E-02 -.618E+02   0.137E+00 0.395E-02 0.625E+02   -.205E+00 0.159E-02 -.681E+00   0.255E-07 0.334E-08 0.456E-07
   0.697E-01 -.483E-02 -.618E+02   0.137E+00 0.394E-02 0.625E+02   -.205E+00 0.149E-02 -.682E+00   -.306E-07 0.127E-07 0.155E-07
   0.160E-01 -.261E-01 -.618E+02   0.188E+00 0.267E-01 0.625E+02   -.204E+00 -.180E-02 -.680E+00   -.592E-08 -.102E-07 -.504E-07
   0.469E-01 0.346E-01 -.618E+02   0.159E+00 -.390E-01 0.625E+02   -.206E+00 0.630E-02 -.682E+00   -.193E-07 0.271E-07 -.480E-07
   0.138E+00 -.526E-01 -.618E+02   0.688E-01 0.524E-01 0.625E+02   -.206E+00 0.140E-01 -.681E+00   0.256E-07 -.216E-08 -.934E-07
   0.705E-01 -.170E-01 -.618E+02   0.134E+00 0.164E-01 0.625E+02   -.204E+00 0.210E-02 -.681E+00   0.359E-08 0.196E-07 -.923E-07
   0.725E-01 -.393E-02 -.618E+02   0.133E+00 0.270E-02 0.625E+02   -.205E+00 0.130E-02 -.682E+00   0.347E-07 -.286E-07 0.225E-07
   0.671E-01 0.454E-04 -.618E+02   0.138E+00 -.139E-02 0.625E+02   -.207E+00 0.138E-02 -.681E+00   -.267E-07 -.452E-07 -.262E-08
   0.730E-01 0.283E-02 -.618E+02   0.133E+00 -.436E-02 0.625E+02   -.205E+00 0.133E-02 -.682E+00   0.113E-07 0.135E-07 -.585E-07
   0.814E-01 0.568E-02 -.618E+02   0.124E+00 -.718E-02 0.625E+02   -.205E+00 0.160E-02 -.682E+00   -.347E-07 0.124E-07 -.377E-07
   0.872E-01 -.113E-01 -.618E+02   0.119E+00 0.860E-02 0.625E+02   -.205E+00 0.108E-02 -.682E+00   0.210E-07 0.391E-07 -.330E-07
   0.793E-01 -.535E-02 -.618E+02   0.126E+00 0.389E-02 0.625E+02   -.206E+00 0.137E-02 -.681E+00   -.232E-07 0.389E-07 -.219E-07
   0.743E-01 0.156E-04 -.618E+02   0.131E+00 -.128E-02 0.625E+02   -.204E+00 0.158E-02 -.682E+00   0.121E-07 -.414E-07 -.375E-07
   0.728E-01 0.304E-02 -.618E+02   0.133E+00 -.438E-02 0.625E+02   -.205E+00 0.125E-02 -.681E+00   0.212E-07 0.536E-07 -.391E-08
   0.745E-01 0.111E-03 -.618E+02   0.131E+00 -.129E-02 0.625E+02   -.205E+00 0.161E-02 -.682E+00   0.233E-08 -.201E-07 -.563E-07
   0.792E-01 -.527E-02 -.618E+02   0.126E+00 0.386E-02 0.625E+02   -.205E+00 0.132E-02 -.682E+00   -.448E-08 0.129E-07 -.265E-07
   0.870E-01 -.110E-01 -.618E+02   0.119E+00 0.862E-02 0.625E+02   -.205E+00 0.109E-02 -.681E+00   0.212E-07 0.295E-07 -.507E-08
   0.818E-01 0.538E-02 -.618E+02   0.123E+00 -.714E-02 0.625E+02   -.206E+00 0.168E-02 -.681E+00   -.576E-07 -.472E-08 0.157E-07
   0.468E-01 0.342E-01 -.618E+02   0.159E+00 -.394E-01 0.625E+02   -.205E+00 0.519E-02 -.680E+00   -.324E-07 0.159E-07 0.157E-07
   0.660E-01 0.109E-03 -.618E+02   0.138E+00 -.141E-02 0.625E+02   -.206E+00 0.134E-02 -.682E+00   -.500E-08 0.125E-07 0.441E-07
   0.728E-01 -.399E-02 -.618E+02   0.133E+00 0.268E-02 0.625E+02   -.205E+00 0.126E-02 -.681E+00   -.179E-08 0.394E-07 -.275E-07
   0.711E-01 -.168E-01 -.618E+02   0.134E+00 0.163E-01 0.625E+02   -.205E+00 0.182E-02 -.682E+00   -.271E-09 -.419E-07 -.628E-07
   0.136E+00 -.516E-01 -.618E+02   0.695E-01 0.529E-01 0.625E+02   -.206E+00 0.157E-01 -.685E+00   0.383E-07 -.111E-07 0.233E-07
   -.785E-01 -.222E-01 0.618E+02   -.132E+00 0.194E-01 -.625E+02   0.212E+00 0.304E-02 0.672E+00   -.194E-08 0.342E-07 0.258E-07
   -.893E-01 -.511E-02 0.618E+02   -.116E+00 0.664E-02 -.625E+02   0.207E+00 -.152E-02 0.682E+00   -.446E-07 -.492E-09 -.209E-08
   -.842E-01 -.104E-02 0.618E+02   -.120E+00 0.233E-02 -.625E+02   0.204E+00 -.159E-02 0.681E+00   0.190E-07 0.152E-07 0.942E-07
   -.924E-01 -.118E-02 0.618E+02   -.114E+00 0.257E-02 -.624E+02   0.206E+00 -.150E-02 0.681E+00   0.682E-08 -.644E-07 0.760E-07
   -.904E-01 0.211E-01 0.617E+02   -.121E+00 -.194E-01 -.624E+02   0.217E+00 -.820E-03 0.695E+00   0.452E-07 -.503E-07 -.736E-07
   -.677E-01 0.116E-01 0.618E+02   -.140E+00 -.122E-01 -.624E+02   0.207E+00 -.387E-03 0.682E+00   0.305E-07 -.411E-07 -.973E-08
   -.744E-01 -.900E-02 0.618E+02   -.131E+00 0.127E-01 -.625E+02   0.205E+00 -.192E-02 0.680E+00   0.167E-07 0.399E-08 -.526E-07
   -.821E-01 -.257E-02 0.618E+02   -.123E+00 0.417E-02 -.625E+02   0.206E+00 -.150E-02 0.681E+00   -.371E-07 -.159E-07 0.425E-08
   -.839E-01 0.156E-02 0.618E+02   -.121E+00 0.597E-04 -.625E+02   0.204E+00 -.141E-02 0.682E+00   0.154E-08 0.441E-07 0.526E-07
   -.883E-01 0.725E-02 0.618E+02   -.118E+00 -.589E-02 -.624E+02   0.206E+00 -.128E-02 0.682E+00   -.247E-07 0.349E-07 0.975E-07
   -.814E-01 0.422E-02 0.618E+02   -.124E+00 -.330E-02 -.625E+02   0.205E+00 -.137E-02 0.682E+00   -.414E-07 0.710E-07 0.296E-07
   -.746E-01 -.115E-02 0.618E+02   -.131E+00 0.178E-02 -.625E+02   0.205E+00 -.170E-02 0.681E+00   0.193E-08 0.101E-08 0.188E-07
   -.757E-01 -.190E-02 0.618E+02   -.130E+00 0.457E-02 -.625E+02   0.205E+00 -.135E-02 0.681E+00   0.502E-08 0.155E-07 -.324E-07
   -.797E-01 0.233E-02 0.618E+02   -.125E+00 -.684E-03 -.625E+02   0.205E+00 -.144E-02 0.682E+00   -.326E-07 -.502E-07 0.715E-07
   -.826E-01 0.319E-02 0.618E+02   -.122E+00 -.213E-02 -.625E+02   0.204E+00 -.127E-02 0.682E+00   0.403E-07 -.190E-08 0.109E-07
   -.839E-01 0.222E-02 0.618E+02   -.121E+00 -.152E-02 -.625E+02   0.204E+00 -.140E-02 0.682E+00   0.574E-07 -.176E-07 0.337E-08
   -.811E-01 -.292E-03 0.618E+02   -.124E+00 0.151E-02 -.625E+02   0.205E+00 -.145E-02 0.681E+00   -.171E-07 -.776E-08 -.299E-07
   -.765E-01 -.611E-02 0.618E+02   -.128E+00 0.734E-02 -.625E+02   0.205E+00 -.206E-02 0.680E+00   0.142E-07 0.863E-07 0.142E-07
   -.686E-01 0.172E-02 0.618E+02   -.136E+00 -.269E-03 -.625E+02   0.204E+00 -.110E-02 0.683E+00   -.521E-07 -.324E-07 0.847E-08
   -.827E-01 0.750E-02 0.618E+02   -.122E+00 -.676E-02 -.625E+02   0.206E+00 -.101E-02 0.682E+00   -.271E-07 0.212E-07 0.935E-07
   -.929E-01 0.402E-02 0.618E+02   -.112E+00 -.333E-02 -.625E+02   0.207E+00 -.150E-02 0.680E+00   -.284E-07 0.462E-07 0.595E-07
   -.852E-01 0.211E-03 0.618E+02   -.120E+00 0.133E-02 -.625E+02   0.205E+00 -.138E-02 0.682E+00   0.292E-07 -.405E-07 0.378E-07
   -.846E-01 -.379E-02 0.618E+02   -.120E+00 0.517E-02 -.625E+02   0.205E+00 -.155E-02 0.681E+00   0.299E-07 -.335E-07 0.280E-07
   -.787E-01 -.161E-01 0.618E+02   -.126E+00 0.206E-01 -.624E+02   0.204E+00 -.480E-02 0.676E+00   0.287E-07 0.355E-08 -.784E-07
   -.513E-01 0.320E-01 0.618E+02   -.154E+00 -.319E-01 -.625E+02   0.207E+00 -.129E-02 0.680E+00   -.474E-07 -.209E-07 0.480E-07
   0.421E+00 -.529E-03 -.782E+02   -.506E+00 0.170E-01 0.804E+02   0.899E-01 -.379E-02 -.228E+01   0.154E-07 -.304E-07 0.897E-08
   0.333E+00 -.121E-01 -.781E+02   -.408E+00 0.120E-01 0.804E+02   0.794E-01 -.225E-03 -.227E+01   0.132E-07 -.267E-07 0.101E-07
   0.338E+00 -.317E-02 -.781E+02   -.413E+00 0.292E-02 0.804E+02   0.792E-01 -.300E-03 -.227E+01   0.278E-07 -.997E-08 0.111E-07
   0.337E+00 -.230E-02 -.781E+02   -.412E+00 0.189E-02 0.804E+02   0.793E-01 -.157E-03 -.227E+01   -.195E-07 -.274E-07 0.556E-08
   0.320E+00 0.481E-02 -.781E+02   -.394E+00 -.501E-02 0.804E+02   0.790E-01 -.154E-03 -.227E+01   -.914E-08 0.174E-07 0.522E-07
   0.341E+00 0.673E-02 -.781E+02   -.416E+00 -.728E-02 0.804E+02   0.794E-01 -.221E-03 -.227E+01   -.146E-07 0.863E-08 0.952E-08
   0.349E+00 -.700E-02 -.781E+02   -.424E+00 0.714E-02 0.804E+02   0.792E-01 -.335E-03 -.227E+01   -.283E-09 0.240E-07 -.256E-08
   0.341E+00 -.511E-02 -.781E+02   -.416E+00 0.496E-02 0.804E+02   0.793E-01 -.221E-03 -.227E+01   0.686E-08 0.443E-07 0.206E-07
   0.339E+00 -.178E-02 -.781E+02   -.415E+00 0.143E-02 0.804E+02   0.792E-01 -.233E-03 -.227E+01   0.201E-08 -.361E-07 0.298E-07
   0.338E+00 0.347E-03 -.781E+02   -.413E+00 -.679E-03 0.804E+02   0.793E-01 -.275E-03 -.227E+01   0.610E-08 -.196E-07 0.159E-07
   0.339E+00 -.154E-04 -.781E+02   -.415E+00 -.392E-03 0.804E+02   0.792E-01 -.206E-03 -.227E+01   0.370E-08 0.648E-08 0.405E-08
   0.342E+00 -.124E-02 -.781E+02   -.418E+00 0.873E-03 0.804E+02   0.793E-01 -.280E-03 -.227E+01   -.401E-08 0.668E-08 0.132E-07
   0.344E+00 -.372E-02 -.781E+02   -.420E+00 0.413E-02 0.804E+02   0.792E-01 -.526E-04 -.227E+01   0.693E-08 0.317E-07 0.130E-07
   0.343E+00 -.131E-02 -.781E+02   -.418E+00 0.943E-03 0.804E+02   0.793E-01 -.266E-03 -.227E+01   -.161E-07 0.793E-08 0.305E-07
   0.340E+00 0.392E-04 -.781E+02   -.415E+00 -.428E-03 0.804E+02   0.792E-01 -.188E-03 -.227E+01   -.242E-08 0.131E-07 0.521E-07
   0.338E+00 0.472E-03 -.781E+02   -.413E+00 -.801E-03 0.804E+02   0.793E-01 -.256E-03 -.227E+01   0.126E-08 0.324E-07 0.290E-07
   0.339E+00 -.174E-02 -.781E+02   -.415E+00 0.139E-02 0.804E+02   0.791E-01 -.220E-03 -.227E+01   -.118E-07 -.217E-08 0.259E-07
   0.341E+00 -.497E-02 -.781E+02   -.416E+00 0.483E-02 0.804E+02   0.793E-01 -.191E-03 -.227E+01   0.997E-08 -.703E-08 0.265E-07
   0.349E+00 -.750E-02 -.781E+02   -.424E+00 0.771E-02 0.804E+02   0.792E-01 -.402E-03 -.227E+01   0.153E-07 0.606E-08 0.324E-07
   0.342E+00 0.703E-02 -.781E+02   -.417E+00 -.766E-02 0.804E+02   0.794E-01 -.157E-03 -.227E+01   -.196E-07 0.864E-08 0.428E-07
   0.317E+00 0.554E-02 -.781E+02   -.392E+00 -.575E-02 0.804E+02   0.781E-01 -.120E-03 -.227E+01   0.211E-08 -.346E-07 0.930E-09
   0.336E+00 -.236E-02 -.781E+02   -.412E+00 0.193E-02 0.804E+02   0.793E-01 -.164E-03 -.227E+01   0.790E-08 0.404E-09 0.132E-07
   0.338E+00 -.309E-02 -.781E+02   -.413E+00 0.284E-02 0.804E+02   0.792E-01 -.283E-03 -.227E+01   -.161E-07 0.424E-07 0.119E-07
   0.333E+00 -.114E-01 -.781E+02   -.408E+00 0.112E-01 0.804E+02   0.793E-01 -.172E-03 -.227E+01   -.407E-08 -.258E-07 0.674E-07
   0.417E+00 -.846E-02 -.781E+02   -.500E+00 0.291E-01 0.803E+02   0.893E-01 -.540E-02 -.226E+01   0.301E-07 -.319E-07 0.291E-07
   -.336E+00 0.508E-02 0.781E+02   0.412E+00 -.494E-02 -.804E+02   -.791E-01 0.184E-03 0.227E+01   -.225E-07 0.129E-07 -.251E-07
   -.345E+00 0.781E-03 0.781E+02   0.421E+00 -.324E-03 -.804E+02   -.793E-01 0.255E-03 0.227E+01   -.167E-07 0.239E-07 -.414E-07
   -.344E+00 0.520E-03 0.781E+02   0.420E+00 -.202E-03 -.804E+02   -.792E-01 0.222E-03 0.227E+01   0.888E-08 -.171E-07 -.555E-07
   -.344E+00 -.280E-03 0.781E+02   0.420E+00 0.538E-03 -.804E+02   -.792E-01 0.238E-03 0.227E+01   0.325E-07 -.479E-07 -.967E-08
   -.339E+00 0.362E-03 0.781E+02   0.415E+00 0.138E-04 -.804E+02   -.790E-01 0.314E-03 0.227E+01   0.108E-07 -.166E-07 -.303E-08
   -.337E+00 0.556E-02 0.781E+02   0.412E+00 -.583E-02 -.804E+02   -.791E-01 0.136E-05 0.227E+01   0.190E-07 -.397E-07 -.391E-07
   -.339E+00 -.846E-03 0.781E+02   0.415E+00 0.205E-02 -.804E+02   -.793E-01 0.486E-03 0.227E+01   0.144E-08 0.322E-07 -.336E-07
   -.344E+00 -.560E-03 0.781E+02   0.419E+00 0.832E-03 -.804E+02   -.794E-01 0.223E-03 0.227E+01   -.307E-07 -.815E-08 -.521E-07
   -.344E+00 0.761E-03 0.781E+02   0.419E+00 -.514E-03 -.804E+02   -.792E-01 0.201E-03 0.227E+01   -.622E-08 0.278E-07 -.324E-07
   -.344E+00 0.211E-02 0.781E+02   0.420E+00 -.185E-02 -.804E+02   -.791E-01 0.163E-03 0.227E+01   0.160E-07 -.156E-07 -.416E-07
   -.343E+00 0.320E-02 0.781E+02   0.418E+00 -.280E-02 -.804E+02   -.792E-01 0.223E-03 0.227E+01   -.961E-08 0.534E-07 -.364E-07
   -.339E+00 0.221E-02 0.781E+02   0.414E+00 -.158E-02 -.804E+02   -.792E-01 0.309E-03 0.227E+01   0.102E-07 -.248E-07 -.717E-07
   -.340E+00 -.126E-02 0.781E+02   0.416E+00 0.115E-02 -.804E+02   -.792E-01 0.122E-03 0.227E+01   0.935E-08 -.344E-08 -.337E-07
   -.343E+00 0.594E-03 0.781E+02   0.418E+00 -.393E-03 -.804E+02   -.794E-01 0.178E-03 0.227E+01   -.205E-07 -.288E-07 -.365E-07
   -.343E+00 0.186E-02 0.781E+02   0.419E+00 -.153E-02 -.804E+02   -.792E-01 0.213E-03 0.227E+01   -.387E-08 0.206E-07 -.212E-09
   -.343E+00 0.228E-02 0.781E+02   0.419E+00 -.186E-02 -.804E+02   -.792E-01 0.252E-03 0.227E+01   0.247E-07 -.859E-09 -.169E-07
   -.342E+00 0.174E-02 0.781E+02   0.418E+00 -.128E-02 -.804E+02   -.793E-01 0.296E-03 0.227E+01   -.194E-07 0.268E-07 -.158E-07
   -.340E+00 0.163E-03 0.781E+02   0.416E+00 0.390E-03 -.804E+02   -.792E-01 0.325E-03 0.227E+01   0.350E-08 0.305E-07 -.601E-07
   -.340E+00 0.271E-03 0.781E+02   0.415E+00 -.200E-03 -.804E+02   -.792E-01 0.117E-03 0.227E+01   -.171E-07 -.621E-08 0.469E-08
   -.342E+00 0.254E-02 0.781E+02   0.418E+00 -.218E-02 -.804E+02   -.793E-01 0.229E-03 0.227E+01   -.126E-07 -.200E-07 -.359E-07
   -.344E+00 0.359E-02 0.781E+02   0.419E+00 -.311E-02 -.804E+02   -.793E-01 0.261E-03 0.227E+01   -.326E-08 0.336E-07 -.356E-07
   -.344E+00 0.153E-02 0.781E+02   0.419E+00 -.109E-02 -.804E+02   -.792E-01 0.253E-03 0.227E+01   0.234E-07 -.305E-07 -.417E-07
   -.343E+00 0.190E-03 0.781E+02   0.418E+00 0.205E-03 -.804E+02   -.792E-01 0.230E-03 0.227E+01   0.791E-08 -.164E-07 -.110E-07
   -.340E+00 -.144E-02 0.781E+02   0.416E+00 0.200E-02 -.804E+02   -.792E-01 0.239E-03 0.227E+01   0.621E-08 0.504E-07 -.215E-08
   -.336E+00 0.350E-02 0.781E+02   0.412E+00 -.323E-02 -.804E+02   -.791E-01 0.161E-03 0.227E+01   -.412E-07 -.356E-07 0.469E-09
 -----------------------------------------------------------------------------------------------
   -.220E-01 0.624E-01 -.393E-02   -.877E-14 0.345E-13 -.213E-12   0.220E-01 -.624E-01 0.393E-02   -.145E-09 -.121E-08 -.263E-06
 
 
 POSITION                                       TOTAL-FORCE (eV/Angst)
 -----------------------------------------------------------------------------------
     -0.50023      0.52730      4.89290        -0.019785     -0.062983     -0.040181
      1.87433      1.55155      4.89290         0.000466      0.000776     -0.047487
      4.25806      2.57976      4.89290         0.002293      0.000481     -0.044358
      6.64179      3.60797      4.89290         0.002281      0.000588     -0.044903
      9.02553      4.63618      4.89290         0.001089     -0.001197     -0.042623
     -2.88250      1.57701      4.89290         0.000845      0.001886     -0.043296
     -0.49876      2.60522      4.89290         0.001919      0.013836     -0.044283
      1.88497      3.63343      4.89290         0.001449      0.001477     -0.044501
      4.26870      4.66163      4.89290         0.001657      0.000056     -0.044791
      6.65244      5.68984      4.89290        -0.000256      0.000035     -0.044878
     -5.25559      2.63067      4.89290         0.002016     -0.000201     -0.044722
     -2.87185      3.65888      4.89290         0.000849      0.000110     -0.044283
     -0.48812      4.68709      4.89290         0.002301     -0.001621     -0.045056
      1.89561      5.71530      4.89290         0.001068     -0.000114     -0.044370
      4.27935      6.74351      4.89290         0.001873      0.000317     -0.044798
     -7.62868      3.68434      4.89290         0.001948     -0.000098     -0.044439
     -5.24494      4.71255      4.89290         0.001830      0.000428     -0.044252
     -2.86121      5.74076      4.89290         0.001064     -0.000108     -0.044814
     -0.47748      6.76897      4.89290         0.002159     -0.001295     -0.044999
      1.90626      7.79718      4.89290         0.000935     -0.000070     -0.044471
    -10.00177      4.73801      4.89290         0.001744     -0.000030     -0.046191
     -7.61803      5.76622      4.89290        -0.000286      0.000033     -0.044386
     -5.23430      6.79443      4.89290         0.001715     -0.000061     -0.044258
     -2.85057      7.82264      4.89290         0.001530      0.001285     -0.045043
     -0.46683      8.85085      4.89290         0.000658      0.016964     -0.046460
      0.52005      1.55854      3.10710         0.001049      0.000281      0.042804
      2.90379      2.58675      3.10710        -0.000517     -0.000005      0.044241
      5.28752      3.61496      3.10710        -0.001831     -0.000291      0.044768
      7.67125      4.64316      3.10710        -0.001279     -0.000104      0.044919
     10.05499      5.67137      3.10710         0.004372      0.000811      0.051177
     -1.85304      2.61220      3.10710        -0.002130     -0.000917      0.045164
      0.53070      3.64041      3.10710        -0.001248      0.001764      0.043757
      2.91443      4.66862      3.10710        -0.000936      0.000095      0.044493
      5.29817      5.69683      3.10710        -0.001927      0.000217      0.044910
      7.68190      6.72504      3.10710        -0.001198      0.000099      0.044776
     -4.22613      3.66587      3.10710        -0.001644     -0.000433      0.044669
     -1.84239      4.69408      3.10710        -0.001458     -0.001072      0.044701
      0.54134      5.72229      3.10710        -0.001624      0.001319      0.044361
      2.92508      6.75050      3.10710        -0.000869      0.000217      0.044620
      5.30881      7.77871      3.10710        -0.001782     -0.000193      0.044640
     -6.59922      4.71954      3.10710        -0.002012     -0.000701      0.044482
     -4.21548      5.74775      3.10710        -0.001193     -0.000227      0.044562
     -1.83175      6.77596      3.10710        -0.001354     -0.000844      0.044978
      0.55199      7.80417      3.10710        -0.001867      0.000363      0.044466
      2.93572      8.83238      3.10710        -0.000625     -0.000239      0.044101
     -8.97231      5.77321      3.10710         0.000785     -0.000798      0.044070
     -6.58857      6.80142      3.10710        -0.001624      0.000171      0.044432
     -4.20484      7.82962      3.10710        -0.001533     -0.000182      0.044989
     -1.82110      8.85783      3.10710        -0.001861     -0.000307      0.044068
      0.56263      9.88604      3.10710         0.000383     -0.001197      0.041782
     -0.54573      1.56457      5.89642         0.004496      0.012696     -0.025590
      1.83800      2.59278      5.89642         0.004308     -0.000308     -0.035233
      4.22174      3.62099      5.89642         0.003720     -0.000552     -0.035256
      6.60547      4.64919      5.89642         0.004088     -0.000568     -0.035138
      8.98920      5.67740      5.89642         0.005826     -0.000355     -0.037488
     -2.91882      2.61823      5.89642         0.003883     -0.000768     -0.035286
     -0.53509      3.64644      5.89642         0.003783     -0.000191     -0.034756
      1.84865      4.67465      5.89642         0.003922     -0.000381     -0.035367
      4.23238      5.70286      5.89642         0.003582     -0.000583     -0.035207
      6.61611      6.73107      5.89642         0.004231     -0.000606     -0.035186
     -5.29191      3.67190      5.89642         0.003901     -0.000613     -0.035129
     -2.90818      4.70011      5.89642         0.003765     -0.000644     -0.035093
     -0.52444      5.72832      5.89642         0.003824      0.000354     -0.035156
      1.85929      6.75653      5.89642         0.003889     -0.000636     -0.035322
      4.24302      7.78474      5.89642         0.003892     -0.000577     -0.035297
     -7.66500      4.72557      5.89642         0.004317     -0.000583     -0.035195
     -5.28127      5.75378      5.89642         0.003518     -0.000571     -0.035253
     -2.89753      6.78199      5.89642         0.003908     -0.000337     -0.035016
     -0.51380      7.81020      5.89642         0.003904     -0.000193     -0.035365
      1.86993      8.83841      5.89642         0.004065     -0.000779     -0.035255
    -10.03809      5.77924      5.89642         0.003604     -0.000325     -0.033459
     -7.65436      6.80744      5.89642         0.004150     -0.000599     -0.035244
     -5.27062      7.83565      5.89642         0.003687     -0.000535     -0.035175
     -2.88689      8.86386      5.89642         0.003983     -0.000337     -0.035231
     -0.50315      9.89207      5.89642         0.006404      0.015248     -0.046001
      0.55638      0.51731      2.10358        -0.003282      0.000334      0.034779
      2.94011      1.54552      2.10358        -0.003835      0.000710      0.035303
      5.32384      2.57373      2.10358        -0.003832      0.000541      0.035300
      7.70758      3.60194      2.10358        -0.003786      0.000494      0.035102
     10.09131      4.63015      2.10358        -0.002680      0.000693      0.034531
     -1.81671      1.57098      2.10358        -0.003527     -0.000261      0.034728
      0.56702      2.59919      2.10358        -0.003846      0.001692      0.036137
      2.95075      3.62740      2.10358        -0.004198      0.000493      0.035262
      5.33449      4.65560      2.10358        -0.003625      0.000448      0.035231
      7.71822      5.68381      2.10358        -0.003120      0.000424      0.035210
     -4.18980      2.62464      2.10358        -0.003834      0.000628      0.035120
     -1.80607      3.65285      2.10358        -0.003806      0.000937      0.035162
      0.57766      4.68106      2.10358        -0.003728      0.000008      0.035324
      2.96140      5.70927      2.10358        -0.004148      0.000378      0.035221
      5.34513      6.73748      2.10358        -0.003616      0.000545      0.035240
     -6.56289      3.67831      2.10358        -0.003747      0.000670      0.035230
     -4.17916      4.70652      2.10358        -0.003896      0.000755      0.035143
     -1.79543      5.73473      2.10358        -0.003567      0.000878      0.035282
      0.58831      6.76294      2.10358        -0.003770      0.000188      0.035100
      2.97204      7.79115      2.10358        -0.004035      0.000583      0.035167
     -8.93598      4.73198      2.10358        -0.003898      0.000742      0.035250
     -6.55225      5.76019      2.10358        -0.003615      0.000689      0.035222
     -4.16852      6.78840      2.10358        -0.003757      0.000624      0.035175
     -1.78478      7.81661      2.10358        -0.003734      0.000787      0.035485
      0.59895      8.84482      2.10358        -0.003201      0.000438      0.034907
 -----------------------------------------------------------------------------------
    total drift:                                0.000000      0.000000      0.000001


--------------------------------------------------------------------------------------------------------



  FREE ENERGIE OF THE ION-ELECTRON SYSTEM (eV)
  ---------------------------------------------------
  free  energy   TOTEN  =      -356.83582130 eV

  energy  without entropy=     -356.76550849  energy(sigma->0) =     -356.80066490
 


--------------------------------------------------------------------------------------------------------


    POTLOK:  cpu time      0.4162: real time      0.4190


--------------------------------------------------------------------------------------------------------


     LOOP+:  cpu time   1421.6288: real time   1434.0469
 vacuum level on the upper side and lower side of the slab         1.078         1.078
    4ORBIT:  cpu time      0.0000: real time      0.0000

 total amount of memory used by VASP MPI-rank0   236787. kBytes
=======================================================================

   base                                    :      30000. kBytes
   nonl-proj                               :      77121. kBytes
   fftplans                                :      29891. kBytes
   grid                                    :      45422. kBytes
   one-center                              :         46. kBytes
   wavefun                                 :      54307. kBytes
 
  
  
 General timing and accounting informations for this job:
 ========================================================
  
                  Total CPU time used (sec):     1434.858
                            User time (sec):     1360.154
                          System time (sec):       74.704
                         Elapsed time (sec):     1447.836
  
                   Maximum memory used (kb):     1174448.
                   Average memory used (kb):          N/A
  
                          Minor page faults:       258400
                          Major page faults:          112
                 Voluntary context switches:         1743
