 running   42 mpi-ranks, on    1 nodes
 distrk:  each k-point on   42 cores,    1 groups
 distr:  one band on    7 cores,    6 groups
 vasp.6.5.0 16Dec24 (build Jan 08 2025 16:17:04) complex                        
  
 POSCAR found type information on POSCAR BeH 
 POSCAR found :  2 types and      75 ions
 Reading from existing POTCAR
 scaLAPACK will be used
 Reading from existing POTCAR
 -----------------------------------------------------------------------------
|                                                                             |
|               ----> ADVICE to this user running VASP <----                  |
|                                                                             |
|     You have a (more or less) 'large supercell' and for larger cells it     |
|     might be more efficient to use real-space projection operators.         |
|     Therefore, try LREAL= Auto in the INCAR file.                           |
|     Mind: For very accurate calculation, you might also keep the            |
|     reciprocal projection scheme (i.e. LREAL=.FALSE.).                      |
|                                                                             |
 -----------------------------------------------------------------------------

 LDA part: xc-table for (Slater+PW92), standard interpolation
 POSCAR, INCAR and KPOINTS ok, starting setup
 FFT: planning ... GRIDC
 FFT: planning ... GRID_SOFT
 FFT: planning ... GRID
 WAVECAR not read
 entering main loop
       N       E                     dE             d eps       ncg     rms          rms(c)
DAV:   1     0.613702892152E+03    0.61370E+03   -0.26137E+04  1548   0.745E+02
DAV:   2    -0.150802820147E+03   -0.76451E+03   -0.72638E+03  2340   0.154E+02
DAV:   3    -0.270832673676E+03   -0.12003E+03   -0.11908E+03  1920   0.695E+01
DAV:   4    -0.274440194273E+03   -0.36075E+01   -0.35923E+01  1836   0.142E+01
DAV:   5    -0.274515308069E+03   -0.75114E-01   -0.74965E-01  1992   0.176E+00    0.188E+01
DAV:   6    -0.266049690352E+03    0.84656E+01   -0.33968E+00  1674   0.373E+00    0.110E+01
DAV:   7    -0.260497660698E+03    0.55520E+01   -0.82682E+00  1626   0.605E+00    0.143E+00
DAV:   8    -0.260309429374E+03    0.18823E+00   -0.46177E-01  1650   0.131E+00    0.655E-01
DAV:   9    -0.260185344448E+03    0.12408E+00   -0.80460E-02  1722   0.548E-01    0.307E-01
DAV:  10    -0.260187750923E+03   -0.24065E-02   -0.68410E-02  1614   0.464E-01    0.259E-01
DAV:  11    -0.260165516527E+03    0.22234E-01   -0.10674E-02  1686   0.211E-01    0.870E-02
DAV:  12    -0.260200030959E+03   -0.34514E-01   -0.59397E-03  1572   0.136E-01    0.415E-02
DAV:  13    -0.260214533454E+03   -0.14502E-01   -0.27702E-03  1728   0.953E-02    0.252E-02
