Geometry                                
           1
     4.367491    0.000000    0.000000
     0.000000    4.367491    0.000000
     0.000000    0.000000   40.000000
   Be   H 
    12     1
Direct configuration=     1
   0.00000000  0.00000000  0.12000000
   0.50000000  0.00000000  0.12000000
   0.00000000  0.50000000  0.12000000
   0.50000000  0.50000000  0.12000000
   0.25000000  0.25000000  0.08000000
   0.25000000  0.75000000  0.08000000
   0.75000000  0.25000000  0.08000000
   0.75000000  0.75000000  0.08000000
   0.00000000  0.00000000  0.04000000
   0.50000000  0.00000000  0.04000000
   0.00000000  0.50000000  0.04000000
   0.50000000  0.50000000  0.04000000
   0.25000000  0.25000000  0.16000000
Geometry                                
           1
     4.330062   -0.000000    0.000000
     0.000000    4.330062    0.000000
     0.000000    0.000000   40.000000
   Be   H 
    12     1
Direct configuration=     2
   0.00235875  0.00235875  0.11991555
   0.49764125  0.00235875  0.11991555
   0.00235875  0.49764125  0.11991555
   0.49764125  0.49764125  0.11991555
   0.25000000  0.25000000  0.08024775
   0.25000000  0.75000000  0.08035337
   0.75000000  0.25000000  0.08035337
   0.75000000  0.75000000  0.07964050
   0.00058489  0.00058489  0.04039420
   0.49941511  0.00058489  0.04039420
   0.00058489  0.49941511  0.04039420
   0.49941511  0.49941511  0.04039420
   0.25000000  0.25000000  0.15816601
Geometry                                
           1
     4.253327   -0.000000    0.000000
     0.000000    4.253327    0.000000
     0.000000    0.000000   40.000000
   Be   H 
    12     1
Direct configuration=     3
   0.00723643  0.00723643  0.11974241
   0.49276357  0.00723643  0.11974241
   0.00723643  0.49276357  0.11974241
   0.49276357  0.49276357  0.11974241
   0.25000000  0.25000000  0.08075567
   0.25000000  0.75000000  0.08107784
   0.75000000  0.25000000  0.08107784
   0.75000000  0.75000000  0.07890347
   0.00179438  0.00179438  0.04120239
   0.49820562  0.00179438  0.04120239
   0.00179438  0.49820562  0.04120239
   0.49820562  0.49820562  0.04120239
   0.25000000  0.25000000  0.15440598
Geometry                                
           1
     4.259047   -0.000000    0.000000
     0.000000    4.259047    0.000000
     0.000000    0.000000   40.000000
   Be   H 
    12     1
Direct configuration=     4
   0.00625232  0.00625232  0.11981090
   0.49374768  0.00625232  0.11981090
   0.00625232  0.49374768  0.11981090
   0.49374768  0.49374768  0.11981090
   0.25000000  0.25000000  0.08093292
   0.25000000  0.75000000  0.08133539
   0.75000000  0.25000000  0.08133539
   0.75000000  0.75000000  0.07886101
   0.00206279  0.00206279  0.04148159
   0.49793721  0.00206279  0.04148159
   0.00206279  0.49793721  0.04148159
   0.49793721  0.49793721  0.04148159
   0.25000000  0.25000000  0.15236528
Geometry                                
           1
     4.276209   -0.000000    0.000000
     0.000000    4.276209    0.000000
     0.000000    0.000000   40.000000
   Be   H 
    12     1
Direct configuration=     5
   0.00330396  0.00330396  0.12001640
   0.49669604  0.00330396  0.12001640
   0.00330396  0.49669604  0.12001640
   0.49669604  0.49669604  0.12001640
   0.25000000  0.25000000  0.08146467
   0.25000000  0.75000000  0.08210805
   0.75000000  0.25000000  0.08210805
   0.75000000  0.75000000  0.07873364
   0.00286696  0.00286696  0.04231921
   0.49713304  0.00286696  0.04231921
   0.00286696  0.49713304  0.04231921
   0.49713304  0.49713304  0.04231921
   0.25000000  0.25000000  0.14624318
Geometry                                
           1
     4.283843   -0.000000    0.000000
     0.000000    4.283843    0.000000
     0.000000    0.000000   40.000000
   Be   H 
    12     1
Direct configuration=     6
   0.00199765  0.00199765  0.12010781
   0.49800235  0.00199765  0.12010781
   0.00199765  0.49800235  0.12010781
   0.49800235  0.49800235  0.12010781
   0.25000000  0.25000000  0.08170122
   0.25000000  0.75000000  0.08245176
   0.75000000  0.25000000  0.08245176
   0.75000000  0.75000000  0.07867698
   0.00322326  0.00322326  0.04269182
   0.49677674  0.00322326  0.04269182
   0.00322326  0.49677674  0.04269182
   0.49677674  0.49677674  0.04269182
   0.25000000  0.25000000  0.14351976
Geometry                                
           1
     4.304450   -0.000000    0.000000
     0.000000    4.304450    0.000000
     0.000000    0.000000   40.000000
   Be   H 
    12     1
Direct configuration=     7
   0.00031611  0.00031611  0.12029325
   0.49968389  0.00031611  0.12029325
   0.00031611  0.49968389  0.12029325
   0.49968389  0.49968389  0.12029325
   0.25000000  0.25000000  0.08138948
   0.25000000  0.75000000  0.08223736
   0.75000000  0.25000000  0.08223736
   0.75000000  0.75000000  0.07945960
   0.00194988  0.00194988  0.04246447
   0.49805012  0.00194988  0.04246447
   0.00194988  0.49805012  0.04246447
   0.49805012  0.49805012  0.04246447
   0.25000000  0.25000000  0.14364531
Geometry                                
           1
     4.316585   -0.000000    0.000000
     0.000000    4.316585    0.000000
     0.000000    0.000000   40.000000
   Be   H 
    12     1
Direct configuration=     8
   0.99933067  0.99933067  0.12040245
   0.50066933  0.99933067  0.12040245
   0.99933067  0.50066933  0.12040245
   0.50066933  0.50066933  0.12040245
   0.25000000  0.25000000  0.08120591
   0.25000000  0.75000000  0.08211111
   0.75000000  0.25000000  0.08211111
   0.75000000  0.75000000  0.07992044
   0.00120363  0.00120363  0.04233060
   0.49879637  0.00120363  0.04233060
   0.00120363  0.49879637  0.04233060
   0.49879637  0.49879637  0.04233060
   0.25000000  0.25000000  0.14371924
Geometry                                
           1
     4.308555   -0.000000    0.000000
     0.000000    4.308555    0.000000
     0.000000    0.000000   40.000000
   Be   H 
    12     1
Direct configuration=     9
   0.00002146  0.00002146  0.12051701
   0.49997854  0.00002146  0.12051701
   0.00002146  0.49997854  0.12051701
   0.49997854  0.49997854  0.12051701
   0.25000000  0.25000000  0.08102567
   0.25000000  0.75000000  0.08208176
   0.75000000  0.25000000  0.08208176
   0.75000000  0.75000000  0.08028292
   0.00063893  0.00063893  0.04222954
   0.49936107  0.00063893  0.04222954
   0.00063893  0.49936107  0.04222954
   0.49936107  0.49936107  0.04222954
   0.25000000  0.25000000  0.14354168
Geometry                                
           1
     4.301608   -0.000000    0.000000
     0.000000    4.301608    0.000000
     0.000000    0.000000   40.000000
   Be   H 
    12     1
Direct configuration=    10
   0.00062022  0.00062022  0.12061612
   0.49937978  0.00062022  0.12061612
   0.00062022  0.49937978  0.12061612
   0.49937978  0.49937978  0.12061612
   0.25000000  0.25000000  0.08086974
   0.25000000  0.75000000  0.08205637
   0.75000000  0.25000000  0.08205637
   0.75000000  0.75000000  0.08059652
   0.00014945  0.00014945  0.04214212
   0.49985055  0.00014945  0.04214212
   0.00014945  0.49985055  0.04214212
   0.49985055  0.49985055  0.04214212
   0.25000000  0.25000000  0.14338807
Geometry                                
           1
     4.301145   -0.000000    0.000000
     0.000000    4.301145    0.000000
     0.000000    0.000000   40.000000
   Be   H 
    12     1
Direct configuration=    11
   0.00066019  0.00066019  0.12062272
   0.49933981  0.00066019  0.12062272
   0.00066019  0.49933981  0.12062272
   0.49933981  0.49933981  0.12062272
   0.25000000  0.25000000  0.08085935
   0.25000000  0.75000000  0.08205467
   0.75000000  0.25000000  0.08205467
   0.75000000  0.75000000  0.08061742
   0.00011678  0.00011678  0.04213629
   0.49988322  0.00011678  0.04213629
   0.00011678  0.49988322  0.04213629
   0.49988322  0.49988322  0.04213629
   0.25000000  0.25000000  0.14337784
Geometry                                
           1
     4.300114   -0.000000    0.000000
     0.000000    4.300114    0.000000
     0.000000    0.000000   40.000000
   Be   H 
    12     1
Direct configuration=    12
   0.00036250  0.00036250  0.12066463
   0.49963750  0.00036250  0.12066463
   0.00036250  0.49963750  0.12066463
   0.49963750  0.49963750  0.12066463
   0.25000000  0.25000000  0.08084424
   0.25000000  0.75000000  0.08212177
   0.75000000  0.25000000  0.08212177
   0.75000000  0.75000000  0.08065066
   0.00026819  0.00026819  0.04209571
   0.49973181  0.00026819  0.04209571
   0.00026819  0.49973181  0.04209571
   0.49973181  0.49973181  0.04209571
   0.25000000  0.25000000  0.14322020
Geometry                                
           1
     4.298622   -0.000000    0.000000
     0.000000    4.298622    0.000000
     0.000000    0.000000   40.000000
   Be   H 
    12     1
Direct configuration=    13
   0.99993136  0.99993136  0.12072531
   0.50006864  0.99993136  0.12072531
   0.99993136  0.50006864  0.12072531
   0.50006864  0.50006864  0.12072531
   0.25000000  0.25000000  0.08082238
   0.25000000  0.75000000  0.08221891
   0.75000000  0.25000000  0.08221891
   0.75000000  0.75000000  0.08069878
   0.00048748  0.00048748  0.04203696
   0.49951252  0.00048748  0.04203696
   0.00048748  0.49951252  0.04203696
   0.49951252  0.49951252  0.04203696
   0.25000000  0.25000000  0.14299195
Geometry                                
           1
     4.298415   -0.000000    0.000000
     0.000000    4.298415    0.000000
     0.000000    0.000000   40.000000
   Be   H 
    12     1
Direct configuration=    14
   0.99997917  0.99997917  0.12078005
   0.50002083  0.99997917  0.12078005
   0.99997917  0.50002083  0.12078005
   0.50002083  0.50002083  0.12078005
   0.25000000  0.25000000  0.08089207
   0.25000000  0.75000000  0.08223484
   0.75000000  0.25000000  0.08223484
   0.75000000  0.75000000  0.08062136
   0.00032354  0.00032354  0.04202391
   0.49967646  0.00032354  0.04202391
   0.00032354  0.49967646  0.04202391
   0.49967646  0.49967646  0.04202391
   0.25000000  0.25000000  0.14280104
Geometry                                
           1
     4.298373   -0.000000    0.000000
     0.000000    4.298373    0.000000
     0.000000    0.000000   40.000000
   Be   H 
    12     1
Direct configuration=    15
   0.99998869  0.99998869  0.12079096
   0.50001131  0.99998869  0.12079096
   0.99998869  0.50001131  0.12079096
   0.50001131  0.50001131  0.12079096
   0.25000000  0.25000000  0.08090596
   0.25000000  0.75000000  0.08223802
   0.75000000  0.25000000  0.08223802
   0.75000000  0.75000000  0.08060593
   0.00029087  0.00029087  0.04202131
   0.49970913  0.00029087  0.04202131
   0.00029087  0.49970913  0.04202131
   0.49970913  0.49970913  0.04202131
   0.25000000  0.25000000  0.14276300
Geometry                                
           1
     4.298352   -0.000000    0.000000
     0.000000    4.298352    0.000000
     0.000000    0.000000   40.000000
   Be   H 
    12     1
Direct configuration=    16
   0.99990721  0.99990721  0.12079740
   0.50009279  0.99990721  0.12079740
   0.99990721  0.50009279  0.12079740
   0.50009279  0.50009279  0.12079740
   0.25000000  0.25000000  0.08091091
   0.25000000  0.75000000  0.08221751
   0.75000000  0.25000000  0.08221751
   0.75000000  0.75000000  0.08058852
   0.00038656  0.00038656  0.04203845
   0.49961344  0.00038656  0.04203845
   0.00038656  0.49961344  0.04203845
   0.49961344  0.49961344  0.04203845
   0.25000000  0.25000000  0.14272214
Geometry                                
           1
     4.298347   -0.000000    0.000000
     0.000000    4.298347    0.000000
     0.000000    0.000000   40.000000
   Be   H 
    12     1
Direct configuration=    17
   0.99988757  0.99988757  0.12079895
   0.50011243  0.99988757  0.12079895
   0.99988757  0.50011243  0.12079895
   0.50011243  0.50011243  0.12079895
   0.25000000  0.25000000  0.08091210
   0.25000000  0.75000000  0.08221256
   0.75000000  0.25000000  0.08221256
   0.75000000  0.75000000  0.08058433
   0.00040961  0.00040961  0.04204258
   0.49959039  0.00040961  0.04204258
   0.00040961  0.49959039  0.04204258
   0.49959039  0.49959039  0.04204258
   0.25000000  0.25000000  0.14271230
Geometry                                
           1
     4.298346   -0.000000    0.000000
     0.000000    4.298346    0.000000
     0.000000    0.000000   40.000000
   Be   H 
    12     1
Direct configuration=    18
   0.99988502  0.99988502  0.12079915
   0.50011498  0.99988502  0.12079915
   0.99988502  0.50011498  0.12079915
   0.50011498  0.50011498  0.12079915
   0.25000000  0.25000000  0.08091226
   0.25000000  0.75000000  0.08221192
   0.75000000  0.25000000  0.08221192
   0.75000000  0.75000000  0.08058379
   0.00041261  0.00041261  0.04204312
   0.49958739  0.00041261  0.04204312
   0.00041261  0.49958739  0.04204312
   0.49958739  0.49958739  0.04204312
   0.25000000  0.25000000  0.14271102
Geometry                                
           1
     4.298347   -0.000000    0.000000
     0.000000    4.298347    0.000000
     0.000000    0.000000   40.000000
   Be   H 
    12     1
Direct configuration=    19
   0.99988653  0.99988653  0.12079904
   0.50011347  0.99988653  0.12079904
   0.99988653  0.50011347  0.12079904
   0.50011347  0.50011347  0.12079904
   0.25000000  0.25000000  0.08091217
   0.25000000  0.75000000  0.08221230
   0.75000000  0.25000000  0.08221230
   0.75000000  0.75000000  0.08058411
   0.00041084  0.00041084  0.04204280
   0.49958916  0.00041084  0.04204280
   0.00041084  0.49958916  0.04204280
   0.49958916  0.49958916  0.04204280
   0.25000000  0.25000000  0.14271178
Geometry                                
           1
     4.298384   -0.000000    0.000000
     0.000000    4.298384    0.000000
     0.000000    0.000000   40.000000
   Be   H 
    12     1
Direct configuration=    20
   0.99988901  0.99988901  0.12079299
   0.50011099  0.99988901  0.12079299
   0.99988901  0.50011099  0.12079299
   0.50011099  0.50011099  0.12079299
   0.25000000  0.25000000  0.08091374
   0.25000000  0.75000000  0.08221295
   0.75000000  0.25000000  0.08221295
   0.75000000  0.75000000  0.08058373
   0.00038604  0.00038604  0.04205119
   0.49961396  0.00038604  0.04205119
   0.00038604  0.49961396  0.04205119
   0.49961396  0.49961396  0.04205119
   0.25000000  0.25000000  0.14269991
Geometry                                
           1
     4.298420   -0.000000    0.000000
     0.000000    4.298420    0.000000
     0.000000    0.000000   40.000000
   Be   H 
    12     1
Direct configuration=    21
   0.99989135  0.99989135  0.12078728
   0.50010865  0.99989135  0.12078728
   0.99989135  0.50010865  0.12078728
   0.50010865  0.50010865  0.12078728
   0.25000000  0.25000000  0.08091523
   0.25000000  0.75000000  0.08221356
   0.75000000  0.25000000  0.08221356
   0.75000000  0.75000000  0.08058337
   0.00036262  0.00036262  0.04205912
   0.49963738  0.00036262  0.04205912
   0.00036262  0.49963738  0.04205912
   0.49963738  0.49963738  0.04205912
   0.25000000  0.25000000  0.14268871
Geometry                                
           1
     4.298788    0.000000    0.000000
     0.000000    4.298788    0.000000
     0.000000    0.000000   40.000000
   Be   H 
    12     1
Direct configuration=    22
   0.99990308  0.99990308  0.12078081
   0.50009692  0.99990308  0.12078081
   0.99990308  0.50009692  0.12078081
   0.50009692  0.50009692  0.12078081
   0.25000000  0.25000000  0.08091116
   0.25000000  0.75000000  0.08221686
   0.75000000  0.25000000  0.08221686
   0.75000000  0.75000000  0.08059258
   0.00038352  0.00038352  0.04206416
   0.49961648  0.00038352  0.04206416
   0.00038352  0.49961648  0.04206416
   0.49961648  0.49961648  0.04206416
   0.25000000  0.25000000  0.14268266
Geometry                                
           1
     4.298770   -0.000000    0.000000
     0.000000    4.298770    0.000000
     0.000000    0.000000   40.000000
   Be   H 
    12     1
Direct configuration=    23
   0.99990248  0.99990248  0.12078114
   0.50009752  0.99990248  0.12078114
   0.99990248  0.50009752  0.12078114
   0.50009752  0.50009752  0.12078114
   0.25000000  0.25000000  0.08091137
   0.25000000  0.75000000  0.08221669
   0.75000000  0.25000000  0.08221669
   0.75000000  0.75000000  0.08059211
   0.00038244  0.00038244  0.04206390
   0.49961756  0.00038244  0.04206390
   0.00038244  0.49961756  0.04206390
   0.49961756  0.49961756  0.04206390
   0.25000000  0.25000000  0.14268297
Geometry                                
           1
     4.298761   -0.000000    0.000000
     0.000000    4.298761    0.000000
     0.000000    0.000000   40.000000
   Be   H 
    12     1
Direct configuration=    24
   0.99990220  0.99990220  0.12078129
   0.50009780  0.99990220  0.12078129
   0.99990220  0.50009780  0.12078129
   0.50009780  0.50009780  0.12078129
   0.25000000  0.25000000  0.08091146
   0.25000000  0.75000000  0.08221662
   0.75000000  0.25000000  0.08221662
   0.75000000  0.75000000  0.08059189
   0.00038195  0.00038195  0.04206378
   0.49961805  0.00038195  0.04206378
   0.00038195  0.49961805  0.04206378
   0.49961805  0.49961805  0.04206378
   0.25000000  0.25000000  0.14268311
Geometry                                
           1
     4.298723    0.000000    0.000000
     0.000000    4.298723    0.000000
     0.000000    0.000000   40.000000
   Be   H 
    12     1
Direct configuration=    25
   0.99990294  0.99990294  0.12077983
   0.50009706  0.99990294  0.12077983
   0.99990294  0.50009706  0.12077983
   0.50009706  0.50009706  0.12077983
   0.25000000  0.25000000  0.08091104
   0.25000000  0.75000000  0.08221664
   0.75000000  0.25000000  0.08221664
   0.75000000  0.75000000  0.08059578
   0.00037456  0.00037456  0.04206438
   0.49962544  0.00037456  0.04206438
   0.00037456  0.49962544  0.04206438
   0.49962544  0.49962544  0.04206438
   0.25000000  0.25000000  0.14268302
