   32   32  421    1
  0.2344703E+03  0.1471714E-08  0.1471714E-08  0.4000000E-08  0.1500000E-16
  1.000000000000000E-004
  CAR 
 phonon_dispersion                       
     64      1     60
 
  0.1276756E-14  0.1276756E-14  0.1276756E-14  0.1000000E+01
      1         -8.936497   1.000000
      2         -8.237008   1.000000
      3         -8.236963   1.000000
      4         -8.236949   1.000000
      5         -8.236885   1.000000
      6         -8.236876   1.000000
      7         -8.236846   1.000000
      8         -6.872764   1.000000
      9         -6.872763   1.000000
     10         -6.872757   1.000000
     11         -6.872750   1.000000
     12         -6.872739   1.000000
     13         -6.872736   1.000000
     14         -6.314200   1.000000
     15         -6.314194   1.000000
     16         -6.314190   1.000000
     17         -6.058828   1.000000
     18         -6.058823   1.000000
     19         -6.058819   1.000000
     20         -4.527419   1.000000
     21         -4.527399   1.000000
     22         -4.527387   1.000000
     23         -4.527381   1.000000
     24         -4.527334   1.000000
     25         -4.527329   1.000000
     26         -4.264549   1.000000
     27         -4.025023   1.000000
     28         -4.025016   1.000000
     29         -4.024959   1.000000
     30         -4.024954   1.000000
     31         -4.024941   1.000000
     32         -4.024934   1.000000
     33         -3.427306   0.000000
     34         -3.427260   0.000000
     35         -3.427248   0.000000
     36         -3.427186   0.000000
     37         -3.427183   0.000000
     38         -3.427146   0.000000
     39         -3.092254   0.000000
     40         -3.092247   0.000000
     41         -3.092240   0.000000
     42         -3.092226   0.000000
     43         -3.092214   0.000000
     44         -3.092205   0.000000
     45         -2.585358   0.000000
     46         -2.585351   0.000000
     47         -2.585349   0.000000
     48         -1.902090   0.000000
     49         -1.902070   0.000000
     50         -1.901725   0.000000
     51         -1.901711   0.000000
     52         -1.901694   0.000000
     53         -1.901691   0.000000
     54         -1.854464   0.000000
     55         -1.854441   0.000000
     56         -1.854417   0.000000
     57         -1.854400   0.000000
     58         -1.854070   0.000000
     59         -1.854036   0.000000
     60         -1.594915   0.000000
