  75  75   0   0
  0.5815946E+02  0.1161106E-08  0.1054012E-08  0.4000000E-08  0.5000000E-15
  1.000000000000000E-004
  CAR 
 Phonopy                                 
      2.59456829    -15.28217959  301     -3.62454969      1.00000000
    -15.282  0.0000E+00  0.0000E+00
    -15.223  0.0000E+00  0.0000E+00
    -15.163  0.0000E+00  0.0000E+00
    -15.103  0.0000E+00  0.0000E+00
    -15.044  0.0000E+00  0.0000E+00
    -14.984  0.0000E+00  0.0000E+00
    -14.925  0.0000E+00  0.0000E+00
    -14.865  0.8820E-16  0.5255E-17
    -14.805  0.6402E-13  0.3820E-14
    -14.746  0.2881E-10  0.1721E-11
    -14.686  0.6543E-08  0.3916E-09
    -14.627  0.7547E-06  0.4536E-07
    -14.567  0.4456E-04  0.2701E-05
    -14.508  0.1362E-02  0.8384E-04
    -14.448  0.2185E-01  0.1386E-02
    -14.388  0.1881E+00  0.1259E-01
    -14.329  0.8966E+00  0.6602E-01
    -14.269  0.2493E+01  0.2146E+00
    -14.210  0.4402E+01  0.4769E+00
    -14.150  0.5616E+01  0.8116E+00
    -14.090  0.6028E+01  0.1171E+01
    -14.031  0.6106E+01  0.1535E+01
    -13.971  0.6118E+01  0.1899E+01
    -13.912  0.6124E+01  0.2264E+01
    -13.852  0.6130E+01  0.2629E+01
    -13.792  0.6136E+01  0.2995E+01
    -13.733  0.6142E+01  0.3361E+01
    -13.673  0.6149E+01  0.3727E+01
    -13.614  0.6153E+01  0.4094E+01
    -13.554  0.6163E+01  0.4461E+01
    -13.495  0.6164E+01  0.4829E+01
    -13.435  0.6178E+01  0.5197E+01
    -13.375  0.6179E+01  0.5565E+01
    -13.316  0.6183E+01  0.5933E+01
    -13.256  0.6211E+01  0.6304E+01
    -13.197  0.6177E+01  0.6672E+01
    -13.137  0.6234E+01  0.7043E+01
    -13.077  0.6214E+01  0.7413E+01
    -13.018  0.6192E+01  0.7782E+01
    -12.958  0.6292E+01  0.8157E+01
    -12.899  0.6200E+01  0.8527E+01
    -12.839  0.6227E+01  0.8898E+01
    -12.779  0.6346E+01  0.9276E+01
    -12.720  0.6191E+01  0.9645E+01
    -12.660  0.6251E+01  0.1002E+02
    -12.601  0.6408E+01  0.1040E+02
    -12.541  0.6206E+01  0.1077E+02
    -12.481  0.6239E+01  0.1114E+02
    -12.422  0.6478E+01  0.1153E+02
    -12.362  0.6277E+01  0.1190E+02
    -12.303  0.6184E+01  0.1227E+02
    -12.243  0.6504E+01  0.1266E+02
    -12.184  0.6437E+01  0.1304E+02
    -12.124  0.6151E+01  0.1341E+02
    -12.064  0.6408E+01  0.1379E+02
    -12.005  0.6623E+01  0.1418E+02
    -11.945  0.6286E+01  0.1456E+02
    -11.886  0.6215E+01  0.1493E+02
    -11.826  0.6637E+01  0.1532E+02
    -11.766  0.6607E+01  0.1572E+02
    -11.707  0.6208E+01  0.1609E+02
    -11.647  0.6362E+01  0.1647E+02
    -11.588  0.6788E+01  0.1687E+02
    -11.528  0.6601E+01  0.1726E+02
    -11.468  0.6326E+01  0.1764E+02
    -11.409  0.7141E+01  0.1807E+02
    -11.349  0.8884E+01  0.1860E+02
    -11.290  0.1042E+02  0.1922E+02
    -11.230  0.1132E+02  0.1989E+02
    -11.171  0.1214E+02  0.2062E+02
    -11.111  0.1270E+02  0.2137E+02
    -11.051  0.1245E+02  0.2211E+02
    -10.992  0.1202E+02  0.2283E+02
    -10.932  0.1228E+02  0.2356E+02
    -10.873  0.1285E+02  0.2433E+02
    -10.813  0.1269E+02  0.2508E+02
    -10.753  0.1217E+02  0.2581E+02
    -10.694  0.1227E+02  0.2654E+02
    -10.634  0.1291E+02  0.2731E+02
    -10.575  0.1302E+02  0.2809E+02
    -10.515  0.1245E+02  0.2883E+02
    -10.455  0.1226E+02  0.2956E+02
    -10.396  0.1288E+02  0.3033E+02
    -10.336  0.1334E+02  0.3112E+02
    -10.277  0.1290E+02  0.3189E+02
    -10.217  0.1241E+02  0.3263E+02
    -10.158  0.1275E+02  0.3339E+02
    -10.098  0.1348E+02  0.3419E+02
    -10.038  0.1354E+02  0.3500E+02
     -9.979  0.1285E+02  0.3576E+02
     -9.919  0.1259E+02  0.3651E+02
     -9.860  0.1347E+02  0.3732E+02
     -9.800  0.1410E+02  0.3816E+02
     -9.740  0.1348E+02  0.3896E+02
     -9.681  0.1297E+02  0.3973E+02
     -9.621  0.1337E+02  0.4053E+02
     -9.562  0.1412E+02  0.4137E+02
     -9.502  0.1447E+02  0.4223E+02
     -9.442  0.1395E+02  0.4306E+02
     -9.383  0.1333E+02  0.4386E+02
     -9.323  0.1408E+02  0.4470E+02
     -9.264  0.1539E+02  0.4562E+02
     -9.204  0.1514E+02  0.4652E+02
     -9.144  0.1417E+02  0.4736E+02
     -9.085  0.1455E+02  0.4823E+02
     -9.025  0.1604E+02  0.4918E+02
     -8.966  0.1683E+02  0.5019E+02
     -8.906  0.1655E+02  0.5117E+02
     -8.847  0.1683E+02  0.5218E+02
     -8.787  0.1861E+02  0.5329E+02
     -8.727  0.1977E+02  0.5446E+02
     -8.668  0.1830E+02  0.5555E+02
     -8.608  0.1619E+02  0.5652E+02
     -8.549  0.1573E+02  0.5746E+02
     -8.489  0.1598E+02  0.5841E+02
     -8.429  0.1532E+02  0.5932E+02
     -8.370  0.1433E+02  0.6018E+02
     -8.310  0.1412E+02  0.6102E+02
     -8.251  0.1442E+02  0.6188E+02
     -8.191  0.1438E+02  0.6273E+02
     -8.131  0.1386E+02  0.6356E+02
     -8.072  0.1362E+02  0.6437E+02
     -8.012  0.1397E+02  0.6520E+02
     -7.953  0.1419E+02  0.6605E+02
     -7.893  0.1357E+02  0.6686E+02
     -7.834  0.1264E+02  0.6761E+02
     -7.774  0.1254E+02  0.6836E+02
     -7.714  0.1286E+02  0.6912E+02
     -7.655  0.1245E+02  0.6987E+02
     -7.595  0.1176E+02  0.7057E+02
     -7.536  0.1177E+02  0.7127E+02
     -7.476  0.1222E+02  0.7200E+02
     -7.416  0.1238E+02  0.7273E+02
     -7.357  0.1246E+02  0.7348E+02
     -7.297  0.1278E+02  0.7424E+02
     -7.238  0.1294E+02  0.7501E+02
     -7.178  0.1291E+02  0.7578E+02
     -7.118  0.1309E+02  0.7656E+02
     -7.059  0.1279E+02  0.7732E+02
     -6.999  0.1151E+02  0.7801E+02
     -6.940  0.1008E+02  0.7861E+02
     -6.880  0.9357E+01  0.7917E+02
     -6.821  0.9170E+01  0.7971E+02
     -6.761  0.8806E+01  0.8024E+02
     -6.701  0.8500E+01  0.8074E+02
     -6.642  0.9170E+01  0.8129E+02
     -6.582  0.1093E+02  0.8194E+02
     -6.523  0.1262E+02  0.8269E+02
     -6.463  0.1309E+02  0.8347E+02
     -6.403  0.1280E+02  0.8424E+02
     -6.344  0.1272E+02  0.8499E+02
     -6.284  0.1333E+02  0.8579E+02
     -6.225  0.1458E+02  0.8666E+02
     -6.165  0.1541E+02  0.8758E+02
     -6.105  0.1531E+02  0.8849E+02
     -6.046  0.1498E+02  0.8938E+02
     -5.986  0.1511E+02  0.9028E+02
     -5.927  0.1547E+02  0.9120E+02
     -5.867  0.1552E+02  0.9213E+02
     -5.808  0.1527E+02  0.9304E+02
     -5.748  0.1496E+02  0.9393E+02
     -5.688  0.1513E+02  0.9483E+02
     -5.629  0.1593E+02  0.9578E+02
     -5.569  0.1630E+02  0.9675E+02
     -5.510  0.1595E+02  0.9770E+02
     -5.450  0.1599E+02  0.9865E+02
     -5.390  0.1682E+02  0.9966E+02
     -5.331  0.1826E+02  0.1007E+03
     -5.271  0.1946E+02  0.1019E+03
     -5.212  0.1911E+02  0.1030E+03
     -5.152  0.1808E+02  0.1041E+03
     -5.092  0.1779E+02  0.1052E+03
     -5.033  0.1722E+02  0.1062E+03
     -4.973  0.1582E+02  0.1072E+03
     -4.914  0.1510E+02  0.1081E+03
     -4.854  0.1523E+02  0.1090E+03
     -4.794  0.1533E+02  0.1099E+03
     -4.735  0.1486E+02  0.1108E+03
     -4.675  0.1399E+02  0.1116E+03
     -4.616  0.1419E+02  0.1124E+03
     -4.556  0.1509E+02  0.1133E+03
     -4.497  0.1485E+02  0.1142E+03
     -4.437  0.1425E+02  0.1151E+03
     -4.377  0.1474E+02  0.1159E+03
     -4.318  0.1580E+02  0.1169E+03
     -4.258  0.1612E+02  0.1179E+03
     -4.199  0.1495E+02  0.1187E+03
     -4.139  0.1317E+02  0.1195E+03
     -4.079  0.1224E+02  0.1203E+03
     -4.020  0.1201E+02  0.1210E+03
     -3.960  0.1159E+02  0.1217E+03
     -3.901  0.1101E+02  0.1223E+03
     -3.841  0.1050E+02  0.1229E+03
     -3.781  0.9981E+01  0.1235E+03
     -3.722  0.9422E+01  0.1241E+03
     -3.662  0.9218E+01  0.1246E+03
     -3.603  0.9263E+01  0.1252E+03
     -3.543  0.8669E+01  0.1257E+03
     -3.484  0.7544E+01  0.1262E+03
     -3.424  0.6844E+01  0.1266E+03
     -3.364  0.6903E+01  0.1270E+03
     -3.305  0.7173E+01  0.1274E+03
     -3.245  0.6938E+01  0.1278E+03
     -3.186  0.6435E+01  0.1282E+03
     -3.126  0.6286E+01  0.1286E+03
     -3.066  0.6590E+01  0.1290E+03
     -3.007  0.6756E+01  0.1294E+03
     -2.947  0.6424E+01  0.1298E+03
     -2.888  0.6114E+01  0.1301E+03
     -2.828  0.6103E+01  0.1305E+03
     -2.768  0.6279E+01  0.1309E+03
     -2.709  0.6516E+01  0.1313E+03
     -2.649  0.6368E+01  0.1316E+03
     -2.590  0.5957E+01  0.1320E+03
     -2.530  0.5936E+01  0.1323E+03
     -2.471  0.6220E+01  0.1327E+03
     -2.411  0.6395E+01  0.1331E+03
     -2.351  0.6377E+01  0.1335E+03
     -2.292  0.6193E+01  0.1338E+03
     -2.232  0.5949E+01  0.1342E+03
     -2.173  0.5903E+01  0.1345E+03
     -2.113  0.6308E+01  0.1349E+03
     -2.053  0.6663E+01  0.1353E+03
     -1.994  0.6354E+01  0.1357E+03
     -1.934  0.5981E+01  0.1361E+03
     -1.875  0.6016E+01  0.1364E+03
     -1.815  0.6427E+01  0.1368E+03
     -1.755  0.6987E+01  0.1372E+03
     -1.696  0.7170E+01  0.1376E+03
     -1.636  0.7008E+01  0.1381E+03
     -1.577  0.7211E+01  0.1385E+03
     -1.517  0.9586E+01  0.1391E+03
     -1.457  0.1600E+02  0.1400E+03
     -1.398  0.2475E+02  0.1415E+03
     -1.338  0.2995E+02  0.1433E+03
     -1.279  0.2840E+02  0.1450E+03
     -1.219  0.2334E+02  0.1464E+03
     -1.160  0.1853E+02  0.1475E+03
     -1.100  0.1418E+02  0.1483E+03
     -1.040  0.1011E+02  0.1489E+03
     -0.981  0.7523E+01  0.1494E+03
     -0.921  0.7083E+01  0.1498E+03
     -0.862  0.8228E+01  0.1503E+03
     -0.802  0.9777E+01  0.1509E+03
     -0.742  0.1113E+02  0.1515E+03
     -0.683  0.1266E+02  0.1523E+03
     -0.623  0.1533E+02  0.1532E+03
     -0.564  0.1903E+02  0.1543E+03
     -0.504  0.2234E+02  0.1556E+03
     -0.444  0.2444E+02  0.1571E+03
     -0.385  0.2567E+02  0.1586E+03
     -0.325  0.2608E+02  0.1602E+03
     -0.266  0.2511E+02  0.1617E+03
     -0.206  0.2344E+02  0.1631E+03
     -0.147  0.2240E+02  0.1644E+03
     -0.087  0.2216E+02  0.1657E+03
     -0.027  0.2235E+02  0.1671E+03
      0.032  0.2254E+02  0.1684E+03
      0.092  0.2238E+02  0.1697E+03
      0.151  0.2249E+02  0.1711E+03
      0.211  0.2224E+02  0.1724E+03
      0.271  0.2087E+02  0.1737E+03
      0.330  0.1963E+02  0.1748E+03
      0.390  0.1940E+02  0.1760E+03
      0.449  0.1976E+02  0.1772E+03
      0.509  0.2009E+02  0.1784E+03
      0.569  0.1994E+02  0.1795E+03
      0.628  0.1965E+02  0.1807E+03
      0.688  0.1943E+02  0.1819E+03
      0.747  0.1932E+02  0.1830E+03
      0.807  0.2026E+02  0.1842E+03
      0.866  0.2291E+02  0.1856E+03
      0.926  0.2590E+02  0.1871E+03
      0.986  0.2747E+02  0.1888E+03
      1.045  0.2729E+02  0.1904E+03
      1.105  0.2642E+02  0.1920E+03
      1.164  0.2632E+02  0.1935E+03
      1.224  0.2718E+02  0.1952E+03
      1.284  0.2848E+02  0.1969E+03
      1.343  0.3024E+02  0.1987E+03
      1.403  0.3095E+02  0.2005E+03
      1.462  0.2705E+02  0.2021E+03
      1.522  0.1824E+02  0.2032E+03
      1.582  0.9069E+01  0.2037E+03
      1.641  0.3262E+01  0.2039E+03
      1.701  0.8289E+00  0.2040E+03
      1.760  0.1412E+00  0.2040E+03
      1.820  0.1493E-01  0.2040E+03
      1.879  0.9105E-03  0.2040E+03
      1.939  0.3037E-04  0.2040E+03
      1.999  0.5352E-06  0.2040E+03
      2.058  0.4878E-08  0.2040E+03
      2.118  0.2268E-10  0.2040E+03
      2.177  0.5327E-13  0.2040E+03
      2.237  0.4410E-16  0.2040E+03
      2.297  0.0000E+00  0.2040E+03
      2.356  0.0000E+00  0.2040E+03
      2.416  0.0000E+00  0.2040E+03
      2.475  0.0000E+00  0.2040E+03
      2.535  0.0000E+00  0.2040E+03
      2.595  0.0000E+00  0.2040E+03
