       N       E                     dE             d eps       ncg     rms          rms(c)
DAV:   1     0.613764580488E+03    0.61376E+03   -0.26137E+04  1548   0.745E+02
DAV:   2    -0.150790298871E+03   -0.76455E+03   -0.72644E+03  2340   0.154E+02
DAV:   3    -0.270837491153E+03   -0.12005E+03   -0.11909E+03  1920   0.695E+01
DAV:   4    -0.274445926016E+03   -0.36084E+01   -0.35932E+01  1836   0.142E+01
DAV:   5    -0.274521030014E+03   -0.75104E-01   -0.74956E-01  1992   0.176E+00    0.188E+01
DAV:   6    -0.266051661186E+03    0.84694E+01   -0.34001E+00  1680   0.373E+00    0.110E+01
DAV:   7    -0.260497739958E+03    0.55539E+01   -0.82752E+00  1626   0.605E+00    0.143E+00
DAV:   8    -0.260309552007E+03    0.18819E+00   -0.46280E-01  1644   0.130E+00    0.655E-01
DAV:   9    -0.260185441649E+03    0.12411E+00   -0.80335E-02  1686   0.547E-01    0.307E-01
DAV:  10    -0.260187739371E+03   -0.22977E-02   -0.67474E-02  1596   0.462E-01    0.256E-01
DAV:  11    -0.260165526979E+03    0.22212E-01   -0.10710E-02  1662   0.211E-01    0.869E-02
DAV:  12    -0.260200005342E+03   -0.34478E-01   -0.59295E-03  1530   0.136E-01    0.414E-02
DAV:  13    -0.260214195253E+03   -0.14190E-01   -0.25761E-03  1668   0.928E-02    0.241E-02
DAV:  14    -0.260218809066E+03   -0.46138E-02   -0.41135E-04  1596   0.330E-02    0.139E-02
DAV:  15    -0.260220426584E+03   -0.16175E-02   -0.61702E-05  1632   0.150E-02    0.581E-03
DAV:  16    -0.260221183620E+03   -0.75704E-03   -0.20824E-05  1542   0.829E-03    0.298E-03
DAV:  17    -0.260221455041E+03   -0.27142E-03   -0.47523E-06  1530   0.422E-03    0.228E-03
DAV:  18    -0.260221595459E+03   -0.14042E-03   -0.11329E-06  1536   0.222E-03    0.835E-04
DAV:  19    -0.260221663697E+03   -0.68238E-04   -0.32648E-07  1494   0.103E-03    0.759E-04
DAV:  20    -0.260221686075E+03   -0.22378E-04   -0.67791E-08  1554   0.543E-04    0.239E-04
DAV:  21    -0.260221699166E+03   -0.13091E-04   -0.51345E-08  1422   0.402E-04    0.213E-04
DAV:  22    -0.260221705408E+03   -0.62420E-05   -0.18440E-08  1422   0.286E-04    0.103E-04
DAV:  23    -0.260221707751E+03   -0.23432E-05   -0.41353E-09  1116   0.163E-04    0.366E-05
DAV:  24    -0.260221708745E+03   -0.99336E-06   -0.10547E-09  1128   0.116E-04    0.190E-05
DAV:  25    -0.260221708965E+03   -0.22064E-06    0.25181E-09  1206   0.523E-05    0.891E-06
DAV:  26    -0.260221709046E+03   -0.80952E-07    0.30018E-09  1134   0.287E-05    0.519E-06
DAV:  27    -0.260221709067E+03   -0.20355E-07    0.31011E-09  1176   0.178E-05    0.214E-06
DAV:  28    -0.260221709074E+03   -0.75963E-08    0.30992E-09  1170   0.101E-05
   1 F= -.26604155E+03 E0= -.26604155E+03  d E =-.205843E-12
