       N       E                     dE             d eps       ncg     rms          rms(c)
DAV:   1    -0.281070256377E+00   -0.28107E+00   -0.95254E+02 13188   0.365E+01
DAV:   2    -0.342554416891E+01   -0.31445E+01   -0.26531E+01 19782   0.500E+00
DAV:   3    -0.342817940106E+01   -0.26352E-02   -0.26337E-02 13566   0.171E-01
DAV:   4    -0.342818306840E+01   -0.36673E-05   -0.36671E-05 25662   0.624E-03
DAV:   5    -0.342818306749E+01    0.90636E-09   -0.13851E-10 13566   0.185E-05    0.228E+00
DAV:   6    -0.313355213266E+01    0.29463E+00   -0.14586E-01 20160   0.212E-01    0.124E+00
DAV:   7    -0.297719563249E+01    0.15636E+00   -0.23555E-01 17346   0.239E-01    0.171E-01
DAV:   8    -0.296897935714E+01    0.82163E-02   -0.11407E-02 20160   0.505E-02    0.130E-01
DAV:   9    -0.296873504883E+01    0.24431E-03   -0.45672E-04 22134   0.223E-02    0.535E-02
DAV:  10    -0.296888298486E+01   -0.14794E-03   -0.39428E-03 21630   0.270E-02    0.357E-02
DAV:  11    -0.296919394865E+01   -0.31096E-03   -0.22489E-04 20286   0.906E-03    0.135E-02
DAV:  12    -0.296963429938E+01   -0.44035E-03   -0.14860E-04 21840   0.688E-03    0.104E-02
DAV:  13    -0.296989795896E+01   -0.26366E-03   -0.70489E-05 19320   0.329E-03    0.351E-03
DAV:  14    -0.297006616166E+01   -0.16820E-03   -0.25752E-05 19110   0.160E-03    0.183E-03
DAV:  15    -0.297013363557E+01   -0.67474E-04   -0.92834E-06 19362   0.830E-04    0.609E-04
DAV:  16    -0.297014708516E+01   -0.13450E-04   -0.15261E-06 18732   0.317E-04    0.343E-04
DAV:  17    -0.297015569428E+01   -0.86091E-05   -0.53818E-07 19404   0.172E-04    0.143E-04
DAV:  18    -0.297015704461E+01   -0.13503E-05   -0.49105E-08 19572   0.881E-05    0.975E-05
DAV:  19    -0.297015780078E+01   -0.75617E-06   -0.89942E-09 17808   0.369E-05
   1 F= -.29701578E+01 E0= -.29698225E+01  d E =-.670641E-03
