generated by phonopy
   1.0
    10.0546702912874704    5.8051221787917466    0.0000000000000000
   -10.0546702912874704    5.8051221787917466    0.0000000000000000
     0.0000000000000000    0.0000000000000000   40.0000000000000000
Be H
  25   50
Direct
  0.0000000000000000  0.0000000000000000  0.1000000000000014
  0.2000000000000000  0.0000000000000000  0.1000000000000014
  0.4000000000000000  0.0000000000000000  0.1000000000000014
  0.6000000000000001  0.0000000000000000  0.1000000000000014
  0.8000000000000000  0.0000000000000001  0.1000000000000014
  0.0000000000000000  0.2000000000000000  0.1000000000000014
  0.2000000000000000  0.2000000000000000  0.1000000000000014
  0.4000000000000000  0.2000000000000000  0.1000000000000014
  0.6000000000000001  0.2000000000000000  0.1000000000000014
  0.8000000000000002  0.2000000000000001  0.1000000000000014
  0.0000000000000000  0.4000000000000000  0.1000000000000014
  0.2000000000000000  0.4000000000000000  0.1000000000000014
  0.4000000000000001  0.4000000000000001  0.1000000000000014
  0.6000000000000001  0.4000000000000001  0.1000000000000014
  0.8000000000000000  0.4000000000000001  0.1000000000000014
  0.0000000000000000  0.6000000000000001  0.1000000000000014
  0.2000000000000000  0.6000000000000001  0.1000000000000014
  0.4000000000000001  0.6000000000000001  0.1000000000000014
  0.6000000000000001  0.6000000000000001  0.1000000000000014
  0.8000000000000000  0.6000000000000001  0.1000000000000014
  0.0000000000000001  0.8000000000000000  0.1000000000000014
  0.2000000000000001  0.8000000000000002  0.1000000000000014
  0.4000000000000001  0.8000000000000000  0.1000000000000014
  0.6000000000000001  0.8000000000000000  0.1000000000000014
  0.8000000000000002  0.8000000000000002  0.1000000000000014
  0.1333323968249241  0.0666676031750758  0.0779435956093506
  0.3333323968249242  0.0666676031750758  0.0781935956093506
  0.5333323968249242  0.0666676031750758  0.0781935956093506
  0.7333323968249243  0.0666676031750758  0.0781935956093506
  0.9333323968249243  0.0666676031750759  0.0781935956093506
  0.1333323968249241  0.2666676031750758  0.0781935956093506
  0.3333323968249242  0.2666676031750759  0.0781935956093506
  0.5333323968249242  0.2666676031750758  0.0781935956093506
  0.7333323968249242  0.2666676031750758  0.0781935956093506
  0.9333323968249243  0.2666676031750758  0.0781935956093506
  0.1333323968249242  0.4666676031750758  0.0781935956093506
  0.3333323968249243  0.4666676031750759  0.0781935956093506
  0.5333323968249242  0.4666676031750758  0.0781935956093506
  0.7333323968249243  0.4666676031750758  0.0781935956093506
  0.9333323968249243  0.4666676031750758  0.0781935956093506
  0.1333323968249242  0.6666676031750760  0.0781935956093506
  0.3333323968249242  0.6666676031750760  0.0781935956093506
  0.5333323968249242  0.6666676031750760  0.0781935956093506
  0.7333323968249242  0.6666676031750759  0.0781935956093506
  0.9333323968249243  0.6666676031750760  0.0781935956093506
  0.1333323968249241  0.8666676031750757  0.0781935956093506
  0.3333323968249242  0.8666676031750757  0.0781935956093506
  0.5333323968249242  0.8666676031750757  0.0781935956093506
  0.7333323968249242  0.8666676031750756  0.0781935956093506
  0.9333323968249243  0.8666676031750757  0.0781935956093506
  0.0666676031750758  0.1333323968249241  0.1218064043906523
  0.2666676031750758  0.1333323968249241  0.1218064043906523
  0.4666676031750758  0.1333323968249242  0.1218064043906523
  0.6666676031750760  0.1333323968249242  0.1218064043906523
  0.8666676031750757  0.1333323968249241  0.1218064043906523
  0.0666676031750758  0.3333323968249242  0.1218064043906523
  0.2666676031750759  0.3333323968249242  0.1218064043906523
  0.4666676031750759  0.3333323968249243  0.1218064043906523
  0.6666676031750760  0.3333323968249242  0.1218064043906523
  0.8666676031750757  0.3333323968249242  0.1218064043906523
  0.0666676031750758  0.5333323968249242  0.1218064043906523
  0.2666676031750758  0.5333323968249242  0.1218064043906523
  0.4666676031750758  0.5333323968249242  0.1218064043906523
  0.6666676031750760  0.5333323968249242  0.1218064043906523
  0.8666676031750757  0.5333323968249242  0.1218064043906523
  0.0666676031750758  0.7333323968249243  0.1218064043906523
  0.2666676031750758  0.7333323968249242  0.1218064043906523
  0.4666676031750758  0.7333323968249243  0.1218064043906523
  0.6666676031750759  0.7333323968249242  0.1218064043906523
  0.8666676031750756  0.7333323968249242  0.1218064043906523
  0.0666676031750759  0.9333323968249243  0.1218064043906523
  0.2666676031750758  0.9333323968249243  0.1218064043906523
  0.4666676031750758  0.9333323968249243  0.1218064043906523
  0.6666676031750760  0.9333323968249243  0.1218064043906523
  0.8666676031750757  0.9333323968249243  0.1218064043906523
