Geometry                                
           1
     1.862614    1.067738    0.000000
    -1.886232    1.105633    0.000000
     0.000000    0.000000   40.000000
   Be   H 
     2     2
Direct configuration=     1
   0.34679415  0.68248722  0.12500000
   0.65320585  0.31751278  0.07500000
   0.34679415  0.68248722  0.17500000
   0.65320585  0.31751278  0.02500000
Geometry                                
           1
     1.851033    1.062972    0.000000
    -1.869562    1.092078    0.000000
     0.000000    0.000000   40.000000
   Be   H 
     2     2
Direct configuration=     2
   0.34616701  0.68131553  0.12547218
   0.65383299  0.31868447  0.07452782
   0.34679352  0.68249818  0.17420631
   0.65320648  0.31750182  0.02579369
Geometry                                
           1
     1.816289    1.048675    0.000000
    -1.819553    1.051414    0.000000
     0.000000    0.000000   40.000000
   Be   H 
     2     2
Direct configuration=     3
   0.34426920  0.67776456  0.12688872
   0.65573080  0.32223544  0.07311128
   0.34679166  0.68253143  0.17182524
   0.65320834  0.31746857  0.02817476
Geometry                                
           1
     1.746800    1.020081    0.000000
    -1.719535    0.970085    0.000000
     0.000000    0.000000   40.000000
   Be   H 
     2     2
Direct configuration=     4
   0.34037156  0.67043808  0.12972180
   0.65962844  0.32956192  0.07027820
   0.34678826  0.68260013  0.16706310
   0.65321174  0.31739987  0.03293690
Geometry                                
           1
     1.800204    1.042057    0.000000
    -1.796402    1.032588    0.000000
     0.000000    0.000000   40.000000
   Be   H 
     2     2
Direct configuration=     5
   0.34353817  0.67644902  0.12754450
   0.65646183  0.32355098  0.07245550
   0.34679031  0.68254358  0.17072293
   0.65320969  0.31745642  0.02927707
Geometry                                
           1
     1.811759    1.049928    0.000000
    -1.804698    1.034801    0.000000
     0.000000    0.000000   40.000000
   Be   H 
     2     2
Direct configuration=     6
   0.34279919  0.67520566  0.12796523
   0.65720081  0.32479434  0.07203477
   0.34689246  0.68274543  0.16988924
   0.65310754  0.31725457  0.03011076
Geometry                                
           1
     1.846425    1.073541    0.000000
    -1.829589    1.041439    0.000000
     0.000000    0.000000   40.000000
   Be   H 
     2     2
Direct configuration=     7
   0.34059309  0.67148942  0.12922742
   0.65940691  0.32851058  0.07077258
   0.34719753  0.68334876  0.16738818
   0.65280247  0.31665124  0.03261182
Geometry                                
           1
     1.915756    1.120767    0.000000
    -1.879370    1.054714    0.000000
     0.000000    0.000000   40.000000
   Be   H 
     2     2
Direct configuration=     8
   0.33624457  0.66413871  0.13175180
   0.66375543  0.33586129  0.06824820
   0.34779951  0.68454231  0.16238605
   0.65220049  0.31545769  0.03761395
Geometry                                
           1
     1.856448    1.080368    0.000000
    -1.836786    1.043358    0.000000
     0.000000    0.000000   40.000000
   Be   H 
     2     2
Direct configuration=     9
   0.33986046  0.67029139  0.12959240
   0.66013954  0.32970861  0.07040760
   0.34729795  0.68354301  0.16666498
   0.65270205  0.31645699  0.03333502
Geometry                                
           1
     1.868499    1.088577    0.000000
    -1.845438    1.045665    0.000000
     0.000000    0.000000   40.000000
   Be   H 
     2     2
Direct configuration=    10
   0.33910779  0.66901783  0.13003115
   0.66089221  0.33098217  0.06996885
   0.34740217  0.68374981  0.16579557
   0.65259783  0.31625019  0.03420443
Geometry                                
           1
     1.910630    1.114967    0.000000
    -1.883623    1.065133    0.000000
     0.000000    0.000000   40.000000
   Be   H 
     2     2
Direct configuration=    11
   0.33751517  0.66632471  0.13000679
   0.66248483  0.33367529  0.06999321
   0.34805822  0.68506738  0.16485577
   0.65194178  0.31493262  0.03514423
Geometry                                
           1
     2.037025    1.194138    0.000000
    -1.998177    1.123536    0.000000
     0.000000    0.000000   40.000000
   Be   H 
     2     2
Direct configuration=    12
   0.33283876  0.65840518  0.12993371
   0.66716124  0.34159482  0.07006629
   0.34998516  0.68894222  0.16203638
   0.65001484  0.31105778  0.03796362
Geometry                                
           1
     2.060939    1.208756    0.000000
    -2.020604    1.135532    0.000000
     0.000000    0.000000   40.000000
   Be   H 
     2     2
Direct configuration=    13
   0.33187553  0.65673649  0.12964513
   0.66812447  0.34326351  0.07035487
   0.35051834  0.68999755  0.16171169
   0.64948166  0.31000245  0.03828831
Geometry                                
           1
     2.132681    1.252608    0.000000
    -2.087887    1.171518    0.000000
     0.000000    0.000000   40.000000
   Be   H 
     2     2
Direct configuration=    14
   0.32901882  0.65178543  0.12877942
   0.67098118  0.34821457  0.07122058
   0.35209971  0.69312882  0.16073762
   0.64790029  0.30687118  0.03926238
Geometry                                
           1
     2.276165    1.340313    0.000000
    -2.222452    1.243492    0.000000
     0.000000    0.000000   40.000000
   Be   H 
     2     2
Direct configuration=    15
   0.32349446  0.64219920  0.12704798
   0.67650554  0.35780080  0.07295202
   0.35515837  0.69919189  0.15878948
   0.64484163  0.30080811  0.04121052
Geometry                                
           1
     2.269220    1.335366    0.000000
    -2.216758    1.240747    0.000000
     0.000000    0.000000   40.000000
   Be   H 
     2     2
Direct configuration=    16
   0.32245928  0.64028332  0.12637731
   0.67754072  0.35971668  0.07362269
   0.35612384  0.70112536  0.15910476
   0.64387616  0.29887464  0.04089524
Geometry                                
           1
     2.248655    1.320717    0.000000
    -2.199895    1.232620    0.000000
     0.000000    0.000000   40.000000
   Be   H 
     2     2
Direct configuration=    17
   0.31938463  0.63459561  0.12439140
   0.68061537  0.36540439  0.07560860
   0.35899138  0.70686520  0.16003831
   0.64100862  0.29313480  0.03996169
Geometry                                
           1
     2.251013    1.322397    0.000000
    -2.201828    1.233552    0.000000
     0.000000    0.000000   40.000000
   Be   H 
     2     2
Direct configuration=    18
   0.31974039  0.63525275  0.12461909
   0.68025961  0.36474725  0.07538091
   0.35865961  0.70620207  0.15993128
   0.64134039  0.29379793  0.04006872
Geometry                                
           1
     2.236253    1.312233    0.000000
    -2.188627    1.226175    0.000000
     0.000000    0.000000   40.000000
   Be   H 
     2     2
Direct configuration=    19
   0.31889716  0.63375123  0.12440420
   0.68110284  0.36624877  0.07559580
   0.35960812  0.70821549  0.15968253
   0.64039188  0.29178451  0.04031747
Geometry                                
           1
     2.191973    1.281740    0.000000
    -2.149023    1.204043    0.000000
     0.000000    0.000000   40.000000
   Be   H 
     2     2
Direct configuration=    20
   0.31634932  0.62921802  0.12375953
   0.68365068  0.37078198  0.07624047
   0.36247404  0.71429383  0.15893629
   0.63752596  0.28570617  0.04106371
Geometry                                
           1
     2.103412    1.220756    0.000000
    -2.069814    1.159781    0.000000
     0.000000    0.000000   40.000000
   Be   H 
     2     2
Direct configuration=    21
   0.31114158  0.61997521  0.12247020
   0.68885842  0.38002479  0.07752980
   0.36833189  0.72668498  0.15744381
   0.63166811  0.27331502  0.04255619
Geometry                                
           1
     1.926292    1.098787    0.000000
    -1.911397    1.071256    0.000000
     0.000000    0.000000   40.000000
   Be   H 
     2     2
Direct configuration=    22
   0.30024690  0.60074083  0.11989154
   0.69975310  0.39925917  0.08010846
   0.38058644  0.75246196  0.15445885
   0.61941356  0.24753804  0.04554115
Geometry                                
           1
     2.073811    1.200372    0.000000
    -2.043339    1.144986    0.000000
     0.000000    0.000000   40.000000
   Be   H 
     2     2
Direct configuration=    23
   0.31024046  0.61817439  0.12203925
   0.68975954  0.38182561  0.07796075
   0.36934591  0.72911728  0.15694496
   0.63065409  0.27088272  0.04305504
Geometry                                
           1
     2.077171    1.198463    0.000000
    -2.037841    1.127948    0.000000
     0.000000    0.000000   40.000000
   Be   H 
     2     2
Direct configuration=    24
   0.30610471  0.61121144  0.12243289
   0.69389529  0.38878856  0.07756711
   0.37585862  0.74190216  0.15574127
   0.62414138  0.25809784  0.04425873
Geometry                                
           1
     2.080224    1.196728    0.000000
    -2.032846    1.112466    0.000000
     0.000000    0.000000   40.000000
   Be   H 
     2     2
Direct configuration=    25
   0.30230898  0.60482279  0.12279056
   0.69769102  0.39517721  0.07720944
   0.38184575  0.75363092  0.15464754
   0.61815425  0.24636908  0.04535246
Geometry                                
           1
     2.084311    1.197777    0.000000
    -2.032788    1.106399    0.000000
     0.000000    0.000000   40.000000
   Be   H 
     2     2
Direct configuration=    26
   0.30005203  0.60085963  0.12280202
   0.69994797  0.39914037  0.07719798
   0.38499293  0.75964671  0.15435784
   0.61500707  0.24035329  0.04564216
Geometry                                
           1
     2.096570    1.200923    0.000000
    -2.032615    1.088197    0.000000
     0.000000    0.000000   40.000000
   Be   H 
     2     2
Direct configuration=    27
   0.29325993  0.58893440  0.12283637
   0.70674007  0.41106560  0.07716363
   0.39446793  0.77774786  0.15348874
   0.60553207  0.22225214  0.04651126
Geometry                                
           1
     2.121089    1.207216    0.000000
    -2.032267    1.051794    0.000000
     0.000000    0.000000   40.000000
   Be   H 
     2     2
Direct configuration=    28
   0.27954661  0.56486679  0.12290507
   0.72045339  0.43513321  0.07709493
   0.41362091  0.81427691  0.15175053
   0.58637909  0.18572309  0.04824947
Geometry                                
           1
     2.170127    1.219802    0.000000
    -2.031573    0.978988    0.000000
     0.000000    0.000000   40.000000
   Be   H 
     2     2
Direct configuration=    29
   0.25158937  0.51583867  0.12304248
   0.74841063  0.48416133  0.07695752
   0.45275952  0.88867871  0.14827412
   0.54724048  0.11132129  0.05172588
Geometry                                
           1
     2.268202    1.244973    0.000000
    -2.030184    0.833374    0.000000
     0.000000    0.000000   40.000000
   Be   H 
     2     2
Direct configuration=    30
   0.19343205  0.41400342  0.12331729
   0.80656795  0.58599658  0.07668271
   0.53454547  0.04317062  0.14132130
   0.46545453  0.95682938  0.05867870
Geometry                                
           1
     2.235538    1.236590    0.000000
    -2.030646    0.881871    0.000000
     0.000000    0.000000   40.000000
   Be   H 
     2     2
Direct configuration=    31
   0.21447950  0.45075340  0.12322576
   0.78552050  0.54924660  0.07677424
   0.50469623  0.98744965  0.14363693
   0.49530377  0.01255035  0.05636307
Geometry                                
           1
     2.250973    1.240551    0.000000
    -2.030428    0.858954    0.000000
     0.000000    0.000000   40.000000
   Be   H 
     2     2
Direct configuration=    32
   0.20481197  0.43385780  0.12326901
   0.79518803  0.56614220  0.07673099
   0.51836936  0.01307177  0.14254270
   0.48163064  0.98692823  0.05745730
Geometry                                
           1
     2.262090    1.243101    0.000000
    -2.036090    0.852799    0.000000
     0.000000    0.000000   40.000000
   Be   H 
     2     2
Direct configuration=    33
   0.19672529  0.42002557  0.12315854
   0.80327471  0.57997443  0.07684146
   0.52919721  0.03231145  0.14197883
   0.47080279  0.96768855  0.05802117
Geometry                                
           1
     2.272794    1.245557    0.000000
    -2.041542    0.846873    0.000000
     0.000000    0.000000   40.000000
   Be   H 
     2     2
Direct configuration=    34
   0.18891348  0.40667374  0.12305219
   0.81108652  0.59332626  0.07694781
   0.53965973  0.05088219  0.14143596
   0.46034027  0.94911781  0.05856404
Geometry                                
           1
     2.271939    1.245623    0.000000
    -2.045230    0.855049    0.000000
     0.000000    0.000000   40.000000
   Be   H 
     2     2
Direct configuration=    35
   0.18984967  0.40839534  0.12296397
   0.81015033  0.59160466  0.07703603
   0.53827038  0.04771956  0.14168183
   0.46172962  0.95228044  0.05831817
Geometry                                
           1
     2.269375    1.245824    0.000000
    -2.056294    0.879575    0.000000
     0.000000    0.000000   40.000000
   Be   H 
     2     2
Direct configuration=    36
   0.19264300  0.41353271  0.12269931
   0.80735700  0.58646729  0.07730069
   0.53413043  0.03828174  0.14241945
   0.46586957  0.96171826  0.05758055
Geometry                                
           1
     2.264248    1.246224    0.000000
    -2.078422    0.928629    0.000000
     0.000000    0.000000   40.000000
   Be   H 
     2     2
Direct configuration=    37
   0.19814017  0.42364643  0.12217001
   0.80185983  0.57635357  0.07782999
   0.52601575  0.01970034  0.14389468
   0.47398425  0.98029966  0.05610532
Geometry                                
           1
     2.253994    1.247025    0.000000
    -2.122678    1.026735    0.000000
     0.000000    0.000000   40.000000
   Be   H 
     2     2
Direct configuration=    38
   0.20879284  0.44325917  0.12111139
   0.79120716  0.55674083  0.07888861
   0.51041744  0.98366070  0.14684515
   0.48958256  0.01633930  0.05315485
Geometry                                
           1
     2.261373    1.246449    0.000000
    -2.090831    0.956138    0.000000
     0.000000    0.000000   40.000000
   Be   H 
     2     2
Direct configuration=    39
   0.20157668  0.42995444  0.12187317
   0.79842332  0.57004556  0.07812683
   0.52081090  0.00811740  0.14472199
   0.47918910  0.99188260  0.05527801
Geometry                                
           1
     2.258020    1.239440    0.000000
    -2.094108    0.962330    0.000000
     0.000000    0.000000   40.000000
   Be   H 
     2     2
Direct configuration=    40
   0.19907595  0.42692236  0.12199674
   0.80092405  0.57307764  0.07800326
   0.52383805  0.00993786  0.14482203
   0.47616195  0.99006214  0.05517797
Geometry                                
           1
     2.247962    1.218415    0.000000
    -2.103938    0.980908    0.000000
     0.000000    0.000000   40.000000
   Be   H 
     2     2
Direct configuration=    41
   0.19156430  0.41784218  0.12236746
   0.80843570  0.58215782  0.07763254
   0.53294237  0.01540081  0.14512213
   0.46705763  0.98459919  0.05487787
Geometry                                
           1
     2.227846    1.176364    0.000000
    -2.123598    1.018063    0.000000
     0.000000    0.000000   40.000000
   Be   H 
     2     2
Direct configuration=    42
   0.17648267  0.39977618  0.12310889
   0.82351733  0.60022382  0.07689111
   0.55129013  0.02633726  0.14572235
   0.44870987  0.97366274  0.05427765
Geometry                                
           1
     2.225955    1.172411    0.000000
    -2.125446    1.021555    0.000000
     0.000000    0.000000   40.000000
   Be   H 
     2     2
Direct configuration=    43
   0.17505345  0.39809502  0.12317857
   0.82494655  0.60190498  0.07682143
   0.55304170  0.02736769  0.14577876
   0.44695830  0.97263231  0.05422124
Geometry                                
           1
     2.218259    1.160534    0.000000
    -2.124390    1.023154    0.000000
     0.000000    0.000000   40.000000
   Be   H 
     2     2
Direct configuration=    44
   0.17356530  0.39844642  0.12336921
   0.82643470  0.60155358  0.07663079
   0.55588334  0.02196727  0.14586054
   0.44411666  0.97803273  0.05413946
Geometry                                
           1
     2.202603    1.136372    0.000000
    -2.122242    1.026404    0.000000
     0.000000    0.000000   40.000000
   Be   H 
     2     2
Direct configuration=    45
   0.17051631  0.39914976  0.12375701
   0.82948369  0.60085024  0.07624299
   0.56171453  0.01100846  0.14602690
   0.43828547  0.98899154  0.05397310
Geometry                                
           1
     2.171292    1.088049    0.000000
    -2.117945    1.032906    0.000000
     0.000000    0.000000   40.000000
   Be   H 
     2     2
Direct configuration=    46
   0.16432769  0.40050879  0.12453260
   0.83567231  0.59949121  0.07546740
   0.57358770  0.98920142  0.14635961
   0.42641230  0.01079858  0.05364039
Geometry                                
           1
     2.186848    1.112057    0.000000
    -2.120080    1.029676    0.000000
     0.000000    0.000000   40.000000
   Be   H 
     2     2
Direct configuration=    47
   0.16749602  0.39988292  0.12414728
   0.83250398  0.60011708  0.07585272
   0.56747089  0.99992096  0.14619432
   0.43252911  0.00007904  0.05380568
Geometry                                
           1
     2.185580    1.107032    0.000000
    -2.122250    1.031707    0.000000
     0.000000    0.000000   40.000000
   Be   H 
     2     2
Direct configuration=    48
   0.16673174  0.39993836  0.12414344
   0.83326826  0.60006164  0.07585656
   0.56911518  0.99713549  0.14628076
   0.43088482  0.00286451  0.05371924
Geometry                                
           1
     2.181778    1.091959    0.000000
    -2.128758    1.037799    0.000000
     0.000000    0.000000   40.000000
   Be   H 
     2     2
Direct configuration=    49
   0.16443284  0.40009967  0.12413192
   0.83556716  0.59990033  0.07586808
   0.57406463  0.98880177  0.14654008
   0.42593537  0.01119823  0.05345992
Geometry                                
           1
     2.174173    1.061813    0.000000
    -2.141776    1.049982    0.000000
     0.000000    0.000000   40.000000
   Be   H 
     2     2
Direct configuration=    50
   0.15979851  0.40039207  0.12410888
   0.84020149  0.59960793  0.07589112
   0.58406383  0.97227040  0.14705872
   0.41593617  0.02772960  0.05294128
Geometry                                
           1
     2.158963    1.001520    0.000000
    -2.167811    1.074350    0.000000
     0.000000    0.000000   40.000000
   Be   H 
     2     2
Direct configuration=    51
   0.15038069  0.40085480  0.12406279
   0.84961931  0.59914520  0.07593721
   0.60447079  0.93975235  0.14809600
   0.39552921  0.06024765  0.05190400
Geometry                                
           1
     2.152499    0.975896    0.000000
    -2.178875    1.084706    0.000000
     0.000000    0.000000   40.000000
   Be   H 
     2     2
Direct configuration=    52
   0.14624602  0.40094557  0.12404321
   0.85375398  0.59905443  0.07595679
   0.61350411  0.92639649  0.14853684
   0.38649589  0.07360351  0.05146316
Geometry                                
           1
     2.181535    0.983372    0.000000
    -2.209915    1.096651    0.000000
     0.000000    0.000000   40.000000
   Be   H 
     2     2
Direct configuration=    53
   0.14463326  0.39872298  0.12358711
   0.85536674  0.60127702  0.07641289
   0.62002976  0.91938797  0.14886434
   0.37997024  0.08061203  0.05113566
Geometry                                
           1
     2.207601    0.990084    0.000000
    -2.237779    1.107373    0.000000
     0.000000    0.000000   40.000000
   Be   H 
     2     2
Direct configuration=    54
   0.14319749  0.39674863  0.12317768
   0.85680251  0.60325137  0.07682232
   0.62581518  0.91319018  0.14915834
   0.37418482  0.08680982  0.05084166
Geometry                                
           1
     2.247664    1.001131    0.000000
    -2.269914    1.100829    0.000000
     0.000000    0.000000   40.000000
   Be   H 
     2     2
Direct configuration=    55
   0.14418427  0.39336185  0.12322932
   0.85581573  0.60663815  0.07677068
   0.62979665  0.90919170  0.14892974
   0.37020335  0.09080830  0.05107026
Geometry                                
           1
     2.358003    1.031555    0.000000
    -2.358416    1.082806    0.000000
     0.000000    0.000000   40.000000
   Be   H 
     2     2
Direct configuration=    56
   0.14676366  0.38407734  0.12337153
   0.85323634  0.61592266  0.07662847
   0.64048575  0.89825523  0.14830016
   0.35951425  0.10174477  0.05169984
Geometry                                
           1
     2.374750    1.036173    0.000000
    -2.371850    1.080070    0.000000
     0.000000    0.000000   40.000000
   Be   H 
     2     2
Direct configuration=    57
   0.14710106  0.38268519  0.12339312
   0.85289894  0.61731481  0.07660688
   0.64199992  0.89662518  0.14820460
   0.35800008  0.10337482  0.05179540
Geometry                                
           1
     2.400815    1.036407    0.000000
    -2.388343    1.058453    0.000000
     0.000000    0.000000   40.000000
   Be   H 
     2     2
Direct configuration=    58
   0.15100143  0.38080737  0.12296941
   0.84899857  0.61919263  0.07703059
   0.64265933  0.89127012  0.14799429
   0.35734067  0.10872988  0.05200571
Geometry                                
           1
     2.422790    1.036604    0.000000
    -2.402249    1.040227    0.000000
     0.000000    0.000000   40.000000
   Be   H 
     2     2
Direct configuration=    59
   0.15424963  0.37923051  0.12261218
   0.84575037  0.62076949  0.07738782
   0.64314999  0.88672680  0.14781697
   0.35685001  0.11327320  0.05218303
Geometry                                
           1
     2.427842    1.036650    0.000000
    -2.405446    1.036037    0.000000
     0.000000    0.000000   40.000000
   Be   H 
     2     2
Direct configuration=    60
   0.15498868  0.37886918  0.12253005
   0.84501132  0.62113082  0.07746995
   0.64325012  0.88567662  0.14777621
   0.35674988  0.11432338  0.05222379
Geometry                                
           1
     2.419242    1.039733    0.000000
    -2.396399    1.037885    0.000000
     0.000000    0.000000   40.000000
   Be   H 
     2     2
Direct configuration=    61
   0.15438227  0.37575430  0.12232292
   0.84561773  0.62424570  0.07767708
   0.64531282  0.88607344  0.14762651
   0.35468718  0.11392656  0.05237349
Geometry                                
           1
     2.415192    1.041185    0.000000
    -2.392139    1.038756    0.000000
     0.000000    0.000000   40.000000
   Be   H 
     2     2
Direct configuration=    62
   0.15410070  0.37428708  0.12222539
   0.84589930  0.62571292  0.07777461
   0.64628387  0.88625729  0.14755602
   0.35371613  0.11374271  0.05244398
Geometry                                
           1
     2.401458    1.039947    0.000000
    -2.379639    1.040080    0.000000
     0.000000    0.000000   40.000000
   Be   H 
     2     2
Direct configuration=    63
   0.15499865  0.37240119  0.12226235
   0.84500135  0.62759881  0.07773765
   0.64691291  0.88502005  0.14729047
   0.35308709  0.11497995  0.05270953
Geometry                                
           1
     2.400819    1.039889    0.000000
    -2.379057    1.040141    0.000000
     0.000000    0.000000   40.000000
   Be   H 
     2     2
Direct configuration=    64
   0.15504088  0.37231313  0.12226408
   0.84495912  0.62768687  0.07773592
   0.64694248  0.88496227  0.14727811
   0.35305752  0.11503773  0.05272189
Geometry                                
           1
     2.394462    1.038955    0.000000
    -2.374337    1.042853    0.000000
     0.000000    0.000000   40.000000
   Be   H 
     2     2
Direct configuration=    65
   0.15625907  0.37273409  0.12225699
   0.84374093  0.62726591  0.07774301
   0.64591667  0.88316428  0.14728945
   0.35408333  0.11683572  0.05271055
Geometry                                
           1
     2.393344    1.038791    0.000000
    -2.373507    1.043329    0.000000
     0.000000    0.000000   40.000000
   Be   H 
     2     2
Direct configuration=    66
   0.15647343  0.37280788  0.12225574
   0.84352657  0.62719212  0.07774426
   0.64573674  0.88284846  0.14729144
   0.35426326  0.11715154  0.05270856
Geometry                                
           1
     2.388947    1.037118    0.000000
    -2.370571    1.044931    0.000000
     0.000000    0.000000   40.000000
   Be   H 
     2     2
Direct configuration=    67
   0.15600284  0.37195105  0.12228094
   0.84399716  0.62804895  0.07771906
   0.64585627  0.88225917  0.14733612
   0.35414373  0.11774083  0.05266388
Geometry                                
           1
     2.382579    1.034695    0.000000
    -2.366319    1.047251    0.000000
     0.000000    0.000000   40.000000
   Be   H 
     2     2
Direct configuration=    68
   0.15532189  0.37071048  0.12231742
   0.84467811  0.62928952  0.07768258
   0.64603084  0.88140592  0.14740083
   0.35396916  0.11859408  0.05259917
Geometry                                
           1
     2.383890    1.034337    0.000000
    -2.367675    1.047013    0.000000
     0.000000    0.000000   40.000000
   Be   H 
     2     2
Direct configuration=    69
   0.15467760  0.37019227  0.12234570
   0.84532240  0.62980773  0.07765430
   0.64571672  0.88058733  0.14741198
   0.35428328  0.11941267  0.05258802
Geometry                                
           1
     2.384693    1.034118    0.000000
    -2.368505    1.046867    0.000000
     0.000000    0.000000   40.000000
   Be   H 
     2     2
Direct configuration=    70
   0.15428277  0.36987466  0.12236303
   0.84571723  0.63012534  0.07763697
   0.64552409  0.88008580  0.14741881
   0.35447591  0.11991420  0.05258119
Geometry                                
           1
     2.385362    1.034205    0.000000
    -2.369170    1.046956    0.000000
     0.000000    0.000000   40.000000
   Be   H 
     2     2
Direct configuration=    71
   0.15396396  0.36962703  0.12236208
   0.84603604  0.63037297  0.07763792
   0.64531150  0.87964082  0.14742809
   0.35468850  0.12035918  0.05257191
Geometry                                
           1
     2.387367    1.034464    0.000000
    -2.371164    1.047224    0.000000
     0.000000    0.000000   40.000000
   Be   H 
     2     2
Direct configuration=    72
   0.15300763  0.36888418  0.12235922
   0.84699237  0.63111582  0.07764078
   0.64467374  0.87830607  0.14745591
   0.35532626  0.12169393  0.05254409
Geometry                                
           1
     2.391379    1.034984    0.000000
    -2.375153    1.047761    0.000000
     0.000000    0.000000   40.000000
   Be   H 
     2     2
Direct configuration=    73
   0.15109558  0.36739875  0.12235351
   0.84890442  0.63260125  0.07764649
   0.64339814  0.87563764  0.14751154
   0.35660186  0.12436236  0.05248846
Geometry                                
           1
     2.388602    1.034624    0.000000
    -2.372392    1.047389    0.000000
     0.000000    0.000000   40.000000
   Be   H 
     2     2
Direct configuration=    74
   0.15241846  0.36842678  0.12235746
   0.84758154  0.63157322  0.07764254
   0.64428136  0.87748351  0.14747302
   0.35571864  0.12251649  0.05252698
Geometry                                
           1
     2.388499    1.034418    0.000000
    -2.372414    1.047467    0.000000
     0.000000    0.000000   40.000000
   Be   H 
     2     2
Direct configuration=    75
   0.15210928  0.36810458  0.12235247
   0.84789072  0.63189542  0.07764753
   0.64401932  0.87707033  0.14746700
   0.35598068  0.12292967  0.05253300
Geometry                                
           1
     2.388193    1.033798    0.000000
    -2.372483    1.047700    0.000000
     0.000000    0.000000   40.000000
   Be   H 
     2     2
Direct configuration=    76
   0.15118166  0.36713796  0.12233751
   0.84881834  0.63286204  0.07766249
   0.64323314  0.87583076  0.14744894
   0.35676686  0.12416924  0.05255106
Geometry                                
           1
     2.387580    1.032559    0.000000
    -2.372619    1.048166    0.000000
     0.000000    0.000000   40.000000
   Be   H 
     2     2
Direct configuration=    77
   0.14932595  0.36520453  0.12230758
   0.85067405  0.63479547  0.07769242
   0.64166046  0.87335157  0.14741282
   0.35833954  0.12664843  0.05258718
Geometry                                
           1
     2.386355    1.030081    0.000000
    -2.372892    1.049098    0.000000
     0.000000    0.000000   40.000000
   Be   H 
     2     2
Direct configuration=    78
   0.14561258  0.36133690  0.12224772
   0.85438742  0.63866310  0.07775228
   0.63851378  0.86839297  0.14734057
   0.36148622  0.13160703  0.05265943
Geometry                                
           1
     2.387232    1.031855    0.000000
    -2.372697    1.048431    0.000000
     0.000000    0.000000   40.000000
   Be   H 
     2     2
Direct configuration=    79
   0.14827318  0.36410623  0.12229057
   0.85172682  0.63589377  0.07770943
   0.64076788  0.87194238  0.14739228
   0.35923212  0.12805762  0.05260772
Geometry                                
           1
     2.386438    1.031707    0.000000
    -2.372500    1.049650    0.000000
     0.000000    0.000000   40.000000
   Be   H 
     2     2
Direct configuration=    80
   0.14752043  0.36312834  0.12229721
   0.85247957  0.63687166  0.07770279
   0.64004814  0.87109197  0.14738239
   0.35995186  0.12890803  0.05261761
Geometry                                
           1
     2.385441    1.031521    0.000000
    -2.372253    1.051184    0.000000
     0.000000    0.000000   40.000000
   Be   H 
     2     2
Direct configuration=    81
   0.14657439  0.36189938  0.12230557
   0.85342561  0.63810062  0.07769443
   0.63914352  0.87002323  0.14736995
   0.36085648  0.12997677  0.05263005
Geometry                                
           1
     2.384613    1.030539    0.000000
    -2.372180    1.051917    0.000000
     0.000000    0.000000   40.000000
   Be   H 
     2     2
Direct configuration=    82
   0.14599790  0.36100975  0.12231197
   0.85400210  0.63899025  0.07768803
   0.63816649  0.86920480  0.14738383
   0.36183351  0.13079520  0.05261617
Geometry                                
           1
     2.383004    1.028628    0.000000
    -2.372039    1.053344    0.000000
     0.000000    0.000000   40.000000
   Be   H 
     2     2
Direct configuration=    83
   0.14487616  0.35927908  0.12232441
   0.85512384  0.64072092  0.07767559
   0.63626484  0.86761236  0.14741085
   0.36373516  0.13238764  0.05258915
Geometry                                
           1
     2.383360    1.028475    0.000000
    -2.372402    1.053210    0.000000
     0.000000    0.000000   40.000000
   Be   H 
     2     2
Direct configuration=    84
   0.14397068  0.35848145  0.12232229
   0.85602932  0.64151855  0.07767771
   0.63569277  0.86737408  0.14742399
   0.36430723  0.13262592  0.05257601
Geometry                                
           1
     2.383394    1.028460    0.000000
    -2.372438    1.053197    0.000000
     0.000000    0.000000   40.000000
   Be   H 
     2     2
Direct configuration=    85
   0.14388237  0.35840365  0.12232209
   0.85611763  0.64159635  0.07767791
   0.63563697  0.86735083  0.14742527
   0.36436303  0.13264917  0.05257473
Geometry                                
           1
     2.384078    1.028570    0.000000
    -2.372977    1.052983    0.000000
     0.000000    0.000000   40.000000
   Be   H 
     2     2
Direct configuration=    86
   0.14326292  0.35809900  0.12232890
   0.85673708  0.64190100  0.07767110
   0.63481363  0.86692980  0.14742448
   0.36518637  0.13307020  0.05257552
Geometry                                
           1
     2.384580    1.028651    0.000000
    -2.373373    1.052826    0.000000
     0.000000    0.000000   40.000000
   Be   H 
     2     2
Direct configuration=    87
   0.14280858  0.35787550  0.12233390
   0.85719142  0.64212450  0.07766610
   0.63420973  0.86662091  0.14742390
   0.36579027  0.13337909  0.05257610
Geometry                                
           1
     2.384525    1.028838    0.000000
    -2.373512    1.053464    0.000000
     0.000000    0.000000   40.000000
   Be   H 
     2     2
Direct configuration=    88
   0.14248458  0.35780590  0.12232164
   0.85751542  0.64219410  0.07767836
   0.63361472  0.86635195  0.14742287
   0.36638528  0.13364805  0.05257713
Geometry                                
           1
     2.384551    1.028751    0.000000
    -2.373447    1.053167    0.000000
     0.000000    0.000000   40.000000
   Be   H 
     2     2
Direct configuration=    89
   0.14263502  0.35783820  0.12232734
   0.85736498  0.64216180  0.07767266
   0.63389098  0.86647678  0.14742335
   0.36610902  0.13352322  0.05257665
Geometry                                
           1
     2.384552    1.028746    0.000000
    -2.373443    1.053148    0.000000
     0.000000    0.000000   40.000000
   Be   H 
     2     2
Direct configuration=    90
   0.14264472  0.35784028  0.12232770
   0.85735528  0.64215972  0.07767230
   0.63390879  0.86648483  0.14742338
   0.36609121  0.13351517  0.05257662
Geometry                                
           1
     2.384078    1.028435    0.000000
    -2.373239    1.053449    0.000000
     0.000000    0.000000   40.000000
   Be   H 
     2     2
Direct configuration=    91
   0.14251041  0.35776593  0.12232476
   0.85748959  0.64223407  0.07767524
   0.63378178  0.86649284  0.14741586
   0.36621822  0.13350716  0.05258414
Geometry                                
           1
     2.383689    1.028180    0.000000
    -2.373070    1.053696    0.000000
     0.000000    0.000000   40.000000
   Be   H 
     2     2
Direct configuration=    92
   0.14239997  0.35770481  0.12232234
   0.85760003  0.64229519  0.07767766
   0.63367733  0.86649942  0.14740967
   0.36632267  0.13350058  0.05259033
Geometry                                
           1
     2.383734    1.028209    0.000000
    -2.373090    1.053667    0.000000
     0.000000    0.000000   40.000000
   Be   H 
     2     2
Direct configuration=    93
   0.14241280  0.35771191  0.12232262
   0.85758720  0.64228809  0.07767738
   0.63368946  0.86649866  0.14741039
   0.36631054  0.13350134  0.05258961
