Frozen phonon                           
           1
    11.918671    5.141046    0.000000
     0.010644    2.081876    0.000000
     0.000000    0.000000   40.000000
   Be   H 
    10    10
Direct configuration=     1
   0.95385610  0.36543238  0.12187959
   0.15787590  0.35537776  0.12281834
   0.35851022  0.35376818  0.12196358
   0.55346408  0.36642716  0.12240786
   0.76099459  0.34755408  0.12254376
   0.04712792  0.63209507  0.07786093
   0.23976865  0.65054070  0.07780278
   0.44431694  0.63912810  0.07729091
   0.64431693  0.63914845  0.07817728
   0.83976866  0.65052812  0.07725497
   0.95338929  0.86663551  0.14705208
   0.15367653  0.86590545  0.14781935
   0.35310135  0.86732163  0.14710699
   0.55374477  0.86576026  0.14749234
   0.75327886  0.86687043  0.14758119
   0.04637829  0.13393290  0.05272913
   0.24687980  0.13273397  0.05270435
   0.44623092  0.13431143  0.05226443
   0.64677932  0.13295798  0.05300102
   0.84654087  0.13357045  0.05224911
