       N       E                     dE             d eps       ncg     rms          ort
DAV:   1     0.197603630860E+01    0.19760E+01   -0.27519E+03  9702   0.130E+02
DAV:   2    -0.109434688493E+02   -0.12920E+02   -0.12424E+02  9702   0.164E+01
DAV:   3    -0.109897356541E+02   -0.46267E-01   -0.46249E-01  9702   0.109E+00
DAV:   4    -0.109898644556E+02   -0.12880E-03   -0.12880E-03  9702   0.628E-02
DAV:   5    -0.109898644652E+02   -0.96018E-08   -0.95043E-08  9702   0.456E-04
SDA:   6    -0.669277504709E+01    0.42971E+01   -0.95043E-08  9702   0.724E+01 0.000E+00
CGA:   7    -0.946301569251E+01   -0.27702E+01   -0.30262E+01  9702   0.436E+00-0.127E+01
CGA:   8    -0.958722342434E+01   -0.12421E+00   -0.12560E+00  9702   0.368E-01-0.866E-02
CGA:   9    -0.959849686986E+01   -0.11273E-01   -0.11246E-01  9702   0.456E-02 0.312E-03
CGA:  10    -0.960029821903E+01   -0.18013E-02   -0.17951E-02  9702   0.109E-02 0.493E-04
CGA:  11    -0.960084090486E+01   -0.54269E-03   -0.53963E-03  9702   0.297E-03 0.819E-05
CGA:  12    -0.960096807852E+01   -0.12717E-03   -0.12704E-03  9702   0.445E-04 0.385E-06
CGA:  13    -0.960098697674E+01   -0.18898E-04   -0.18893E-04  9702   0.791E-05 0.444E-07
CGA:  14    -0.960099070872E+01   -0.37320E-05   -0.37329E-05  9702   0.159E-05-0.426E-08
CGA:  15    -0.960099147609E+01   -0.76736E-06   -0.77322E-06  9702   0.313E-06-0.244E-07
   1 F= -.96009915E+01 E0= -.96006119E+01  d E =-.759195E-03
