    3    3    1    1
  0.3112991E+02  0.2322032E-09  0.2322032E-09  0.2000000E-08  0.5000000E-15
  1.000000000000000E-004
  CAR 
 PBE reference for HSE06                 
      4     43     16
 
  0.1276756E-14  0.1276756E-14  0.1276756E-14  0.6944444E-02
      1        -14.300351   1.000000
      2         -9.799628   1.000000
      3         -0.010139   0.000000
      4          1.079214   0.000000
      5          1.473544   0.000000
      6          2.475703   0.000000
      7          2.753462   0.000000
      8          4.707804   0.000000
      9          4.984707   0.000000
     10          7.784388   0.000000
     11          8.047701   0.000000
     12         11.685315   0.000000
     13         11.868112   0.000000
     14         13.095724   0.000000
     15         13.096005   0.000000
     16         15.615097   0.000000
 
  0.8333333E-01  0.1283695E-14  0.1276756E-14  0.2777778E-01
      1        -14.111814   1.000000
      2         -9.568183   1.000000
      3          0.222621   0.000000
      4          1.334586   0.000000
      5          1.729555   0.000000
      6          2.731745   0.000000
      7          3.000159   0.000000
      8          4.961990   0.000000
      9          5.221403   0.000000
     10          8.035014   0.000000
     11          8.268713   0.000000
     12         11.652951   0.000000
     13         11.943500   0.000000
     14         12.193471   0.000000
     15         12.401546   0.000000
     16         14.525573   0.000000
 
 -0.8333333E-01  0.8333333E-01  0.1276756E-14  0.1388889E-01
      1        -14.111810   1.000000
      2         -9.568181   1.000000
      3          0.222624   0.000000
      4          1.334590   0.000000
      5          1.729559   0.000000
      6          2.731749   0.000000
      7          3.000162   0.000000
      8          4.961994   0.000000
      9          5.221406   0.000000
     10          8.035017   0.000000
     11          8.268715   0.000000
     12         11.653146   0.000000
     13         11.943507   0.000000
     14         12.193569   0.000000
     15         12.401314   0.000000
     16         14.525549   0.000000
 
  0.1666667E+00  0.1290634E-14  0.1276756E-14  0.2777778E-01
      1        -13.550991   1.000000
      2         -8.883740   1.000000
      3          0.908423   0.000000
      4          2.096707   0.000000
      5          2.496471   0.000000
      6          3.495488   0.000000
      7          3.731963   0.000000
      8          5.706423   0.000000
      9          5.902790   0.000000
     10          8.159656   0.000000
     11          8.837325   0.000000
     12          9.206141   0.000000
     13         10.994422   0.000000
     14         12.589379   0.000000
     15         12.715454   0.000000
     16         13.031819   0.000000
 
 -0.1666667E+00  0.1666667E+00  0.1276756E-14  0.1388889E-01
      1        -13.550974   1.000000
      2         -8.883730   1.000000
      3          0.908437   0.000000
      4          2.096721   0.000000
      5          2.496486   0.000000
      6          3.495503   0.000000
      7          3.731977   0.000000
      8          5.706438   0.000000
      9          5.902802   0.000000
     10          8.159810   0.000000
     11          8.837342   0.000000
     12          9.206242   0.000000
     13         10.994155   0.000000
     14         12.589429   0.000000
     15         12.715471   0.000000
     16         13.031922   0.000000
 
  0.2500000E+00  0.1332268E-14  0.1276756E-14  0.2777778E-01
      1        -12.637330   1.000000
      2         -7.788338   1.000000
      3          1.909649   0.000000
      4          3.294867   0.000000
      5          3.750399   0.000000
      6          4.388222   0.000000
      7          4.851172   0.000000
      8          5.349349   0.000000
      9          7.033800   0.000000
     10          7.293399   0.000000
     11          9.614731   0.000000
     12          9.753995   0.000000
     13         10.140557   0.000000
     14         10.428288   0.000000
     15         13.624726   0.000000
     16         13.940159   0.000000
 
 -0.2500000E+00  0.2500000E+00  0.1276756E-14  0.1388889E-01
      1        -12.637292   1.000000
      2         -7.788319   1.000000
      3          1.909684   0.000000
      4          3.294901   0.000000
      5          3.750434   0.000000
      6          4.388297   0.000000
      7          4.851208   0.000000
      8          5.349443   0.000000
      9          7.033832   0.000000
     10          7.293457   0.000000
     11          9.614432   0.000000
     12          9.754139   0.000000
     13         10.140606   0.000000
     14         10.428427   0.000000
     15         13.624726   0.000000
     16         13.940184   0.000000
 
  0.3333333E+00  0.1276756E-14  0.1276756E-14  0.2777778E-01
      1        -11.429240   1.000000
      2         -6.429330   1.000000
      3          1.051780   0.000000
      4          4.080880   0.000000
      5          5.247604   0.000000
      6          5.592701   0.000000
      7          6.380738   0.000000
      8          6.656435   0.000000
      9          6.886075   0.000000
     10          8.542846   0.000000
     11          8.837724   0.000000
     12          8.949532   0.000000
     13         11.729255   0.000000
     14         11.867573   0.000000
     15         14.395215   0.000000
     16         15.296299   0.000000
 
 -0.3333333E+00  0.3333333E+00  0.1276756E-14  0.1388889E-01
      1        -11.429162   1.000000
      2         -6.429308   1.000000
      3          1.051864   0.000000
      4          4.080952   0.000000
      5          5.247663   0.000000
      6          5.592763   0.000000
      7          6.380908   0.000000
      8          6.656537   0.000000
      9          6.886175   0.000000
     10          8.542529   0.000000
     11          8.837789   0.000000
     12          8.949603   0.000000
     13         11.729313   0.000000
     14         11.867631   0.000000
     15         14.395215   0.000000
     16         15.296248   0.000000
 
  0.4166667E+00  0.1304512E-14  0.1276756E-14  0.2777778E-01
      1        -10.123088   1.000000
      2         -5.388890   1.000000
      3         -0.382319   0.000000
      4          3.249696   0.000000
      5          6.065801   0.000000
      6          7.540712   0.000000
      7          7.876245   0.000000
      8          7.894609   0.000000
      9          8.920096   0.000000
     10          8.990924   0.000000
     11         10.812084   0.000000
     12         11.113365   0.000000
     13         12.132299   0.000000
     14         13.534362   0.000000
     15         13.804848   0.000000
     16         14.036365   0.000000
 
 -0.4166667E+00  0.4166667E+00  0.1276756E-14  0.1388889E-01
      1        -10.122949   1.000000
      2         -5.388911   1.000000
      3         -0.382242   0.000000
      4          3.249918   0.000000
      5          6.065908   0.000000
      6          7.540808   0.000000
      7          7.875915   0.000000
      8          7.894703   0.000000
      9          8.920190   0.000000
     10          8.991025   0.000000
     11         10.812190   0.000000
     12         11.113456   0.000000
     13         12.132406   0.000000
     14         13.534470   0.000000
     15         13.804974   0.000000
     16         14.036433   0.000000
 
  0.5000000E+00  0.1332268E-14  0.1276756E-14  0.1388889E-01
      1         -9.414458   1.000000
      2         -5.325812   1.000000
      3          0.318050   0.000000
      4          0.964244   0.000000
      5          7.650899   0.000000
      6          7.888955   0.000000
      7          9.377328   0.000000
      8         10.335096   0.000000
      9         10.383724   0.000000
     10         10.676816   0.000000
     11         10.786475   0.000000
     12         11.556989   0.000000
     13         11.722795   0.000000
     14         11.734404   0.000000
     15         12.106216   0.000000
     16         13.346535   0.000000
 
  0.5000000E+00  0.5000000E+00  0.1276756E-14  0.6944444E-02
      1         -9.414264   1.000000
      2         -5.325898   1.000000
      3          0.318002   0.000000
      4          0.964597   0.000000
      5          7.650565   0.000000
      6          7.889130   0.000000
      7          9.377416   0.000000
      8         10.335226   0.000000
      9         10.383867   0.000000
     10         10.676941   0.000000
     11         10.786607   0.000000
     12         11.557114   0.000000
     13         11.722916   0.000000
     14         11.734547   0.000000
     15         12.106339   0.000000
     16         13.346602   0.000000
 
  0.8333333E-01  0.8333333E-01  0.1276756E-14  0.1388889E-01
      1        -13.736871   1.000000
      2         -9.110055   1.000000
      3          0.683556   0.000000
      4          1.843620   0.000000
      5          2.241214   0.000000
      6          3.242226   0.000000
      7          3.490926   0.000000
      8          5.465669   0.000000
      9          5.687243   0.000000
     10          8.505116   0.000000
     11          8.676798   0.000000
     12          9.738381   0.000000
     13         10.667901   0.000000
     14         12.435522   0.000000
     15         12.526681   0.000000
     16         14.149960   0.000000
 
 -0.8333333E-01  0.1666667E+00  0.1276756E-14  0.2777778E-01
      1        -13.736859   1.000000
      2         -9.110047   1.000000
      3          0.683567   0.000000
      4          1.843630   0.000000
      5          2.241225   0.000000
      6          3.242236   0.000000
      7          3.490937   0.000000
      8          5.465680   0.000000
      9          5.687252   0.000000
     10          8.505125   0.000000
     11          8.676801   0.000000
     12          9.738403   0.000000
     13         10.668058   0.000000
     14         12.435534   0.000000
     15         12.526708   0.000000
     16         14.149872   0.000000
 
  0.1666667E+00  0.8333333E-01  0.1276756E-14  0.2777778E-01
      1        -12.997099   1.000000
      2         -8.217855   1.000000
      3          1.571435   0.000000
      4          2.843768   0.000000
      5          3.261066   0.000000
      6          4.235700   0.000000
      7          4.444744   0.000000
      8          6.013771   0.000000
      9          6.544827   0.000000
     10          6.900824   0.000000
     11          8.904039   0.000000
     12          9.597417   0.000000
     13          9.817401   0.000000
     14         12.277088   0.000000
     15         13.214352   0.000000
     16         13.596559   0.000000
 
 -0.8333333E-01  0.2500000E+00  0.1276756E-14  0.2777778E-01
      1        -12.997079   1.000000
      2         -8.217843   1.000000
      3          1.571450   0.000000
      4          2.843784   0.000000
      5          3.261085   0.000000
      6          4.235716   0.000000
      7          4.444759   0.000000
      8          6.013753   0.000000
      9          6.544839   0.000000
     10          6.900824   0.000000
     11          8.904180   0.000000
     12          9.597441   0.000000
     13          9.817478   0.000000
     14         12.276990   0.000000
     15         13.214395   0.000000
     16         13.596568   0.000000
 
 -0.2500000E+00  0.1666667E+00  0.1276756E-14  0.2777778E-01
      1        -12.997065   1.000000
      2         -8.217836   1.000000
      3          1.571462   0.000000
      4          2.843795   0.000000
      5          3.261096   0.000000
      6          4.235728   0.000000
      7          4.444771   0.000000
      8          6.013839   0.000000
      9          6.544854   0.000000
     10          6.900889   0.000000
     11          8.904018   0.000000
     12          9.597446   0.000000
     13          9.817477   0.000000
     14         12.277187   0.000000
     15         13.214356   0.000000
     16         13.596584   0.000000
 
  0.2500000E+00  0.8333333E-01  0.1276756E-14  0.2777778E-01
      1        -11.924281   1.000000
      2         -6.974649   1.000000
      3          2.112631   0.000000
      4          3.507542   0.000000
      5          4.535097   0.000000
      6          4.824259   0.000000
      7          5.834194   0.000000
      8          6.009288   0.000000
      9          7.460121   0.000000
     10          7.932470   0.000000
     11          8.131031   0.000000
     12          9.310678   0.000000
     13         11.071287   0.000000
     14         11.282277   0.000000
     15         13.678948   0.000000
     16         14.989486   0.000000
 
 -0.8333333E-01  0.3333333E+00  0.1276756E-14  0.2777778E-01
      1        -11.924255   1.000000
      2         -6.974636   1.000000
      3          2.112615   0.000000
      4          3.507544   0.000000
      5          4.535120   0.000000
      6          4.824283   0.000000
      7          5.834216   0.000000
      8          6.009306   0.000000
      9          7.460269   0.000000
     10          7.932472   0.000000
     11          8.131048   0.000000
     12          9.310618   0.000000
     13         11.071317   0.000000
     14         11.282326   0.000000
     15         13.678998   0.000000
     16         14.989502   0.000000
 
 -0.3333333E+00  0.2500000E+00  0.1276756E-14  0.2777778E-01
      1        -11.924215   1.000000
      2         -6.974622   1.000000
      3          2.112692   0.000000
      4          3.507598   0.000000
      5          4.535161   0.000000
      6          4.824314   0.000000
      7          5.834245   0.000000
      8          6.009336   0.000000
      9          7.460157   0.000000
     10          7.932537   0.000000
     11          8.131106   0.000000
     12          9.310691   0.000000
     13         11.071341   0.000000
     14         11.282351   0.000000
     15         13.678873   0.000000
     16         14.989522   0.000000
 
  0.3333333E+00  0.8333333E-01  0.1276756E-14  0.2777778E-01
      1        -10.618340   1.000000
      2         -5.699692   1.000000
      3          0.188663   0.000000
      4          4.845903   0.000000
      5          4.962270   0.000000
      6          6.505276   0.000000
      7          6.813478   0.000000
      8          7.265338   0.000000
      9          7.921734   0.000000
     10          8.212440   0.000000
     11         10.050397   0.000000
     12         10.158797   0.000000
     13         12.200234   0.000000
     14         13.176019   0.000000
     15         14.220634   0.000000
     16         14.873257   0.000000
 
 -0.8333333E-01  0.4166667E+00  0.1276756E-14  0.2777778E-01
      1        -10.618312   1.000000
      2         -5.699689   1.000000
      3          0.188648   0.000000
      4          4.845873   0.000000
      5          4.962308   0.000000
      6          6.505305   0.000000
      7          6.813502   0.000000
      8          7.265354   0.000000
      9          7.921765   0.000000
     10          8.212502   0.000000
     11         10.050436   0.000000
     12         10.158843   0.000000
     13         12.200257   0.000000
     14         13.176053   0.000000
     15         14.220640   0.000000
     16         14.873266   0.000000
 
 -0.4166667E+00  0.3333333E+00  0.1276756E-14  0.2777778E-01
      1        -10.618225   1.000000
      2         -5.699685   1.000000
      3          0.188730   0.000000
      4          4.846055   0.000000
      5          4.962373   0.000000
      6          6.505362   0.000000
      7          6.813532   0.000000
      8          7.265235   0.000000
      9          7.921821   0.000000
     10          8.212504   0.000000
     11         10.050488   0.000000
     12         10.158891   0.000000
     13         12.200238   0.000000
     14         13.176104   0.000000
     15         14.220677   0.000000
     16         14.873275   0.000000
 
  0.4166667E+00  0.8333333E-01  0.1276756E-14  0.2777778E-01
      1         -9.451775   1.000000
      2         -5.295598   1.000000
      3         -0.053557   0.000000
      4          2.021044   0.000000
      5          6.258325   0.000000
      6          7.565295   0.000000
      7          9.085774   0.000000
      8          9.385538   0.000000
      9         10.042457   0.000000
     10         10.475607   0.000000
     11         11.086247   0.000000
     12         12.102279   0.000000
     13         12.248971   0.000000
     14         12.667858   0.000000
     15         12.675236   0.000000
     16         13.520284   0.000000
 
 -0.8333333E-01  0.5000000E+00  0.1276756E-14  0.2777778E-01
      1         -9.451759   1.000000
      2         -5.295608   1.000000
      3         -0.053539   0.000000
      4          2.021018   0.000000
      5          6.258287   0.000000
      6          7.565391   0.000000
      7          9.085814   0.000000
      8          9.385575   0.000000
      9         10.042455   0.000000
     10         10.475649   0.000000
     11         11.086244   0.000000
     12         12.102259   0.000000
     13         12.248947   0.000000
     14         12.667826   0.000000
     15         12.675277   0.000000
     16         13.520262   0.000000
 
  0.5000000E+00  0.4166667E+00  0.1276756E-14  0.2777778E-01
      1         -9.451596   1.000000
      2         -5.295674   1.000000
      3         -0.053476   0.000000
      4          2.021258   0.000000
      5          6.258112   0.000000
      6          7.565413   0.000000
      7          9.085901   0.000000
      8          9.385667   0.000000
      9         10.042557   0.000000
     10         10.475736   0.000000
     11         11.086336   0.000000
     12         12.102393   0.000000
     13         12.249058   0.000000
     14         12.667957   0.000000
     15         12.675365   0.000000
     16         13.520404   0.000000
 
  0.1666667E+00  0.1666667E+00  0.1276756E-14  0.1388889E-01
      1        -12.090473   1.000000
      2         -7.169027   1.000000
      3          2.606572   0.000000
      4          3.423599   0.000000
      5          4.416261   0.000000
      6          4.526520   0.000000
      7          5.547263   0.000000
      8          5.636408   0.000000
      9          6.884388   0.000000
     10          7.824828   0.000000
     11          8.065176   0.000000
     12         10.339803   0.000000
     13         10.689749   0.000000
     14         11.496118   0.000000
     15         12.455103   0.000000
     16         14.827389   0.000000
 
 -0.1666667E+00  0.3333333E+00  0.1276756E-14  0.2777778E-01
      1        -12.090425   1.000000
      2         -7.169004   1.000000
      3          2.606601   0.000000
      4          3.423595   0.000000
      5          4.416300   0.000000
      6          4.526563   0.000000
      7          5.547294   0.000000
      8          5.636453   0.000000
      9          6.884464   0.000000
     10          7.824873   0.000000
     11          8.065260   0.000000
     12         10.339769   0.000000
     13         10.689817   0.000000
     14         11.496269   0.000000
     15         12.455021   0.000000
     16         14.827431   0.000000
 
  0.2500000E+00  0.1666667E+00  0.1276756E-14  0.2777778E-01
      1        -10.877621   1.000000
      2         -5.940172   1.000000
      3          1.178995   0.000000
      4          3.780604   0.000000
      5          5.720834   0.000000
      6          6.012402   0.000000
      7          6.358234   0.000000
      8          7.134128   0.000000
      9          7.403163   0.000000
     10          8.162915   0.000000
     11          9.357331   0.000000
     12          9.743907   0.000000
     13         10.836107   0.000000
     14         12.730935   0.000000
     15         13.363744   0.000000
     16         16.456159   0.000000
 
 -0.1666667E+00  0.4166667E+00  0.1276756E-14  0.2777778E-01
      1        -10.877563   1.000000
      2         -5.940158   1.000000
      3          1.178961   0.000000
      4          3.780631   0.000000
      5          5.720943   0.000000
      6          6.012461   0.000000
      7          6.358289   0.000000
      8          7.134095   0.000000
      9          7.403215   0.000000
     10          8.162913   0.000000
     11          9.357424   0.000000
     12          9.744000   0.000000
     13         10.836147   0.000000
     14         12.730999   0.000000
     15         13.363803   0.000000
     16         16.456113   0.000000
 
 -0.4166667E+00  0.2500000E+00  0.1276756E-14  0.2777778E-01
      1        -10.877534   1.000000
      2         -5.940154   1.000000
      3          1.179026   0.000000
      4          3.780593   0.000000
      5          5.720942   0.000000
      6          6.012476   0.000000
      7          6.358320   0.000000
      8          7.134178   0.000000
      9          7.403243   0.000000
     10          8.162995   0.000000
     11          9.357376   0.000000
     12          9.744004   0.000000
     13         10.836033   0.000000
     14         12.731017   0.000000
     15         13.363781   0.000000
     16         16.456233   0.000000
 
  0.3333333E+00  0.1666667E+00  0.1276756E-14  0.2777778E-01
      1         -9.522767   1.000000
      2         -5.259476   1.000000
      3          0.062607   0.000000
      4          3.611397   0.000000
      5          4.586082   0.000000
      6          7.127283   0.000000
      7          8.323633   0.000000
      8          8.612060   0.000000
      9          9.168407   0.000000
     10          9.727450   0.000000
     11         10.373760   0.000000
     12         11.944762   0.000000
     13         12.404481   0.000000
     14         13.322500   0.000000
     15         14.448985   0.000000
     16         14.878060   0.000000
 
 -0.1666667E+00  0.5000000E+00  0.1276756E-14  0.2777778E-01
      1         -9.522711   1.000000
      2         -5.259500   1.000000
      3          0.062625   0.000000
      4          3.611434   0.000000
      5          4.585965   0.000000
      6          7.127403   0.000000
      7          8.323699   0.000000
      8          8.612140   0.000000
      9          9.168461   0.000000
     10          9.727529   0.000000
     11         10.373814   0.000000
     12         11.944837   0.000000
     13         12.404552   0.000000
     14         13.322413   0.000000
     15         14.448885   0.000000
     16         14.877962   0.000000
 
  0.5000000E+00  0.3333333E+00  0.1276756E-14  0.2777778E-01
      1         -9.522621   1.000000
      2         -5.259529   1.000000
      3          0.062689   0.000000
      4          3.611556   0.000000
      5          4.585948   0.000000
      6          7.127398   0.000000
      7          8.323746   0.000000
      8          8.612163   0.000000
      9          9.168411   0.000000
     10          9.727571   0.000000
     11         10.373779   0.000000
     12         11.944882   0.000000
     13         12.404550   0.000000
     14         13.322576   0.000000
     15         14.449100   0.000000
     16         14.878180   0.000000
 
  0.4166667E+00  0.1666667E+00  0.1276756E-14  0.2777778E-01
      1         -8.732516   1.000000
      2         -5.475531   1.000000
      3          1.055002   0.000000
      4          1.519470   0.000000
      5          4.424315   0.000000
      6          7.784719   0.000000
      7         10.450575   0.000000
      8         10.493744   0.000000
      9         11.133357   0.000000
     10         11.182443   0.000000
     11         11.552753   0.000000
     12         11.587482   0.000000
     13         12.499987   0.000000
     14         12.565897   0.000000
     15         12.783121   0.000000
     16         12.982643   0.000000
 
  0.4166667E+00  0.4166667E+00  0.1276756E-14  0.1388889E-01
      1         -8.732333   1.000000
      2         -5.475646   1.000000
      3          1.054944   0.000000
      4          1.519820   0.000000
      5          4.424138   0.000000
      6          7.784749   0.000000
      7         10.450534   0.000000
      8         10.493834   0.000000
      9         11.133462   0.000000
     10         11.182566   0.000000
     11         11.552860   0.000000
     12         11.587600   0.000000
     13         12.500117   0.000000
     14         12.566009   0.000000
     15         12.783210   0.000000
     16         12.982768   0.000000
 
  0.2500000E+00  0.2500000E+00  0.1276756E-14  0.1388889E-01
      1         -9.556607   1.000000
      2         -5.252695   1.000000
      3          0.375798   0.000000
      4          3.231626   0.000000
      5          5.601807   0.000000
      6          6.741958   0.000000
      7          7.715253   0.000000
      8          8.109629   0.000000
      9          8.512398   0.000000
     10          9.475276   0.000000
     11          9.883937   0.000000
     12         11.702665   0.000000
     13         12.064223   0.000000
     14         14.744931   0.000000
     15         14.909007   0.000000
     16         15.136589   0.000000
 
 -0.2500000E+00  0.5000000E+00  0.1276756E-14  0.2777778E-01
      1         -9.556505   1.000000
      2         -5.252731   1.000000
      3          0.375836   0.000000
      4          3.231638   0.000000
      5          5.601748   0.000000
      6          6.742094   0.000000
      7          7.715243   0.000000
      8          8.109738   0.000000
      9          8.512483   0.000000
     10          9.475380   0.000000
     11          9.884017   0.000000
     12         11.702767   0.000000
     13         12.064317   0.000000
     14         14.745018   0.000000
     15         14.909102   0.000000
     16         15.136512   0.000000
 
  0.3333333E+00  0.2500000E+00  0.1276756E-14  0.2777778E-01
      1         -8.212109   1.000000
      2         -5.693087   1.000000
      3          1.161263   0.000000
      4          2.670812   0.000000
      5          3.644481   0.000000
      6          5.904266   0.000000
      7          9.559419   0.000000
      8         10.642554   0.000000
      9         11.017878   0.000000
     10         12.004984   0.000000
     11         12.097019   0.000000
     12         12.553315   0.000000
     13         13.685460   0.000000
     14         14.085718   0.000000
     15         14.247787   0.000000
     16         14.383186   0.000000
 
 -0.2500000E+00 -0.4166667E+00  0.1276756E-14  0.2777778E-01
      1         -8.212031   1.000000
      2         -5.693153   1.000000
      3          1.161344   0.000000
      4          2.670869   0.000000
      5          3.644301   0.000000
      6          5.904330   0.000000
      7          9.559519   0.000000
      8         10.642677   0.000000
      9         11.017999   0.000000
     10         12.005063   0.000000
     11         12.097082   0.000000
     12         12.553284   0.000000
     13         13.685330   0.000000
     14         14.085582   0.000000
     15         14.247903   0.000000
     16         14.383281   0.000000
 
  0.4166667E+00  0.3333333E+00  0.1276756E-14  0.2777778E-01
      1         -8.211941   1.000000
      2         -5.693220   1.000000
      3          1.161387   0.000000
      4          2.670872   0.000000
      5          3.644433   0.000000
      6          5.904151   0.000000
      7          9.559530   0.000000
      8         10.642703   0.000000
      9         11.018025   0.000000
     10         12.005119   0.000000
     11         12.097144   0.000000
     12         12.553362   0.000000
     13         13.685511   0.000000
     14         14.085781   0.000000
     15         14.247924   0.000000
     16         14.383291   0.000000
 
  0.3333333E+00  0.3333333E+00  0.1276756E-14  0.1388889E-01
      1         -6.835851   1.000000
      2         -6.835655   1.000000
      3          2.292263   0.000000
      4          3.175732   0.000000
      5          3.362352   0.000000
      6          3.362685   0.000000
      7         11.534253   0.000000
      8         11.534410   0.000000
      9         13.015280   0.000000
     10         13.382499   0.000000
     11         13.491793   0.000000
     12         13.491904   0.000000
     13         13.827384   0.000000
     14         13.827491   0.000000
     15         13.946666   0.000000
     16         14.798932   0.000000
