phonon_dispersion                       
           1
    12.828426    0.000000    0.000000
     0.000000   12.827498    0.000000
     0.000000    0.000000   40.000000
   Be   H 
   108    18
Direct configuration=     1
   0.33251527  0.33301976  0.14010602
   0.33251527  0.66635311  0.14010602
   0.33251527  0.99968642  0.14010602
   0.66584861  0.33301976  0.14010602
   0.66584861  0.66635311  0.14010602
   0.66584861  0.99968642  0.14010602
   0.99918193  0.33301976  0.14010602
   0.99918193  0.66635311  0.14010602
   0.99918193  0.99968642  0.14010602
   0.16748472  0.33301976  0.14010602
   0.16748472  0.66635311  0.14010602
   0.16748472  0.99968642  0.14010602
   0.50081807  0.33301976  0.14010602
   0.50081807  0.66635311  0.14010602
   0.50081807  0.99968642  0.14010602
   0.83415139  0.33301976  0.14010602
   0.83415139  0.66635311  0.14010602
   0.83415139  0.99968642  0.14010602
   0.33251527  0.16698025  0.14010602
   0.33251527  0.50031358  0.14010602
   0.33251527  0.83364689  0.14010602
   0.66584861  0.16698025  0.14010602
   0.66584861  0.50031358  0.14010602
   0.66584861  0.83364689  0.14010602
   0.99918193  0.16698025  0.14010602
   0.99918193  0.50031358  0.14010602
   0.99918193  0.83364689  0.14010602
   0.16748472  0.16698025  0.14010602
   0.16748472  0.50031358  0.14010602
   0.16748472  0.83364689  0.14010602
   0.50081807  0.16698025  0.14010602
   0.50081807  0.50031358  0.14010602
   0.50081807  0.83364689  0.14010602
   0.83415139  0.16698025  0.14010602
   0.83415139  0.50031358  0.14010602
   0.83415139  0.83364689  0.14010602
   0.08333334  0.08333334  0.09871246
   0.08333334  0.41666666  0.09871246
   0.08333334  0.75000000  0.09871246
   0.41666666  0.08333334  0.09871246
   0.41666666  0.41666666  0.09871246
   0.41666666  0.75000000  0.09871246
   0.75000000  0.08333334  0.09871246
   0.75000000  0.41666666  0.09871246
   0.75000000  0.75000000  0.09871246
   0.08333334  0.25000000  0.10128754
   0.08333334  0.58333331  0.10128754
   0.08333334  0.91666669  0.10128754
   0.41666666  0.25000000  0.10128754
   0.41666666  0.58333331  0.10128754
   0.41666666  0.91666669  0.10128754
   0.75000000  0.25000000  0.10128754
   0.75000000  0.58333331  0.10128754
   0.75000000  0.91666669  0.10128754
   0.25000000  0.08333334  0.10142042
   0.25000000  0.41666666  0.10142042
   0.25000000  0.75000000  0.10142042
   0.58333331  0.08333334  0.10142042
   0.58333331  0.41666666  0.10142042
   0.58333331  0.75000000  0.10142042
   0.91666669  0.08333334  0.10142042
   0.91666669  0.41666666  0.10142042
   0.91666669  0.75000000  0.10142042
   0.25000000  0.25000000  0.09857959
   0.25000000  0.58333331  0.09857959
   0.25000000  0.91666669  0.09857959
   0.58333331  0.25000000  0.09857959
   0.58333331  0.58333331  0.09857959
   0.58333331  0.91666669  0.09857959
   0.91666669  0.25000000  0.09857959
   0.91666669  0.58333331  0.09857959
   0.91666669  0.91666669  0.09857959
   0.33251527  0.00031358  0.05989398
   0.33251527  0.33364692  0.05989398
   0.33251527  0.66698027  0.05989398
   0.66584861  0.00031358  0.05989398
   0.66584861  0.33364692  0.05989398
   0.66584861  0.66698027  0.05989398
   0.99918193  0.00031358  0.05989398
   0.99918193  0.33364692  0.05989398
   0.99918193  0.66698027  0.05989398
   0.16748472  0.00031358  0.05989398
   0.16748472  0.33364692  0.05989398
   0.16748472  0.66698027  0.05989398
   0.50081807  0.00031358  0.05989398
   0.50081807  0.33364692  0.05989398
   0.50081807  0.66698027  0.05989398
   0.83415139  0.00031358  0.05989398
   0.83415139  0.33364692  0.05989398
   0.83415139  0.66698027  0.05989398
   0.33251527  0.16635309  0.05989398
   0.33251527  0.49968642  0.05989398
   0.33251527  0.83301973  0.05989398
   0.66584861  0.16635309  0.05989398
   0.66584861  0.49968642  0.05989398
   0.66584861  0.83301973  0.05989398
   0.99918193  0.16635309  0.05989398
   0.99918193  0.49968642  0.05989398
   0.99918193  0.83301973  0.05989398
   0.16748472  0.16635309  0.05989398
   0.16748472  0.49968642  0.05989398
   0.16748472  0.83301973  0.05989398
   0.50081807  0.16635309  0.05989398
   0.50081807  0.49968642  0.05989398
   0.50081807  0.83301973  0.05989398
   0.83415139  0.16635309  0.05989398
   0.83415139  0.49968642  0.05989398
   0.83415139  0.83301973  0.05989398
   0.08333334  0.08333334  0.16106471
   0.08333334  0.41666666  0.16106471
   0.08333334  0.75000000  0.16106471
   0.41666666  0.08333334  0.16106471
   0.41666666  0.41666666  0.16106471
   0.41666666  0.75000000  0.16106471
   0.75000000  0.08333334  0.16106471
   0.75000000  0.41666666  0.16106471
   0.75000000  0.75000000  0.16106471
   0.08333334  0.25000000  0.03893528
   0.08333334  0.58333331  0.03893528
   0.08333334  0.91666669  0.03893528
   0.41666666  0.25000000  0.03893528
   0.41666666  0.58333331  0.03893528
   0.41666666  0.91666669  0.03893528
   0.75000000  0.25000000  0.03893528
   0.75000000  0.58333331  0.03893528
   0.75000000  0.91666669  0.03893528
