       N       E                     dE             d eps       ncg     rms          rms(c)
DAV:   1     0.282079961607E+02    0.28208E+02   -0.10350E+03  4536   0.144E+02
DAV:   2     0.823253666444E+01   -0.19975E+02   -0.19838E+02  7348   0.235E+01
DAV:   3     0.789177709340E+01   -0.34076E+00   -0.33317E+00  7688   0.414E+00
DAV:   4     0.789054153304E+01   -0.12356E-02   -0.12247E-02  7232   0.274E-01
DAV:   5     0.789053911773E+01   -0.24153E-05   -0.24153E-05  7392   0.128E-02
DAV:   6     0.789053911171E+01   -0.60152E-08   -0.58973E-08  7208   0.615E-04
   1 F= 0.78905391E+01 E0= 0.78955882E+01  d E =-.100981E-01  mag=    -0.0000    -0.0000     0.0000
