   1   1   0   0
  0.1572813E+03  0.2130000E-09  0.2131204E-09  0.4000000E-08  0.5000000E-15
  1.000000000000000E-004
  CAR 
 Convergence                             
     34.46545704    -12.80613329  301     -4.22934565      1.00000000
    -12.806  0.0000E+00  0.0000E+00
    -12.649  0.0000E+00  0.0000E+00
    -12.491  0.0000E+00  0.0000E+00
    -12.333  0.0000E+00  0.0000E+00
    -12.176  0.0000E+00  0.0000E+00
    -12.018  0.0000E+00  0.0000E+00
    -11.861  0.0000E+00  0.0000E+00
    -11.703  0.0000E+00  0.0000E+00
    -11.546  0.0000E+00  0.0000E+00
    -11.388  0.0000E+00  0.0000E+00
    -11.230  0.0000E+00  0.0000E+00
    -11.073  0.0000E+00  0.0000E+00
    -10.915  0.1217E-14  0.1917E-15
    -10.758  0.3590E-04  0.5657E-05
    -10.600  0.8766E-01  0.1382E-01
    -10.443  0.2386E+00  0.5141E-01
    -10.285  0.2418E+00  0.8952E-01
    -10.127  0.2397E+00  0.1273E+00
     -9.970  0.2450E+00  0.1659E+00
     -9.812  0.2482E+00  0.2050E+00
     -9.655  0.2105E+00  0.2382E+00
     -9.497  0.2388E+00  0.2758E+00
     -9.340  0.2787E+00  0.3197E+00
     -9.182  0.1946E+00  0.3504E+00
     -9.024  0.2818E+00  0.3948E+00
     -8.867  0.2292E+00  0.4309E+00
     -8.709  0.2496E+00  0.4702E+00
     -8.552  0.2484E+00  0.5094E+00
     -8.394  0.2503E+00  0.5488E+00
     -8.237  0.2568E+00  0.5893E+00
     -8.079  0.2637E+00  0.6308E+00
     -7.921  0.2005E+00  0.6624E+00
     -7.764  0.3023E+00  0.7101E+00
     -7.606  0.1910E+00  0.7402E+00
     -7.449  0.3538E+00  0.7959E+00
     -7.291  0.2126E+00  0.8294E+00
     -7.134  0.2462E+00  0.8682E+00
     -6.976  0.3004E+00  0.9155E+00
     -6.818  0.1935E+00  0.9460E+00
     -6.661  0.3656E+00  0.1004E+01
     -6.503  0.2281E+00  0.1040E+01
     -6.346  0.2221E+00  0.1075E+01
     -6.188  0.4134E+00  0.1140E+01
     -6.031  0.2324E+00  0.1176E+01
     -5.873  0.2482E+00  0.1215E+01
     -5.715  0.4144E+00  0.1281E+01
     -5.558  0.2595E+00  0.1322E+01
     -5.400  0.4815E+00  0.1398E+01
     -5.243  0.7078E+00  0.1509E+01
     -5.085  0.4612E+00  0.1582E+01
     -4.928  0.8326E+00  0.1713E+01
     -4.770  0.4417E+00  0.1783E+01
     -4.612  0.3919E+00  0.1844E+01
     -4.455  0.4848E+00  0.1921E+01
     -4.297  0.4092E+00  0.1985E+01
     -4.140  0.2617E+00  0.2026E+01
     -3.982  0.4389E+00  0.2096E+01
     -3.825  0.2830E+00  0.2140E+01
     -3.667  0.3190E+00  0.2190E+01
     -3.509  0.2283E+00  0.2226E+01
     -3.352  0.4386E+00  0.2295E+01
     -3.194  0.1558E+00  0.2320E+01
     -3.037  0.2100E+00  0.2353E+01
     -2.879  0.3927E+00  0.2415E+01
     -2.722  0.1256E+00  0.2435E+01
     -2.564  0.2697E+00  0.2477E+01
     -2.406  0.2679E+00  0.2519E+01
     -2.249  0.1322E+00  0.2540E+01
     -2.091  0.2572E+00  0.2581E+01
     -1.934  0.1671E+00  0.2607E+01
     -1.776  0.1831E+00  0.2636E+01
     -1.619  0.1444E+00  0.2659E+01
     -1.461  0.2590E+00  0.2700E+01
     -1.303  0.1401E+00  0.2722E+01
     -1.146  0.1490E+00  0.2745E+01
     -0.988  0.2404E+00  0.2783E+01
     -0.831  0.2239E+00  0.2818E+01
     -0.673  0.1330E+00  0.2839E+01
     -0.516  0.2488E+00  0.2878E+01
     -0.358  0.2838E+00  0.2923E+01
     -0.200  0.2350E+00  0.2960E+01
     -0.043  0.3646E+00  0.3018E+01
      0.115  0.5080E+00  0.3098E+01
      0.272  0.4262E+00  0.3165E+01
      0.430  0.4815E+00  0.3241E+01
      0.587  0.6519E+00  0.3343E+01
      0.745  0.9688E+00  0.3496E+01
      0.903  0.1073E+01  0.3665E+01
      1.060  0.1116E+01  0.3841E+01
      1.218  0.1518E+01  0.4080E+01
      1.375  0.1629E+01  0.4337E+01
      1.533  0.1818E+01  0.4623E+01
      1.690  0.1658E+01  0.4885E+01
      1.848  0.1579E+01  0.5133E+01
      2.006  0.1727E+01  0.5406E+01
      2.163  0.1823E+01  0.5693E+01
      2.321  0.1972E+01  0.6004E+01
      2.478  0.1871E+01  0.6298E+01
      2.636  0.1848E+01  0.6589E+01
      2.793  0.2071E+01  0.6916E+01
      2.951  0.1727E+01  0.7188E+01
      3.109  0.2390E+01  0.7564E+01
      3.266  0.2117E+01  0.7898E+01
      3.424  0.2254E+01  0.8253E+01
      3.581  0.2492E+01  0.8646E+01
      3.739  0.2237E+01  0.8998E+01
      3.896  0.2379E+01  0.9373E+01
      4.054  0.2478E+01  0.9764E+01
      4.212  0.2451E+01  0.1015E+02
      4.369  0.2539E+01  0.1055E+02
      4.527  0.2392E+01  0.1093E+02
      4.684  0.2029E+01  0.1125E+02
      4.842  0.2566E+01  0.1165E+02
      4.999  0.2111E+01  0.1198E+02
      5.157  0.2161E+01  0.1232E+02
      5.315  0.1973E+01  0.1263E+02
      5.472  0.2440E+01  0.1302E+02
      5.630  0.2642E+01  0.1344E+02
      5.787  0.2650E+01  0.1385E+02
      5.945  0.2836E+01  0.1430E+02
      6.103  0.3014E+01  0.1477E+02
      6.260  0.2435E+01  0.1516E+02
      6.418  0.2598E+01  0.1557E+02
      6.575  0.3347E+01  0.1610E+02
      6.733  0.3162E+01  0.1659E+02
      6.890  0.2467E+01  0.1698E+02
      7.048  0.3277E+01  0.1750E+02
      7.206  0.3266E+01  0.1801E+02
      7.363  0.3268E+01  0.1853E+02
      7.521  0.2609E+01  0.1894E+02
      7.678  0.3661E+01  0.1952E+02
      7.836  0.3185E+01  0.2002E+02
      7.993  0.2878E+01  0.2047E+02
      8.151  0.3272E+01  0.2099E+02
      8.309  0.3155E+01  0.2148E+02
      8.466  0.3395E+01  0.2202E+02
      8.624  0.3328E+01  0.2254E+02
      8.781  0.3277E+01  0.2306E+02
      8.939  0.2877E+01  0.2351E+02
      9.096  0.3334E+01  0.2404E+02
      9.254  0.3798E+01  0.2464E+02
      9.412  0.3591E+01  0.2520E+02
      9.569  0.3747E+01  0.2579E+02
      9.727  0.3587E+01  0.2636E+02
      9.884  0.2903E+01  0.2682E+02
     10.042  0.3970E+01  0.2744E+02
     10.199  0.3137E+01  0.2794E+02
     10.357  0.3432E+01  0.2848E+02
     10.515  0.4112E+01  0.2912E+02
     10.672  0.3854E+01  0.2973E+02
     10.830  0.3303E+01  0.3025E+02
     10.987  0.3933E+01  0.3087E+02
     11.145  0.3633E+01  0.3144E+02
     11.302  0.4379E+01  0.3213E+02
     11.460  0.3095E+01  0.3262E+02
     11.618  0.3736E+01  0.3321E+02
     11.775  0.4562E+01  0.3393E+02
     11.933  0.4518E+01  0.3464E+02
     12.090  0.4263E+01  0.3531E+02
     12.248  0.3676E+01  0.3589E+02
     12.405  0.3732E+01  0.3648E+02
     12.563  0.3341E+01  0.3701E+02
     12.721  0.4679E+01  0.3774E+02
     12.878  0.3551E+01  0.3830E+02
     13.036  0.4250E+01  0.3897E+02
     13.193  0.4353E+01  0.3966E+02
     13.351  0.4167E+01  0.4032E+02
     13.508  0.4568E+01  0.4104E+02
     13.666  0.4336E+01  0.4172E+02
     13.824  0.4166E+01  0.4238E+02
     13.981  0.3755E+01  0.4297E+02
     14.139  0.3743E+01  0.4356E+02
     14.296  0.4310E+01  0.4424E+02
     14.454  0.4206E+01  0.4490E+02
     14.611  0.4865E+01  0.4567E+02
     14.769  0.3493E+01  0.4622E+02
     14.927  0.3787E+01  0.4681E+02
     15.084  0.4257E+01  0.4748E+02
     15.242  0.4773E+01  0.4824E+02
     15.399  0.4365E+01  0.4892E+02
     15.557  0.4712E+01  0.4967E+02
     15.714  0.4365E+01  0.5035E+02
     15.872  0.4665E+01  0.5109E+02
     16.030  0.3770E+01  0.5168E+02
     16.187  0.4885E+01  0.5245E+02
     16.345  0.4218E+01  0.5312E+02
     16.502  0.4089E+01  0.5376E+02
     16.660  0.4522E+01  0.5447E+02
     16.817  0.4476E+01  0.5518E+02
     16.975  0.4516E+01  0.5589E+02
     17.133  0.4265E+01  0.5656E+02
     17.290  0.4586E+01  0.5729E+02
     17.448  0.4584E+01  0.5801E+02
     17.605  0.4697E+01  0.5875E+02
     17.763  0.4543E+01  0.5946E+02
     17.920  0.4434E+01  0.6016E+02
     18.078  0.4784E+01  0.6092E+02
     18.236  0.5086E+01  0.6172E+02
     18.393  0.4174E+01  0.6238E+02
     18.551  0.4716E+01  0.6312E+02
     18.708  0.4287E+01  0.6379E+02
     18.866  0.4467E+01  0.6450E+02
     19.023  0.4430E+01  0.6520E+02
     19.181  0.4676E+01  0.6593E+02
     19.339  0.4559E+01  0.6665E+02
     19.496  0.4768E+01  0.6740E+02
     19.654  0.4359E+01  0.6809E+02
     19.811  0.4440E+01  0.6879E+02
     19.969  0.3289E+01  0.6931E+02
     20.126  0.3797E+01  0.6991E+02
     20.284  0.3973E+01  0.7053E+02
     20.442  0.3838E+01  0.7114E+02
     20.599  0.3380E+01  0.7167E+02
     20.757  0.3481E+01  0.7222E+02
     20.914  0.3431E+01  0.7276E+02
     21.072  0.3447E+01  0.7330E+02
     21.229  0.3029E+01  0.7378E+02
     21.387  0.2292E+01  0.7414E+02
     21.545  0.3168E+01  0.7464E+02
     21.702  0.2481E+01  0.7503E+02
     21.860  0.1953E+01  0.7534E+02
     22.017  0.1877E+01  0.7563E+02
     22.175  0.1857E+01  0.7593E+02
     22.332  0.2025E+01  0.7624E+02
     22.490  0.1357E+01  0.7646E+02
     22.648  0.1640E+01  0.7672E+02
     22.805  0.1854E+01  0.7701E+02
     22.963  0.1590E+01  0.7726E+02
     23.120  0.2102E+01  0.7759E+02
     23.278  0.1787E+01  0.7787E+02
     23.435  0.1282E+01  0.7807E+02
     23.593  0.1959E+01  0.7838E+02
     23.751  0.1168E+01  0.7857E+02
     23.908  0.1931E+01  0.7887E+02
     24.066  0.1390E+01  0.7909E+02
     24.223  0.1048E+01  0.7926E+02
     24.381  0.1433E+01  0.7948E+02
     24.538  0.1366E+01  0.7970E+02
     24.696  0.1205E+01  0.7989E+02
     24.854  0.9046E+00  0.8003E+02
     25.011  0.1224E+01  0.8022E+02
     25.169  0.1241E+01  0.8042E+02
     25.326  0.1723E+01  0.8069E+02
     25.484  0.1293E+01  0.8089E+02
     25.641  0.7727E+00  0.8101E+02
     25.799  0.7840E+00  0.8114E+02
     25.957  0.8991E+00  0.8128E+02
     26.114  0.1132E+01  0.8146E+02
     26.272  0.9325E+00  0.8160E+02
     26.429  0.1014E+01  0.8176E+02
     26.587  0.7058E+00  0.8188E+02
     26.744  0.5930E+00  0.8197E+02
     26.902  0.6237E+00  0.8207E+02
     27.060  0.3124E+00  0.8212E+02
     27.217  0.4705E+00  0.8219E+02
     27.375  0.5754E+00  0.8228E+02
     27.532  0.7923E+00  0.8241E+02
     27.690  0.9600E+00  0.8256E+02
     27.847  0.4951E+00  0.8264E+02
     28.005  0.4945E+00  0.8271E+02
     28.163  0.4944E+00  0.8279E+02
     28.320  0.6305E+00  0.8289E+02
     28.478  0.5991E+00  0.8299E+02
     28.635  0.2443E+00  0.8302E+02
     28.793  0.2126E+00  0.8306E+02
     28.950  0.1726E+00  0.8308E+02
     29.108  0.3041E+00  0.8313E+02
     29.266  0.5655E+00  0.8322E+02
     29.423  0.2398E+00  0.8326E+02
     29.581  0.1057E+00  0.8328E+02
     29.738  0.2265E+00  0.8331E+02
     29.896  0.3820E+00  0.8337E+02
     30.053  0.4336E+00  0.8344E+02
     30.211  0.6283E+00  0.8354E+02
     30.369  0.5324E+00  0.8362E+02
     30.526  0.3686E+00  0.8368E+02
     30.684  0.5359E+00  0.8377E+02
     30.841  0.3903E+00  0.8383E+02
     30.999  0.2045E+00  0.8386E+02
     31.156  0.9346E-01  0.8387E+02
     31.314  0.1136E+00  0.8389E+02
     31.472  0.1187E+00  0.8391E+02
     31.629  0.8185E-01  0.8392E+02
     31.787  0.1507E+00  0.8395E+02
     31.944  0.9419E-01  0.8396E+02
     32.102  0.3596E-01  0.8397E+02
     32.259  0.7984E-01  0.8398E+02
     32.417  0.1255E+00  0.8400E+02
     32.575  0.1800E-03  0.8400E+02
     32.732  0.0000E+00  0.8400E+02
     32.890  0.0000E+00  0.8400E+02
     33.047  0.0000E+00  0.8400E+02
     33.205  0.0000E+00  0.8400E+02
     33.362  0.0000E+00  0.8400E+02
     33.520  0.0000E+00  0.8400E+02
     33.678  0.0000E+00  0.8400E+02
     33.835  0.0000E+00  0.8400E+02
     33.993  0.0000E+00  0.8400E+02
     34.150  0.0000E+00  0.8400E+02
     34.308  0.0000E+00  0.8400E+02
     34.465  0.0000E+00  0.8400E+02
