       N       E                     dE             d eps       ncg     rms          rms(c)
DAV:   1     0.302197467740E+02    0.30220E+02   -0.26009E+03   840   0.333E+02
DAV:   2    -0.158417323908E+01   -0.31804E+02   -0.29650E+02  1204   0.497E+01
DAV:   3    -0.215458252308E+01   -0.57041E+00   -0.57006E+00  1428   0.101E+01
DAV:   4    -0.215503844635E+01   -0.45592E-03   -0.45592E-03  1288   0.225E-01
DAV:   5    -0.215503863955E+01   -0.19320E-06   -0.19299E-06  1316   0.519E-03
DAV:   6    -0.215503863951E+01    0.43201E-10   -0.66767E-10  1288   0.131E-04
   1 F= -.21550386E+01 E0= -.21548508E+01  d E =-.375640E-03  mag=     0.0000    -0.0000     0.0000
