 running   42 mpi-ranks, on    1 nodes
 distrk:  each k-point on   42 cores,    1 groups
 distr:  one band on    1 cores,   42 groups
 vasp.6.5.0 16Dec24 (build Jan 08 2025 16:17:04) complex                        
  
 POSCAR found type information on POSCAR Be
 POSCAR found :  1 types and       2 ions
 Reading from existing POTCAR
 scaLAPACK will be used
 -----------------------------------------------------------------------------
|                                                                             |
|           W    W    AA    RRRRR   N    N  II  N    N   GGGG   !!!           |
|           W    W   A  A   R    R  NN   N  II  NN   N  G    G  !!!           |
|           W    W  A    A  R    R  N N  N  II  N N  N  G       !!!           |
|           W WW W  AAAAAA  RRRRR   N  N N  II  N  N N  G  GGG   !            |
|           WW  WW  A    A  R   R   N   NN  II  N   NN  G    G                |
|           W    W  A    A  R    R  N    N  II  N    N   GGGG   !!!           |
|                                                                             |
|     For optimal performance we recommend to set                             |
|       NCORE = 2 up to number-of-cores-per-socket                            |
|     NCORE specifies how many cores store one orbital (NPAR=cpu/NCORE).      |
|     This setting can greatly improve the performance of VASP for DFT.       |
|     The default, NCORE=1 might be grossly inefficient on modern             |
|     multi-core architectures or massively parallel machines. Do your        |
|     own testing! More info at https://www.vasp.at/wiki/index.php/NCORE      |
|     Unfortunately you need to use the default for GW and RPA                |
|     calculations (for HF NCORE is supported but not extensively tested      |
|     yet).                                                                   |
|                                                                             |
 -----------------------------------------------------------------------------

 Reading from existing POTCAR
 LDA part: xc-table for (Slater+PW92), standard interpolation
 POSCAR, INCAR and KPOINTS ok, starting setup
 FFT: planning ... GRIDC
 FFT: planning ... GRID_SOFT
 FFT: planning ... GRID
 WAVECAR not read
 entering main loop
       N       E                     dE             d eps       ncg     rms          ort
DAV:   1     0.395911222634E+01    0.39591E+01   -0.15421E+03  4788   0.804E+01
DAV:   2    -0.326547520339E+01   -0.72246E+01   -0.68516E+01  4788   0.653E+00
DAV:   3    -0.332768725236E+01   -0.62212E-01   -0.62039E-01  4788   0.842E-01
DAV:   4    -0.332794524799E+01   -0.25800E-03   -0.25799E-03  4788   0.579E-02
DAV:   5    -0.332794527426E+01   -0.26268E-07   -0.25908E-07  4788   0.482E-04
 gam= 0.000 g(H,U,f)=  0.491E-01 0.403E-01 0.324E-01 ort(H,U,f) = 0.000E+00 0.000E+00 0.000E+00
SDA:   6    -0.304962478149E+01    0.27832E+00   -0.25908E-07  4788   0.122E+00 0.000E+00
 gam= 0.000 trial= 0.400  step= 4.391 mean= 0.400
 gam= 0.000 trial= 2.600  step= 2.600 mean= 0.631
 gam= 0.000 g(H,U,f)=  0.580E+00 0.314E-01 0.497E-01 ort(H,U,f) =-0.153E+00-0.435E-01-0.654E-01
CGA:   7    -0.293116160261E+01    0.11846E+00   -0.68895E-01  4788   0.661E+00-0.262E+00
 gam= 0.000 trial= 0.730  step= 0.602 mean= 0.730
 gam= 0.070 g(H,U,f)=  0.339E-01 0.509E-02 0.721E-02 ort(H,U,f) =-0.318E-01 0.118E-01 0.174E-01
CGA:   8    -0.313014778357E+01   -0.19899E+00   -0.19897E+00  4788   0.462E-01-0.256E-02
 gam= 0.070 trial= 0.723  step= 0.719 mean= 0.723
 gam= 0.138 g(H,U,f)=  0.408E-02 0.107E-02 0.122E-02 ort(H,U,f) =-0.521E-02 0.255E-02 0.312E-02
CGA:   9    -0.314667580160E+01   -0.16528E-01   -0.16530E-01  4788   0.637E-02 0.461E-03
 gam= 0.138 trial= 0.723  step= 0.889 mean= 0.723
 gam= 0.191 g(H,U,f)=  0.898E-03 0.175E-03 0.140E-03 ort(H,U,f) =-0.105E-02 0.503E-03 0.573E-03
CGA:  10    -0.314953791894E+01   -0.28621E-02   -0.28586E-02  4788   0.121E-02 0.270E-04
 gam= 0.191 trial= 0.731  step= 0.925 mean= 0.731
 gam= 0.168 g(H,U,f)=  0.166E-03 0.361E-04 0.196E-05 ort(H,U,f) =-0.116E-03 0.823E-04 0.300E-04
CGA:  11    -0.315010072325E+01   -0.56280E-03   -0.56332E-03  4788   0.204E-03-0.321E-05
 gam= 0.168 trial= 0.741  step= 0.905 mean= 0.741
 gam= 0.157 g(H,U,f)=  0.206E-04 0.109E-04 0.528E-06 ort(H,U,f) =-0.167E-04 0.226E-04-0.359E-05
CGA:  12    -0.315019299071E+01   -0.92267E-04   -0.92070E-04  4788   0.321E-04 0.236E-05
 gam= 0.157 trial= 0.749  step= 1.011 mean= 0.749
 gam= 0.212 g(H,U,f)=  0.445E-05 0.209E-05 0.274E-06 ort(H,U,f) =-0.535E-05 0.613E-05-0.332E-07
CGA:  13    -0.315020948966E+01   -0.16499E-04   -0.16402E-04  4788   0.681E-05 0.748E-06
 gam= 0.212 trial= 0.762  step= 1.085 mean= 0.762
 gam= 0.180 g(H,U,f)=  0.110E-05 0.113E-06 0.150E-07 ort(H,U,f) =-0.824E-06 0.781E-06 0.624E-07
CGA:  14    -0.315021327247E+01   -0.37828E-05   -0.37795E-05  4788   0.123E-05 0.194E-07
 gam= 0.180 trial= 0.778  step= 0.888 mean= 0.778
 gam= 0.106 g(H,U,f)=  0.127E-06 0.249E-08 0.163E-10 ort(H,U,f) = 0.446E-07 0.345E-07 0.731E-09
CGA:  15    -0.315021382251E+01   -0.55003E-06   -0.54616E-06  4788   0.130E-06 0.798E-07
 gam= 0.106 trial= 0.784  step= 0.685 mean= 0.784
 final diagonalization
   1 F= -.31502138E+01 E0= -.31493268E+01  d E =-.177396E-02
